p cnf 8007 16397
-201 -1 0
-201 2 100 101 0
-2 1 201 0
-100 1 201 0
-101 1 201 0
-202 -2 0
-202 1 3 102 0
-1 2 202 0
-3 2 202 0
-102 2 202 0
-203 -3 0
-203 2 4 103 0
-2 3 203 0
-4 3 203 0
-103 3 203 0
-204 -4 0
-204 3 5 104 0
-3 4 204 0
-5 4 204 0
-104 4 204 0
-205 -5 0
-205 4 6 105 0
-4 5 205 0
-6 5 205 0
-105 5 205 0
-206 -6 0
-206 5 7 106 0
-5 6 206 0
-7 6 206 0
-106 6 206 0
-207 -7 0
-207 6 8 107 0
-6 7 207 0
-8 7 207 0
-107 7 207 0
-208 -8 0
-208 7 9 108 0
-7 8 208 0
-9 8 208 0
-108 8 208 0
-209 -9 0
-209 8 10 109 0
-8 9 209 0
-10 9 209 0
-109 9 209 0
-210 -10 0
-210 9 11 110 0
-9 10 210 0
-11 10 210 0
-110 10 210 0
-211 -11 0
-211 10 12 111 0
-10 11 211 0
-12 11 211 0
-111 11 211 0
-212 -12 0
-212 11 13 112 0
-11 12 212 0
-13 12 212 0
-112 12 212 0
-213 -13 0
-213 12 14 113 0
-12 13 213 0
-14 13 213 0
-113 13 213 0
-214 -14 0
-214 13 15 114 0
-13 14 214 0
-15 14 214 0
-114 14 214 0
-215 -15 0
-215 14 16 115 0
-14 15 215 0
-16 15 215 0
-115 15 215 0
-216 -16 0
-216 15 17 116 0
-15 16 216 0
-17 16 216 0
-116 16 216 0
-217 -17 0
-217 16 18 117 0
-16 17 217 0
-18 17 217 0
-117 17 217 0
-218 -18 0
-218 17 19 118 0
-17 18 218 0
-19 18 218 0
-118 18 218 0
-219 -19 0
-219 18 20 119 0
-18 19 219 0
-20 19 219 0
-119 19 219 0
-220 -20 0
-220 19 21 120 0
-19 20 220 0
-21 20 220 0
-120 20 220 0
-221 -21 0
-221 20 22 121 0
-20 21 221 0
-22 21 221 0
-121 21 221 0
-222 -22 0
-222 21 23 122 0
-21 22 222 0
-23 22 222 0
-122 22 222 0
-223 -23 0
-223 22 24 123 0
-22 23 223 0
-24 23 223 0
-123 23 223 0
-224 -24 0
-224 23 25 124 0
-23 24 224 0
-25 24 224 0
-124 24 224 0
-225 -25 0
-225 24 26 125 0
-24 25 225 0
-26 25 225 0
-125 25 225 0
-226 -26 0
-226 25 27 126 0
-25 26 226 0
-27 26 226 0
-126 26 226 0
-227 -27 0
-227 26 28 127 0
-26 27 227 0
-28 27 227 0
-127 27 227 0
-228 -28 0
-228 27 29 128 0
-27 28 228 0
-29 28 228 0
-128 28 228 0
-229 -29 0
-229 28 30 129 0
-28 29 229 0
-30 29 229 0
-129 29 229 0
-230 -30 0
-230 29 31 130 0
-29 30 230 0
-31 30 230 0
-130 30 230 0
-231 -31 0
-231 30 32 131 0
-30 31 231 0
-32 31 231 0
-131 31 231 0
-232 -32 0
-232 31 33 132 0
-31 32 232 0
-33 32 232 0
-132 32 232 0
-233 -33 0
-233 32 34 133 0
-32 33 233 0
-34 33 233 0
-133 33 233 0
-234 -34 0
-234 33 35 134 0
-33 34 234 0
-35 34 234 0
-134 34 234 0
-235 -35 0
-235 34 36 135 0
-34 35 235 0
-36 35 235 0
-135 35 235 0
-236 -36 0
-236 35 37 136 0
-35 36 236 0
-37 36 236 0
-136 36 236 0
-237 -37 0
-237 36 38 137 0
-36 37 237 0
-38 37 237 0
-137 37 237 0
-238 -38 0
-238 37 39 138 0
-37 38 238 0
-39 38 238 0
-138 38 238 0
-239 -39 0
-239 38 40 139 0
-38 39 239 0
-40 39 239 0
-139 39 239 0
-240 -40 0
-240 39 41 140 0
-39 40 240 0
-41 40 240 0
-140 40 240 0
-241 -41 0
-241 40 42 141 0
-40 41 241 0
-42 41 241 0
-141 41 241 0
-242 -42 0
-242 41 43 142 0
-41 42 242 0
-43 42 242 0
-142 42 242 0
-243 -43 0
-243 42 44 143 0
-42 43 243 0
-44 43 243 0
-143 43 243 0
-244 -44 0
-244 43 45 144 0
-43 44 244 0
-45 44 244 0
-144 44 244 0
-245 -45 0
-245 44 46 145 0
-44 45 245 0
-46 45 245 0
-145 45 245 0
-246 -46 0
-246 45 47 146 0
-45 46 246 0
-47 46 246 0
-146 46 246 0
-247 -47 0
-247 46 48 147 0
-46 47 247 0
-48 47 247 0
-147 47 247 0
-248 -48 0
-248 47 49 148 0
-47 48 248 0
-49 48 248 0
-148 48 248 0
-249 -49 0
-249 48 50 149 0
-48 49 249 0
-50 49 249 0
-149 49 249 0
-250 -50 0
-250 49 51 150 0
-49 50 250 0
-51 50 250 0
-150 50 250 0
-251 -51 0
-251 50 52 151 0
-50 51 251 0
-52 51 251 0
-151 51 251 0
-252 -52 0
-252 51 53 152 0
-51 52 252 0
-53 52 252 0
-152 52 252 0
-253 -53 0
-253 52 54 153 0
-52 53 253 0
-54 53 253 0
-153 53 253 0
-254 -54 0
-254 53 55 154 0
-53 54 254 0
-55 54 254 0
-154 54 254 0
-255 -55 0
-255 54 56 155 0
-54 55 255 0
-56 55 255 0
-155 55 255 0
-256 -56 0
-256 55 57 156 0
-55 56 256 0
-57 56 256 0
-156 56 256 0
-257 -57 0
-257 56 58 157 0
-56 57 257 0
-58 57 257 0
-157 57 257 0
-258 -58 0
-258 57 59 158 0
-57 58 258 0
-59 58 258 0
-158 58 258 0
-259 -59 0
-259 58 60 159 0
-58 59 259 0
-60 59 259 0
-159 59 259 0
-260 -60 0
-260 59 61 160 0
-59 60 260 0
-61 60 260 0
-160 60 260 0
-261 -61 0
-261 60 62 161 0
-60 61 261 0
-62 61 261 0
-161 61 261 0
-262 -62 0
-262 61 63 162 0
-61 62 262 0
-63 62 262 0
-162 62 262 0
-263 -63 0
-263 62 64 163 0
-62 63 263 0
-64 63 263 0
-163 63 263 0
-264 -64 0
-264 63 65 164 0
-63 64 264 0
-65 64 264 0
-164 64 264 0
-265 -65 0
-265 64 66 165 0
-64 65 265 0
-66 65 265 0
-165 65 265 0
-266 -66 0
-266 65 67 166 0
-65 66 266 0
-67 66 266 0
-166 66 266 0
-267 -67 0
-267 66 68 167 0
-66 67 267 0
-68 67 267 0
-167 67 267 0
-268 -68 0
-268 67 69 168 0
-67 68 268 0
-69 68 268 0
-168 68 268 0
-269 -69 0
-269 68 70 169 0
-68 69 269 0
-70 69 269 0
-169 69 269 0
-270 -70 0
-270 69 71 170 0
-69 70 270 0
-71 70 270 0
-170 70 270 0
-271 -71 0
-271 70 72 171 0
-70 71 271 0
-72 71 271 0
-171 71 271 0
-272 -72 0
-272 71 73 172 0
-71 72 272 0
-73 72 272 0
-172 72 272 0
-273 -73 0
-273 72 74 173 0
-72 73 273 0
-74 73 273 0
-173 73 273 0
-274 -74 0
-274 73 75 174 0
-73 74 274 0
-75 74 274 0
-174 74 274 0
-275 -75 0
-275 74 76 175 0
-74 75 275 0
-76 75 275 0
-175 75 275 0
-276 -76 0
-276 75 77 176 0
-75 76 276 0
-77 76 276 0
-176 76 276 0
-277 -77 0
-277 76 78 177 0
-76 77 277 0
-78 77 277 0
-177 77 277 0
-278 -78 0
-278 77 79 178 0
-77 78 278 0
-79 78 278 0
-178 78 278 0
-279 -79 0
-279 78 80 179 0
-78 79 279 0
-80 79 279 0
-179 79 279 0
-280 -80 0
-280 79 81 180 0
-79 80 280 0
-81 80 280 0
-180 80 280 0
-281 -81 0
-281 80 82 181 0
-80 81 281 0
-82 81 281 0
-181 81 281 0
-282 -82 0
-282 81 83 182 0
-81 82 282 0
-83 82 282 0
-182 82 282 0
-283 -83 0
-283 82 84 183 0
-82 83 283 0
-84 83 283 0
-183 83 283 0
-284 -84 0
-284 83 85 184 0
-83 84 284 0
-85 84 284 0
-184 84 284 0
-285 -85 0
-285 84 86 185 0
-84 85 285 0
-86 85 285 0
-185 85 285 0
-286 -86 0
-286 85 87 186 0
-85 86 286 0
-87 86 286 0
-186 86 286 0
-287 -87 0
-287 86 88 187 0
-86 87 287 0
-88 87 287 0
-187 87 287 0
-288 -88 0
-288 87 89 188 0
-87 88 288 0
-89 88 288 0
-188 88 288 0
-289 -89 0
-289 88 90 189 0
-88 89 289 0
-90 89 289 0
-189 89 289 0
-290 -90 0
-290 89 91 190 0
-89 90 290 0
-91 90 290 0
-190 90 290 0
-291 -91 0
-291 90 92 191 0
-90 91 291 0
-92 91 291 0
-191 91 291 0
-292 -92 0
-292 91 93 192 0
-91 92 292 0
-93 92 292 0
-192 92 292 0
-293 -93 0
-293 92 94 193 0
-92 93 293 0
-94 93 293 0
-193 93 293 0
-294 -94 0
-294 93 95 194 0
-93 94 294 0
-95 94 294 0
-194 94 294 0
-295 -95 0
-295 94 96 195 0
-94 95 295 0
-96 95 295 0
-195 95 295 0
-296 -96 0
-296 95 97 196 0
-95 96 296 0
-97 96 296 0
-196 96 296 0
-297 -97 0
-297 96 98 197 0
-96 97 297 0
-98 97 297 0
-197 97 297 0
-298 -98 0
-298 97 99 198 0
-97 98 298 0
-99 98 298 0
-198 98 298 0
-299 -99 0
-299 98 100 199 0
-98 99 299 0
-100 99 299 0
-199 99 299 0
-300 -100 0
-300 1 99 200 0
-1 100 300 0
-99 100 300 0
-200 100 300 0
-301 -101 0
-301 1 105 197 0
-1 101 301 0
-105 101 301 0
-197 101 301 0
-302 -102 0
-302 2 106 198 0
-2 102 302 0
-106 102 302 0
-198 102 302 0
-303 -103 0
-303 3 107 199 0
-3 103 303 0
-107 103 303 0
-199 103 303 0
-304 -104 0
-304 4 108 200 0
-4 104 304 0
-108 104 304 0
-200 104 304 0
-305 -105 0
-305 5 101 109 0
-5 105 305 0
-101 105 305 0
-109 105 305 0
-306 -106 0
-306 6 102 110 0
-6 106 306 0
-102 106 306 0
-110 106 306 0
-307 -107 0
-307 7 103 111 0
-7 107 307 0
-103 107 307 0
-111 107 307 0
-308 -108 0
-308 8 104 112 0
-8 108 308 0
-104 108 308 0
-112 108 308 0
-309 -109 0
-309 9 105 113 0
-9 109 309 0
-105 109 309 0
-113 109 309 0
-310 -110 0
-310 10 106 114 0
-10 110 310 0
-106 110 310 0
-114 110 310 0
-311 -111 0
-311 11 107 115 0
-11 111 311 0
-107 111 311 0
-115 111 311 0
-312 -112 0
-312 12 108 116 0
-12 112 312 0
-108 112 312 0
-116 112 312 0
-313 -113 0
-313 13 109 117 0
-13 113 313 0
-109 113 313 0
-117 113 313 0
-314 -114 0
-314 14 110 118 0
-14 114 314 0
-110 114 314 0
-118 114 314 0
-315 -115 0
-315 15 111 119 0
-15 115 315 0
-111 115 315 0
-119 115 315 0
-316 -116 0
-316 16 112 120 0
-16 116 316 0
-112 116 316 0
-120 116 316 0
-317 -117 0
-317 17 113 121 0
-17 117 317 0
-113 117 317 0
-121 117 317 0
-318 -118 0
-318 18 114 122 0
-18 118 318 0
-114 118 318 0
-122 118 318 0
-319 -119 0
-319 19 115 123 0
-19 119 319 0
-115 119 319 0
-123 119 319 0
-320 -120 0
-320 20 116 124 0
-20 120 320 0
-116 120 320 0
-124 120 320 0
-321 -121 0
-321 21 117 125 0
-21 121 321 0
-117 121 321 0
-125 121 321 0
-322 -122 0
-322 22 118 126 0
-22 122 322 0
-118 122 322 0
-126 122 322 0
-323 -123 0
-323 23 119 127 0
-23 123 323 0
-119 123 323 0
-127 123 323 0
-324 -124 0
-324 24 120 128 0
-24 124 324 0
-120 124 324 0
-128 124 324 0
-325 -125 0
-325 25 121 129 0
-25 125 325 0
-121 125 325 0
-129 125 325 0
-326 -126 0
-326 26 122 130 0
-26 126 326 0
-122 126 326 0
-130 126 326 0
-327 -127 0
-327 27 123 131 0
-27 127 327 0
-123 127 327 0
-131 127 327 0
-328 -128 0
-328 28 124 132 0
-28 128 328 0
-124 128 328 0
-132 128 328 0
-329 -129 0
-329 29 125 133 0
-29 129 329 0
-125 129 329 0
-133 129 329 0
-330 -130 0
-330 30 126 134 0
-30 130 330 0
-126 130 330 0
-134 130 330 0
-331 -131 0
-331 31 127 135 0
-31 131 331 0
-127 131 331 0
-135 131 331 0
-332 -132 0
-332 32 128 136 0
-32 132 332 0
-128 132 332 0
-136 132 332 0
-333 -133 0
-333 33 129 137 0
-33 133 333 0
-129 133 333 0
-137 133 333 0
-334 -134 0
-334 34 130 138 0
-34 134 334 0
-130 134 334 0
-138 134 334 0
-335 -135 0
-335 35 131 139 0
-35 135 335 0
-131 135 335 0
-139 135 335 0
-336 -136 0
-336 36 132 140 0
-36 136 336 0
-132 136 336 0
-140 136 336 0
-337 -137 0
-337 37 133 141 0
-37 137 337 0
-133 137 337 0
-141 137 337 0
-338 -138 0
-338 38 134 142 0
-38 138 338 0
-134 138 338 0
-142 138 338 0
-339 -139 0
-339 39 135 143 0
-39 139 339 0
-135 139 339 0
-143 139 339 0
-340 -140 0
-340 40 136 144 0
-40 140 340 0
-136 140 340 0
-144 140 340 0
-341 -141 0
-341 41 137 145 0
-41 141 341 0
-137 141 341 0
-145 141 341 0
-342 -142 0
-342 42 138 146 0
-42 142 342 0
-138 142 342 0
-146 142 342 0
-343 -143 0
-343 43 139 147 0
-43 143 343 0
-139 143 343 0
-147 143 343 0
-344 -144 0
-344 44 140 148 0
-44 144 344 0
-140 144 344 0
-148 144 344 0
-345 -145 0
-345 45 141 149 0
-45 145 345 0
-141 145 345 0
-149 145 345 0
-346 -146 0
-346 46 142 150 0
-46 146 346 0
-142 146 346 0
-150 146 346 0
-347 -147 0
-347 47 143 151 0
-47 147 347 0
-143 147 347 0
-151 147 347 0
-348 -148 0
-348 48 144 152 0
-48 148 348 0
-144 148 348 0
-152 148 348 0
-349 -149 0
-349 49 145 153 0
-49 149 349 0
-145 149 349 0
-153 149 349 0
-350 -150 0
-350 50 146 154 0
-50 150 350 0
-146 150 350 0
-154 150 350 0
-351 -151 0
-351 51 147 155 0
-51 151 351 0
-147 151 351 0
-155 151 351 0
-352 -152 0
-352 52 148 156 0
-52 152 352 0
-148 152 352 0
-156 152 352 0
-353 -153 0
-353 53 149 157 0
-53 153 353 0
-149 153 353 0
-157 153 353 0
-354 -154 0
-354 54 150 158 0
-54 154 354 0
-150 154 354 0
-158 154 354 0
-355 -155 0
-355 55 151 159 0
-55 155 355 0
-151 155 355 0
-159 155 355 0
-356 -156 0
-356 56 152 160 0
-56 156 356 0
-152 156 356 0
-160 156 356 0
-357 -157 0
-357 57 153 161 0
-57 157 357 0
-153 157 357 0
-161 157 357 0
-358 -158 0
-358 58 154 162 0
-58 158 358 0
-154 158 358 0
-162 158 358 0
-359 -159 0
-359 59 155 163 0
-59 159 359 0
-155 159 359 0
-163 159 359 0
-360 -160 0
-360 60 156 164 0
-60 160 360 0
-156 160 360 0
-164 160 360 0
-361 -161 0
-361 61 157 165 0
-61 161 361 0
-157 161 361 0
-165 161 361 0
-362 -162 0
-362 62 158 166 0
-62 162 362 0
-158 162 362 0
-166 162 362 0
-363 -163 0
-363 63 159 167 0
-63 163 363 0
-159 163 363 0
-167 163 363 0
-364 -164 0
-364 64 160 168 0
-64 164 364 0
-160 164 364 0
-168 164 364 0
-365 -165 0
-365 65 161 169 0
-65 165 365 0
-161 165 365 0
-169 165 365 0
-366 -166 0
-366 66 162 170 0
-66 166 366 0
-162 166 366 0
-170 166 366 0
-367 -167 0
-367 67 163 171 0
-67 167 367 0
-163 167 367 0
-171 167 367 0
-368 -168 0
-368 68 164 172 0
-68 168 368 0
-164 168 368 0
-172 168 368 0
-369 -169 0
-369 69 165 173 0
-69 169 369 0
-165 169 369 0
-173 169 369 0
-370 -170 0
-370 70 166 174 0
-70 170 370 0
-166 170 370 0
-174 170 370 0
-371 -171 0
-371 71 167 175 0
-71 171 371 0
-167 171 371 0
-175 171 371 0
-372 -172 0
-372 72 168 176 0
-72 172 372 0
-168 172 372 0
-176 172 372 0
-373 -173 0
-373 73 169 177 0
-73 173 373 0
-169 173 373 0
-177 173 373 0
-374 -174 0
-374 74 170 178 0
-74 174 374 0
-170 174 374 0
-178 174 374 0
-375 -175 0
-375 75 171 179 0
-75 175 375 0
-171 175 375 0
-179 175 375 0
-376 -176 0
-376 76 172 180 0
-76 176 376 0
-172 176 376 0
-180 176 376 0
-377 -177 0
-377 77 173 181 0
-77 177 377 0
-173 177 377 0
-181 177 377 0
-378 -178 0
-378 78 174 182 0
-78 178 378 0
-174 178 378 0
-182 178 378 0
-379 -179 0
-379 79 175 183 0
-79 179 379 0
-175 179 379 0
-183 179 379 0
-380 -180 0
-380 80 176 184 0
-80 180 380 0
-176 180 380 0
-184 180 380 0
-381 -181 0
-381 81 177 185 0
-81 181 381 0
-177 181 381 0
-185 181 381 0
-382 -182 0
-382 82 178 186 0
-82 182 382 0
-178 182 382 0
-186 182 382 0
-383 -183 0
-383 83 179 187 0
-83 183 383 0
-179 183 383 0
-187 183 383 0
-384 -184 0
-384 84 180 188 0
-84 184 384 0
-180 184 384 0
-188 184 384 0
-385 -185 0
-385 85 181 189 0
-85 185 385 0
-181 185 385 0
-189 185 385 0
-386 -186 0
-386 86 182 190 0
-86 186 386 0
-182 186 386 0
-190 186 386 0
-387 -187 0
-387 87 183 191 0
-87 187 387 0
-183 187 387 0
-191 187 387 0
-388 -188 0
-388 88 184 192 0
-88 188 388 0
-184 188 388 0
-192 188 388 0
-389 -189 0
-389 89 185 193 0
-89 189 389 0
-185 189 389 0
-193 189 389 0
-390 -190 0
-390 90 186 194 0
-90 190 390 0
-186 190 390 0
-194 190 390 0
-391 -191 0
-391 91 187 195 0
-91 191 391 0
-187 191 391 0
-195 191 391 0
-392 -192 0
-392 92 188 196 0
-92 192 392 0
-188 192 392 0
-196 192 392 0
-393 -193 0
-393 93 189 197 0
-93 193 393 0
-189 193 393 0
-197 193 393 0
-394 -194 0
-394 94 190 198 0
-94 194 394 0
-190 194 394 0
-198 194 394 0
-395 -195 0
-395 95 191 199 0
-95 195 395 0
-191 195 395 0
-199 195 395 0
-396 -196 0
-396 96 192 200 0
-96 196 396 0
-192 196 396 0
-200 196 396 0
-397 -197 0
-397 97 101 193 0
-97 197 397 0
-101 197 397 0
-193 197 397 0
-398 -198 0
-398 98 102 194 0
-98 198 398 0
-102 198 398 0
-194 198 398 0
-399 -199 0
-399 99 103 195 0
-99 199 399 0
-103 199 399 0
-195 199 399 0
-400 -200 0
-400 100 104 196 0
-100 200 400 0
-104 200 400 0
-196 200 400 0
1 401 0
-401 402 0
2 -401 403 0
-403 404 0
3 -403 405 0
-405 406 0
4 -405 407 0
-407 408 0
5 -407 409 0
-409 410 0
6 -409 411 0
-411 412 0
7 -411 413 0
-413 414 0
8 -413 415 0
-415 416 0
9 -415 417 0
-417 418 0
10 -417 419 0
-419 420 0
11 -419 421 0
-421 422 0
12 -421 423 0
-423 424 0
13 -423 425 0
-425 426 0
14 -425 427 0
-427 428 0
15 -427 429 0
-429 430 0
16 -429 431 0
-431 432 0
17 -431 433 0
-433 434 0
18 -433 435 0
-435 436 0
19 -435 437 0
-437 438 0
20 -437 439 0
-439 440 0
21 -439 441 0
-441 442 0
22 -441 443 0
-443 444 0
23 -443 445 0
-445 446 0
24 -445 447 0
-447 448 0
25 -447 449 0
-449 450 0
26 -449 451 0
-451 452 0
27 -451 453 0
-453 454 0
28 -453 455 0
-455 456 0
29 -455 457 0
-457 458 0
30 -457 459 0
-459 460 0
31 -459 461 0
-461 462 0
32 -461 463 0
-463 464 0
33 -463 465 0
-465 466 0
34 -465 467 0
-467 468 0
35 -467 469 0
-469 470 0
36 -469 471 0
-471 472 0
37 -471 473 0
-473 474 0
38 -473 475 0
-475 476 0
39 -475 477 0
-477 478 0
40 -477 479 0
-479 480 0
41 -479 481 0
-481 482 0
42 -481 483 0
-483 484 0
43 -483 485 0
-485 486 0
44 -485 487 0
-487 488 0
45 -487 489 0
-489 490 0
46 -489 491 0
-491 492 0
47 -491 493 0
-493 494 0
48 -493 495 0
-495 496 0
49 -495 497 0
-497 498 0
50 -497 499 0
-499 500 0
51 -499 501 0
-501 502 0
52 -501 503 0
-503 504 0
53 -503 505 0
-505 506 0
54 -505 507 0
-507 508 0
55 -507 509 0
-509 510 0
56 -509 511 0
-511 512 0
57 -511 513 0
-513 514 0
58 -513 515 0
-515 516 0
59 -515 517 0
-517 518 0
60 -517 519 0
-519 520 0
61 -519 521 0
-521 522 0
62 -521 523 0
-523 524 0
63 -523 525 0
-525 526 0
64 -525 527 0
-527 528 0
65 -527 529 0
-529 530 0
66 -529 531 0
-531 532 0
67 -531 533 0
-533 534 0
68 -533 535 0
-535 536 0
69 -535 537 0
-537 538 0
70 -537 539 0
-539 540 0
71 -539 541 0
-541 542 0
72 -541 543 0
-543 544 0
73 -543 545 0
-545 546 0
74 -545 547 0
-547 548 0
75 -547 549 0
-549 550 0
76 -549 551 0
-551 552 0
77 -551 553 0
-553 554 0
78 -553 555 0
-555 556 0
79 -555 557 0
-557 558 0
80 -557 559 0
-559 560 0
81 -559 561 0
-561 562 0
82 -561 563 0
-563 564 0
83 -563 565 0
-565 566 0
84 -565 567 0
-567 568 0
85 -567 569 0
-569 570 0
86 -569 571 0
-571 572 0
87 -571 573 0
-573 574 0
88 -573 575 0
-575 576 0
89 -575 577 0
-577 578 0
90 -577 579 0
-579 580 0
91 -579 581 0
-581 582 0
92 -581 583 0
-583 584 0
93 -583 585 0
-585 586 0
94 -585 587 0
-587 588 0
95 -587 589 0
-589 590 0
96 -589 591 0
-591 592 0
97 -591 593 0
-593 594 0
98 -593 595 0
-595 596 0
99 -595 597 0
-597 598 0
100 -597 599 0
-599 600 0
101 -599 601 0
-601 602 0
102 -601 603 0
-603 604 0
103 -603 605 0
-605 606 0
104 -605 607 0
-607 608 0
105 -607 609 0
-609 610 0
106 -609 611 0
-611 612 0
107 -611 613 0
-613 614 0
108 -613 615 0
-615 616 0
109 -615 617 0
-617 618 0
110 -617 619 0
-619 620 0
111 -619 621 0
-621 622 0
112 -621 623 0
-623 624 0
113 -623 625 0
-625 626 0
114 -625 627 0
-627 628 0
115 -627 629 0
-629 630 0
116 -629 631 0
-631 632 0
117 -631 633 0
-633 634 0
118 -633 635 0
-635 636 0
119 -635 637 0
-637 638 0
120 -637 639 0
-639 640 0
121 -639 641 0
-641 642 0
122 -641 643 0
-643 644 0
123 -643 645 0
-645 646 0
124 -645 647 0
-647 648 0
125 -647 649 0
-649 650 0
126 -649 651 0
-651 652 0
127 -651 653 0
-653 654 0
128 -653 655 0
-655 656 0
129 -655 657 0
-657 658 0
130 -657 659 0
-659 660 0
131 -659 661 0
-661 662 0
132 -661 663 0
-663 664 0
133 -663 665 0
-665 666 0
134 -665 667 0
-667 668 0
135 -667 669 0
-669 670 0
136 -669 671 0
-671 672 0
137 -671 673 0
-673 674 0
138 -673 675 0
-675 676 0
139 -675 677 0
-677 678 0
140 -677 679 0
-679 680 0
141 -679 681 0
-681 682 0
142 -681 683 0
-683 684 0
143 -683 685 0
-685 686 0
144 -685 687 0
-687 688 0
145 -687 689 0
-689 690 0
146 -689 691 0
-691 692 0
147 -691 693 0
-693 694 0
148 -693 695 0
-695 696 0
149 -695 697 0
-697 698 0
150 -697 699 0
-699 700 0
151 -699 701 0
-701 702 0
152 -701 703 0
-703 704 0
153 -703 705 0
-705 706 0
154 -705 707 0
-707 708 0
155 -707 709 0
-709 710 0
156 -709 711 0
-711 712 0
157 -711 713 0
-713 714 0
158 -713 715 0
-715 716 0
159 -715 717 0
-717 718 0
160 -717 719 0
-719 720 0
161 -719 721 0
-721 722 0
162 -721 723 0
-723 724 0
163 -723 725 0
-725 726 0
164 -725 727 0
-727 728 0
165 -727 729 0
-729 730 0
166 -729 731 0
-731 732 0
167 -731 733 0
-733 734 0
168 -733 735 0
-735 736 0
169 -735 737 0
-737 738 0
170 -737 739 0
-739 740 0
171 -739 741 0
-741 742 0
172 -741 743 0
-743 744 0
173 -743 745 0
-745 746 0
174 -745 747 0
-747 748 0
175 -747 749 0
-749 750 0
176 -749 751 0
-751 752 0
177 -751 753 0
-753 754 0
178 -753 755 0
-755 756 0
179 -755 757 0
-757 758 0
180 -757 759 0
-759 760 0
181 -759 761 0
-761 762 0
182 -761 763 0
-763 764 0
183 -763 765 0
-765 766 0
184 -765 767 0
-767 768 0
185 -767 0
2 402 0
-402 769 0
3 -402 404 0
-404 770 0
4 -404 406 0
-406 771 0
5 -406 408 0
-408 772 0
6 -408 410 0
-410 773 0
7 -410 412 0
-412 774 0
8 -412 414 0
-414 775 0
9 -414 416 0
-416 776 0
10 -416 418 0
-418 777 0
11 -418 420 0
-420 778 0
12 -420 422 0
-422 779 0
13 -422 424 0
-424 780 0
14 -424 426 0
-426 781 0
15 -426 428 0
-428 782 0
16 -428 430 0
-430 783 0
17 -430 432 0
-432 784 0
18 -432 434 0
-434 785 0
19 -434 436 0
-436 786 0
20 -436 438 0
-438 787 0
21 -438 440 0
-440 788 0
22 -440 442 0
-442 789 0
23 -442 444 0
-444 790 0
24 -444 446 0
-446 791 0
25 -446 448 0
-448 792 0
26 -448 450 0
-450 793 0
27 -450 452 0
-452 794 0
28 -452 454 0
-454 795 0
29 -454 456 0
-456 796 0
30 -456 458 0
-458 797 0
31 -458 460 0
-460 798 0
32 -460 462 0
-462 799 0
33 -462 464 0
-464 800 0
34 -464 466 0
-466 801 0
35 -466 468 0
-468 802 0
36 -468 470 0
-470 803 0
37 -470 472 0
-472 804 0
38 -472 474 0
-474 805 0
39 -474 476 0
-476 806 0
40 -476 478 0
-478 807 0
41 -478 480 0
-480 808 0
42 -480 482 0
-482 809 0
43 -482 484 0
-484 810 0
44 -484 486 0
-486 811 0
45 -486 488 0
-488 812 0
46 -488 490 0
-490 813 0
47 -490 492 0
-492 814 0
48 -492 494 0
-494 815 0
49 -494 496 0
-496 816 0
50 -496 498 0
-498 817 0
51 -498 500 0
-500 818 0
52 -500 502 0
-502 819 0
53 -502 504 0
-504 820 0
54 -504 506 0
-506 821 0
55 -506 508 0
-508 822 0
56 -508 510 0
-510 823 0
57 -510 512 0
-512 824 0
58 -512 514 0
-514 825 0
59 -514 516 0
-516 826 0
60 -516 518 0
-518 827 0
61 -518 520 0
-520 828 0
62 -520 522 0
-522 829 0
63 -522 524 0
-524 830 0
64 -524 526 0
-526 831 0
65 -526 528 0
-528 832 0
66 -528 530 0
-530 833 0
67 -530 532 0
-532 834 0
68 -532 534 0
-534 835 0
69 -534 536 0
-536 836 0
70 -536 538 0
-538 837 0
71 -538 540 0
-540 838 0
72 -540 542 0
-542 839 0
73 -542 544 0
-544 840 0
74 -544 546 0
-546 841 0
75 -546 548 0
-548 842 0
76 -548 550 0
-550 843 0
77 -550 552 0
-552 844 0
78 -552 554 0
-554 845 0
79 -554 556 0
-556 846 0
80 -556 558 0
-558 847 0
81 -558 560 0
-560 848 0
82 -560 562 0
-562 849 0
83 -562 564 0
-564 850 0
84 -564 566 0
-566 851 0
85 -566 568 0
-568 852 0
86 -568 570 0
-570 853 0
87 -570 572 0
-572 854 0
88 -572 574 0
-574 855 0
89 -574 576 0
-576 856 0
90 -576 578 0
-578 857 0
91 -578 580 0
-580 858 0
92 -580 582 0
-582 859 0
93 -582 584 0
-584 860 0
94 -584 586 0
-586 861 0
95 -586 588 0
-588 862 0
96 -588 590 0
-590 863 0
97 -590 592 0
-592 864 0
98 -592 594 0
-594 865 0
99 -594 596 0
-596 866 0
100 -596 598 0
-598 867 0
101 -598 600 0
-600 868 0
102 -600 602 0
-602 869 0
103 -602 604 0
-604 870 0
104 -604 606 0
-606 871 0
105 -606 608 0
-608 872 0
106 -608 610 0
-610 873 0
107 -610 612 0
-612 874 0
108 -612 614 0
-614 875 0
109 -614 616 0
-616 876 0
110 -616 618 0
-618 877 0
111 -618 620 0
-620 878 0
112 -620 622 0
-622 879 0
113 -622 624 0
-624 880 0
114 -624 626 0
-626 881 0
115 -626 628 0
-628 882 0
116 -628 630 0
-630 883 0
117 -630 632 0
-632 884 0
118 -632 634 0
-634 885 0
119 -634 636 0
-636 886 0
120 -636 638 0
-638 887 0
121 -638 640 0
-640 888 0
122 -640 642 0
-642 889 0
123 -642 644 0
-644 890 0
124 -644 646 0
-646 891 0
125 -646 648 0
-648 892 0
126 -648 650 0
-650 893 0
127 -650 652 0
-652 894 0
128 -652 654 0
-654 895 0
129 -654 656 0
-656 896 0
130 -656 658 0
-658 897 0
131 -658 660 0
-660 898 0
132 -660 662 0
-662 899 0
133 -662 664 0
-664 900 0
134 -664 666 0
-666 901 0
135 -666 668 0
-668 902 0
136 -668 670 0
-670 903 0
137 -670 672 0
-672 904 0
138 -672 674 0
-674 905 0
139 -674 676 0
-676 906 0
140 -676 678 0
-678 907 0
141 -678 680 0
-680 908 0
142 -680 682 0
-682 909 0
143 -682 684 0
-684 910 0
144 -684 686 0
-686 911 0
145 -686 688 0
-688 912 0
146 -688 690 0
-690 913 0
147 -690 692 0
-692 914 0
148 -692 694 0
-694 915 0
149 -694 696 0
-696 916 0
150 -696 698 0
-698 917 0
151 -698 700 0
-700 918 0
152 -700 702 0
-702 919 0
153 -702 704 0
-704 920 0
154 -704 706 0
-706 921 0
155 -706 708 0
-708 922 0
156 -708 710 0
-710 923 0
157 -710 712 0
-712 924 0
158 -712 714 0
-714 925 0
159 -714 716 0
-716 926 0
160 -716 718 0
-718 927 0
161 -718 720 0
-720 928 0
162 -720 722 0
-722 929 0
163 -722 724 0
-724 930 0
164 -724 726 0
-726 931 0
165 -726 728 0
-728 932 0
166 -728 730 0
-730 933 0
167 -730 732 0
-732 934 0
168 -732 734 0
-734 935 0
169 -734 736 0
-736 936 0
170 -736 738 0
-738 937 0
171 -738 740 0
-740 938 0
172 -740 742 0
-742 939 0
173 -742 744 0
-744 940 0
174 -744 746 0
-746 941 0
175 -746 748 0
-748 942 0
176 -748 750 0
-750 943 0
177 -750 752 0
-752 944 0
178 -752 754 0
-754 945 0
179 -754 756 0
-756 946 0
180 -756 758 0
-758 947 0
181 -758 760 0
-760 948 0
182 -760 762 0
-762 949 0
183 -762 764 0
-764 950 0
184 -764 766 0
-766 951 0
185 -766 768 0
-768 952 0
186 -768 0
3 769 0
-769 953 0
4 -769 770 0
-770 954 0
5 -770 771 0
-771 955 0
6 -771 772 0
-772 956 0
7 -772 773 0
-773 957 0
8 -773 774 0
-774 958 0
9 -774 775 0
-775 959 0
10 -775 776 0
-776 960 0
11 -776 777 0
-777 961 0
12 -777 778 0
-778 962 0
13 -778 779 0
-779 963 0
14 -779 780 0
-780 964 0
15 -780 781 0
-781 965 0
16 -781 782 0
-782 966 0
17 -782 783 0
-783 967 0
18 -783 784 0
-784 968 0
19 -784 785 0
-785 969 0
20 -785 786 0
-786 970 0
21 -786 787 0
-787 971 0
22 -787 788 0
-788 972 0
23 -788 789 0
-789 973 0
24 -789 790 0
-790 974 0
25 -790 791 0
-791 975 0
26 -791 792 0
-792 976 0
27 -792 793 0
-793 977 0
28 -793 794 0
-794 978 0
29 -794 795 0
-795 979 0
30 -795 796 0
-796 980 0
31 -796 797 0
-797 981 0
32 -797 798 0
-798 982 0
33 -798 799 0
-799 983 0
34 -799 800 0
-800 984 0
35 -800 801 0
-801 985 0
36 -801 802 0
-802 986 0
37 -802 803 0
-803 987 0
38 -803 804 0
-804 988 0
39 -804 805 0
-805 989 0
40 -805 806 0
-806 990 0
41 -806 807 0
-807 991 0
42 -807 808 0
-808 992 0
43 -808 809 0
-809 993 0
44 -809 810 0
-810 994 0
45 -810 811 0
-811 995 0
46 -811 812 0
-812 996 0
47 -812 813 0
-813 997 0
48 -813 814 0
-814 998 0
49 -814 815 0
-815 999 0
50 -815 816 0
-816 1000 0
51 -816 817 0
-817 1001 0
52 -817 818 0
-818 1002 0
53 -818 819 0
-819 1003 0
54 -819 820 0
-820 1004 0
55 -820 821 0
-821 1005 0
56 -821 822 0
-822 1006 0
57 -822 823 0
-823 1007 0
58 -823 824 0
-824 1008 0
59 -824 825 0
-825 1009 0
60 -825 826 0
-826 1010 0
61 -826 827 0
-827 1011 0
62 -827 828 0
-828 1012 0
63 -828 829 0
-829 1013 0
64 -829 830 0
-830 1014 0
65 -830 831 0
-831 1015 0
66 -831 832 0
-832 1016 0
67 -832 833 0
-833 1017 0
68 -833 834 0
-834 1018 0
69 -834 835 0
-835 1019 0
70 -835 836 0
-836 1020 0
71 -836 837 0
-837 1021 0
72 -837 838 0
-838 1022 0
73 -838 839 0
-839 1023 0
74 -839 840 0
-840 1024 0
75 -840 841 0
-841 1025 0
76 -841 842 0
-842 1026 0
77 -842 843 0
-843 1027 0
78 -843 844 0
-844 1028 0
79 -844 845 0
-845 1029 0
80 -845 846 0
-846 1030 0
81 -846 847 0
-847 1031 0
82 -847 848 0
-848 1032 0
83 -848 849 0
-849 1033 0
84 -849 850 0
-850 1034 0
85 -850 851 0
-851 1035 0
86 -851 852 0
-852 1036 0
87 -852 853 0
-853 1037 0
88 -853 854 0
-854 1038 0
89 -854 855 0
-855 1039 0
90 -855 856 0
-856 1040 0
91 -856 857 0
-857 1041 0
92 -857 858 0
-858 1042 0
93 -858 859 0
-859 1043 0
94 -859 860 0
-860 1044 0
95 -860 861 0
-861 1045 0
96 -861 862 0
-862 1046 0
97 -862 863 0
-863 1047 0
98 -863 864 0
-864 1048 0
99 -864 865 0
-865 1049 0
100 -865 866 0
-866 1050 0
101 -866 867 0
-867 1051 0
102 -867 868 0
-868 1052 0
103 -868 869 0
-869 1053 0
104 -869 870 0
-870 1054 0
105 -870 871 0
-871 1055 0
106 -871 872 0
-872 1056 0
107 -872 873 0
-873 1057 0
108 -873 874 0
-874 1058 0
109 -874 875 0
-875 1059 0
110 -875 876 0
-876 1060 0
111 -876 877 0
-877 1061 0
112 -877 878 0
-878 1062 0
113 -878 879 0
-879 1063 0
114 -879 880 0
-880 1064 0
115 -880 881 0
-881 1065 0
116 -881 882 0
-882 1066 0
117 -882 883 0
-883 1067 0
118 -883 884 0
-884 1068 0
119 -884 885 0
-885 1069 0
120 -885 886 0
-886 1070 0
121 -886 887 0
-887 1071 0
122 -887 888 0
-888 1072 0
123 -888 889 0
-889 1073 0
124 -889 890 0
-890 1074 0
125 -890 891 0
-891 1075 0
126 -891 892 0
-892 1076 0
127 -892 893 0
-893 1077 0
128 -893 894 0
-894 1078 0
129 -894 895 0
-895 1079 0
130 -895 896 0
-896 1080 0
131 -896 897 0
-897 1081 0
132 -897 898 0
-898 1082 0
133 -898 899 0
-899 1083 0
134 -899 900 0
-900 1084 0
135 -900 901 0
-901 1085 0
136 -901 902 0
-902 1086 0
137 -902 903 0
-903 1087 0
138 -903 904 0
-904 1088 0
139 -904 905 0
-905 1089 0
140 -905 906 0
-906 1090 0
141 -906 907 0
-907 1091 0
142 -907 908 0
-908 1092 0
143 -908 909 0
-909 1093 0
144 -909 910 0
-910 1094 0
145 -910 911 0
-911 1095 0
146 -911 912 0
-912 1096 0
147 -912 913 0
-913 1097 0
148 -913 914 0
-914 1098 0
149 -914 915 0
-915 1099 0
150 -915 916 0
-916 1100 0
151 -916 917 0
-917 1101 0
152 -917 918 0
-918 1102 0
153 -918 919 0
-919 1103 0
154 -919 920 0
-920 1104 0
155 -920 921 0
-921 1105 0
156 -921 922 0
-922 1106 0
157 -922 923 0
-923 1107 0
158 -923 924 0
-924 1108 0
159 -924 925 0
-925 1109 0
160 -925 926 0
-926 1110 0
161 -926 927 0
-927 1111 0
162 -927 928 0
-928 1112 0
163 -928 929 0
-929 1113 0
164 -929 930 0
-930 1114 0
165 -930 931 0
-931 1115 0
166 -931 932 0
-932 1116 0
167 -932 933 0
-933 1117 0
168 -933 934 0
-934 1118 0
169 -934 935 0
-935 1119 0
170 -935 936 0
-936 1120 0
171 -936 937 0
-937 1121 0
172 -937 938 0
-938 1122 0
173 -938 939 0
-939 1123 0
174 -939 940 0
-940 1124 0
175 -940 941 0
-941 1125 0
176 -941 942 0
-942 1126 0
177 -942 943 0
-943 1127 0
178 -943 944 0
-944 1128 0
179 -944 945 0
-945 1129 0
180 -945 946 0
-946 1130 0
181 -946 947 0
-947 1131 0
182 -947 948 0
-948 1132 0
183 -948 949 0
-949 1133 0
184 -949 950 0
-950 1134 0
185 -950 951 0
-951 1135 0
186 -951 952 0
-952 1136 0
187 -952 0
4 953 0
-953 1137 0
5 -953 954 0
-954 1138 0
6 -954 955 0
-955 1139 0
7 -955 956 0
-956 1140 0
8 -956 957 0
-957 1141 0
9 -957 958 0
-958 1142 0
10 -958 959 0
-959 1143 0
11 -959 960 0
-960 1144 0
12 -960 961 0
-961 1145 0
13 -961 962 0
-962 1146 0
14 -962 963 0
-963 1147 0
15 -963 964 0
-964 1148 0
16 -964 965 0
-965 1149 0
17 -965 966 0
-966 1150 0
18 -966 967 0
-967 1151 0
19 -967 968 0
-968 1152 0
20 -968 969 0
-969 1153 0
21 -969 970 0
-970 1154 0
22 -970 971 0
-971 1155 0
23 -971 972 0
-972 1156 0
24 -972 973 0
-973 1157 0
25 -973 974 0
-974 1158 0
26 -974 975 0
-975 1159 0
27 -975 976 0
-976 1160 0
28 -976 977 0
-977 1161 0
29 -977 978 0
-978 1162 0
30 -978 979 0
-979 1163 0
31 -979 980 0
-980 1164 0
32 -980 981 0
-981 1165 0
33 -981 982 0
-982 1166 0
34 -982 983 0
-983 1167 0
35 -983 984 0
-984 1168 0
36 -984 985 0
-985 1169 0
37 -985 986 0
-986 1170 0
38 -986 987 0
-987 1171 0
39 -987 988 0
-988 1172 0
40 -988 989 0
-989 1173 0
41 -989 990 0
-990 1174 0
42 -990 991 0
-991 1175 0
43 -991 992 0
-992 1176 0
44 -992 993 0
-993 1177 0
45 -993 994 0
-994 1178 0
46 -994 995 0
-995 1179 0
47 -995 996 0
-996 1180 0
48 -996 997 0
-997 1181 0
49 -997 998 0
-998 1182 0
50 -998 999 0
-999 1183 0
51 -999 1000 0
-1000 1184 0
52 -1000 1001 0
-1001 1185 0
53 -1001 1002 0
-1002 1186 0
54 -1002 1003 0
-1003 1187 0
55 -1003 1004 0
-1004 1188 0
56 -1004 1005 0
-1005 1189 0
57 -1005 1006 0
-1006 1190 0
58 -1006 1007 0
-1007 1191 0
59 -1007 1008 0
-1008 1192 0
60 -1008 1009 0
-1009 1193 0
61 -1009 1010 0
-1010 1194 0
62 -1010 1011 0
-1011 1195 0
63 -1011 1012 0
-1012 1196 0
64 -1012 1013 0
-1013 1197 0
65 -1013 1014 0
-1014 1198 0
66 -1014 1015 0
-1015 1199 0
67 -1015 1016 0
-1016 1200 0
68 -1016 1017 0
-1017 1201 0
69 -1017 1018 0
-1018 1202 0
70 -1018 1019 0
-1019 1203 0
71 -1019 1020 0
-1020 1204 0
72 -1020 1021 0
-1021 1205 0
73 -1021 1022 0
-1022 1206 0
74 -1022 1023 0
-1023 1207 0
75 -1023 1024 0
-1024 1208 0
76 -1024 1025 0
-1025 1209 0
77 -1025 1026 0
-1026 1210 0
78 -1026 1027 0
-1027 1211 0
79 -1027 1028 0
-1028 1212 0
80 -1028 1029 0
-1029 1213 0
81 -1029 1030 0
-1030 1214 0
82 -1030 1031 0
-1031 1215 0
83 -1031 1032 0
-1032 1216 0
84 -1032 1033 0
-1033 1217 0
85 -1033 1034 0
-1034 1218 0
86 -1034 1035 0
-1035 1219 0
87 -1035 1036 0
-1036 1220 0
88 -1036 1037 0
-1037 1221 0
89 -1037 1038 0
-1038 1222 0
90 -1038 1039 0
-1039 1223 0
91 -1039 1040 0
-1040 1224 0
92 -1040 1041 0
-1041 1225 0
93 -1041 1042 0
-1042 1226 0
94 -1042 1043 0
-1043 1227 0
95 -1043 1044 0
-1044 1228 0
96 -1044 1045 0
-1045 1229 0
97 -1045 1046 0
-1046 1230 0
98 -1046 1047 0
-1047 1231 0
99 -1047 1048 0
-1048 1232 0
100 -1048 1049 0
-1049 1233 0
101 -1049 1050 0
-1050 1234 0
102 -1050 1051 0
-1051 1235 0
103 -1051 1052 0
-1052 1236 0
104 -1052 1053 0
-1053 1237 0
105 -1053 1054 0
-1054 1238 0
106 -1054 1055 0
-1055 1239 0
107 -1055 1056 0
-1056 1240 0
108 -1056 1057 0
-1057 1241 0
109 -1057 1058 0
-1058 1242 0
110 -1058 1059 0
-1059 1243 0
111 -1059 1060 0
-1060 1244 0
112 -1060 1061 0
-1061 1245 0
113 -1061 1062 0
-1062 1246 0
114 -1062 1063 0
-1063 1247 0
115 -1063 1064 0
-1064 1248 0
116 -1064 1065 0
-1065 1249 0
117 -1065 1066 0
-1066 1250 0
118 -1066 1067 0
-1067 1251 0
119 -1067 1068 0
-1068 1252 0
120 -1068 1069 0
-1069 1253 0
121 -1069 1070 0
-1070 1254 0
122 -1070 1071 0
-1071 1255 0
123 -1071 1072 0
-1072 1256 0
124 -1072 1073 0
-1073 1257 0
125 -1073 1074 0
-1074 1258 0
126 -1074 1075 0
-1075 1259 0
127 -1075 1076 0
-1076 1260 0
128 -1076 1077 0
-1077 1261 0
129 -1077 1078 0
-1078 1262 0
130 -1078 1079 0
-1079 1263 0
131 -1079 1080 0
-1080 1264 0
132 -1080 1081 0
-1081 1265 0
133 -1081 1082 0
-1082 1266 0
134 -1082 1083 0
-1083 1267 0
135 -1083 1084 0
-1084 1268 0
136 -1084 1085 0
-1085 1269 0
137 -1085 1086 0
-1086 1270 0
138 -1086 1087 0
-1087 1271 0
139 -1087 1088 0
-1088 1272 0
140 -1088 1089 0
-1089 1273 0
141 -1089 1090 0
-1090 1274 0
142 -1090 1091 0
-1091 1275 0
143 -1091 1092 0
-1092 1276 0
144 -1092 1093 0
-1093 1277 0
145 -1093 1094 0
-1094 1278 0
146 -1094 1095 0
-1095 1279 0
147 -1095 1096 0
-1096 1280 0
148 -1096 1097 0
-1097 1281 0
149 -1097 1098 0
-1098 1282 0
150 -1098 1099 0
-1099 1283 0
151 -1099 1100 0
-1100 1284 0
152 -1100 1101 0
-1101 1285 0
153 -1101 1102 0
-1102 1286 0
154 -1102 1103 0
-1103 1287 0
155 -1103 1104 0
-1104 1288 0
156 -1104 1105 0
-1105 1289 0
157 -1105 1106 0
-1106 1290 0
158 -1106 1107 0
-1107 1291 0
159 -1107 1108 0
-1108 1292 0
160 -1108 1109 0
-1109 1293 0
161 -1109 1110 0
-1110 1294 0
162 -1110 1111 0
-1111 1295 0
163 -1111 1112 0
-1112 1296 0
164 -1112 1113 0
-1113 1297 0
165 -1113 1114 0
-1114 1298 0
166 -1114 1115 0
-1115 1299 0
167 -1115 1116 0
-1116 1300 0
168 -1116 1117 0
-1117 1301 0
169 -1117 1118 0
-1118 1302 0
170 -1118 1119 0
-1119 1303 0
171 -1119 1120 0
-1120 1304 0
172 -1120 1121 0
-1121 1305 0
173 -1121 1122 0
-1122 1306 0
174 -1122 1123 0
-1123 1307 0
175 -1123 1124 0
-1124 1308 0
176 -1124 1125 0
-1125 1309 0
177 -1125 1126 0
-1126 1310 0
178 -1126 1127 0
-1127 1311 0
179 -1127 1128 0
-1128 1312 0
180 -1128 1129 0
-1129 1313 0
181 -1129 1130 0
-1130 1314 0
182 -1130 1131 0
-1131 1315 0
183 -1131 1132 0
-1132 1316 0
184 -1132 1133 0
-1133 1317 0
185 -1133 1134 0
-1134 1318 0
186 -1134 1135 0
-1135 1319 0
187 -1135 1136 0
-1136 1320 0
188 -1136 0
5 1137 0
-1137 1321 0
6 -1137 1138 0
-1138 1322 0
7 -1138 1139 0
-1139 1323 0
8 -1139 1140 0
-1140 1324 0
9 -1140 1141 0
-1141 1325 0
10 -1141 1142 0
-1142 1326 0
11 -1142 1143 0
-1143 1327 0
12 -1143 1144 0
-1144 1328 0
13 -1144 1145 0
-1145 1329 0
14 -1145 1146 0
-1146 1330 0
15 -1146 1147 0
-1147 1331 0
16 -1147 1148 0
-1148 1332 0
17 -1148 1149 0
-1149 1333 0
18 -1149 1150 0
-1150 1334 0
19 -1150 1151 0
-1151 1335 0
20 -1151 1152 0
-1152 1336 0
21 -1152 1153 0
-1153 1337 0
22 -1153 1154 0
-1154 1338 0
23 -1154 1155 0
-1155 1339 0
24 -1155 1156 0
-1156 1340 0
25 -1156 1157 0
-1157 1341 0
26 -1157 1158 0
-1158 1342 0
27 -1158 1159 0
-1159 1343 0
28 -1159 1160 0
-1160 1344 0
29 -1160 1161 0
-1161 1345 0
30 -1161 1162 0
-1162 1346 0
31 -1162 1163 0
-1163 1347 0
32 -1163 1164 0
-1164 1348 0
33 -1164 1165 0
-1165 1349 0
34 -1165 1166 0
-1166 1350 0
35 -1166 1167 0
-1167 1351 0
36 -1167 1168 0
-1168 1352 0
37 -1168 1169 0
-1169 1353 0
38 -1169 1170 0
-1170 1354 0
39 -1170 1171 0
-1171 1355 0
40 -1171 1172 0
-1172 1356 0
41 -1172 1173 0
-1173 1357 0
42 -1173 1174 0
-1174 1358 0
43 -1174 1175 0
-1175 1359 0
44 -1175 1176 0
-1176 1360 0
45 -1176 1177 0
-1177 1361 0
46 -1177 1178 0
-1178 1362 0
47 -1178 1179 0
-1179 1363 0
48 -1179 1180 0
-1180 1364 0
49 -1180 1181 0
-1181 1365 0
50 -1181 1182 0
-1182 1366 0
51 -1182 1183 0
-1183 1367 0
52 -1183 1184 0
-1184 1368 0
53 -1184 1185 0
-1185 1369 0
54 -1185 1186 0
-1186 1370 0
55 -1186 1187 0
-1187 1371 0
56 -1187 1188 0
-1188 1372 0
57 -1188 1189 0
-1189 1373 0
58 -1189 1190 0
-1190 1374 0
59 -1190 1191 0
-1191 1375 0
60 -1191 1192 0
-1192 1376 0
61 -1192 1193 0
-1193 1377 0
62 -1193 1194 0
-1194 1378 0
63 -1194 1195 0
-1195 1379 0
64 -1195 1196 0
-1196 1380 0
65 -1196 1197 0
-1197 1381 0
66 -1197 1198 0
-1198 1382 0
67 -1198 1199 0
-1199 1383 0
68 -1199 1200 0
-1200 1384 0
69 -1200 1201 0
-1201 1385 0
70 -1201 1202 0
-1202 1386 0
71 -1202 1203 0
-1203 1387 0
72 -1203 1204 0
-1204 1388 0
73 -1204 1205 0
-1205 1389 0
74 -1205 1206 0
-1206 1390 0
75 -1206 1207 0
-1207 1391 0
76 -1207 1208 0
-1208 1392 0
77 -1208 1209 0
-1209 1393 0
78 -1209 1210 0
-1210 1394 0
79 -1210 1211 0
-1211 1395 0
80 -1211 1212 0
-1212 1396 0
81 -1212 1213 0
-1213 1397 0
82 -1213 1214 0
-1214 1398 0
83 -1214 1215 0
-1215 1399 0
84 -1215 1216 0
-1216 1400 0
85 -1216 1217 0
-1217 1401 0
86 -1217 1218 0
-1218 1402 0
87 -1218 1219 0
-1219 1403 0
88 -1219 1220 0
-1220 1404 0
89 -1220 1221 0
-1221 1405 0
90 -1221 1222 0
-1222 1406 0
91 -1222 1223 0
-1223 1407 0
92 -1223 1224 0
-1224 1408 0
93 -1224 1225 0
-1225 1409 0
94 -1225 1226 0
-1226 1410 0
95 -1226 1227 0
-1227 1411 0
96 -1227 1228 0
-1228 1412 0
97 -1228 1229 0
-1229 1413 0
98 -1229 1230 0
-1230 1414 0
99 -1230 1231 0
-1231 1415 0
100 -1231 1232 0
-1232 1416 0
101 -1232 1233 0
-1233 1417 0
102 -1233 1234 0
-1234 1418 0
103 -1234 1235 0
-1235 1419 0
104 -1235 1236 0
-1236 1420 0
105 -1236 1237 0
-1237 1421 0
106 -1237 1238 0
-1238 1422 0
107 -1238 1239 0
-1239 1423 0
108 -1239 1240 0
-1240 1424 0
109 -1240 1241 0
-1241 1425 0
110 -1241 1242 0
-1242 1426 0
111 -1242 1243 0
-1243 1427 0
112 -1243 1244 0
-1244 1428 0
113 -1244 1245 0
-1245 1429 0
114 -1245 1246 0
-1246 1430 0
115 -1246 1247 0
-1247 1431 0
116 -1247 1248 0
-1248 1432 0
117 -1248 1249 0
-1249 1433 0
118 -1249 1250 0
-1250 1434 0
119 -1250 1251 0
-1251 1435 0
120 -1251 1252 0
-1252 1436 0
121 -1252 1253 0
-1253 1437 0
122 -1253 1254 0
-1254 1438 0
123 -1254 1255 0
-1255 1439 0
124 -1255 1256 0
-1256 1440 0
125 -1256 1257 0
-1257 1441 0
126 -1257 1258 0
-1258 1442 0
127 -1258 1259 0
-1259 1443 0
128 -1259 1260 0
-1260 1444 0
129 -1260 1261 0
-1261 1445 0
130 -1261 1262 0
-1262 1446 0
131 -1262 1263 0
-1263 1447 0
132 -1263 1264 0
-1264 1448 0
133 -1264 1265 0
-1265 1449 0
134 -1265 1266 0
-1266 1450 0
135 -1266 1267 0
-1267 1451 0
136 -1267 1268 0
-1268 1452 0
137 -1268 1269 0
-1269 1453 0
138 -1269 1270 0
-1270 1454 0
139 -1270 1271 0
-1271 1455 0
140 -1271 1272 0
-1272 1456 0
141 -1272 1273 0
-1273 1457 0
142 -1273 1274 0
-1274 1458 0
143 -1274 1275 0
-1275 1459 0
144 -1275 1276 0
-1276 1460 0
145 -1276 1277 0
-1277 1461 0
146 -1277 1278 0
-1278 1462 0
147 -1278 1279 0
-1279 1463 0
148 -1279 1280 0
-1280 1464 0
149 -1280 1281 0
-1281 1465 0
150 -1281 1282 0
-1282 1466 0
151 -1282 1283 0
-1283 1467 0
152 -1283 1284 0
-1284 1468 0
153 -1284 1285 0
-1285 1469 0
154 -1285 1286 0
-1286 1470 0
155 -1286 1287 0
-1287 1471 0
156 -1287 1288 0
-1288 1472 0
157 -1288 1289 0
-1289 1473 0
158 -1289 1290 0
-1290 1474 0
159 -1290 1291 0
-1291 1475 0
160 -1291 1292 0
-1292 1476 0
161 -1292 1293 0
-1293 1477 0
162 -1293 1294 0
-1294 1478 0
163 -1294 1295 0
-1295 1479 0
164 -1295 1296 0
-1296 1480 0
165 -1296 1297 0
-1297 1481 0
166 -1297 1298 0
-1298 1482 0
167 -1298 1299 0
-1299 1483 0
168 -1299 1300 0
-1300 1484 0
169 -1300 1301 0
-1301 1485 0
170 -1301 1302 0
-1302 1486 0
171 -1302 1303 0
-1303 1487 0
172 -1303 1304 0
-1304 1488 0
173 -1304 1305 0
-1305 1489 0
174 -1305 1306 0
-1306 1490 0
175 -1306 1307 0
-1307 1491 0
176 -1307 1308 0
-1308 1492 0
177 -1308 1309 0
-1309 1493 0
178 -1309 1310 0
-1310 1494 0
179 -1310 1311 0
-1311 1495 0
180 -1311 1312 0
-1312 1496 0
181 -1312 1313 0
-1313 1497 0
182 -1313 1314 0
-1314 1498 0
183 -1314 1315 0
-1315 1499 0
184 -1315 1316 0
-1316 1500 0
185 -1316 1317 0
-1317 1501 0
186 -1317 1318 0
-1318 1502 0
187 -1318 1319 0
-1319 1503 0
188 -1319 1320 0
-1320 1504 0
189 -1320 0
6 1321 0
-1321 1505 0
7 -1321 1322 0
-1322 1506 0
8 -1322 1323 0
-1323 1507 0
9 -1323 1324 0
-1324 1508 0
10 -1324 1325 0
-1325 1509 0
11 -1325 1326 0
-1326 1510 0
12 -1326 1327 0
-1327 1511 0
13 -1327 1328 0
-1328 1512 0
14 -1328 1329 0
-1329 1513 0
15 -1329 1330 0
-1330 1514 0
16 -1330 1331 0
-1331 1515 0
17 -1331 1332 0
-1332 1516 0
18 -1332 1333 0
-1333 1517 0
19 -1333 1334 0
-1334 1518 0
20 -1334 1335 0
-1335 1519 0
21 -1335 1336 0
-1336 1520 0
22 -1336 1337 0
-1337 1521 0
23 -1337 1338 0
-1338 1522 0
24 -1338 1339 0
-1339 1523 0
25 -1339 1340 0
-1340 1524 0
26 -1340 1341 0
-1341 1525 0
27 -1341 1342 0
-1342 1526 0
28 -1342 1343 0
-1343 1527 0
29 -1343 1344 0
-1344 1528 0
30 -1344 1345 0
-1345 1529 0
31 -1345 1346 0
-1346 1530 0
32 -1346 1347 0
-1347 1531 0
33 -1347 1348 0
-1348 1532 0
34 -1348 1349 0
-1349 1533 0
35 -1349 1350 0
-1350 1534 0
36 -1350 1351 0
-1351 1535 0
37 -1351 1352 0
-1352 1536 0
38 -1352 1353 0
-1353 1537 0
39 -1353 1354 0
-1354 1538 0
40 -1354 1355 0
-1355 1539 0
41 -1355 1356 0
-1356 1540 0
42 -1356 1357 0
-1357 1541 0
43 -1357 1358 0
-1358 1542 0
44 -1358 1359 0
-1359 1543 0
45 -1359 1360 0
-1360 1544 0
46 -1360 1361 0
-1361 1545 0
47 -1361 1362 0
-1362 1546 0
48 -1362 1363 0
-1363 1547 0
49 -1363 1364 0
-1364 1548 0
50 -1364 1365 0
-1365 1549 0
51 -1365 1366 0
-1366 1550 0
52 -1366 1367 0
-1367 1551 0
53 -1367 1368 0
-1368 1552 0
54 -1368 1369 0
-1369 1553 0
55 -1369 1370 0
-1370 1554 0
56 -1370 1371 0
-1371 1555 0
57 -1371 1372 0
-1372 1556 0
58 -1372 1373 0
-1373 1557 0
59 -1373 1374 0
-1374 1558 0
60 -1374 1375 0
-1375 1559 0
61 -1375 1376 0
-1376 1560 0
62 -1376 1377 0
-1377 1561 0
63 -1377 1378 0
-1378 1562 0
64 -1378 1379 0
-1379 1563 0
65 -1379 1380 0
-1380 1564 0
66 -1380 1381 0
-1381 1565 0
67 -1381 1382 0
-1382 1566 0
68 -1382 1383 0
-1383 1567 0
69 -1383 1384 0
-1384 1568 0
70 -1384 1385 0
-1385 1569 0
71 -1385 1386 0
-1386 1570 0
72 -1386 1387 0
-1387 1571 0
73 -1387 1388 0
-1388 1572 0
74 -1388 1389 0
-1389 1573 0
75 -1389 1390 0
-1390 1574 0
76 -1390 1391 0
-1391 1575 0
77 -1391 1392 0
-1392 1576 0
78 -1392 1393 0
-1393 1577 0
79 -1393 1394 0
-1394 1578 0
80 -1394 1395 0
-1395 1579 0
81 -1395 1396 0
-1396 1580 0
82 -1396 1397 0
-1397 1581 0
83 -1397 1398 0
-1398 1582 0
84 -1398 1399 0
-1399 1583 0
85 -1399 1400 0
-1400 1584 0
86 -1400 1401 0
-1401 1585 0
87 -1401 1402 0
-1402 1586 0
88 -1402 1403 0
-1403 1587 0
89 -1403 1404 0
-1404 1588 0
90 -1404 1405 0
-1405 1589 0
91 -1405 1406 0
-1406 1590 0
92 -1406 1407 0
-1407 1591 0
93 -1407 1408 0
-1408 1592 0
94 -1408 1409 0
-1409 1593 0
95 -1409 1410 0
-1410 1594 0
96 -1410 1411 0
-1411 1595 0
97 -1411 1412 0
-1412 1596 0
98 -1412 1413 0
-1413 1597 0
99 -1413 1414 0
-1414 1598 0
100 -1414 1415 0
-1415 1599 0
101 -1415 1416 0
-1416 1600 0
102 -1416 1417 0
-1417 1601 0
103 -1417 1418 0
-1418 1602 0
104 -1418 1419 0
-1419 1603 0
105 -1419 1420 0
-1420 1604 0
106 -1420 1421 0
-1421 1605 0
107 -1421 1422 0
-1422 1606 0
108 -1422 1423 0
-1423 1607 0
109 -1423 1424 0
-1424 1608 0
110 -1424 1425 0
-1425 1609 0
111 -1425 1426 0
-1426 1610 0
112 -1426 1427 0
-1427 1611 0
113 -1427 1428 0
-1428 1612 0
114 -1428 1429 0
-1429 1613 0
115 -1429 1430 0
-1430 1614 0
116 -1430 1431 0
-1431 1615 0
117 -1431 1432 0
-1432 1616 0
118 -1432 1433 0
-1433 1617 0
119 -1433 1434 0
-1434 1618 0
120 -1434 1435 0
-1435 1619 0
121 -1435 1436 0
-1436 1620 0
122 -1436 1437 0
-1437 1621 0
123 -1437 1438 0
-1438 1622 0
124 -1438 1439 0
-1439 1623 0
125 -1439 1440 0
-1440 1624 0
126 -1440 1441 0
-1441 1625 0
127 -1441 1442 0
-1442 1626 0
128 -1442 1443 0
-1443 1627 0
129 -1443 1444 0
-1444 1628 0
130 -1444 1445 0
-1445 1629 0
131 -1445 1446 0
-1446 1630 0
132 -1446 1447 0
-1447 1631 0
133 -1447 1448 0
-1448 1632 0
134 -1448 1449 0
-1449 1633 0
135 -1449 1450 0
-1450 1634 0
136 -1450 1451 0
-1451 1635 0
137 -1451 1452 0
-1452 1636 0
138 -1452 1453 0
-1453 1637 0
139 -1453 1454 0
-1454 1638 0
140 -1454 1455 0
-1455 1639 0
141 -1455 1456 0
-1456 1640 0
142 -1456 1457 0
-1457 1641 0
143 -1457 1458 0
-1458 1642 0
144 -1458 1459 0
-1459 1643 0
145 -1459 1460 0
-1460 1644 0
146 -1460 1461 0
-1461 1645 0
147 -1461 1462 0
-1462 1646 0
148 -1462 1463 0
-1463 1647 0
149 -1463 1464 0
-1464 1648 0
150 -1464 1465 0
-1465 1649 0
151 -1465 1466 0
-1466 1650 0
152 -1466 1467 0
-1467 1651 0
153 -1467 1468 0
-1468 1652 0
154 -1468 1469 0
-1469 1653 0
155 -1469 1470 0
-1470 1654 0
156 -1470 1471 0
-1471 1655 0
157 -1471 1472 0
-1472 1656 0
158 -1472 1473 0
-1473 1657 0
159 -1473 1474 0
-1474 1658 0
160 -1474 1475 0
-1475 1659 0
161 -1475 1476 0
-1476 1660 0
162 -1476 1477 0
-1477 1661 0
163 -1477 1478 0
-1478 1662 0
164 -1478 1479 0
-1479 1663 0
165 -1479 1480 0
-1480 1664 0
166 -1480 1481 0
-1481 1665 0
167 -1481 1482 0
-1482 1666 0
168 -1482 1483 0
-1483 1667 0
169 -1483 1484 0
-1484 1668 0
170 -1484 1485 0
-1485 1669 0
171 -1485 1486 0
-1486 1670 0
172 -1486 1487 0
-1487 1671 0
173 -1487 1488 0
-1488 1672 0
174 -1488 1489 0
-1489 1673 0
175 -1489 1490 0
-1490 1674 0
176 -1490 1491 0
-1491 1675 0
177 -1491 1492 0
-1492 1676 0
178 -1492 1493 0
-1493 1677 0
179 -1493 1494 0
-1494 1678 0
180 -1494 1495 0
-1495 1679 0
181 -1495 1496 0
-1496 1680 0
182 -1496 1497 0
-1497 1681 0
183 -1497 1498 0
-1498 1682 0
184 -1498 1499 0
-1499 1683 0
185 -1499 1500 0
-1500 1684 0
186 -1500 1501 0
-1501 1685 0
187 -1501 1502 0
-1502 1686 0
188 -1502 1503 0
-1503 1687 0
189 -1503 1504 0
-1504 1688 0
190 -1504 0
7 1505 0
-1505 1689 0
8 -1505 1506 0
-1506 1690 0
9 -1506 1507 0
-1507 1691 0
10 -1507 1508 0
-1508 1692 0
11 -1508 1509 0
-1509 1693 0
12 -1509 1510 0
-1510 1694 0
13 -1510 1511 0
-1511 1695 0
14 -1511 1512 0
-1512 1696 0
15 -1512 1513 0
-1513 1697 0
16 -1513 1514 0
-1514 1698 0
17 -1514 1515 0
-1515 1699 0
18 -1515 1516 0
-1516 1700 0
19 -1516 1517 0
-1517 1701 0
20 -1517 1518 0
-1518 1702 0
21 -1518 1519 0
-1519 1703 0
22 -1519 1520 0
-1520 1704 0
23 -1520 1521 0
-1521 1705 0
24 -1521 1522 0
-1522 1706 0
25 -1522 1523 0
-1523 1707 0
26 -1523 1524 0
-1524 1708 0
27 -1524 1525 0
-1525 1709 0
28 -1525 1526 0
-1526 1710 0
29 -1526 1527 0
-1527 1711 0
30 -1527 1528 0
-1528 1712 0
31 -1528 1529 0
-1529 1713 0
32 -1529 1530 0
-1530 1714 0
33 -1530 1531 0
-1531 1715 0
34 -1531 1532 0
-1532 1716 0
35 -1532 1533 0
-1533 1717 0
36 -1533 1534 0
-1534 1718 0
37 -1534 1535 0
-1535 1719 0
38 -1535 1536 0
-1536 1720 0
39 -1536 1537 0
-1537 1721 0
40 -1537 1538 0
-1538 1722 0
41 -1538 1539 0
-1539 1723 0
42 -1539 1540 0
-1540 1724 0
43 -1540 1541 0
-1541 1725 0
44 -1541 1542 0
-1542 1726 0
45 -1542 1543 0
-1543 1727 0
46 -1543 1544 0
-1544 1728 0
47 -1544 1545 0
-1545 1729 0
48 -1545 1546 0
-1546 1730 0
49 -1546 1547 0
-1547 1731 0
50 -1547 1548 0
-1548 1732 0
51 -1548 1549 0
-1549 1733 0
52 -1549 1550 0
-1550 1734 0
53 -1550 1551 0
-1551 1735 0
54 -1551 1552 0
-1552 1736 0
55 -1552 1553 0
-1553 1737 0
56 -1553 1554 0
-1554 1738 0
57 -1554 1555 0
-1555 1739 0
58 -1555 1556 0
-1556 1740 0
59 -1556 1557 0
-1557 1741 0
60 -1557 1558 0
-1558 1742 0
61 -1558 1559 0
-1559 1743 0
62 -1559 1560 0
-1560 1744 0
63 -1560 1561 0
-1561 1745 0
64 -1561 1562 0
-1562 1746 0
65 -1562 1563 0
-1563 1747 0
66 -1563 1564 0
-1564 1748 0
67 -1564 1565 0
-1565 1749 0
68 -1565 1566 0
-1566 1750 0
69 -1566 1567 0
-1567 1751 0
70 -1567 1568 0
-1568 1752 0
71 -1568 1569 0
-1569 1753 0
72 -1569 1570 0
-1570 1754 0
73 -1570 1571 0
-1571 1755 0
74 -1571 1572 0
-1572 1756 0
75 -1572 1573 0
-1573 1757 0
76 -1573 1574 0
-1574 1758 0
77 -1574 1575 0
-1575 1759 0
78 -1575 1576 0
-1576 1760 0
79 -1576 1577 0
-1577 1761 0
80 -1577 1578 0
-1578 1762 0
81 -1578 1579 0
-1579 1763 0
82 -1579 1580 0
-1580 1764 0
83 -1580 1581 0
-1581 1765 0
84 -1581 1582 0
-1582 1766 0
85 -1582 1583 0
-1583 1767 0
86 -1583 1584 0
-1584 1768 0
87 -1584 1585 0
-1585 1769 0
88 -1585 1586 0
-1586 1770 0
89 -1586 1587 0
-1587 1771 0
90 -1587 1588 0
-1588 1772 0
91 -1588 1589 0
-1589 1773 0
92 -1589 1590 0
-1590 1774 0
93 -1590 1591 0
-1591 1775 0
94 -1591 1592 0
-1592 1776 0
95 -1592 1593 0
-1593 1777 0
96 -1593 1594 0
-1594 1778 0
97 -1594 1595 0
-1595 1779 0
98 -1595 1596 0
-1596 1780 0
99 -1596 1597 0
-1597 1781 0
100 -1597 1598 0
-1598 1782 0
101 -1598 1599 0
-1599 1783 0
102 -1599 1600 0
-1600 1784 0
103 -1600 1601 0
-1601 1785 0
104 -1601 1602 0
-1602 1786 0
105 -1602 1603 0
-1603 1787 0
106 -1603 1604 0
-1604 1788 0
107 -1604 1605 0
-1605 1789 0
108 -1605 1606 0
-1606 1790 0
109 -1606 1607 0
-1607 1791 0
110 -1607 1608 0
-1608 1792 0
111 -1608 1609 0
-1609 1793 0
112 -1609 1610 0
-1610 1794 0
113 -1610 1611 0
-1611 1795 0
114 -1611 1612 0
-1612 1796 0
115 -1612 1613 0
-1613 1797 0
116 -1613 1614 0
-1614 1798 0
117 -1614 1615 0
-1615 1799 0
118 -1615 1616 0
-1616 1800 0
119 -1616 1617 0
-1617 1801 0
120 -1617 1618 0
-1618 1802 0
121 -1618 1619 0
-1619 1803 0
122 -1619 1620 0
-1620 1804 0
123 -1620 1621 0
-1621 1805 0
124 -1621 1622 0
-1622 1806 0
125 -1622 1623 0
-1623 1807 0
126 -1623 1624 0
-1624 1808 0
127 -1624 1625 0
-1625 1809 0
128 -1625 1626 0
-1626 1810 0
129 -1626 1627 0
-1627 1811 0
130 -1627 1628 0
-1628 1812 0
131 -1628 1629 0
-1629 1813 0
132 -1629 1630 0
-1630 1814 0
133 -1630 1631 0
-1631 1815 0
134 -1631 1632 0
-1632 1816 0
135 -1632 1633 0
-1633 1817 0
136 -1633 1634 0
-1634 1818 0
137 -1634 1635 0
-1635 1819 0
138 -1635 1636 0
-1636 1820 0
139 -1636 1637 0
-1637 1821 0
140 -1637 1638 0
-1638 1822 0
141 -1638 1639 0
-1639 1823 0
142 -1639 1640 0
-1640 1824 0
143 -1640 1641 0
-1641 1825 0
144 -1641 1642 0
-1642 1826 0
145 -1642 1643 0
-1643 1827 0
146 -1643 1644 0
-1644 1828 0
147 -1644 1645 0
-1645 1829 0
148 -1645 1646 0
-1646 1830 0
149 -1646 1647 0
-1647 1831 0
150 -1647 1648 0
-1648 1832 0
151 -1648 1649 0
-1649 1833 0
152 -1649 1650 0
-1650 1834 0
153 -1650 1651 0
-1651 1835 0
154 -1651 1652 0
-1652 1836 0
155 -1652 1653 0
-1653 1837 0
156 -1653 1654 0
-1654 1838 0
157 -1654 1655 0
-1655 1839 0
158 -1655 1656 0
-1656 1840 0
159 -1656 1657 0
-1657 1841 0
160 -1657 1658 0
-1658 1842 0
161 -1658 1659 0
-1659 1843 0
162 -1659 1660 0
-1660 1844 0
163 -1660 1661 0
-1661 1845 0
164 -1661 1662 0
-1662 1846 0
165 -1662 1663 0
-1663 1847 0
166 -1663 1664 0
-1664 1848 0
167 -1664 1665 0
-1665 1849 0
168 -1665 1666 0
-1666 1850 0
169 -1666 1667 0
-1667 1851 0
170 -1667 1668 0
-1668 1852 0
171 -1668 1669 0
-1669 1853 0
172 -1669 1670 0
-1670 1854 0
173 -1670 1671 0
-1671 1855 0
174 -1671 1672 0
-1672 1856 0
175 -1672 1673 0
-1673 1857 0
176 -1673 1674 0
-1674 1858 0
177 -1674 1675 0
-1675 1859 0
178 -1675 1676 0
-1676 1860 0
179 -1676 1677 0
-1677 1861 0
180 -1677 1678 0
-1678 1862 0
181 -1678 1679 0
-1679 1863 0
182 -1679 1680 0
-1680 1864 0
183 -1680 1681 0
-1681 1865 0
184 -1681 1682 0
-1682 1866 0
185 -1682 1683 0
-1683 1867 0
186 -1683 1684 0
-1684 1868 0
187 -1684 1685 0
-1685 1869 0
188 -1685 1686 0
-1686 1870 0
189 -1686 1687 0
-1687 1871 0
190 -1687 1688 0
-1688 1872 0
191 -1688 0
8 1689 0
-1689 1873 0
9 -1689 1690 0
-1690 1874 0
10 -1690 1691 0
-1691 1875 0
11 -1691 1692 0
-1692 1876 0
12 -1692 1693 0
-1693 1877 0
13 -1693 1694 0
-1694 1878 0
14 -1694 1695 0
-1695 1879 0
15 -1695 1696 0
-1696 1880 0
16 -1696 1697 0
-1697 1881 0
17 -1697 1698 0
-1698 1882 0
18 -1698 1699 0
-1699 1883 0
19 -1699 1700 0
-1700 1884 0
20 -1700 1701 0
-1701 1885 0
21 -1701 1702 0
-1702 1886 0
22 -1702 1703 0
-1703 1887 0
23 -1703 1704 0
-1704 1888 0
24 -1704 1705 0
-1705 1889 0
25 -1705 1706 0
-1706 1890 0
26 -1706 1707 0
-1707 1891 0
27 -1707 1708 0
-1708 1892 0
28 -1708 1709 0
-1709 1893 0
29 -1709 1710 0
-1710 1894 0
30 -1710 1711 0
-1711 1895 0
31 -1711 1712 0
-1712 1896 0
32 -1712 1713 0
-1713 1897 0
33 -1713 1714 0
-1714 1898 0
34 -1714 1715 0
-1715 1899 0
35 -1715 1716 0
-1716 1900 0
36 -1716 1717 0
-1717 1901 0
37 -1717 1718 0
-1718 1902 0
38 -1718 1719 0
-1719 1903 0
39 -1719 1720 0
-1720 1904 0
40 -1720 1721 0
-1721 1905 0
41 -1721 1722 0
-1722 1906 0
42 -1722 1723 0
-1723 1907 0
43 -1723 1724 0
-1724 1908 0
44 -1724 1725 0
-1725 1909 0
45 -1725 1726 0
-1726 1910 0
46 -1726 1727 0
-1727 1911 0
47 -1727 1728 0
-1728 1912 0
48 -1728 1729 0
-1729 1913 0
49 -1729 1730 0
-1730 1914 0
50 -1730 1731 0
-1731 1915 0
51 -1731 1732 0
-1732 1916 0
52 -1732 1733 0
-1733 1917 0
53 -1733 1734 0
-1734 1918 0
54 -1734 1735 0
-1735 1919 0
55 -1735 1736 0
-1736 1920 0
56 -1736 1737 0
-1737 1921 0
57 -1737 1738 0
-1738 1922 0
58 -1738 1739 0
-1739 1923 0
59 -1739 1740 0
-1740 1924 0
60 -1740 1741 0
-1741 1925 0
61 -1741 1742 0
-1742 1926 0
62 -1742 1743 0
-1743 1927 0
63 -1743 1744 0
-1744 1928 0
64 -1744 1745 0
-1745 1929 0
65 -1745 1746 0
-1746 1930 0
66 -1746 1747 0
-1747 1931 0
67 -1747 1748 0
-1748 1932 0
68 -1748 1749 0
-1749 1933 0
69 -1749 1750 0
-1750 1934 0
70 -1750 1751 0
-1751 1935 0
71 -1751 1752 0
-1752 1936 0
72 -1752 1753 0
-1753 1937 0
73 -1753 1754 0
-1754 1938 0
74 -1754 1755 0
-1755 1939 0
75 -1755 1756 0
-1756 1940 0
76 -1756 1757 0
-1757 1941 0
77 -1757 1758 0
-1758 1942 0
78 -1758 1759 0
-1759 1943 0
79 -1759 1760 0
-1760 1944 0
80 -1760 1761 0
-1761 1945 0
81 -1761 1762 0
-1762 1946 0
82 -1762 1763 0
-1763 1947 0
83 -1763 1764 0
-1764 1948 0
84 -1764 1765 0
-1765 1949 0
85 -1765 1766 0
-1766 1950 0
86 -1766 1767 0
-1767 1951 0
87 -1767 1768 0
-1768 1952 0
88 -1768 1769 0
-1769 1953 0
89 -1769 1770 0
-1770 1954 0
90 -1770 1771 0
-1771 1955 0
91 -1771 1772 0
-1772 1956 0
92 -1772 1773 0
-1773 1957 0
93 -1773 1774 0
-1774 1958 0
94 -1774 1775 0
-1775 1959 0
95 -1775 1776 0
-1776 1960 0
96 -1776 1777 0
-1777 1961 0
97 -1777 1778 0
-1778 1962 0
98 -1778 1779 0
-1779 1963 0
99 -1779 1780 0
-1780 1964 0
100 -1780 1781 0
-1781 1965 0
101 -1781 1782 0
-1782 1966 0
102 -1782 1783 0
-1783 1967 0
103 -1783 1784 0
-1784 1968 0
104 -1784 1785 0
-1785 1969 0
105 -1785 1786 0
-1786 1970 0
106 -1786 1787 0
-1787 1971 0
107 -1787 1788 0
-1788 1972 0
108 -1788 1789 0
-1789 1973 0
109 -1789 1790 0
-1790 1974 0
110 -1790 1791 0
-1791 1975 0
111 -1791 1792 0
-1792 1976 0
112 -1792 1793 0
-1793 1977 0
113 -1793 1794 0
-1794 1978 0
114 -1794 1795 0
-1795 1979 0
115 -1795 1796 0
-1796 1980 0
116 -1796 1797 0
-1797 1981 0
117 -1797 1798 0
-1798 1982 0
118 -1798 1799 0
-1799 1983 0
119 -1799 1800 0
-1800 1984 0
120 -1800 1801 0
-1801 1985 0
121 -1801 1802 0
-1802 1986 0
122 -1802 1803 0
-1803 1987 0
123 -1803 1804 0
-1804 1988 0
124 -1804 1805 0
-1805 1989 0
125 -1805 1806 0
-1806 1990 0
126 -1806 1807 0
-1807 1991 0
127 -1807 1808 0
-1808 1992 0
128 -1808 1809 0
-1809 1993 0
129 -1809 1810 0
-1810 1994 0
130 -1810 1811 0
-1811 1995 0
131 -1811 1812 0
-1812 1996 0
132 -1812 1813 0
-1813 1997 0
133 -1813 1814 0
-1814 1998 0
134 -1814 1815 0
-1815 1999 0
135 -1815 1816 0
-1816 2000 0
136 -1816 1817 0
-1817 2001 0
137 -1817 1818 0
-1818 2002 0
138 -1818 1819 0
-1819 2003 0
139 -1819 1820 0
-1820 2004 0
140 -1820 1821 0
-1821 2005 0
141 -1821 1822 0
-1822 2006 0
142 -1822 1823 0
-1823 2007 0
143 -1823 1824 0
-1824 2008 0
144 -1824 1825 0
-1825 2009 0
145 -1825 1826 0
-1826 2010 0
146 -1826 1827 0
-1827 2011 0
147 -1827 1828 0
-1828 2012 0
148 -1828 1829 0
-1829 2013 0
149 -1829 1830 0
-1830 2014 0
150 -1830 1831 0
-1831 2015 0
151 -1831 1832 0
-1832 2016 0
152 -1832 1833 0
-1833 2017 0
153 -1833 1834 0
-1834 2018 0
154 -1834 1835 0
-1835 2019 0
155 -1835 1836 0
-1836 2020 0
156 -1836 1837 0
-1837 2021 0
157 -1837 1838 0
-1838 2022 0
158 -1838 1839 0
-1839 2023 0
159 -1839 1840 0
-1840 2024 0
160 -1840 1841 0
-1841 2025 0
161 -1841 1842 0
-1842 2026 0
162 -1842 1843 0
-1843 2027 0
163 -1843 1844 0
-1844 2028 0
164 -1844 1845 0
-1845 2029 0
165 -1845 1846 0
-1846 2030 0
166 -1846 1847 0
-1847 2031 0
167 -1847 1848 0
-1848 2032 0
168 -1848 1849 0
-1849 2033 0
169 -1849 1850 0
-1850 2034 0
170 -1850 1851 0
-1851 2035 0
171 -1851 1852 0
-1852 2036 0
172 -1852 1853 0
-1853 2037 0
173 -1853 1854 0
-1854 2038 0
174 -1854 1855 0
-1855 2039 0
175 -1855 1856 0
-1856 2040 0
176 -1856 1857 0
-1857 2041 0
177 -1857 1858 0
-1858 2042 0
178 -1858 1859 0
-1859 2043 0
179 -1859 1860 0
-1860 2044 0
180 -1860 1861 0
-1861 2045 0
181 -1861 1862 0
-1862 2046 0
182 -1862 1863 0
-1863 2047 0
183 -1863 1864 0
-1864 2048 0
184 -1864 1865 0
-1865 2049 0
185 -1865 1866 0
-1866 2050 0
186 -1866 1867 0
-1867 2051 0
187 -1867 1868 0
-1868 2052 0
188 -1868 1869 0
-1869 2053 0
189 -1869 1870 0
-1870 2054 0
190 -1870 1871 0
-1871 2055 0
191 -1871 1872 0
-1872 2056 0
192 -1872 0
9 1873 0
-1873 2057 0
10 -1873 1874 0
-1874 2058 0
11 -1874 1875 0
-1875 2059 0
12 -1875 1876 0
-1876 2060 0
13 -1876 1877 0
-1877 2061 0
14 -1877 1878 0
-1878 2062 0
15 -1878 1879 0
-1879 2063 0
16 -1879 1880 0
-1880 2064 0
17 -1880 1881 0
-1881 2065 0
18 -1881 1882 0
-1882 2066 0
19 -1882 1883 0
-1883 2067 0
20 -1883 1884 0
-1884 2068 0
21 -1884 1885 0
-1885 2069 0
22 -1885 1886 0
-1886 2070 0
23 -1886 1887 0
-1887 2071 0
24 -1887 1888 0
-1888 2072 0
25 -1888 1889 0
-1889 2073 0
26 -1889 1890 0
-1890 2074 0
27 -1890 1891 0
-1891 2075 0
28 -1891 1892 0
-1892 2076 0
29 -1892 1893 0
-1893 2077 0
30 -1893 1894 0
-1894 2078 0
31 -1894 1895 0
-1895 2079 0
32 -1895 1896 0
-1896 2080 0
33 -1896 1897 0
-1897 2081 0
34 -1897 1898 0
-1898 2082 0
35 -1898 1899 0
-1899 2083 0
36 -1899 1900 0
-1900 2084 0
37 -1900 1901 0
-1901 2085 0
38 -1901 1902 0
-1902 2086 0
39 -1902 1903 0
-1903 2087 0
40 -1903 1904 0
-1904 2088 0
41 -1904 1905 0
-1905 2089 0
42 -1905 1906 0
-1906 2090 0
43 -1906 1907 0
-1907 2091 0
44 -1907 1908 0
-1908 2092 0
45 -1908 1909 0
-1909 2093 0
46 -1909 1910 0
-1910 2094 0
47 -1910 1911 0
-1911 2095 0
48 -1911 1912 0
-1912 2096 0
49 -1912 1913 0
-1913 2097 0
50 -1913 1914 0
-1914 2098 0
51 -1914 1915 0
-1915 2099 0
52 -1915 1916 0
-1916 2100 0
53 -1916 1917 0
-1917 2101 0
54 -1917 1918 0
-1918 2102 0
55 -1918 1919 0
-1919 2103 0
56 -1919 1920 0
-1920 2104 0
57 -1920 1921 0
-1921 2105 0
58 -1921 1922 0
-1922 2106 0
59 -1922 1923 0
-1923 2107 0
60 -1923 1924 0
-1924 2108 0
61 -1924 1925 0
-1925 2109 0
62 -1925 1926 0
-1926 2110 0
63 -1926 1927 0
-1927 2111 0
64 -1927 1928 0
-1928 2112 0
65 -1928 1929 0
-1929 2113 0
66 -1929 1930 0
-1930 2114 0
67 -1930 1931 0
-1931 2115 0
68 -1931 1932 0
-1932 2116 0
69 -1932 1933 0
-1933 2117 0
70 -1933 1934 0
-1934 2118 0
71 -1934 1935 0
-1935 2119 0
72 -1935 1936 0
-1936 2120 0
73 -1936 1937 0
-1937 2121 0
74 -1937 1938 0
-1938 2122 0
75 -1938 1939 0
-1939 2123 0
76 -1939 1940 0
-1940 2124 0
77 -1940 1941 0
-1941 2125 0
78 -1941 1942 0
-1942 2126 0
79 -1942 1943 0
-1943 2127 0
80 -1943 1944 0
-1944 2128 0
81 -1944 1945 0
-1945 2129 0
82 -1945 1946 0
-1946 2130 0
83 -1946 1947 0
-1947 2131 0
84 -1947 1948 0
-1948 2132 0
85 -1948 1949 0
-1949 2133 0
86 -1949 1950 0
-1950 2134 0
87 -1950 1951 0
-1951 2135 0
88 -1951 1952 0
-1952 2136 0
89 -1952 1953 0
-1953 2137 0
90 -1953 1954 0
-1954 2138 0
91 -1954 1955 0
-1955 2139 0
92 -1955 1956 0
-1956 2140 0
93 -1956 1957 0
-1957 2141 0
94 -1957 1958 0
-1958 2142 0
95 -1958 1959 0
-1959 2143 0
96 -1959 1960 0
-1960 2144 0
97 -1960 1961 0
-1961 2145 0
98 -1961 1962 0
-1962 2146 0
99 -1962 1963 0
-1963 2147 0
100 -1963 1964 0
-1964 2148 0
101 -1964 1965 0
-1965 2149 0
102 -1965 1966 0
-1966 2150 0
103 -1966 1967 0
-1967 2151 0
104 -1967 1968 0
-1968 2152 0
105 -1968 1969 0
-1969 2153 0
106 -1969 1970 0
-1970 2154 0
107 -1970 1971 0
-1971 2155 0
108 -1971 1972 0
-1972 2156 0
109 -1972 1973 0
-1973 2157 0
110 -1973 1974 0
-1974 2158 0
111 -1974 1975 0
-1975 2159 0
112 -1975 1976 0
-1976 2160 0
113 -1976 1977 0
-1977 2161 0
114 -1977 1978 0
-1978 2162 0
115 -1978 1979 0
-1979 2163 0
116 -1979 1980 0
-1980 2164 0
117 -1980 1981 0
-1981 2165 0
118 -1981 1982 0
-1982 2166 0
119 -1982 1983 0
-1983 2167 0
120 -1983 1984 0
-1984 2168 0
121 -1984 1985 0
-1985 2169 0
122 -1985 1986 0
-1986 2170 0
123 -1986 1987 0
-1987 2171 0
124 -1987 1988 0
-1988 2172 0
125 -1988 1989 0
-1989 2173 0
126 -1989 1990 0
-1990 2174 0
127 -1990 1991 0
-1991 2175 0
128 -1991 1992 0
-1992 2176 0
129 -1992 1993 0
-1993 2177 0
130 -1993 1994 0
-1994 2178 0
131 -1994 1995 0
-1995 2179 0
132 -1995 1996 0
-1996 2180 0
133 -1996 1997 0
-1997 2181 0
134 -1997 1998 0
-1998 2182 0
135 -1998 1999 0
-1999 2183 0
136 -1999 2000 0
-2000 2184 0
137 -2000 2001 0
-2001 2185 0
138 -2001 2002 0
-2002 2186 0
139 -2002 2003 0
-2003 2187 0
140 -2003 2004 0
-2004 2188 0
141 -2004 2005 0
-2005 2189 0
142 -2005 2006 0
-2006 2190 0
143 -2006 2007 0
-2007 2191 0
144 -2007 2008 0
-2008 2192 0
145 -2008 2009 0
-2009 2193 0
146 -2009 2010 0
-2010 2194 0
147 -2010 2011 0
-2011 2195 0
148 -2011 2012 0
-2012 2196 0
149 -2012 2013 0
-2013 2197 0
150 -2013 2014 0
-2014 2198 0
151 -2014 2015 0
-2015 2199 0
152 -2015 2016 0
-2016 2200 0
153 -2016 2017 0
-2017 2201 0
154 -2017 2018 0
-2018 2202 0
155 -2018 2019 0
-2019 2203 0
156 -2019 2020 0
-2020 2204 0
157 -2020 2021 0
-2021 2205 0
158 -2021 2022 0
-2022 2206 0
159 -2022 2023 0
-2023 2207 0
160 -2023 2024 0
-2024 2208 0
161 -2024 2025 0
-2025 2209 0
162 -2025 2026 0
-2026 2210 0
163 -2026 2027 0
-2027 2211 0
164 -2027 2028 0
-2028 2212 0
165 -2028 2029 0
-2029 2213 0
166 -2029 2030 0
-2030 2214 0
167 -2030 2031 0
-2031 2215 0
168 -2031 2032 0
-2032 2216 0
169 -2032 2033 0
-2033 2217 0
170 -2033 2034 0
-2034 2218 0
171 -2034 2035 0
-2035 2219 0
172 -2035 2036 0
-2036 2220 0
173 -2036 2037 0
-2037 2221 0
174 -2037 2038 0
-2038 2222 0
175 -2038 2039 0
-2039 2223 0
176 -2039 2040 0
-2040 2224 0
177 -2040 2041 0
-2041 2225 0
178 -2041 2042 0
-2042 2226 0
179 -2042 2043 0
-2043 2227 0
180 -2043 2044 0
-2044 2228 0
181 -2044 2045 0
-2045 2229 0
182 -2045 2046 0
-2046 2230 0
183 -2046 2047 0
-2047 2231 0
184 -2047 2048 0
-2048 2232 0
185 -2048 2049 0
-2049 2233 0
186 -2049 2050 0
-2050 2234 0
187 -2050 2051 0
-2051 2235 0
188 -2051 2052 0
-2052 2236 0
189 -2052 2053 0
-2053 2237 0
190 -2053 2054 0
-2054 2238 0
191 -2054 2055 0
-2055 2239 0
192 -2055 2056 0
-2056 2240 0
193 -2056 0
10 2057 0
-2057 2241 0
11 -2057 2058 0
-2058 2242 0
12 -2058 2059 0
-2059 2243 0
13 -2059 2060 0
-2060 2244 0
14 -2060 2061 0
-2061 2245 0
15 -2061 2062 0
-2062 2246 0
16 -2062 2063 0
-2063 2247 0
17 -2063 2064 0
-2064 2248 0
18 -2064 2065 0
-2065 2249 0
19 -2065 2066 0
-2066 2250 0
20 -2066 2067 0
-2067 2251 0
21 -2067 2068 0
-2068 2252 0
22 -2068 2069 0
-2069 2253 0
23 -2069 2070 0
-2070 2254 0
24 -2070 2071 0
-2071 2255 0
25 -2071 2072 0
-2072 2256 0
26 -2072 2073 0
-2073 2257 0
27 -2073 2074 0
-2074 2258 0
28 -2074 2075 0
-2075 2259 0
29 -2075 2076 0
-2076 2260 0
30 -2076 2077 0
-2077 2261 0
31 -2077 2078 0
-2078 2262 0
32 -2078 2079 0
-2079 2263 0
33 -2079 2080 0
-2080 2264 0
34 -2080 2081 0
-2081 2265 0
35 -2081 2082 0
-2082 2266 0
36 -2082 2083 0
-2083 2267 0
37 -2083 2084 0
-2084 2268 0
38 -2084 2085 0
-2085 2269 0
39 -2085 2086 0
-2086 2270 0
40 -2086 2087 0
-2087 2271 0
41 -2087 2088 0
-2088 2272 0
42 -2088 2089 0
-2089 2273 0
43 -2089 2090 0
-2090 2274 0
44 -2090 2091 0
-2091 2275 0
45 -2091 2092 0
-2092 2276 0
46 -2092 2093 0
-2093 2277 0
47 -2093 2094 0
-2094 2278 0
48 -2094 2095 0
-2095 2279 0
49 -2095 2096 0
-2096 2280 0
50 -2096 2097 0
-2097 2281 0
51 -2097 2098 0
-2098 2282 0
52 -2098 2099 0
-2099 2283 0
53 -2099 2100 0
-2100 2284 0
54 -2100 2101 0
-2101 2285 0
55 -2101 2102 0
-2102 2286 0
56 -2102 2103 0
-2103 2287 0
57 -2103 2104 0
-2104 2288 0
58 -2104 2105 0
-2105 2289 0
59 -2105 2106 0
-2106 2290 0
60 -2106 2107 0
-2107 2291 0
61 -2107 2108 0
-2108 2292 0
62 -2108 2109 0
-2109 2293 0
63 -2109 2110 0
-2110 2294 0
64 -2110 2111 0
-2111 2295 0
65 -2111 2112 0
-2112 2296 0
66 -2112 2113 0
-2113 2297 0
67 -2113 2114 0
-2114 2298 0
68 -2114 2115 0
-2115 2299 0
69 -2115 2116 0
-2116 2300 0
70 -2116 2117 0
-2117 2301 0
71 -2117 2118 0
-2118 2302 0
72 -2118 2119 0
-2119 2303 0
73 -2119 2120 0
-2120 2304 0
74 -2120 2121 0
-2121 2305 0
75 -2121 2122 0
-2122 2306 0
76 -2122 2123 0
-2123 2307 0
77 -2123 2124 0
-2124 2308 0
78 -2124 2125 0
-2125 2309 0
79 -2125 2126 0
-2126 2310 0
80 -2126 2127 0
-2127 2311 0
81 -2127 2128 0
-2128 2312 0
82 -2128 2129 0
-2129 2313 0
83 -2129 2130 0
-2130 2314 0
84 -2130 2131 0
-2131 2315 0
85 -2131 2132 0
-2132 2316 0
86 -2132 2133 0
-2133 2317 0
87 -2133 2134 0
-2134 2318 0
88 -2134 2135 0
-2135 2319 0
89 -2135 2136 0
-2136 2320 0
90 -2136 2137 0
-2137 2321 0
91 -2137 2138 0
-2138 2322 0
92 -2138 2139 0
-2139 2323 0
93 -2139 2140 0
-2140 2324 0
94 -2140 2141 0
-2141 2325 0
95 -2141 2142 0
-2142 2326 0
96 -2142 2143 0
-2143 2327 0
97 -2143 2144 0
-2144 2328 0
98 -2144 2145 0
-2145 2329 0
99 -2145 2146 0
-2146 2330 0
100 -2146 2147 0
-2147 2331 0
101 -2147 2148 0
-2148 2332 0
102 -2148 2149 0
-2149 2333 0
103 -2149 2150 0
-2150 2334 0
104 -2150 2151 0
-2151 2335 0
105 -2151 2152 0
-2152 2336 0
106 -2152 2153 0
-2153 2337 0
107 -2153 2154 0
-2154 2338 0
108 -2154 2155 0
-2155 2339 0
109 -2155 2156 0
-2156 2340 0
110 -2156 2157 0
-2157 2341 0
111 -2157 2158 0
-2158 2342 0
112 -2158 2159 0
-2159 2343 0
113 -2159 2160 0
-2160 2344 0
114 -2160 2161 0
-2161 2345 0
115 -2161 2162 0
-2162 2346 0
116 -2162 2163 0
-2163 2347 0
117 -2163 2164 0
-2164 2348 0
118 -2164 2165 0
-2165 2349 0
119 -2165 2166 0
-2166 2350 0
120 -2166 2167 0
-2167 2351 0
121 -2167 2168 0
-2168 2352 0
122 -2168 2169 0
-2169 2353 0
123 -2169 2170 0
-2170 2354 0
124 -2170 2171 0
-2171 2355 0
125 -2171 2172 0
-2172 2356 0
126 -2172 2173 0
-2173 2357 0
127 -2173 2174 0
-2174 2358 0
128 -2174 2175 0
-2175 2359 0
129 -2175 2176 0
-2176 2360 0
130 -2176 2177 0
-2177 2361 0
131 -2177 2178 0
-2178 2362 0
132 -2178 2179 0
-2179 2363 0
133 -2179 2180 0
-2180 2364 0
134 -2180 2181 0
-2181 2365 0
135 -2181 2182 0
-2182 2366 0
136 -2182 2183 0
-2183 2367 0
137 -2183 2184 0
-2184 2368 0
138 -2184 2185 0
-2185 2369 0
139 -2185 2186 0
-2186 2370 0
140 -2186 2187 0
-2187 2371 0
141 -2187 2188 0
-2188 2372 0
142 -2188 2189 0
-2189 2373 0
143 -2189 2190 0
-2190 2374 0
144 -2190 2191 0
-2191 2375 0
145 -2191 2192 0
-2192 2376 0
146 -2192 2193 0
-2193 2377 0
147 -2193 2194 0
-2194 2378 0
148 -2194 2195 0
-2195 2379 0
149 -2195 2196 0
-2196 2380 0
150 -2196 2197 0
-2197 2381 0
151 -2197 2198 0
-2198 2382 0
152 -2198 2199 0
-2199 2383 0
153 -2199 2200 0
-2200 2384 0
154 -2200 2201 0
-2201 2385 0
155 -2201 2202 0
-2202 2386 0
156 -2202 2203 0
-2203 2387 0
157 -2203 2204 0
-2204 2388 0
158 -2204 2205 0
-2205 2389 0
159 -2205 2206 0
-2206 2390 0
160 -2206 2207 0
-2207 2391 0
161 -2207 2208 0
-2208 2392 0
162 -2208 2209 0
-2209 2393 0
163 -2209 2210 0
-2210 2394 0
164 -2210 2211 0
-2211 2395 0
165 -2211 2212 0
-2212 2396 0
166 -2212 2213 0
-2213 2397 0
167 -2213 2214 0
-2214 2398 0
168 -2214 2215 0
-2215 2399 0
169 -2215 2216 0
-2216 2400 0
170 -2216 2217 0
-2217 2401 0
171 -2217 2218 0
-2218 2402 0
172 -2218 2219 0
-2219 2403 0
173 -2219 2220 0
-2220 2404 0
174 -2220 2221 0
-2221 2405 0
175 -2221 2222 0
-2222 2406 0
176 -2222 2223 0
-2223 2407 0
177 -2223 2224 0
-2224 2408 0
178 -2224 2225 0
-2225 2409 0
179 -2225 2226 0
-2226 2410 0
180 -2226 2227 0
-2227 2411 0
181 -2227 2228 0
-2228 2412 0
182 -2228 2229 0
-2229 2413 0
183 -2229 2230 0
-2230 2414 0
184 -2230 2231 0
-2231 2415 0
185 -2231 2232 0
-2232 2416 0
186 -2232 2233 0
-2233 2417 0
187 -2233 2234 0
-2234 2418 0
188 -2234 2235 0
-2235 2419 0
189 -2235 2236 0
-2236 2420 0
190 -2236 2237 0
-2237 2421 0
191 -2237 2238 0
-2238 2422 0
192 -2238 2239 0
-2239 2423 0
193 -2239 2240 0
-2240 2424 0
194 -2240 0
11 2241 0
-2241 2425 0
12 -2241 2242 0
-2242 2426 0
13 -2242 2243 0
-2243 2427 0
14 -2243 2244 0
-2244 2428 0
15 -2244 2245 0
-2245 2429 0
16 -2245 2246 0
-2246 2430 0
17 -2246 2247 0
-2247 2431 0
18 -2247 2248 0
-2248 2432 0
19 -2248 2249 0
-2249 2433 0
20 -2249 2250 0
-2250 2434 0
21 -2250 2251 0
-2251 2435 0
22 -2251 2252 0
-2252 2436 0
23 -2252 2253 0
-2253 2437 0
24 -2253 2254 0
-2254 2438 0
25 -2254 2255 0
-2255 2439 0
26 -2255 2256 0
-2256 2440 0
27 -2256 2257 0
-2257 2441 0
28 -2257 2258 0
-2258 2442 0
29 -2258 2259 0
-2259 2443 0
30 -2259 2260 0
-2260 2444 0
31 -2260 2261 0
-2261 2445 0
32 -2261 2262 0
-2262 2446 0
33 -2262 2263 0
-2263 2447 0
34 -2263 2264 0
-2264 2448 0
35 -2264 2265 0
-2265 2449 0
36 -2265 2266 0
-2266 2450 0
37 -2266 2267 0
-2267 2451 0
38 -2267 2268 0
-2268 2452 0
39 -2268 2269 0
-2269 2453 0
40 -2269 2270 0
-2270 2454 0
41 -2270 2271 0
-2271 2455 0
42 -2271 2272 0
-2272 2456 0
43 -2272 2273 0
-2273 2457 0
44 -2273 2274 0
-2274 2458 0
45 -2274 2275 0
-2275 2459 0
46 -2275 2276 0
-2276 2460 0
47 -2276 2277 0
-2277 2461 0
48 -2277 2278 0
-2278 2462 0
49 -2278 2279 0
-2279 2463 0
50 -2279 2280 0
-2280 2464 0
51 -2280 2281 0
-2281 2465 0
52 -2281 2282 0
-2282 2466 0
53 -2282 2283 0
-2283 2467 0
54 -2283 2284 0
-2284 2468 0
55 -2284 2285 0
-2285 2469 0
56 -2285 2286 0
-2286 2470 0
57 -2286 2287 0
-2287 2471 0
58 -2287 2288 0
-2288 2472 0
59 -2288 2289 0
-2289 2473 0
60 -2289 2290 0
-2290 2474 0
61 -2290 2291 0
-2291 2475 0
62 -2291 2292 0
-2292 2476 0
63 -2292 2293 0
-2293 2477 0
64 -2293 2294 0
-2294 2478 0
65 -2294 2295 0
-2295 2479 0
66 -2295 2296 0
-2296 2480 0
67 -2296 2297 0
-2297 2481 0
68 -2297 2298 0
-2298 2482 0
69 -2298 2299 0
-2299 2483 0
70 -2299 2300 0
-2300 2484 0
71 -2300 2301 0
-2301 2485 0
72 -2301 2302 0
-2302 2486 0
73 -2302 2303 0
-2303 2487 0
74 -2303 2304 0
-2304 2488 0
75 -2304 2305 0
-2305 2489 0
76 -2305 2306 0
-2306 2490 0
77 -2306 2307 0
-2307 2491 0
78 -2307 2308 0
-2308 2492 0
79 -2308 2309 0
-2309 2493 0
80 -2309 2310 0
-2310 2494 0
81 -2310 2311 0
-2311 2495 0
82 -2311 2312 0
-2312 2496 0
83 -2312 2313 0
-2313 2497 0
84 -2313 2314 0
-2314 2498 0
85 -2314 2315 0
-2315 2499 0
86 -2315 2316 0
-2316 2500 0
87 -2316 2317 0
-2317 2501 0
88 -2317 2318 0
-2318 2502 0
89 -2318 2319 0
-2319 2503 0
90 -2319 2320 0
-2320 2504 0
91 -2320 2321 0
-2321 2505 0
92 -2321 2322 0
-2322 2506 0
93 -2322 2323 0
-2323 2507 0
94 -2323 2324 0
-2324 2508 0
95 -2324 2325 0
-2325 2509 0
96 -2325 2326 0
-2326 2510 0
97 -2326 2327 0
-2327 2511 0
98 -2327 2328 0
-2328 2512 0
99 -2328 2329 0
-2329 2513 0
100 -2329 2330 0
-2330 2514 0
101 -2330 2331 0
-2331 2515 0
102 -2331 2332 0
-2332 2516 0
103 -2332 2333 0
-2333 2517 0
104 -2333 2334 0
-2334 2518 0
105 -2334 2335 0
-2335 2519 0
106 -2335 2336 0
-2336 2520 0
107 -2336 2337 0
-2337 2521 0
108 -2337 2338 0
-2338 2522 0
109 -2338 2339 0
-2339 2523 0
110 -2339 2340 0
-2340 2524 0
111 -2340 2341 0
-2341 2525 0
112 -2341 2342 0
-2342 2526 0
113 -2342 2343 0
-2343 2527 0
114 -2343 2344 0
-2344 2528 0
115 -2344 2345 0
-2345 2529 0
116 -2345 2346 0
-2346 2530 0
117 -2346 2347 0
-2347 2531 0
118 -2347 2348 0
-2348 2532 0
119 -2348 2349 0
-2349 2533 0
120 -2349 2350 0
-2350 2534 0
121 -2350 2351 0
-2351 2535 0
122 -2351 2352 0
-2352 2536 0
123 -2352 2353 0
-2353 2537 0
124 -2353 2354 0
-2354 2538 0
125 -2354 2355 0
-2355 2539 0
126 -2355 2356 0
-2356 2540 0
127 -2356 2357 0
-2357 2541 0
128 -2357 2358 0
-2358 2542 0
129 -2358 2359 0
-2359 2543 0
130 -2359 2360 0
-2360 2544 0
131 -2360 2361 0
-2361 2545 0
132 -2361 2362 0
-2362 2546 0
133 -2362 2363 0
-2363 2547 0
134 -2363 2364 0
-2364 2548 0
135 -2364 2365 0
-2365 2549 0
136 -2365 2366 0
-2366 2550 0
137 -2366 2367 0
-2367 2551 0
138 -2367 2368 0
-2368 2552 0
139 -2368 2369 0
-2369 2553 0
140 -2369 2370 0
-2370 2554 0
141 -2370 2371 0
-2371 2555 0
142 -2371 2372 0
-2372 2556 0
143 -2372 2373 0
-2373 2557 0
144 -2373 2374 0
-2374 2558 0
145 -2374 2375 0
-2375 2559 0
146 -2375 2376 0
-2376 2560 0
147 -2376 2377 0
-2377 2561 0
148 -2377 2378 0
-2378 2562 0
149 -2378 2379 0
-2379 2563 0
150 -2379 2380 0
-2380 2564 0
151 -2380 2381 0
-2381 2565 0
152 -2381 2382 0
-2382 2566 0
153 -2382 2383 0
-2383 2567 0
154 -2383 2384 0
-2384 2568 0
155 -2384 2385 0
-2385 2569 0
156 -2385 2386 0
-2386 2570 0
157 -2386 2387 0
-2387 2571 0
158 -2387 2388 0
-2388 2572 0
159 -2388 2389 0
-2389 2573 0
160 -2389 2390 0
-2390 2574 0
161 -2390 2391 0
-2391 2575 0
162 -2391 2392 0
-2392 2576 0
163 -2392 2393 0
-2393 2577 0
164 -2393 2394 0
-2394 2578 0
165 -2394 2395 0
-2395 2579 0
166 -2395 2396 0
-2396 2580 0
167 -2396 2397 0
-2397 2581 0
168 -2397 2398 0
-2398 2582 0
169 -2398 2399 0
-2399 2583 0
170 -2399 2400 0
-2400 2584 0
171 -2400 2401 0
-2401 2585 0
172 -2401 2402 0
-2402 2586 0
173 -2402 2403 0
-2403 2587 0
174 -2403 2404 0
-2404 2588 0
175 -2404 2405 0
-2405 2589 0
176 -2405 2406 0
-2406 2590 0
177 -2406 2407 0
-2407 2591 0
178 -2407 2408 0
-2408 2592 0
179 -2408 2409 0
-2409 2593 0
180 -2409 2410 0
-2410 2594 0
181 -2410 2411 0
-2411 2595 0
182 -2411 2412 0
-2412 2596 0
183 -2412 2413 0
-2413 2597 0
184 -2413 2414 0
-2414 2598 0
185 -2414 2415 0
-2415 2599 0
186 -2415 2416 0
-2416 2600 0
187 -2416 2417 0
-2417 2601 0
188 -2417 2418 0
-2418 2602 0
189 -2418 2419 0
-2419 2603 0
190 -2419 2420 0
-2420 2604 0
191 -2420 2421 0
-2421 2605 0
192 -2421 2422 0
-2422 2606 0
193 -2422 2423 0
-2423 2607 0
194 -2423 2424 0
-2424 2608 0
195 -2424 0
12 2425 0
-2425 2609 0
13 -2425 2426 0
-2426 2610 0
14 -2426 2427 0
-2427 2611 0
15 -2427 2428 0
-2428 2612 0
16 -2428 2429 0
-2429 2613 0
17 -2429 2430 0
-2430 2614 0
18 -2430 2431 0
-2431 2615 0
19 -2431 2432 0
-2432 2616 0
20 -2432 2433 0
-2433 2617 0
21 -2433 2434 0
-2434 2618 0
22 -2434 2435 0
-2435 2619 0
23 -2435 2436 0
-2436 2620 0
24 -2436 2437 0
-2437 2621 0
25 -2437 2438 0
-2438 2622 0
26 -2438 2439 0
-2439 2623 0
27 -2439 2440 0
-2440 2624 0
28 -2440 2441 0
-2441 2625 0
29 -2441 2442 0
-2442 2626 0
30 -2442 2443 0
-2443 2627 0
31 -2443 2444 0
-2444 2628 0
32 -2444 2445 0
-2445 2629 0
33 -2445 2446 0
-2446 2630 0
34 -2446 2447 0
-2447 2631 0
35 -2447 2448 0
-2448 2632 0
36 -2448 2449 0
-2449 2633 0
37 -2449 2450 0
-2450 2634 0
38 -2450 2451 0
-2451 2635 0
39 -2451 2452 0
-2452 2636 0
40 -2452 2453 0
-2453 2637 0
41 -2453 2454 0
-2454 2638 0
42 -2454 2455 0
-2455 2639 0
43 -2455 2456 0
-2456 2640 0
44 -2456 2457 0
-2457 2641 0
45 -2457 2458 0
-2458 2642 0
46 -2458 2459 0
-2459 2643 0
47 -2459 2460 0
-2460 2644 0
48 -2460 2461 0
-2461 2645 0
49 -2461 2462 0
-2462 2646 0
50 -2462 2463 0
-2463 2647 0
51 -2463 2464 0
-2464 2648 0
52 -2464 2465 0
-2465 2649 0
53 -2465 2466 0
-2466 2650 0
54 -2466 2467 0
-2467 2651 0
55 -2467 2468 0
-2468 2652 0
56 -2468 2469 0
-2469 2653 0
57 -2469 2470 0
-2470 2654 0
58 -2470 2471 0
-2471 2655 0
59 -2471 2472 0
-2472 2656 0
60 -2472 2473 0
-2473 2657 0
61 -2473 2474 0
-2474 2658 0
62 -2474 2475 0
-2475 2659 0
63 -2475 2476 0
-2476 2660 0
64 -2476 2477 0
-2477 2661 0
65 -2477 2478 0
-2478 2662 0
66 -2478 2479 0
-2479 2663 0
67 -2479 2480 0
-2480 2664 0
68 -2480 2481 0
-2481 2665 0
69 -2481 2482 0
-2482 2666 0
70 -2482 2483 0
-2483 2667 0
71 -2483 2484 0
-2484 2668 0
72 -2484 2485 0
-2485 2669 0
73 -2485 2486 0
-2486 2670 0
74 -2486 2487 0
-2487 2671 0
75 -2487 2488 0
-2488 2672 0
76 -2488 2489 0
-2489 2673 0
77 -2489 2490 0
-2490 2674 0
78 -2490 2491 0
-2491 2675 0
79 -2491 2492 0
-2492 2676 0
80 -2492 2493 0
-2493 2677 0
81 -2493 2494 0
-2494 2678 0
82 -2494 2495 0
-2495 2679 0
83 -2495 2496 0
-2496 2680 0
84 -2496 2497 0
-2497 2681 0
85 -2497 2498 0
-2498 2682 0
86 -2498 2499 0
-2499 2683 0
87 -2499 2500 0
-2500 2684 0
88 -2500 2501 0
-2501 2685 0
89 -2501 2502 0
-2502 2686 0
90 -2502 2503 0
-2503 2687 0
91 -2503 2504 0
-2504 2688 0
92 -2504 2505 0
-2505 2689 0
93 -2505 2506 0
-2506 2690 0
94 -2506 2507 0
-2507 2691 0
95 -2507 2508 0
-2508 2692 0
96 -2508 2509 0
-2509 2693 0
97 -2509 2510 0
-2510 2694 0
98 -2510 2511 0
-2511 2695 0
99 -2511 2512 0
-2512 2696 0
100 -2512 2513 0
-2513 2697 0
101 -2513 2514 0
-2514 2698 0
102 -2514 2515 0
-2515 2699 0
103 -2515 2516 0
-2516 2700 0
104 -2516 2517 0
-2517 2701 0
105 -2517 2518 0
-2518 2702 0
106 -2518 2519 0
-2519 2703 0
107 -2519 2520 0
-2520 2704 0
108 -2520 2521 0
-2521 2705 0
109 -2521 2522 0
-2522 2706 0
110 -2522 2523 0
-2523 2707 0
111 -2523 2524 0
-2524 2708 0
112 -2524 2525 0
-2525 2709 0
113 -2525 2526 0
-2526 2710 0
114 -2526 2527 0
-2527 2711 0
115 -2527 2528 0
-2528 2712 0
116 -2528 2529 0
-2529 2713 0
117 -2529 2530 0
-2530 2714 0
118 -2530 2531 0
-2531 2715 0
119 -2531 2532 0
-2532 2716 0
120 -2532 2533 0
-2533 2717 0
121 -2533 2534 0
-2534 2718 0
122 -2534 2535 0
-2535 2719 0
123 -2535 2536 0
-2536 2720 0
124 -2536 2537 0
-2537 2721 0
125 -2537 2538 0
-2538 2722 0
126 -2538 2539 0
-2539 2723 0
127 -2539 2540 0
-2540 2724 0
128 -2540 2541 0
-2541 2725 0
129 -2541 2542 0
-2542 2726 0
130 -2542 2543 0
-2543 2727 0
131 -2543 2544 0
-2544 2728 0
132 -2544 2545 0
-2545 2729 0
133 -2545 2546 0
-2546 2730 0
134 -2546 2547 0
-2547 2731 0
135 -2547 2548 0
-2548 2732 0
136 -2548 2549 0
-2549 2733 0
137 -2549 2550 0
-2550 2734 0
138 -2550 2551 0
-2551 2735 0
139 -2551 2552 0
-2552 2736 0
140 -2552 2553 0
-2553 2737 0
141 -2553 2554 0
-2554 2738 0
142 -2554 2555 0
-2555 2739 0
143 -2555 2556 0
-2556 2740 0
144 -2556 2557 0
-2557 2741 0
145 -2557 2558 0
-2558 2742 0
146 -2558 2559 0
-2559 2743 0
147 -2559 2560 0
-2560 2744 0
148 -2560 2561 0
-2561 2745 0
149 -2561 2562 0
-2562 2746 0
150 -2562 2563 0
-2563 2747 0
151 -2563 2564 0
-2564 2748 0
152 -2564 2565 0
-2565 2749 0
153 -2565 2566 0
-2566 2750 0
154 -2566 2567 0
-2567 2751 0
155 -2567 2568 0
-2568 2752 0
156 -2568 2569 0
-2569 2753 0
157 -2569 2570 0
-2570 2754 0
158 -2570 2571 0
-2571 2755 0
159 -2571 2572 0
-2572 2756 0
160 -2572 2573 0
-2573 2757 0
161 -2573 2574 0
-2574 2758 0
162 -2574 2575 0
-2575 2759 0
163 -2575 2576 0
-2576 2760 0
164 -2576 2577 0
-2577 2761 0
165 -2577 2578 0
-2578 2762 0
166 -2578 2579 0
-2579 2763 0
167 -2579 2580 0
-2580 2764 0
168 -2580 2581 0
-2581 2765 0
169 -2581 2582 0
-2582 2766 0
170 -2582 2583 0
-2583 2767 0
171 -2583 2584 0
-2584 2768 0
172 -2584 2585 0
-2585 2769 0
173 -2585 2586 0
-2586 2770 0
174 -2586 2587 0
-2587 2771 0
175 -2587 2588 0
-2588 2772 0
176 -2588 2589 0
-2589 2773 0
177 -2589 2590 0
-2590 2774 0
178 -2590 2591 0
-2591 2775 0
179 -2591 2592 0
-2592 2776 0
180 -2592 2593 0
-2593 2777 0
181 -2593 2594 0
-2594 2778 0
182 -2594 2595 0
-2595 2779 0
183 -2595 2596 0
-2596 2780 0
184 -2596 2597 0
-2597 2781 0
185 -2597 2598 0
-2598 2782 0
186 -2598 2599 0
-2599 2783 0
187 -2599 2600 0
-2600 2784 0
188 -2600 2601 0
-2601 2785 0
189 -2601 2602 0
-2602 2786 0
190 -2602 2603 0
-2603 2787 0
191 -2603 2604 0
-2604 2788 0
192 -2604 2605 0
-2605 2789 0
193 -2605 2606 0
-2606 2790 0
194 -2606 2607 0
-2607 2791 0
195 -2607 2608 0
-2608 2792 0
196 -2608 0
13 2609 0
-2609 2793 0
14 -2609 2610 0
-2610 2794 0
15 -2610 2611 0
-2611 2795 0
16 -2611 2612 0
-2612 2796 0
17 -2612 2613 0
-2613 2797 0
18 -2613 2614 0
-2614 2798 0
19 -2614 2615 0
-2615 2799 0
20 -2615 2616 0
-2616 2800 0
21 -2616 2617 0
-2617 2801 0
22 -2617 2618 0
-2618 2802 0
23 -2618 2619 0
-2619 2803 0
24 -2619 2620 0
-2620 2804 0
25 -2620 2621 0
-2621 2805 0
26 -2621 2622 0
-2622 2806 0
27 -2622 2623 0
-2623 2807 0
28 -2623 2624 0
-2624 2808 0
29 -2624 2625 0
-2625 2809 0
30 -2625 2626 0
-2626 2810 0
31 -2626 2627 0
-2627 2811 0
32 -2627 2628 0
-2628 2812 0
33 -2628 2629 0
-2629 2813 0
34 -2629 2630 0
-2630 2814 0
35 -2630 2631 0
-2631 2815 0
36 -2631 2632 0
-2632 2816 0
37 -2632 2633 0
-2633 2817 0
38 -2633 2634 0
-2634 2818 0
39 -2634 2635 0
-2635 2819 0
40 -2635 2636 0
-2636 2820 0
41 -2636 2637 0
-2637 2821 0
42 -2637 2638 0
-2638 2822 0
43 -2638 2639 0
-2639 2823 0
44 -2639 2640 0
-2640 2824 0
45 -2640 2641 0
-2641 2825 0
46 -2641 2642 0
-2642 2826 0
47 -2642 2643 0
-2643 2827 0
48 -2643 2644 0
-2644 2828 0
49 -2644 2645 0
-2645 2829 0
50 -2645 2646 0
-2646 2830 0
51 -2646 2647 0
-2647 2831 0
52 -2647 2648 0
-2648 2832 0
53 -2648 2649 0
-2649 2833 0
54 -2649 2650 0
-2650 2834 0
55 -2650 2651 0
-2651 2835 0
56 -2651 2652 0
-2652 2836 0
57 -2652 2653 0
-2653 2837 0
58 -2653 2654 0
-2654 2838 0
59 -2654 2655 0
-2655 2839 0
60 -2655 2656 0
-2656 2840 0
61 -2656 2657 0
-2657 2841 0
62 -2657 2658 0
-2658 2842 0
63 -2658 2659 0
-2659 2843 0
64 -2659 2660 0
-2660 2844 0
65 -2660 2661 0
-2661 2845 0
66 -2661 2662 0
-2662 2846 0
67 -2662 2663 0
-2663 2847 0
68 -2663 2664 0
-2664 2848 0
69 -2664 2665 0
-2665 2849 0
70 -2665 2666 0
-2666 2850 0
71 -2666 2667 0
-2667 2851 0
72 -2667 2668 0
-2668 2852 0
73 -2668 2669 0
-2669 2853 0
74 -2669 2670 0
-2670 2854 0
75 -2670 2671 0
-2671 2855 0
76 -2671 2672 0
-2672 2856 0
77 -2672 2673 0
-2673 2857 0
78 -2673 2674 0
-2674 2858 0
79 -2674 2675 0
-2675 2859 0
80 -2675 2676 0
-2676 2860 0
81 -2676 2677 0
-2677 2861 0
82 -2677 2678 0
-2678 2862 0
83 -2678 2679 0
-2679 2863 0
84 -2679 2680 0
-2680 2864 0
85 -2680 2681 0
-2681 2865 0
86 -2681 2682 0
-2682 2866 0
87 -2682 2683 0
-2683 2867 0
88 -2683 2684 0
-2684 2868 0
89 -2684 2685 0
-2685 2869 0
90 -2685 2686 0
-2686 2870 0
91 -2686 2687 0
-2687 2871 0
92 -2687 2688 0
-2688 2872 0
93 -2688 2689 0
-2689 2873 0
94 -2689 2690 0
-2690 2874 0
95 -2690 2691 0
-2691 2875 0
96 -2691 2692 0
-2692 2876 0
97 -2692 2693 0
-2693 2877 0
98 -2693 2694 0
-2694 2878 0
99 -2694 2695 0
-2695 2879 0
100 -2695 2696 0
-2696 2880 0
101 -2696 2697 0
-2697 2881 0
102 -2697 2698 0
-2698 2882 0
103 -2698 2699 0
-2699 2883 0
104 -2699 2700 0
-2700 2884 0
105 -2700 2701 0
-2701 2885 0
106 -2701 2702 0
-2702 2886 0
107 -2702 2703 0
-2703 2887 0
108 -2703 2704 0
-2704 2888 0
109 -2704 2705 0
-2705 2889 0
110 -2705 2706 0
-2706 2890 0
111 -2706 2707 0
-2707 2891 0
112 -2707 2708 0
-2708 2892 0
113 -2708 2709 0
-2709 2893 0
114 -2709 2710 0
-2710 2894 0
115 -2710 2711 0
-2711 2895 0
116 -2711 2712 0
-2712 2896 0
117 -2712 2713 0
-2713 2897 0
118 -2713 2714 0
-2714 2898 0
119 -2714 2715 0
-2715 2899 0
120 -2715 2716 0
-2716 2900 0
121 -2716 2717 0
-2717 2901 0
122 -2717 2718 0
-2718 2902 0
123 -2718 2719 0
-2719 2903 0
124 -2719 2720 0
-2720 2904 0
125 -2720 2721 0
-2721 2905 0
126 -2721 2722 0
-2722 2906 0
127 -2722 2723 0
-2723 2907 0
128 -2723 2724 0
-2724 2908 0
129 -2724 2725 0
-2725 2909 0
130 -2725 2726 0
-2726 2910 0
131 -2726 2727 0
-2727 2911 0
132 -2727 2728 0
-2728 2912 0
133 -2728 2729 0
-2729 2913 0
134 -2729 2730 0
-2730 2914 0
135 -2730 2731 0
-2731 2915 0
136 -2731 2732 0
-2732 2916 0
137 -2732 2733 0
-2733 2917 0
138 -2733 2734 0
-2734 2918 0
139 -2734 2735 0
-2735 2919 0
140 -2735 2736 0
-2736 2920 0
141 -2736 2737 0
-2737 2921 0
142 -2737 2738 0
-2738 2922 0
143 -2738 2739 0
-2739 2923 0
144 -2739 2740 0
-2740 2924 0
145 -2740 2741 0
-2741 2925 0
146 -2741 2742 0
-2742 2926 0
147 -2742 2743 0
-2743 2927 0
148 -2743 2744 0
-2744 2928 0
149 -2744 2745 0
-2745 2929 0
150 -2745 2746 0
-2746 2930 0
151 -2746 2747 0
-2747 2931 0
152 -2747 2748 0
-2748 2932 0
153 -2748 2749 0
-2749 2933 0
154 -2749 2750 0
-2750 2934 0
155 -2750 2751 0
-2751 2935 0
156 -2751 2752 0
-2752 2936 0
157 -2752 2753 0
-2753 2937 0
158 -2753 2754 0
-2754 2938 0
159 -2754 2755 0
-2755 2939 0
160 -2755 2756 0
-2756 2940 0
161 -2756 2757 0
-2757 2941 0
162 -2757 2758 0
-2758 2942 0
163 -2758 2759 0
-2759 2943 0
164 -2759 2760 0
-2760 2944 0
165 -2760 2761 0
-2761 2945 0
166 -2761 2762 0
-2762 2946 0
167 -2762 2763 0
-2763 2947 0
168 -2763 2764 0
-2764 2948 0
169 -2764 2765 0
-2765 2949 0
170 -2765 2766 0
-2766 2950 0
171 -2766 2767 0
-2767 2951 0
172 -2767 2768 0
-2768 2952 0
173 -2768 2769 0
-2769 2953 0
174 -2769 2770 0
-2770 2954 0
175 -2770 2771 0
-2771 2955 0
176 -2771 2772 0
-2772 2956 0
177 -2772 2773 0
-2773 2957 0
178 -2773 2774 0
-2774 2958 0
179 -2774 2775 0
-2775 2959 0
180 -2775 2776 0
-2776 2960 0
181 -2776 2777 0
-2777 2961 0
182 -2777 2778 0
-2778 2962 0
183 -2778 2779 0
-2779 2963 0
184 -2779 2780 0
-2780 2964 0
185 -2780 2781 0
-2781 2965 0
186 -2781 2782 0
-2782 2966 0
187 -2782 2783 0
-2783 2967 0
188 -2783 2784 0
-2784 2968 0
189 -2784 2785 0
-2785 2969 0
190 -2785 2786 0
-2786 2970 0
191 -2786 2787 0
-2787 2971 0
192 -2787 2788 0
-2788 2972 0
193 -2788 2789 0
-2789 2973 0
194 -2789 2790 0
-2790 2974 0
195 -2790 2791 0
-2791 2975 0
196 -2791 2792 0
-2792 2976 0
197 -2792 0
14 2793 0
-2793 2977 0
15 -2793 2794 0
-2794 2978 0
16 -2794 2795 0
-2795 2979 0
17 -2795 2796 0
-2796 2980 0
18 -2796 2797 0
-2797 2981 0
19 -2797 2798 0
-2798 2982 0
20 -2798 2799 0
-2799 2983 0
21 -2799 2800 0
-2800 2984 0
22 -2800 2801 0
-2801 2985 0
23 -2801 2802 0
-2802 2986 0
24 -2802 2803 0
-2803 2987 0
25 -2803 2804 0
-2804 2988 0
26 -2804 2805 0
-2805 2989 0
27 -2805 2806 0
-2806 2990 0
28 -2806 2807 0
-2807 2991 0
29 -2807 2808 0
-2808 2992 0
30 -2808 2809 0
-2809 2993 0
31 -2809 2810 0
-2810 2994 0
32 -2810 2811 0
-2811 2995 0
33 -2811 2812 0
-2812 2996 0
34 -2812 2813 0
-2813 2997 0
35 -2813 2814 0
-2814 2998 0
36 -2814 2815 0
-2815 2999 0
37 -2815 2816 0
-2816 3000 0
38 -2816 2817 0
-2817 3001 0
39 -2817 2818 0
-2818 3002 0
40 -2818 2819 0
-2819 3003 0
41 -2819 2820 0
-2820 3004 0
42 -2820 2821 0
-2821 3005 0
43 -2821 2822 0
-2822 3006 0
44 -2822 2823 0
-2823 3007 0
45 -2823 2824 0
-2824 3008 0
46 -2824 2825 0
-2825 3009 0
47 -2825 2826 0
-2826 3010 0
48 -2826 2827 0
-2827 3011 0
49 -2827 2828 0
-2828 3012 0
50 -2828 2829 0
-2829 3013 0
51 -2829 2830 0
-2830 3014 0
52 -2830 2831 0
-2831 3015 0
53 -2831 2832 0
-2832 3016 0
54 -2832 2833 0
-2833 3017 0
55 -2833 2834 0
-2834 3018 0
56 -2834 2835 0
-2835 3019 0
57 -2835 2836 0
-2836 3020 0
58 -2836 2837 0
-2837 3021 0
59 -2837 2838 0
-2838 3022 0
60 -2838 2839 0
-2839 3023 0
61 -2839 2840 0
-2840 3024 0
62 -2840 2841 0
-2841 3025 0
63 -2841 2842 0
-2842 3026 0
64 -2842 2843 0
-2843 3027 0
65 -2843 2844 0
-2844 3028 0
66 -2844 2845 0
-2845 3029 0
67 -2845 2846 0
-2846 3030 0
68 -2846 2847 0
-2847 3031 0
69 -2847 2848 0
-2848 3032 0
70 -2848 2849 0
-2849 3033 0
71 -2849 2850 0
-2850 3034 0
72 -2850 2851 0
-2851 3035 0
73 -2851 2852 0
-2852 3036 0
74 -2852 2853 0
-2853 3037 0
75 -2853 2854 0
-2854 3038 0
76 -2854 2855 0
-2855 3039 0
77 -2855 2856 0
-2856 3040 0
78 -2856 2857 0
-2857 3041 0
79 -2857 2858 0
-2858 3042 0
80 -2858 2859 0
-2859 3043 0
81 -2859 2860 0
-2860 3044 0
82 -2860 2861 0
-2861 3045 0
83 -2861 2862 0
-2862 3046 0
84 -2862 2863 0
-2863 3047 0
85 -2863 2864 0
-2864 3048 0
86 -2864 2865 0
-2865 3049 0
87 -2865 2866 0
-2866 3050 0
88 -2866 2867 0
-2867 3051 0
89 -2867 2868 0
-2868 3052 0
90 -2868 2869 0
-2869 3053 0
91 -2869 2870 0
-2870 3054 0
92 -2870 2871 0
-2871 3055 0
93 -2871 2872 0
-2872 3056 0
94 -2872 2873 0
-2873 3057 0
95 -2873 2874 0
-2874 3058 0
96 -2874 2875 0
-2875 3059 0
97 -2875 2876 0
-2876 3060 0
98 -2876 2877 0
-2877 3061 0
99 -2877 2878 0
-2878 3062 0
100 -2878 2879 0
-2879 3063 0
101 -2879 2880 0
-2880 3064 0
102 -2880 2881 0
-2881 3065 0
103 -2881 2882 0
-2882 3066 0
104 -2882 2883 0
-2883 3067 0
105 -2883 2884 0
-2884 3068 0
106 -2884 2885 0
-2885 3069 0
107 -2885 2886 0
-2886 3070 0
108 -2886 2887 0
-2887 3071 0
109 -2887 2888 0
-2888 3072 0
110 -2888 2889 0
-2889 3073 0
111 -2889 2890 0
-2890 3074 0
112 -2890 2891 0
-2891 3075 0
113 -2891 2892 0
-2892 3076 0
114 -2892 2893 0
-2893 3077 0
115 -2893 2894 0
-2894 3078 0
116 -2894 2895 0
-2895 3079 0
117 -2895 2896 0
-2896 3080 0
118 -2896 2897 0
-2897 3081 0
119 -2897 2898 0
-2898 3082 0
120 -2898 2899 0
-2899 3083 0
121 -2899 2900 0
-2900 3084 0
122 -2900 2901 0
-2901 3085 0
123 -2901 2902 0
-2902 3086 0
124 -2902 2903 0
-2903 3087 0
125 -2903 2904 0
-2904 3088 0
126 -2904 2905 0
-2905 3089 0
127 -2905 2906 0
-2906 3090 0
128 -2906 2907 0
-2907 3091 0
129 -2907 2908 0
-2908 3092 0
130 -2908 2909 0
-2909 3093 0
131 -2909 2910 0
-2910 3094 0
132 -2910 2911 0
-2911 3095 0
133 -2911 2912 0
-2912 3096 0
134 -2912 2913 0
-2913 3097 0
135 -2913 2914 0
-2914 3098 0
136 -2914 2915 0
-2915 3099 0
137 -2915 2916 0
-2916 3100 0
138 -2916 2917 0
-2917 3101 0
139 -2917 2918 0
-2918 3102 0
140 -2918 2919 0
-2919 3103 0
141 -2919 2920 0
-2920 3104 0
142 -2920 2921 0
-2921 3105 0
143 -2921 2922 0
-2922 3106 0
144 -2922 2923 0
-2923 3107 0
145 -2923 2924 0
-2924 3108 0
146 -2924 2925 0
-2925 3109 0
147 -2925 2926 0
-2926 3110 0
148 -2926 2927 0
-2927 3111 0
149 -2927 2928 0
-2928 3112 0
150 -2928 2929 0
-2929 3113 0
151 -2929 2930 0
-2930 3114 0
152 -2930 2931 0
-2931 3115 0
153 -2931 2932 0
-2932 3116 0
154 -2932 2933 0
-2933 3117 0
155 -2933 2934 0
-2934 3118 0
156 -2934 2935 0
-2935 3119 0
157 -2935 2936 0
-2936 3120 0
158 -2936 2937 0
-2937 3121 0
159 -2937 2938 0
-2938 3122 0
160 -2938 2939 0
-2939 3123 0
161 -2939 2940 0
-2940 3124 0
162 -2940 2941 0
-2941 3125 0
163 -2941 2942 0
-2942 3126 0
164 -2942 2943 0
-2943 3127 0
165 -2943 2944 0
-2944 3128 0
166 -2944 2945 0
-2945 3129 0
167 -2945 2946 0
-2946 3130 0
168 -2946 2947 0
-2947 3131 0
169 -2947 2948 0
-2948 3132 0
170 -2948 2949 0
-2949 3133 0
171 -2949 2950 0
-2950 3134 0
172 -2950 2951 0
-2951 3135 0
173 -2951 2952 0
-2952 3136 0
174 -2952 2953 0
-2953 3137 0
175 -2953 2954 0
-2954 3138 0
176 -2954 2955 0
-2955 3139 0
177 -2955 2956 0
-2956 3140 0
178 -2956 2957 0
-2957 3141 0
179 -2957 2958 0
-2958 3142 0
180 -2958 2959 0
-2959 3143 0
181 -2959 2960 0
-2960 3144 0
182 -2960 2961 0
-2961 3145 0
183 -2961 2962 0
-2962 3146 0
184 -2962 2963 0
-2963 3147 0
185 -2963 2964 0
-2964 3148 0
186 -2964 2965 0
-2965 3149 0
187 -2965 2966 0
-2966 3150 0
188 -2966 2967 0
-2967 3151 0
189 -2967 2968 0
-2968 3152 0
190 -2968 2969 0
-2969 3153 0
191 -2969 2970 0
-2970 3154 0
192 -2970 2971 0
-2971 3155 0
193 -2971 2972 0
-2972 3156 0
194 -2972 2973 0
-2973 3157 0
195 -2973 2974 0
-2974 3158 0
196 -2974 2975 0
-2975 3159 0
197 -2975 2976 0
-2976 3160 0
198 -2976 0
15 2977 0
-2977 3161 0
16 -2977 2978 0
-2978 3162 0
17 -2978 2979 0
-2979 3163 0
18 -2979 2980 0
-2980 3164 0
19 -2980 2981 0
-2981 3165 0
20 -2981 2982 0
-2982 3166 0
21 -2982 2983 0
-2983 3167 0
22 -2983 2984 0
-2984 3168 0
23 -2984 2985 0
-2985 3169 0
24 -2985 2986 0
-2986 3170 0
25 -2986 2987 0
-2987 3171 0
26 -2987 2988 0
-2988 3172 0
27 -2988 2989 0
-2989 3173 0
28 -2989 2990 0
-2990 3174 0
29 -2990 2991 0
-2991 3175 0
30 -2991 2992 0
-2992 3176 0
31 -2992 2993 0
-2993 3177 0
32 -2993 2994 0
-2994 3178 0
33 -2994 2995 0
-2995 3179 0
34 -2995 2996 0
-2996 3180 0
35 -2996 2997 0
-2997 3181 0
36 -2997 2998 0
-2998 3182 0
37 -2998 2999 0
-2999 3183 0
38 -2999 3000 0
-3000 3184 0
39 -3000 3001 0
-3001 3185 0
40 -3001 3002 0
-3002 3186 0
41 -3002 3003 0
-3003 3187 0
42 -3003 3004 0
-3004 3188 0
43 -3004 3005 0
-3005 3189 0
44 -3005 3006 0
-3006 3190 0
45 -3006 3007 0
-3007 3191 0
46 -3007 3008 0
-3008 3192 0
47 -3008 3009 0
-3009 3193 0
48 -3009 3010 0
-3010 3194 0
49 -3010 3011 0
-3011 3195 0
50 -3011 3012 0
-3012 3196 0
51 -3012 3013 0
-3013 3197 0
52 -3013 3014 0
-3014 3198 0
53 -3014 3015 0
-3015 3199 0
54 -3015 3016 0
-3016 3200 0
55 -3016 3017 0
-3017 3201 0
56 -3017 3018 0
-3018 3202 0
57 -3018 3019 0
-3019 3203 0
58 -3019 3020 0
-3020 3204 0
59 -3020 3021 0
-3021 3205 0
60 -3021 3022 0
-3022 3206 0
61 -3022 3023 0
-3023 3207 0
62 -3023 3024 0
-3024 3208 0
63 -3024 3025 0
-3025 3209 0
64 -3025 3026 0
-3026 3210 0
65 -3026 3027 0
-3027 3211 0
66 -3027 3028 0
-3028 3212 0
67 -3028 3029 0
-3029 3213 0
68 -3029 3030 0
-3030 3214 0
69 -3030 3031 0
-3031 3215 0
70 -3031 3032 0
-3032 3216 0
71 -3032 3033 0
-3033 3217 0
72 -3033 3034 0
-3034 3218 0
73 -3034 3035 0
-3035 3219 0
74 -3035 3036 0
-3036 3220 0
75 -3036 3037 0
-3037 3221 0
76 -3037 3038 0
-3038 3222 0
77 -3038 3039 0
-3039 3223 0
78 -3039 3040 0
-3040 3224 0
79 -3040 3041 0
-3041 3225 0
80 -3041 3042 0
-3042 3226 0
81 -3042 3043 0
-3043 3227 0
82 -3043 3044 0
-3044 3228 0
83 -3044 3045 0
-3045 3229 0
84 -3045 3046 0
-3046 3230 0
85 -3046 3047 0
-3047 3231 0
86 -3047 3048 0
-3048 3232 0
87 -3048 3049 0
-3049 3233 0
88 -3049 3050 0
-3050 3234 0
89 -3050 3051 0
-3051 3235 0
90 -3051 3052 0
-3052 3236 0
91 -3052 3053 0
-3053 3237 0
92 -3053 3054 0
-3054 3238 0
93 -3054 3055 0
-3055 3239 0
94 -3055 3056 0
-3056 3240 0
95 -3056 3057 0
-3057 3241 0
96 -3057 3058 0
-3058 3242 0
97 -3058 3059 0
-3059 3243 0
98 -3059 3060 0
-3060 3244 0
99 -3060 3061 0
-3061 3245 0
100 -3061 3062 0
-3062 3246 0
101 -3062 3063 0
-3063 3247 0
102 -3063 3064 0
-3064 3248 0
103 -3064 3065 0
-3065 3249 0
104 -3065 3066 0
-3066 3250 0
105 -3066 3067 0
-3067 3251 0
106 -3067 3068 0
-3068 3252 0
107 -3068 3069 0
-3069 3253 0
108 -3069 3070 0
-3070 3254 0
109 -3070 3071 0
-3071 3255 0
110 -3071 3072 0
-3072 3256 0
111 -3072 3073 0
-3073 3257 0
112 -3073 3074 0
-3074 3258 0
113 -3074 3075 0
-3075 3259 0
114 -3075 3076 0
-3076 3260 0
115 -3076 3077 0
-3077 3261 0
116 -3077 3078 0
-3078 3262 0
117 -3078 3079 0
-3079 3263 0
118 -3079 3080 0
-3080 3264 0
119 -3080 3081 0
-3081 3265 0
120 -3081 3082 0
-3082 3266 0
121 -3082 3083 0
-3083 3267 0
122 -3083 3084 0
-3084 3268 0
123 -3084 3085 0
-3085 3269 0
124 -3085 3086 0
-3086 3270 0
125 -3086 3087 0
-3087 3271 0
126 -3087 3088 0
-3088 3272 0
127 -3088 3089 0
-3089 3273 0
128 -3089 3090 0
-3090 3274 0
129 -3090 3091 0
-3091 3275 0
130 -3091 3092 0
-3092 3276 0
131 -3092 3093 0
-3093 3277 0
132 -3093 3094 0
-3094 3278 0
133 -3094 3095 0
-3095 3279 0
134 -3095 3096 0
-3096 3280 0
135 -3096 3097 0
-3097 3281 0
136 -3097 3098 0
-3098 3282 0
137 -3098 3099 0
-3099 3283 0
138 -3099 3100 0
-3100 3284 0
139 -3100 3101 0
-3101 3285 0
140 -3101 3102 0
-3102 3286 0
141 -3102 3103 0
-3103 3287 0
142 -3103 3104 0
-3104 3288 0
143 -3104 3105 0
-3105 3289 0
144 -3105 3106 0
-3106 3290 0
145 -3106 3107 0
-3107 3291 0
146 -3107 3108 0
-3108 3292 0
147 -3108 3109 0
-3109 3293 0
148 -3109 3110 0
-3110 3294 0
149 -3110 3111 0
-3111 3295 0
150 -3111 3112 0
-3112 3296 0
151 -3112 3113 0
-3113 3297 0
152 -3113 3114 0
-3114 3298 0
153 -3114 3115 0
-3115 3299 0
154 -3115 3116 0
-3116 3300 0
155 -3116 3117 0
-3117 3301 0
156 -3117 3118 0
-3118 3302 0
157 -3118 3119 0
-3119 3303 0
158 -3119 3120 0
-3120 3304 0
159 -3120 3121 0
-3121 3305 0
160 -3121 3122 0
-3122 3306 0
161 -3122 3123 0
-3123 3307 0
162 -3123 3124 0
-3124 3308 0
163 -3124 3125 0
-3125 3309 0
164 -3125 3126 0
-3126 3310 0
165 -3126 3127 0
-3127 3311 0
166 -3127 3128 0
-3128 3312 0
167 -3128 3129 0
-3129 3313 0
168 -3129 3130 0
-3130 3314 0
169 -3130 3131 0
-3131 3315 0
170 -3131 3132 0
-3132 3316 0
171 -3132 3133 0
-3133 3317 0
172 -3133 3134 0
-3134 3318 0
173 -3134 3135 0
-3135 3319 0
174 -3135 3136 0
-3136 3320 0
175 -3136 3137 0
-3137 3321 0
176 -3137 3138 0
-3138 3322 0
177 -3138 3139 0
-3139 3323 0
178 -3139 3140 0
-3140 3324 0
179 -3140 3141 0
-3141 3325 0
180 -3141 3142 0
-3142 3326 0
181 -3142 3143 0
-3143 3327 0
182 -3143 3144 0
-3144 3328 0
183 -3144 3145 0
-3145 3329 0
184 -3145 3146 0
-3146 3330 0
185 -3146 3147 0
-3147 3331 0
186 -3147 3148 0
-3148 3332 0
187 -3148 3149 0
-3149 3333 0
188 -3149 3150 0
-3150 3334 0
189 -3150 3151 0
-3151 3335 0
190 -3151 3152 0
-3152 3336 0
191 -3152 3153 0
-3153 3337 0
192 -3153 3154 0
-3154 3338 0
193 -3154 3155 0
-3155 3339 0
194 -3155 3156 0
-3156 3340 0
195 -3156 3157 0
-3157 3341 0
196 -3157 3158 0
-3158 3342 0
197 -3158 3159 0
-3159 3343 0
198 -3159 3160 0
-3160 3344 0
199 -3160 0
16 3161 0
17 -3161 3162 0
18 -3162 3163 0
19 -3163 3164 0
20 -3164 3165 0
21 -3165 3166 0
22 -3166 3167 0
23 -3167 3168 0
24 -3168 3169 0
25 -3169 3170 0
26 -3170 3171 0
27 -3171 3172 0
28 -3172 3173 0
29 -3173 3174 0
30 -3174 3175 0
31 -3175 3176 0
32 -3176 3177 0
33 -3177 3178 0
34 -3178 3179 0
35 -3179 3180 0
36 -3180 3181 0
37 -3181 3182 0
38 -3182 3183 0
39 -3183 3184 0
40 -3184 3185 0
41 -3185 3186 0
42 -3186 3187 0
43 -3187 3188 0
44 -3188 3189 0
45 -3189 3190 0
46 -3190 3191 0
47 -3191 3192 0
48 -3192 3193 0
49 -3193 3194 0
50 -3194 3195 0
51 -3195 3196 0
52 -3196 3197 0
53 -3197 3198 0
54 -3198 3199 0
55 -3199 3200 0
56 -3200 3201 0
57 -3201 3202 0
58 -3202 3203 0
59 -3203 3204 0
60 -3204 3205 0
61 -3205 3206 0
62 -3206 3207 0
63 -3207 3208 0
64 -3208 3209 0
65 -3209 3210 0
66 -3210 3211 0
67 -3211 3212 0
68 -3212 3213 0
69 -3213 3214 0
70 -3214 3215 0
71 -3215 3216 0
72 -3216 3217 0
73 -3217 3218 0
74 -3218 3219 0
75 -3219 3220 0
76 -3220 3221 0
77 -3221 3222 0
78 -3222 3223 0
79 -3223 3224 0
80 -3224 3225 0
81 -3225 3226 0
82 -3226 3227 0
83 -3227 3228 0
84 -3228 3229 0
85 -3229 3230 0
86 -3230 3231 0
87 -3231 3232 0
88 -3232 3233 0
89 -3233 3234 0
90 -3234 3235 0
91 -3235 3236 0
92 -3236 3237 0
93 -3237 3238 0
94 -3238 3239 0
95 -3239 3240 0
96 -3240 3241 0
97 -3241 3242 0
98 -3242 3243 0
99 -3243 3244 0
100 -3244 3245 0
101 -3245 3246 0
102 -3246 3247 0
103 -3247 3248 0
104 -3248 3249 0
105 -3249 3250 0
106 -3250 3251 0
107 -3251 3252 0
108 -3252 3253 0
109 -3253 3254 0
110 -3254 3255 0
111 -3255 3256 0
112 -3256 3257 0
113 -3257 3258 0
114 -3258 3259 0
115 -3259 3260 0
116 -3260 3261 0
117 -3261 3262 0
118 -3262 3263 0
119 -3263 3264 0
120 -3264 3265 0
121 -3265 3266 0
122 -3266 3267 0
123 -3267 3268 0
124 -3268 3269 0
125 -3269 3270 0
126 -3270 3271 0
127 -3271 3272 0
128 -3272 3273 0
129 -3273 3274 0
130 -3274 3275 0
131 -3275 3276 0
132 -3276 3277 0
133 -3277 3278 0
134 -3278 3279 0
135 -3279 3280 0
136 -3280 3281 0
137 -3281 3282 0
138 -3282 3283 0
139 -3283 3284 0
140 -3284 3285 0
141 -3285 3286 0
142 -3286 3287 0
143 -3287 3288 0
144 -3288 3289 0
145 -3289 3290 0
146 -3290 3291 0
147 -3291 3292 0
148 -3292 3293 0
149 -3293 3294 0
150 -3294 3295 0
151 -3295 3296 0
152 -3296 3297 0
153 -3297 3298 0
154 -3298 3299 0
155 -3299 3300 0
156 -3300 3301 0
157 -3301 3302 0
158 -3302 3303 0
159 -3303 3304 0
160 -3304 3305 0
161 -3305 3306 0
162 -3306 3307 0
163 -3307 3308 0
164 -3308 3309 0
165 -3309 3310 0
166 -3310 3311 0
167 -3311 3312 0
168 -3312 3313 0
169 -3313 3314 0
170 -3314 3315 0
171 -3315 3316 0
172 -3316 3317 0
173 -3317 3318 0
174 -3318 3319 0
175 -3319 3320 0
176 -3320 3321 0
177 -3321 3322 0
178 -3322 3323 0
179 -3323 3324 0
180 -3324 3325 0
181 -3325 3326 0
182 -3326 3327 0
183 -3327 3328 0
184 -3328 3329 0
185 -3329 3330 0
186 -3330 3331 0
187 -3331 3332 0
188 -3332 3333 0
189 -3333 3334 0
190 -3334 3335 0
191 -3335 3336 0
192 -3336 3337 0
193 -3337 3338 0
194 -3338 3339 0
195 -3339 3340 0
196 -3340 3341 0
197 -3341 3342 0
198 -3342 3343 0
199 -3343 3344 0
200 -3344 0
-1 3345 0
-3345 3346 0
-2 -3345 3347 0
-3347 3348 0
-3 -3347 3349 0
-3349 3350 0
-4 -3349 3351 0
-3351 3352 0
-5 -3351 3353 0
-3353 3354 0
-6 -3353 3355 0
-3355 3356 0
-7 -3355 3357 0
-3357 3358 0
-8 -3357 3359 0
-3359 3360 0
-9 -3359 3361 0
-3361 3362 0
-10 -3361 3363 0
-3363 3364 0
-11 -3363 3365 0
-3365 3366 0
-12 -3365 3367 0
-3367 3368 0
-13 -3367 3369 0
-3369 3370 0
-14 -3369 3371 0
-3371 3372 0
-15 -3371 3373 0
-3373 3374 0
-16 -3373 3375 0
-3375 3376 0
-17 -3375 0
-2 3346 0
-3346 3377 0
-3 -3346 3348 0
-3348 3378 0
-4 -3348 3350 0
-3350 3379 0
-5 -3350 3352 0
-3352 3380 0
-6 -3352 3354 0
-3354 3381 0
-7 -3354 3356 0
-3356 3382 0
-8 -3356 3358 0
-3358 3383 0
-9 -3358 3360 0
-3360 3384 0
-10 -3360 3362 0
-3362 3385 0
-11 -3362 3364 0
-3364 3386 0
-12 -3364 3366 0
-3366 3387 0
-13 -3366 3368 0
-3368 3388 0
-14 -3368 3370 0
-3370 3389 0
-15 -3370 3372 0
-3372 3390 0
-16 -3372 3374 0
-3374 3391 0
-17 -3374 3376 0
-3376 3392 0
-18 -3376 0
-3 3377 0
-3377 3393 0
-4 -3377 3378 0
-3378 3394 0
-5 -3378 3379 0
-3379 3395 0
-6 -3379 3380 0
-3380 3396 0
-7 -3380 3381 0
-3381 3397 0
-8 -3381 3382 0
-3382 3398 0
-9 -3382 3383 0
-3383 3399 0
-10 -3383 3384 0
-3384 3400 0
-11 -3384 3385 0
-3385 3401 0
-12 -3385 3386 0
-3386 3402 0
-13 -3386 3387 0
-3387 3403 0
-14 -3387 3388 0
-3388 3404 0
-15 -3388 3389 0
-3389 3405 0
-16 -3389 3390 0
-3390 3406 0
-17 -3390 3391 0
-3391 3407 0
-18 -3391 3392 0
-3392 3408 0
-19 -3392 0
-4 3393 0
-3393 3409 0
-5 -3393 3394 0
-3394 3410 0
-6 -3394 3395 0
-3395 3411 0
-7 -3395 3396 0
-3396 3412 0
-8 -3396 3397 0
-3397 3413 0
-9 -3397 3398 0
-3398 3414 0
-10 -3398 3399 0
-3399 3415 0
-11 -3399 3400 0
-3400 3416 0
-12 -3400 3401 0
-3401 3417 0
-13 -3401 3402 0
-3402 3418 0
-14 -3402 3403 0
-3403 3419 0
-15 -3403 3404 0
-3404 3420 0
-16 -3404 3405 0
-3405 3421 0
-17 -3405 3406 0
-3406 3422 0
-18 -3406 3407 0
-3407 3423 0
-19 -3407 3408 0
-3408 3424 0
-20 -3408 0
-5 3409 0
-3409 3425 0
-6 -3409 3410 0
-3410 3426 0
-7 -3410 3411 0
-3411 3427 0
-8 -3411 3412 0
-3412 3428 0
-9 -3412 3413 0
-3413 3429 0
-10 -3413 3414 0
-3414 3430 0
-11 -3414 3415 0
-3415 3431 0
-12 -3415 3416 0
-3416 3432 0
-13 -3416 3417 0
-3417 3433 0
-14 -3417 3418 0
-3418 3434 0
-15 -3418 3419 0
-3419 3435 0
-16 -3419 3420 0
-3420 3436 0
-17 -3420 3421 0
-3421 3437 0
-18 -3421 3422 0
-3422 3438 0
-19 -3422 3423 0
-3423 3439 0
-20 -3423 3424 0
-3424 3440 0
-21 -3424 0
-6 3425 0
-3425 3441 0
-7 -3425 3426 0
-3426 3442 0
-8 -3426 3427 0
-3427 3443 0
-9 -3427 3428 0
-3428 3444 0
-10 -3428 3429 0
-3429 3445 0
-11 -3429 3430 0
-3430 3446 0
-12 -3430 3431 0
-3431 3447 0
-13 -3431 3432 0
-3432 3448 0
-14 -3432 3433 0
-3433 3449 0
-15 -3433 3434 0
-3434 3450 0
-16 -3434 3435 0
-3435 3451 0
-17 -3435 3436 0
-3436 3452 0
-18 -3436 3437 0
-3437 3453 0
-19 -3437 3438 0
-3438 3454 0
-20 -3438 3439 0
-3439 3455 0
-21 -3439 3440 0
-3440 3456 0
-22 -3440 0
-7 3441 0
-3441 3457 0
-8 -3441 3442 0
-3442 3458 0
-9 -3442 3443 0
-3443 3459 0
-10 -3443 3444 0
-3444 3460 0
-11 -3444 3445 0
-3445 3461 0
-12 -3445 3446 0
-3446 3462 0
-13 -3446 3447 0
-3447 3463 0
-14 -3447 3448 0
-3448 3464 0
-15 -3448 3449 0
-3449 3465 0
-16 -3449 3450 0
-3450 3466 0
-17 -3450 3451 0
-3451 3467 0
-18 -3451 3452 0
-3452 3468 0
-19 -3452 3453 0
-3453 3469 0
-20 -3453 3454 0
-3454 3470 0
-21 -3454 3455 0
-3455 3471 0
-22 -3455 3456 0
-3456 3472 0
-23 -3456 0
-8 3457 0
-3457 3473 0
-9 -3457 3458 0
-3458 3474 0
-10 -3458 3459 0
-3459 3475 0
-11 -3459 3460 0
-3460 3476 0
-12 -3460 3461 0
-3461 3477 0
-13 -3461 3462 0
-3462 3478 0
-14 -3462 3463 0
-3463 3479 0
-15 -3463 3464 0
-3464 3480 0
-16 -3464 3465 0
-3465 3481 0
-17 -3465 3466 0
-3466 3482 0
-18 -3466 3467 0
-3467 3483 0
-19 -3467 3468 0
-3468 3484 0
-20 -3468 3469 0
-3469 3485 0
-21 -3469 3470 0
-3470 3486 0
-22 -3470 3471 0
-3471 3487 0
-23 -3471 3472 0
-3472 3488 0
-24 -3472 0
-9 3473 0
-3473 3489 0
-10 -3473 3474 0
-3474 3490 0
-11 -3474 3475 0
-3475 3491 0
-12 -3475 3476 0
-3476 3492 0
-13 -3476 3477 0
-3477 3493 0
-14 -3477 3478 0
-3478 3494 0
-15 -3478 3479 0
-3479 3495 0
-16 -3479 3480 0
-3480 3496 0
-17 -3480 3481 0
-3481 3497 0
-18 -3481 3482 0
-3482 3498 0
-19 -3482 3483 0
-3483 3499 0
-20 -3483 3484 0
-3484 3500 0
-21 -3484 3485 0
-3485 3501 0
-22 -3485 3486 0
-3486 3502 0
-23 -3486 3487 0
-3487 3503 0
-24 -3487 3488 0
-3488 3504 0
-25 -3488 0
-10 3489 0
-3489 3505 0
-11 -3489 3490 0
-3490 3506 0
-12 -3490 3491 0
-3491 3507 0
-13 -3491 3492 0
-3492 3508 0
-14 -3492 3493 0
-3493 3509 0
-15 -3493 3494 0
-3494 3510 0
-16 -3494 3495 0
-3495 3511 0
-17 -3495 3496 0
-3496 3512 0
-18 -3496 3497 0
-3497 3513 0
-19 -3497 3498 0
-3498 3514 0
-20 -3498 3499 0
-3499 3515 0
-21 -3499 3500 0
-3500 3516 0
-22 -3500 3501 0
-3501 3517 0
-23 -3501 3502 0
-3502 3518 0
-24 -3502 3503 0
-3503 3519 0
-25 -3503 3504 0
-3504 3520 0
-26 -3504 0
-11 3505 0
-3505 3521 0
-12 -3505 3506 0
-3506 3522 0
-13 -3506 3507 0
-3507 3523 0
-14 -3507 3508 0
-3508 3524 0
-15 -3508 3509 0
-3509 3525 0
-16 -3509 3510 0
-3510 3526 0
-17 -3510 3511 0
-3511 3527 0
-18 -3511 3512 0
-3512 3528 0
-19 -3512 3513 0
-3513 3529 0
-20 -3513 3514 0
-3514 3530 0
-21 -3514 3515 0
-3515 3531 0
-22 -3515 3516 0
-3516 3532 0
-23 -3516 3517 0
-3517 3533 0
-24 -3517 3518 0
-3518 3534 0
-25 -3518 3519 0
-3519 3535 0
-26 -3519 3520 0
-3520 3536 0
-27 -3520 0
-12 3521 0
-3521 3537 0
-13 -3521 3522 0
-3522 3538 0
-14 -3522 3523 0
-3523 3539 0
-15 -3523 3524 0
-3524 3540 0
-16 -3524 3525 0
-3525 3541 0
-17 -3525 3526 0
-3526 3542 0
-18 -3526 3527 0
-3527 3543 0
-19 -3527 3528 0
-3528 3544 0
-20 -3528 3529 0
-3529 3545 0
-21 -3529 3530 0
-3530 3546 0
-22 -3530 3531 0
-3531 3547 0
-23 -3531 3532 0
-3532 3548 0
-24 -3532 3533 0
-3533 3549 0
-25 -3533 3534 0
-3534 3550 0
-26 -3534 3535 0
-3535 3551 0
-27 -3535 3536 0
-3536 3552 0
-28 -3536 0
-13 3537 0
-3537 3553 0
-14 -3537 3538 0
-3538 3554 0
-15 -3538 3539 0
-3539 3555 0
-16 -3539 3540 0
-3540 3556 0
-17 -3540 3541 0
-3541 3557 0
-18 -3541 3542 0
-3542 3558 0
-19 -3542 3543 0
-3543 3559 0
-20 -3543 3544 0
-3544 3560 0
-21 -3544 3545 0
-3545 3561 0
-22 -3545 3546 0
-3546 3562 0
-23 -3546 3547 0
-3547 3563 0
-24 -3547 3548 0
-3548 3564 0
-25 -3548 3549 0
-3549 3565 0
-26 -3549 3550 0
-3550 3566 0
-27 -3550 3551 0
-3551 3567 0
-28 -3551 3552 0
-3552 3568 0
-29 -3552 0
-14 3553 0
-3553 3569 0
-15 -3553 3554 0
-3554 3570 0
-16 -3554 3555 0
-3555 3571 0
-17 -3555 3556 0
-3556 3572 0
-18 -3556 3557 0
-3557 3573 0
-19 -3557 3558 0
-3558 3574 0
-20 -3558 3559 0
-3559 3575 0
-21 -3559 3560 0
-3560 3576 0
-22 -3560 3561 0
-3561 3577 0
-23 -3561 3562 0
-3562 3578 0
-24 -3562 3563 0
-3563 3579 0
-25 -3563 3564 0
-3564 3580 0
-26 -3564 3565 0
-3565 3581 0
-27 -3565 3566 0
-3566 3582 0
-28 -3566 3567 0
-3567 3583 0
-29 -3567 3568 0
-3568 3584 0
-30 -3568 0
-15 3569 0
-3569 3585 0
-16 -3569 3570 0
-3570 3586 0
-17 -3570 3571 0
-3571 3587 0
-18 -3571 3572 0
-3572 3588 0
-19 -3572 3573 0
-3573 3589 0
-20 -3573 3574 0
-3574 3590 0
-21 -3574 3575 0
-3575 3591 0
-22 -3575 3576 0
-3576 3592 0
-23 -3576 3577 0
-3577 3593 0
-24 -3577 3578 0
-3578 3594 0
-25 -3578 3579 0
-3579 3595 0
-26 -3579 3580 0
-3580 3596 0
-27 -3580 3581 0
-3581 3597 0
-28 -3581 3582 0
-3582 3598 0
-29 -3582 3583 0
-3583 3599 0
-30 -3583 3584 0
-3584 3600 0
-31 -3584 0
-16 3585 0
-3585 3601 0
-17 -3585 3586 0
-3586 3602 0
-18 -3586 3587 0
-3587 3603 0
-19 -3587 3588 0
-3588 3604 0
-20 -3588 3589 0
-3589 3605 0
-21 -3589 3590 0
-3590 3606 0
-22 -3590 3591 0
-3591 3607 0
-23 -3591 3592 0
-3592 3608 0
-24 -3592 3593 0
-3593 3609 0
-25 -3593 3594 0
-3594 3610 0
-26 -3594 3595 0
-3595 3611 0
-27 -3595 3596 0
-3596 3612 0
-28 -3596 3597 0
-3597 3613 0
-29 -3597 3598 0
-3598 3614 0
-30 -3598 3599 0
-3599 3615 0
-31 -3599 3600 0
-3600 3616 0
-32 -3600 0
-17 3601 0
-3601 3617 0
-18 -3601 3602 0
-3602 3618 0
-19 -3602 3603 0
-3603 3619 0
-20 -3603 3604 0
-3604 3620 0
-21 -3604 3605 0
-3605 3621 0
-22 -3605 3606 0
-3606 3622 0
-23 -3606 3607 0
-3607 3623 0
-24 -3607 3608 0
-3608 3624 0
-25 -3608 3609 0
-3609 3625 0
-26 -3609 3610 0
-3610 3626 0
-27 -3610 3611 0
-3611 3627 0
-28 -3611 3612 0
-3612 3628 0
-29 -3612 3613 0
-3613 3629 0
-30 -3613 3614 0
-3614 3630 0
-31 -3614 3615 0
-3615 3631 0
-32 -3615 3616 0
-3616 3632 0
-33 -3616 0
-18 3617 0
-3617 3633 0
-19 -3617 3618 0
-3618 3634 0
-20 -3618 3619 0
-3619 3635 0
-21 -3619 3620 0
-3620 3636 0
-22 -3620 3621 0
-3621 3637 0
-23 -3621 3622 0
-3622 3638 0
-24 -3622 3623 0
-3623 3639 0
-25 -3623 3624 0
-3624 3640 0
-26 -3624 3625 0
-3625 3641 0
-27 -3625 3626 0
-3626 3642 0
-28 -3626 3627 0
-3627 3643 0
-29 -3627 3628 0
-3628 3644 0
-30 -3628 3629 0
-3629 3645 0
-31 -3629 3630 0
-3630 3646 0
-32 -3630 3631 0
-3631 3647 0
-33 -3631 3632 0
-3632 3648 0
-34 -3632 0
-19 3633 0
-3633 3649 0
-20 -3633 3634 0
-3634 3650 0
-21 -3634 3635 0
-3635 3651 0
-22 -3635 3636 0
-3636 3652 0
-23 -3636 3637 0
-3637 3653 0
-24 -3637 3638 0
-3638 3654 0
-25 -3638 3639 0
-3639 3655 0
-26 -3639 3640 0
-3640 3656 0
-27 -3640 3641 0
-3641 3657 0
-28 -3641 3642 0
-3642 3658 0
-29 -3642 3643 0
-3643 3659 0
-30 -3643 3644 0
-3644 3660 0
-31 -3644 3645 0
-3645 3661 0
-32 -3645 3646 0
-3646 3662 0
-33 -3646 3647 0
-3647 3663 0
-34 -3647 3648 0
-3648 3664 0
-35 -3648 0
-20 3649 0
-3649 3665 0
-21 -3649 3650 0
-3650 3666 0
-22 -3650 3651 0
-3651 3667 0
-23 -3651 3652 0
-3652 3668 0
-24 -3652 3653 0
-3653 3669 0
-25 -3653 3654 0
-3654 3670 0
-26 -3654 3655 0
-3655 3671 0
-27 -3655 3656 0
-3656 3672 0
-28 -3656 3657 0
-3657 3673 0
-29 -3657 3658 0
-3658 3674 0
-30 -3658 3659 0
-3659 3675 0
-31 -3659 3660 0
-3660 3676 0
-32 -3660 3661 0
-3661 3677 0
-33 -3661 3662 0
-3662 3678 0
-34 -3662 3663 0
-3663 3679 0
-35 -3663 3664 0
-3664 3680 0
-36 -3664 0
-21 3665 0
-3665 3681 0
-22 -3665 3666 0
-3666 3682 0
-23 -3666 3667 0
-3667 3683 0
-24 -3667 3668 0
-3668 3684 0
-25 -3668 3669 0
-3669 3685 0
-26 -3669 3670 0
-3670 3686 0
-27 -3670 3671 0
-3671 3687 0
-28 -3671 3672 0
-3672 3688 0
-29 -3672 3673 0
-3673 3689 0
-30 -3673 3674 0
-3674 3690 0
-31 -3674 3675 0
-3675 3691 0
-32 -3675 3676 0
-3676 3692 0
-33 -3676 3677 0
-3677 3693 0
-34 -3677 3678 0
-3678 3694 0
-35 -3678 3679 0
-3679 3695 0
-36 -3679 3680 0
-3680 3696 0
-37 -3680 0
-22 3681 0
-3681 3697 0
-23 -3681 3682 0
-3682 3698 0
-24 -3682 3683 0
-3683 3699 0
-25 -3683 3684 0
-3684 3700 0
-26 -3684 3685 0
-3685 3701 0
-27 -3685 3686 0
-3686 3702 0
-28 -3686 3687 0
-3687 3703 0
-29 -3687 3688 0
-3688 3704 0
-30 -3688 3689 0
-3689 3705 0
-31 -3689 3690 0
-3690 3706 0
-32 -3690 3691 0
-3691 3707 0
-33 -3691 3692 0
-3692 3708 0
-34 -3692 3693 0
-3693 3709 0
-35 -3693 3694 0
-3694 3710 0
-36 -3694 3695 0
-3695 3711 0
-37 -3695 3696 0
-3696 3712 0
-38 -3696 0
-23 3697 0
-3697 3713 0
-24 -3697 3698 0
-3698 3714 0
-25 -3698 3699 0
-3699 3715 0
-26 -3699 3700 0
-3700 3716 0
-27 -3700 3701 0
-3701 3717 0
-28 -3701 3702 0
-3702 3718 0
-29 -3702 3703 0
-3703 3719 0
-30 -3703 3704 0
-3704 3720 0
-31 -3704 3705 0
-3705 3721 0
-32 -3705 3706 0
-3706 3722 0
-33 -3706 3707 0
-3707 3723 0
-34 -3707 3708 0
-3708 3724 0
-35 -3708 3709 0
-3709 3725 0
-36 -3709 3710 0
-3710 3726 0
-37 -3710 3711 0
-3711 3727 0
-38 -3711 3712 0
-3712 3728 0
-39 -3712 0
-24 3713 0
-3713 3729 0
-25 -3713 3714 0
-3714 3730 0
-26 -3714 3715 0
-3715 3731 0
-27 -3715 3716 0
-3716 3732 0
-28 -3716 3717 0
-3717 3733 0
-29 -3717 3718 0
-3718 3734 0
-30 -3718 3719 0
-3719 3735 0
-31 -3719 3720 0
-3720 3736 0
-32 -3720 3721 0
-3721 3737 0
-33 -3721 3722 0
-3722 3738 0
-34 -3722 3723 0
-3723 3739 0
-35 -3723 3724 0
-3724 3740 0
-36 -3724 3725 0
-3725 3741 0
-37 -3725 3726 0
-3726 3742 0
-38 -3726 3727 0
-3727 3743 0
-39 -3727 3728 0
-3728 3744 0
-40 -3728 0
-25 3729 0
-3729 3745 0
-26 -3729 3730 0
-3730 3746 0
-27 -3730 3731 0
-3731 3747 0
-28 -3731 3732 0
-3732 3748 0
-29 -3732 3733 0
-3733 3749 0
-30 -3733 3734 0
-3734 3750 0
-31 -3734 3735 0
-3735 3751 0
-32 -3735 3736 0
-3736 3752 0
-33 -3736 3737 0
-3737 3753 0
-34 -3737 3738 0
-3738 3754 0
-35 -3738 3739 0
-3739 3755 0
-36 -3739 3740 0
-3740 3756 0
-37 -3740 3741 0
-3741 3757 0
-38 -3741 3742 0
-3742 3758 0
-39 -3742 3743 0
-3743 3759 0
-40 -3743 3744 0
-3744 3760 0
-41 -3744 0
-26 3745 0
-3745 3761 0
-27 -3745 3746 0
-3746 3762 0
-28 -3746 3747 0
-3747 3763 0
-29 -3747 3748 0
-3748 3764 0
-30 -3748 3749 0
-3749 3765 0
-31 -3749 3750 0
-3750 3766 0
-32 -3750 3751 0
-3751 3767 0
-33 -3751 3752 0
-3752 3768 0
-34 -3752 3753 0
-3753 3769 0
-35 -3753 3754 0
-3754 3770 0
-36 -3754 3755 0
-3755 3771 0
-37 -3755 3756 0
-3756 3772 0
-38 -3756 3757 0
-3757 3773 0
-39 -3757 3758 0
-3758 3774 0
-40 -3758 3759 0
-3759 3775 0
-41 -3759 3760 0
-3760 3776 0
-42 -3760 0
-27 3761 0
-3761 3777 0
-28 -3761 3762 0
-3762 3778 0
-29 -3762 3763 0
-3763 3779 0
-30 -3763 3764 0
-3764 3780 0
-31 -3764 3765 0
-3765 3781 0
-32 -3765 3766 0
-3766 3782 0
-33 -3766 3767 0
-3767 3783 0
-34 -3767 3768 0
-3768 3784 0
-35 -3768 3769 0
-3769 3785 0
-36 -3769 3770 0
-3770 3786 0
-37 -3770 3771 0
-3771 3787 0
-38 -3771 3772 0
-3772 3788 0
-39 -3772 3773 0
-3773 3789 0
-40 -3773 3774 0
-3774 3790 0
-41 -3774 3775 0
-3775 3791 0
-42 -3775 3776 0
-3776 3792 0
-43 -3776 0
-28 3777 0
-3777 3793 0
-29 -3777 3778 0
-3778 3794 0
-30 -3778 3779 0
-3779 3795 0
-31 -3779 3780 0
-3780 3796 0
-32 -3780 3781 0
-3781 3797 0
-33 -3781 3782 0
-3782 3798 0
-34 -3782 3783 0
-3783 3799 0
-35 -3783 3784 0
-3784 3800 0
-36 -3784 3785 0
-3785 3801 0
-37 -3785 3786 0
-3786 3802 0
-38 -3786 3787 0
-3787 3803 0
-39 -3787 3788 0
-3788 3804 0
-40 -3788 3789 0
-3789 3805 0
-41 -3789 3790 0
-3790 3806 0
-42 -3790 3791 0
-3791 3807 0
-43 -3791 3792 0
-3792 3808 0
-44 -3792 0
-29 3793 0
-3793 3809 0
-30 -3793 3794 0
-3794 3810 0
-31 -3794 3795 0
-3795 3811 0
-32 -3795 3796 0
-3796 3812 0
-33 -3796 3797 0
-3797 3813 0
-34 -3797 3798 0
-3798 3814 0
-35 -3798 3799 0
-3799 3815 0
-36 -3799 3800 0
-3800 3816 0
-37 -3800 3801 0
-3801 3817 0
-38 -3801 3802 0
-3802 3818 0
-39 -3802 3803 0
-3803 3819 0
-40 -3803 3804 0
-3804 3820 0
-41 -3804 3805 0
-3805 3821 0
-42 -3805 3806 0
-3806 3822 0
-43 -3806 3807 0
-3807 3823 0
-44 -3807 3808 0
-3808 3824 0
-45 -3808 0
-30 3809 0
-3809 3825 0
-31 -3809 3810 0
-3810 3826 0
-32 -3810 3811 0
-3811 3827 0
-33 -3811 3812 0
-3812 3828 0
-34 -3812 3813 0
-3813 3829 0
-35 -3813 3814 0
-3814 3830 0
-36 -3814 3815 0
-3815 3831 0
-37 -3815 3816 0
-3816 3832 0
-38 -3816 3817 0
-3817 3833 0
-39 -3817 3818 0
-3818 3834 0
-40 -3818 3819 0
-3819 3835 0
-41 -3819 3820 0
-3820 3836 0
-42 -3820 3821 0
-3821 3837 0
-43 -3821 3822 0
-3822 3838 0
-44 -3822 3823 0
-3823 3839 0
-45 -3823 3824 0
-3824 3840 0
-46 -3824 0
-31 3825 0
-3825 3841 0
-32 -3825 3826 0
-3826 3842 0
-33 -3826 3827 0
-3827 3843 0
-34 -3827 3828 0
-3828 3844 0
-35 -3828 3829 0
-3829 3845 0
-36 -3829 3830 0
-3830 3846 0
-37 -3830 3831 0
-3831 3847 0
-38 -3831 3832 0
-3832 3848 0
-39 -3832 3833 0
-3833 3849 0
-40 -3833 3834 0
-3834 3850 0
-41 -3834 3835 0
-3835 3851 0
-42 -3835 3836 0
-3836 3852 0
-43 -3836 3837 0
-3837 3853 0
-44 -3837 3838 0
-3838 3854 0
-45 -3838 3839 0
-3839 3855 0
-46 -3839 3840 0
-3840 3856 0
-47 -3840 0
-32 3841 0
-3841 3857 0
-33 -3841 3842 0
-3842 3858 0
-34 -3842 3843 0
-3843 3859 0
-35 -3843 3844 0
-3844 3860 0
-36 -3844 3845 0
-3845 3861 0
-37 -3845 3846 0
-3846 3862 0
-38 -3846 3847 0
-3847 3863 0
-39 -3847 3848 0
-3848 3864 0
-40 -3848 3849 0
-3849 3865 0
-41 -3849 3850 0
-3850 3866 0
-42 -3850 3851 0
-3851 3867 0
-43 -3851 3852 0
-3852 3868 0
-44 -3852 3853 0
-3853 3869 0
-45 -3853 3854 0
-3854 3870 0
-46 -3854 3855 0
-3855 3871 0
-47 -3855 3856 0
-3856 3872 0
-48 -3856 0
-33 3857 0
-3857 3873 0
-34 -3857 3858 0
-3858 3874 0
-35 -3858 3859 0
-3859 3875 0
-36 -3859 3860 0
-3860 3876 0
-37 -3860 3861 0
-3861 3877 0
-38 -3861 3862 0
-3862 3878 0
-39 -3862 3863 0
-3863 3879 0
-40 -3863 3864 0
-3864 3880 0
-41 -3864 3865 0
-3865 3881 0
-42 -3865 3866 0
-3866 3882 0
-43 -3866 3867 0
-3867 3883 0
-44 -3867 3868 0
-3868 3884 0
-45 -3868 3869 0
-3869 3885 0
-46 -3869 3870 0
-3870 3886 0
-47 -3870 3871 0
-3871 3887 0
-48 -3871 3872 0
-3872 3888 0
-49 -3872 0
-34 3873 0
-3873 3889 0
-35 -3873 3874 0
-3874 3890 0
-36 -3874 3875 0
-3875 3891 0
-37 -3875 3876 0
-3876 3892 0
-38 -3876 3877 0
-3877 3893 0
-39 -3877 3878 0
-3878 3894 0
-40 -3878 3879 0
-3879 3895 0
-41 -3879 3880 0
-3880 3896 0
-42 -3880 3881 0
-3881 3897 0
-43 -3881 3882 0
-3882 3898 0
-44 -3882 3883 0
-3883 3899 0
-45 -3883 3884 0
-3884 3900 0
-46 -3884 3885 0
-3885 3901 0
-47 -3885 3886 0
-3886 3902 0
-48 -3886 3887 0
-3887 3903 0
-49 -3887 3888 0
-3888 3904 0
-50 -3888 0
-35 3889 0
-3889 3905 0
-36 -3889 3890 0
-3890 3906 0
-37 -3890 3891 0
-3891 3907 0
-38 -3891 3892 0
-3892 3908 0
-39 -3892 3893 0
-3893 3909 0
-40 -3893 3894 0
-3894 3910 0
-41 -3894 3895 0
-3895 3911 0
-42 -3895 3896 0
-3896 3912 0
-43 -3896 3897 0
-3897 3913 0
-44 -3897 3898 0
-3898 3914 0
-45 -3898 3899 0
-3899 3915 0
-46 -3899 3900 0
-3900 3916 0
-47 -3900 3901 0
-3901 3917 0
-48 -3901 3902 0
-3902 3918 0
-49 -3902 3903 0
-3903 3919 0
-50 -3903 3904 0
-3904 3920 0
-51 -3904 0
-36 3905 0
-3905 3921 0
-37 -3905 3906 0
-3906 3922 0
-38 -3906 3907 0
-3907 3923 0
-39 -3907 3908 0
-3908 3924 0
-40 -3908 3909 0
-3909 3925 0
-41 -3909 3910 0
-3910 3926 0
-42 -3910 3911 0
-3911 3927 0
-43 -3911 3912 0
-3912 3928 0
-44 -3912 3913 0
-3913 3929 0
-45 -3913 3914 0
-3914 3930 0
-46 -3914 3915 0
-3915 3931 0
-47 -3915 3916 0
-3916 3932 0
-48 -3916 3917 0
-3917 3933 0
-49 -3917 3918 0
-3918 3934 0
-50 -3918 3919 0
-3919 3935 0
-51 -3919 3920 0
-3920 3936 0
-52 -3920 0
-37 3921 0
-3921 3937 0
-38 -3921 3922 0
-3922 3938 0
-39 -3922 3923 0
-3923 3939 0
-40 -3923 3924 0
-3924 3940 0
-41 -3924 3925 0
-3925 3941 0
-42 -3925 3926 0
-3926 3942 0
-43 -3926 3927 0
-3927 3943 0
-44 -3927 3928 0
-3928 3944 0
-45 -3928 3929 0
-3929 3945 0
-46 -3929 3930 0
-3930 3946 0
-47 -3930 3931 0
-3931 3947 0
-48 -3931 3932 0
-3932 3948 0
-49 -3932 3933 0
-3933 3949 0
-50 -3933 3934 0
-3934 3950 0
-51 -3934 3935 0
-3935 3951 0
-52 -3935 3936 0
-3936 3952 0
-53 -3936 0
-38 3937 0
-3937 3953 0
-39 -3937 3938 0
-3938 3954 0
-40 -3938 3939 0
-3939 3955 0
-41 -3939 3940 0
-3940 3956 0
-42 -3940 3941 0
-3941 3957 0
-43 -3941 3942 0
-3942 3958 0
-44 -3942 3943 0
-3943 3959 0
-45 -3943 3944 0
-3944 3960 0
-46 -3944 3945 0
-3945 3961 0
-47 -3945 3946 0
-3946 3962 0
-48 -3946 3947 0
-3947 3963 0
-49 -3947 3948 0
-3948 3964 0
-50 -3948 3949 0
-3949 3965 0
-51 -3949 3950 0
-3950 3966 0
-52 -3950 3951 0
-3951 3967 0
-53 -3951 3952 0
-3952 3968 0
-54 -3952 0
-39 3953 0
-3953 3969 0
-40 -3953 3954 0
-3954 3970 0
-41 -3954 3955 0
-3955 3971 0
-42 -3955 3956 0
-3956 3972 0
-43 -3956 3957 0
-3957 3973 0
-44 -3957 3958 0
-3958 3974 0
-45 -3958 3959 0
-3959 3975 0
-46 -3959 3960 0
-3960 3976 0
-47 -3960 3961 0
-3961 3977 0
-48 -3961 3962 0
-3962 3978 0
-49 -3962 3963 0
-3963 3979 0
-50 -3963 3964 0
-3964 3980 0
-51 -3964 3965 0
-3965 3981 0
-52 -3965 3966 0
-3966 3982 0
-53 -3966 3967 0
-3967 3983 0
-54 -3967 3968 0
-3968 3984 0
-55 -3968 0
-40 3969 0
-3969 3985 0
-41 -3969 3970 0
-3970 3986 0
-42 -3970 3971 0
-3971 3987 0
-43 -3971 3972 0
-3972 3988 0
-44 -3972 3973 0
-3973 3989 0
-45 -3973 3974 0
-3974 3990 0
-46 -3974 3975 0
-3975 3991 0
-47 -3975 3976 0
-3976 3992 0
-48 -3976 3977 0
-3977 3993 0
-49 -3977 3978 0
-3978 3994 0
-50 -3978 3979 0
-3979 3995 0
-51 -3979 3980 0
-3980 3996 0
-52 -3980 3981 0
-3981 3997 0
-53 -3981 3982 0
-3982 3998 0
-54 -3982 3983 0
-3983 3999 0
-55 -3983 3984 0
-3984 4000 0
-56 -3984 0
-41 3985 0
-3985 4001 0
-42 -3985 3986 0
-3986 4002 0
-43 -3986 3987 0
-3987 4003 0
-44 -3987 3988 0
-3988 4004 0
-45 -3988 3989 0
-3989 4005 0
-46 -3989 3990 0
-3990 4006 0
-47 -3990 3991 0
-3991 4007 0
-48 -3991 3992 0
-3992 4008 0
-49 -3992 3993 0
-3993 4009 0
-50 -3993 3994 0
-3994 4010 0
-51 -3994 3995 0
-3995 4011 0
-52 -3995 3996 0
-3996 4012 0
-53 -3996 3997 0
-3997 4013 0
-54 -3997 3998 0
-3998 4014 0
-55 -3998 3999 0
-3999 4015 0
-56 -3999 4000 0
-4000 4016 0
-57 -4000 0
-42 4001 0
-4001 4017 0
-43 -4001 4002 0
-4002 4018 0
-44 -4002 4003 0
-4003 4019 0
-45 -4003 4004 0
-4004 4020 0
-46 -4004 4005 0
-4005 4021 0
-47 -4005 4006 0
-4006 4022 0
-48 -4006 4007 0
-4007 4023 0
-49 -4007 4008 0
-4008 4024 0
-50 -4008 4009 0
-4009 4025 0
-51 -4009 4010 0
-4010 4026 0
-52 -4010 4011 0
-4011 4027 0
-53 -4011 4012 0
-4012 4028 0
-54 -4012 4013 0
-4013 4029 0
-55 -4013 4014 0
-4014 4030 0
-56 -4014 4015 0
-4015 4031 0
-57 -4015 4016 0
-4016 4032 0
-58 -4016 0
-43 4017 0
-4017 4033 0
-44 -4017 4018 0
-4018 4034 0
-45 -4018 4019 0
-4019 4035 0
-46 -4019 4020 0
-4020 4036 0
-47 -4020 4021 0
-4021 4037 0
-48 -4021 4022 0
-4022 4038 0
-49 -4022 4023 0
-4023 4039 0
-50 -4023 4024 0
-4024 4040 0
-51 -4024 4025 0
-4025 4041 0
-52 -4025 4026 0
-4026 4042 0
-53 -4026 4027 0
-4027 4043 0
-54 -4027 4028 0
-4028 4044 0
-55 -4028 4029 0
-4029 4045 0
-56 -4029 4030 0
-4030 4046 0
-57 -4030 4031 0
-4031 4047 0
-58 -4031 4032 0
-4032 4048 0
-59 -4032 0
-44 4033 0
-4033 4049 0
-45 -4033 4034 0
-4034 4050 0
-46 -4034 4035 0
-4035 4051 0
-47 -4035 4036 0
-4036 4052 0
-48 -4036 4037 0
-4037 4053 0
-49 -4037 4038 0
-4038 4054 0
-50 -4038 4039 0
-4039 4055 0
-51 -4039 4040 0
-4040 4056 0
-52 -4040 4041 0
-4041 4057 0
-53 -4041 4042 0
-4042 4058 0
-54 -4042 4043 0
-4043 4059 0
-55 -4043 4044 0
-4044 4060 0
-56 -4044 4045 0
-4045 4061 0
-57 -4045 4046 0
-4046 4062 0
-58 -4046 4047 0
-4047 4063 0
-59 -4047 4048 0
-4048 4064 0
-60 -4048 0
-45 4049 0
-4049 4065 0
-46 -4049 4050 0
-4050 4066 0
-47 -4050 4051 0
-4051 4067 0
-48 -4051 4052 0
-4052 4068 0
-49 -4052 4053 0
-4053 4069 0
-50 -4053 4054 0
-4054 4070 0
-51 -4054 4055 0
-4055 4071 0
-52 -4055 4056 0
-4056 4072 0
-53 -4056 4057 0
-4057 4073 0
-54 -4057 4058 0
-4058 4074 0
-55 -4058 4059 0
-4059 4075 0
-56 -4059 4060 0
-4060 4076 0
-57 -4060 4061 0
-4061 4077 0
-58 -4061 4062 0
-4062 4078 0
-59 -4062 4063 0
-4063 4079 0
-60 -4063 4064 0
-4064 4080 0
-61 -4064 0
-46 4065 0
-4065 4081 0
-47 -4065 4066 0
-4066 4082 0
-48 -4066 4067 0
-4067 4083 0
-49 -4067 4068 0
-4068 4084 0
-50 -4068 4069 0
-4069 4085 0
-51 -4069 4070 0
-4070 4086 0
-52 -4070 4071 0
-4071 4087 0
-53 -4071 4072 0
-4072 4088 0
-54 -4072 4073 0
-4073 4089 0
-55 -4073 4074 0
-4074 4090 0
-56 -4074 4075 0
-4075 4091 0
-57 -4075 4076 0
-4076 4092 0
-58 -4076 4077 0
-4077 4093 0
-59 -4077 4078 0
-4078 4094 0
-60 -4078 4079 0
-4079 4095 0
-61 -4079 4080 0
-4080 4096 0
-62 -4080 0
-47 4081 0
-4081 4097 0
-48 -4081 4082 0
-4082 4098 0
-49 -4082 4083 0
-4083 4099 0
-50 -4083 4084 0
-4084 4100 0
-51 -4084 4085 0
-4085 4101 0
-52 -4085 4086 0
-4086 4102 0
-53 -4086 4087 0
-4087 4103 0
-54 -4087 4088 0
-4088 4104 0
-55 -4088 4089 0
-4089 4105 0
-56 -4089 4090 0
-4090 4106 0
-57 -4090 4091 0
-4091 4107 0
-58 -4091 4092 0
-4092 4108 0
-59 -4092 4093 0
-4093 4109 0
-60 -4093 4094 0
-4094 4110 0
-61 -4094 4095 0
-4095 4111 0
-62 -4095 4096 0
-4096 4112 0
-63 -4096 0
-48 4097 0
-4097 4113 0
-49 -4097 4098 0
-4098 4114 0
-50 -4098 4099 0
-4099 4115 0
-51 -4099 4100 0
-4100 4116 0
-52 -4100 4101 0
-4101 4117 0
-53 -4101 4102 0
-4102 4118 0
-54 -4102 4103 0
-4103 4119 0
-55 -4103 4104 0
-4104 4120 0
-56 -4104 4105 0
-4105 4121 0
-57 -4105 4106 0
-4106 4122 0
-58 -4106 4107 0
-4107 4123 0
-59 -4107 4108 0
-4108 4124 0
-60 -4108 4109 0
-4109 4125 0
-61 -4109 4110 0
-4110 4126 0
-62 -4110 4111 0
-4111 4127 0
-63 -4111 4112 0
-4112 4128 0
-64 -4112 0
-49 4113 0
-4113 4129 0
-50 -4113 4114 0
-4114 4130 0
-51 -4114 4115 0
-4115 4131 0
-52 -4115 4116 0
-4116 4132 0
-53 -4116 4117 0
-4117 4133 0
-54 -4117 4118 0
-4118 4134 0
-55 -4118 4119 0
-4119 4135 0
-56 -4119 4120 0
-4120 4136 0
-57 -4120 4121 0
-4121 4137 0
-58 -4121 4122 0
-4122 4138 0
-59 -4122 4123 0
-4123 4139 0
-60 -4123 4124 0
-4124 4140 0
-61 -4124 4125 0
-4125 4141 0
-62 -4125 4126 0
-4126 4142 0
-63 -4126 4127 0
-4127 4143 0
-64 -4127 4128 0
-4128 4144 0
-65 -4128 0
-50 4129 0
-4129 4145 0
-51 -4129 4130 0
-4130 4146 0
-52 -4130 4131 0
-4131 4147 0
-53 -4131 4132 0
-4132 4148 0
-54 -4132 4133 0
-4133 4149 0
-55 -4133 4134 0
-4134 4150 0
-56 -4134 4135 0
-4135 4151 0
-57 -4135 4136 0
-4136 4152 0
-58 -4136 4137 0
-4137 4153 0
-59 -4137 4138 0
-4138 4154 0
-60 -4138 4139 0
-4139 4155 0
-61 -4139 4140 0
-4140 4156 0
-62 -4140 4141 0
-4141 4157 0
-63 -4141 4142 0
-4142 4158 0
-64 -4142 4143 0
-4143 4159 0
-65 -4143 4144 0
-4144 4160 0
-66 -4144 0
-51 4145 0
-4145 4161 0
-52 -4145 4146 0
-4146 4162 0
-53 -4146 4147 0
-4147 4163 0
-54 -4147 4148 0
-4148 4164 0
-55 -4148 4149 0
-4149 4165 0
-56 -4149 4150 0
-4150 4166 0
-57 -4150 4151 0
-4151 4167 0
-58 -4151 4152 0
-4152 4168 0
-59 -4152 4153 0
-4153 4169 0
-60 -4153 4154 0
-4154 4170 0
-61 -4154 4155 0
-4155 4171 0
-62 -4155 4156 0
-4156 4172 0
-63 -4156 4157 0
-4157 4173 0
-64 -4157 4158 0
-4158 4174 0
-65 -4158 4159 0
-4159 4175 0
-66 -4159 4160 0
-4160 4176 0
-67 -4160 0
-52 4161 0
-4161 4177 0
-53 -4161 4162 0
-4162 4178 0
-54 -4162 4163 0
-4163 4179 0
-55 -4163 4164 0
-4164 4180 0
-56 -4164 4165 0
-4165 4181 0
-57 -4165 4166 0
-4166 4182 0
-58 -4166 4167 0
-4167 4183 0
-59 -4167 4168 0
-4168 4184 0
-60 -4168 4169 0
-4169 4185 0
-61 -4169 4170 0
-4170 4186 0
-62 -4170 4171 0
-4171 4187 0
-63 -4171 4172 0
-4172 4188 0
-64 -4172 4173 0
-4173 4189 0
-65 -4173 4174 0
-4174 4190 0
-66 -4174 4175 0
-4175 4191 0
-67 -4175 4176 0
-4176 4192 0
-68 -4176 0
-53 4177 0
-4177 4193 0
-54 -4177 4178 0
-4178 4194 0
-55 -4178 4179 0
-4179 4195 0
-56 -4179 4180 0
-4180 4196 0
-57 -4180 4181 0
-4181 4197 0
-58 -4181 4182 0
-4182 4198 0
-59 -4182 4183 0
-4183 4199 0
-60 -4183 4184 0
-4184 4200 0
-61 -4184 4185 0
-4185 4201 0
-62 -4185 4186 0
-4186 4202 0
-63 -4186 4187 0
-4187 4203 0
-64 -4187 4188 0
-4188 4204 0
-65 -4188 4189 0
-4189 4205 0
-66 -4189 4190 0
-4190 4206 0
-67 -4190 4191 0
-4191 4207 0
-68 -4191 4192 0
-4192 4208 0
-69 -4192 0
-54 4193 0
-4193 4209 0
-55 -4193 4194 0
-4194 4210 0
-56 -4194 4195 0
-4195 4211 0
-57 -4195 4196 0
-4196 4212 0
-58 -4196 4197 0
-4197 4213 0
-59 -4197 4198 0
-4198 4214 0
-60 -4198 4199 0
-4199 4215 0
-61 -4199 4200 0
-4200 4216 0
-62 -4200 4201 0
-4201 4217 0
-63 -4201 4202 0
-4202 4218 0
-64 -4202 4203 0
-4203 4219 0
-65 -4203 4204 0
-4204 4220 0
-66 -4204 4205 0
-4205 4221 0
-67 -4205 4206 0
-4206 4222 0
-68 -4206 4207 0
-4207 4223 0
-69 -4207 4208 0
-4208 4224 0
-70 -4208 0
-55 4209 0
-4209 4225 0
-56 -4209 4210 0
-4210 4226 0
-57 -4210 4211 0
-4211 4227 0
-58 -4211 4212 0
-4212 4228 0
-59 -4212 4213 0
-4213 4229 0
-60 -4213 4214 0
-4214 4230 0
-61 -4214 4215 0
-4215 4231 0
-62 -4215 4216 0
-4216 4232 0
-63 -4216 4217 0
-4217 4233 0
-64 -4217 4218 0
-4218 4234 0
-65 -4218 4219 0
-4219 4235 0
-66 -4219 4220 0
-4220 4236 0
-67 -4220 4221 0
-4221 4237 0
-68 -4221 4222 0
-4222 4238 0
-69 -4222 4223 0
-4223 4239 0
-70 -4223 4224 0
-4224 4240 0
-71 -4224 0
-56 4225 0
-4225 4241 0
-57 -4225 4226 0
-4226 4242 0
-58 -4226 4227 0
-4227 4243 0
-59 -4227 4228 0
-4228 4244 0
-60 -4228 4229 0
-4229 4245 0
-61 -4229 4230 0
-4230 4246 0
-62 -4230 4231 0
-4231 4247 0
-63 -4231 4232 0
-4232 4248 0
-64 -4232 4233 0
-4233 4249 0
-65 -4233 4234 0
-4234 4250 0
-66 -4234 4235 0
-4235 4251 0
-67 -4235 4236 0
-4236 4252 0
-68 -4236 4237 0
-4237 4253 0
-69 -4237 4238 0
-4238 4254 0
-70 -4238 4239 0
-4239 4255 0
-71 -4239 4240 0
-4240 4256 0
-72 -4240 0
-57 4241 0
-4241 4257 0
-58 -4241 4242 0
-4242 4258 0
-59 -4242 4243 0
-4243 4259 0
-60 -4243 4244 0
-4244 4260 0
-61 -4244 4245 0
-4245 4261 0
-62 -4245 4246 0
-4246 4262 0
-63 -4246 4247 0
-4247 4263 0
-64 -4247 4248 0
-4248 4264 0
-65 -4248 4249 0
-4249 4265 0
-66 -4249 4250 0
-4250 4266 0
-67 -4250 4251 0
-4251 4267 0
-68 -4251 4252 0
-4252 4268 0
-69 -4252 4253 0
-4253 4269 0
-70 -4253 4254 0
-4254 4270 0
-71 -4254 4255 0
-4255 4271 0
-72 -4255 4256 0
-4256 4272 0
-73 -4256 0
-58 4257 0
-4257 4273 0
-59 -4257 4258 0
-4258 4274 0
-60 -4258 4259 0
-4259 4275 0
-61 -4259 4260 0
-4260 4276 0
-62 -4260 4261 0
-4261 4277 0
-63 -4261 4262 0
-4262 4278 0
-64 -4262 4263 0
-4263 4279 0
-65 -4263 4264 0
-4264 4280 0
-66 -4264 4265 0
-4265 4281 0
-67 -4265 4266 0
-4266 4282 0
-68 -4266 4267 0
-4267 4283 0
-69 -4267 4268 0
-4268 4284 0
-70 -4268 4269 0
-4269 4285 0
-71 -4269 4270 0
-4270 4286 0
-72 -4270 4271 0
-4271 4287 0
-73 -4271 4272 0
-4272 4288 0
-74 -4272 0
-59 4273 0
-4273 4289 0
-60 -4273 4274 0
-4274 4290 0
-61 -4274 4275 0
-4275 4291 0
-62 -4275 4276 0
-4276 4292 0
-63 -4276 4277 0
-4277 4293 0
-64 -4277 4278 0
-4278 4294 0
-65 -4278 4279 0
-4279 4295 0
-66 -4279 4280 0
-4280 4296 0
-67 -4280 4281 0
-4281 4297 0
-68 -4281 4282 0
-4282 4298 0
-69 -4282 4283 0
-4283 4299 0
-70 -4283 4284 0
-4284 4300 0
-71 -4284 4285 0
-4285 4301 0
-72 -4285 4286 0
-4286 4302 0
-73 -4286 4287 0
-4287 4303 0
-74 -4287 4288 0
-4288 4304 0
-75 -4288 0
-60 4289 0
-4289 4305 0
-61 -4289 4290 0
-4290 4306 0
-62 -4290 4291 0
-4291 4307 0
-63 -4291 4292 0
-4292 4308 0
-64 -4292 4293 0
-4293 4309 0
-65 -4293 4294 0
-4294 4310 0
-66 -4294 4295 0
-4295 4311 0
-67 -4295 4296 0
-4296 4312 0
-68 -4296 4297 0
-4297 4313 0
-69 -4297 4298 0
-4298 4314 0
-70 -4298 4299 0
-4299 4315 0
-71 -4299 4300 0
-4300 4316 0
-72 -4300 4301 0
-4301 4317 0
-73 -4301 4302 0
-4302 4318 0
-74 -4302 4303 0
-4303 4319 0
-75 -4303 4304 0
-4304 4320 0
-76 -4304 0
-61 4305 0
-4305 4321 0
-62 -4305 4306 0
-4306 4322 0
-63 -4306 4307 0
-4307 4323 0
-64 -4307 4308 0
-4308 4324 0
-65 -4308 4309 0
-4309 4325 0
-66 -4309 4310 0
-4310 4326 0
-67 -4310 4311 0
-4311 4327 0
-68 -4311 4312 0
-4312 4328 0
-69 -4312 4313 0
-4313 4329 0
-70 -4313 4314 0
-4314 4330 0
-71 -4314 4315 0
-4315 4331 0
-72 -4315 4316 0
-4316 4332 0
-73 -4316 4317 0
-4317 4333 0
-74 -4317 4318 0
-4318 4334 0
-75 -4318 4319 0
-4319 4335 0
-76 -4319 4320 0
-4320 4336 0
-77 -4320 0
-62 4321 0
-4321 4337 0
-63 -4321 4322 0
-4322 4338 0
-64 -4322 4323 0
-4323 4339 0
-65 -4323 4324 0
-4324 4340 0
-66 -4324 4325 0
-4325 4341 0
-67 -4325 4326 0
-4326 4342 0
-68 -4326 4327 0
-4327 4343 0
-69 -4327 4328 0
-4328 4344 0
-70 -4328 4329 0
-4329 4345 0
-71 -4329 4330 0
-4330 4346 0
-72 -4330 4331 0
-4331 4347 0
-73 -4331 4332 0
-4332 4348 0
-74 -4332 4333 0
-4333 4349 0
-75 -4333 4334 0
-4334 4350 0
-76 -4334 4335 0
-4335 4351 0
-77 -4335 4336 0
-4336 4352 0
-78 -4336 0
-63 4337 0
-4337 4353 0
-64 -4337 4338 0
-4338 4354 0
-65 -4338 4339 0
-4339 4355 0
-66 -4339 4340 0
-4340 4356 0
-67 -4340 4341 0
-4341 4357 0
-68 -4341 4342 0
-4342 4358 0
-69 -4342 4343 0
-4343 4359 0
-70 -4343 4344 0
-4344 4360 0
-71 -4344 4345 0
-4345 4361 0
-72 -4345 4346 0
-4346 4362 0
-73 -4346 4347 0
-4347 4363 0
-74 -4347 4348 0
-4348 4364 0
-75 -4348 4349 0
-4349 4365 0
-76 -4349 4350 0
-4350 4366 0
-77 -4350 4351 0
-4351 4367 0
-78 -4351 4352 0
-4352 4368 0
-79 -4352 0
-64 4353 0
-4353 4369 0
-65 -4353 4354 0
-4354 4370 0
-66 -4354 4355 0
-4355 4371 0
-67 -4355 4356 0
-4356 4372 0
-68 -4356 4357 0
-4357 4373 0
-69 -4357 4358 0
-4358 4374 0
-70 -4358 4359 0
-4359 4375 0
-71 -4359 4360 0
-4360 4376 0
-72 -4360 4361 0
-4361 4377 0
-73 -4361 4362 0
-4362 4378 0
-74 -4362 4363 0
-4363 4379 0
-75 -4363 4364 0
-4364 4380 0
-76 -4364 4365 0
-4365 4381 0
-77 -4365 4366 0
-4366 4382 0
-78 -4366 4367 0
-4367 4383 0
-79 -4367 4368 0
-4368 4384 0
-80 -4368 0
-65 4369 0
-4369 4385 0
-66 -4369 4370 0
-4370 4386 0
-67 -4370 4371 0
-4371 4387 0
-68 -4371 4372 0
-4372 4388 0
-69 -4372 4373 0
-4373 4389 0
-70 -4373 4374 0
-4374 4390 0
-71 -4374 4375 0
-4375 4391 0
-72 -4375 4376 0
-4376 4392 0
-73 -4376 4377 0
-4377 4393 0
-74 -4377 4378 0
-4378 4394 0
-75 -4378 4379 0
-4379 4395 0
-76 -4379 4380 0
-4380 4396 0
-77 -4380 4381 0
-4381 4397 0
-78 -4381 4382 0
-4382 4398 0
-79 -4382 4383 0
-4383 4399 0
-80 -4383 4384 0
-4384 4400 0
-81 -4384 0
-66 4385 0
-4385 4401 0
-67 -4385 4386 0
-4386 4402 0
-68 -4386 4387 0
-4387 4403 0
-69 -4387 4388 0
-4388 4404 0
-70 -4388 4389 0
-4389 4405 0
-71 -4389 4390 0
-4390 4406 0
-72 -4390 4391 0
-4391 4407 0
-73 -4391 4392 0
-4392 4408 0
-74 -4392 4393 0
-4393 4409 0
-75 -4393 4394 0
-4394 4410 0
-76 -4394 4395 0
-4395 4411 0
-77 -4395 4396 0
-4396 4412 0
-78 -4396 4397 0
-4397 4413 0
-79 -4397 4398 0
-4398 4414 0
-80 -4398 4399 0
-4399 4415 0
-81 -4399 4400 0
-4400 4416 0
-82 -4400 0
-67 4401 0
-4401 4417 0
-68 -4401 4402 0
-4402 4418 0
-69 -4402 4403 0
-4403 4419 0
-70 -4403 4404 0
-4404 4420 0
-71 -4404 4405 0
-4405 4421 0
-72 -4405 4406 0
-4406 4422 0
-73 -4406 4407 0
-4407 4423 0
-74 -4407 4408 0
-4408 4424 0
-75 -4408 4409 0
-4409 4425 0
-76 -4409 4410 0
-4410 4426 0
-77 -4410 4411 0
-4411 4427 0
-78 -4411 4412 0
-4412 4428 0
-79 -4412 4413 0
-4413 4429 0
-80 -4413 4414 0
-4414 4430 0
-81 -4414 4415 0
-4415 4431 0
-82 -4415 4416 0
-4416 4432 0
-83 -4416 0
-68 4417 0
-4417 4433 0
-69 -4417 4418 0
-4418 4434 0
-70 -4418 4419 0
-4419 4435 0
-71 -4419 4420 0
-4420 4436 0
-72 -4420 4421 0
-4421 4437 0
-73 -4421 4422 0
-4422 4438 0
-74 -4422 4423 0
-4423 4439 0
-75 -4423 4424 0
-4424 4440 0
-76 -4424 4425 0
-4425 4441 0
-77 -4425 4426 0
-4426 4442 0
-78 -4426 4427 0
-4427 4443 0
-79 -4427 4428 0
-4428 4444 0
-80 -4428 4429 0
-4429 4445 0
-81 -4429 4430 0
-4430 4446 0
-82 -4430 4431 0
-4431 4447 0
-83 -4431 4432 0
-4432 4448 0
-84 -4432 0
-69 4433 0
-4433 4449 0
-70 -4433 4434 0
-4434 4450 0
-71 -4434 4435 0
-4435 4451 0
-72 -4435 4436 0
-4436 4452 0
-73 -4436 4437 0
-4437 4453 0
-74 -4437 4438 0
-4438 4454 0
-75 -4438 4439 0
-4439 4455 0
-76 -4439 4440 0
-4440 4456 0
-77 -4440 4441 0
-4441 4457 0
-78 -4441 4442 0
-4442 4458 0
-79 -4442 4443 0
-4443 4459 0
-80 -4443 4444 0
-4444 4460 0
-81 -4444 4445 0
-4445 4461 0
-82 -4445 4446 0
-4446 4462 0
-83 -4446 4447 0
-4447 4463 0
-84 -4447 4448 0
-4448 4464 0
-85 -4448 0
-70 4449 0
-4449 4465 0
-71 -4449 4450 0
-4450 4466 0
-72 -4450 4451 0
-4451 4467 0
-73 -4451 4452 0
-4452 4468 0
-74 -4452 4453 0
-4453 4469 0
-75 -4453 4454 0
-4454 4470 0
-76 -4454 4455 0
-4455 4471 0
-77 -4455 4456 0
-4456 4472 0
-78 -4456 4457 0
-4457 4473 0
-79 -4457 4458 0
-4458 4474 0
-80 -4458 4459 0
-4459 4475 0
-81 -4459 4460 0
-4460 4476 0
-82 -4460 4461 0
-4461 4477 0
-83 -4461 4462 0
-4462 4478 0
-84 -4462 4463 0
-4463 4479 0
-85 -4463 4464 0
-4464 4480 0
-86 -4464 0
-71 4465 0
-4465 4481 0
-72 -4465 4466 0
-4466 4482 0
-73 -4466 4467 0
-4467 4483 0
-74 -4467 4468 0
-4468 4484 0
-75 -4468 4469 0
-4469 4485 0
-76 -4469 4470 0
-4470 4486 0
-77 -4470 4471 0
-4471 4487 0
-78 -4471 4472 0
-4472 4488 0
-79 -4472 4473 0
-4473 4489 0
-80 -4473 4474 0
-4474 4490 0
-81 -4474 4475 0
-4475 4491 0
-82 -4475 4476 0
-4476 4492 0
-83 -4476 4477 0
-4477 4493 0
-84 -4477 4478 0
-4478 4494 0
-85 -4478 4479 0
-4479 4495 0
-86 -4479 4480 0
-4480 4496 0
-87 -4480 0
-72 4481 0
-4481 4497 0
-73 -4481 4482 0
-4482 4498 0
-74 -4482 4483 0
-4483 4499 0
-75 -4483 4484 0
-4484 4500 0
-76 -4484 4485 0
-4485 4501 0
-77 -4485 4486 0
-4486 4502 0
-78 -4486 4487 0
-4487 4503 0
-79 -4487 4488 0
-4488 4504 0
-80 -4488 4489 0
-4489 4505 0
-81 -4489 4490 0
-4490 4506 0
-82 -4490 4491 0
-4491 4507 0
-83 -4491 4492 0
-4492 4508 0
-84 -4492 4493 0
-4493 4509 0
-85 -4493 4494 0
-4494 4510 0
-86 -4494 4495 0
-4495 4511 0
-87 -4495 4496 0
-4496 4512 0
-88 -4496 0
-73 4497 0
-4497 4513 0
-74 -4497 4498 0
-4498 4514 0
-75 -4498 4499 0
-4499 4515 0
-76 -4499 4500 0
-4500 4516 0
-77 -4500 4501 0
-4501 4517 0
-78 -4501 4502 0
-4502 4518 0
-79 -4502 4503 0
-4503 4519 0
-80 -4503 4504 0
-4504 4520 0
-81 -4504 4505 0
-4505 4521 0
-82 -4505 4506 0
-4506 4522 0
-83 -4506 4507 0
-4507 4523 0
-84 -4507 4508 0
-4508 4524 0
-85 -4508 4509 0
-4509 4525 0
-86 -4509 4510 0
-4510 4526 0
-87 -4510 4511 0
-4511 4527 0
-88 -4511 4512 0
-4512 4528 0
-89 -4512 0
-74 4513 0
-4513 4529 0
-75 -4513 4514 0
-4514 4530 0
-76 -4514 4515 0
-4515 4531 0
-77 -4515 4516 0
-4516 4532 0
-78 -4516 4517 0
-4517 4533 0
-79 -4517 4518 0
-4518 4534 0
-80 -4518 4519 0
-4519 4535 0
-81 -4519 4520 0
-4520 4536 0
-82 -4520 4521 0
-4521 4537 0
-83 -4521 4522 0
-4522 4538 0
-84 -4522 4523 0
-4523 4539 0
-85 -4523 4524 0
-4524 4540 0
-86 -4524 4525 0
-4525 4541 0
-87 -4525 4526 0
-4526 4542 0
-88 -4526 4527 0
-4527 4543 0
-89 -4527 4528 0
-4528 4544 0
-90 -4528 0
-75 4529 0
-4529 4545 0
-76 -4529 4530 0
-4530 4546 0
-77 -4530 4531 0
-4531 4547 0
-78 -4531 4532 0
-4532 4548 0
-79 -4532 4533 0
-4533 4549 0
-80 -4533 4534 0
-4534 4550 0
-81 -4534 4535 0
-4535 4551 0
-82 -4535 4536 0
-4536 4552 0
-83 -4536 4537 0
-4537 4553 0
-84 -4537 4538 0
-4538 4554 0
-85 -4538 4539 0
-4539 4555 0
-86 -4539 4540 0
-4540 4556 0
-87 -4540 4541 0
-4541 4557 0
-88 -4541 4542 0
-4542 4558 0
-89 -4542 4543 0
-4543 4559 0
-90 -4543 4544 0
-4544 4560 0
-91 -4544 0
-76 4545 0
-4545 4561 0
-77 -4545 4546 0
-4546 4562 0
-78 -4546 4547 0
-4547 4563 0
-79 -4547 4548 0
-4548 4564 0
-80 -4548 4549 0
-4549 4565 0
-81 -4549 4550 0
-4550 4566 0
-82 -4550 4551 0
-4551 4567 0
-83 -4551 4552 0
-4552 4568 0
-84 -4552 4553 0
-4553 4569 0
-85 -4553 4554 0
-4554 4570 0
-86 -4554 4555 0
-4555 4571 0
-87 -4555 4556 0
-4556 4572 0
-88 -4556 4557 0
-4557 4573 0
-89 -4557 4558 0
-4558 4574 0
-90 -4558 4559 0
-4559 4575 0
-91 -4559 4560 0
-4560 4576 0
-92 -4560 0
-77 4561 0
-4561 4577 0
-78 -4561 4562 0
-4562 4578 0
-79 -4562 4563 0
-4563 4579 0
-80 -4563 4564 0
-4564 4580 0
-81 -4564 4565 0
-4565 4581 0
-82 -4565 4566 0
-4566 4582 0
-83 -4566 4567 0
-4567 4583 0
-84 -4567 4568 0
-4568 4584 0
-85 -4568 4569 0
-4569 4585 0
-86 -4569 4570 0
-4570 4586 0
-87 -4570 4571 0
-4571 4587 0
-88 -4571 4572 0
-4572 4588 0
-89 -4572 4573 0
-4573 4589 0
-90 -4573 4574 0
-4574 4590 0
-91 -4574 4575 0
-4575 4591 0
-92 -4575 4576 0
-4576 4592 0
-93 -4576 0
-78 4577 0
-4577 4593 0
-79 -4577 4578 0
-4578 4594 0
-80 -4578 4579 0
-4579 4595 0
-81 -4579 4580 0
-4580 4596 0
-82 -4580 4581 0
-4581 4597 0
-83 -4581 4582 0
-4582 4598 0
-84 -4582 4583 0
-4583 4599 0
-85 -4583 4584 0
-4584 4600 0
-86 -4584 4585 0
-4585 4601 0
-87 -4585 4586 0
-4586 4602 0
-88 -4586 4587 0
-4587 4603 0
-89 -4587 4588 0
-4588 4604 0
-90 -4588 4589 0
-4589 4605 0
-91 -4589 4590 0
-4590 4606 0
-92 -4590 4591 0
-4591 4607 0
-93 -4591 4592 0
-4592 4608 0
-94 -4592 0
-79 4593 0
-4593 4609 0
-80 -4593 4594 0
-4594 4610 0
-81 -4594 4595 0
-4595 4611 0
-82 -4595 4596 0
-4596 4612 0
-83 -4596 4597 0
-4597 4613 0
-84 -4597 4598 0
-4598 4614 0
-85 -4598 4599 0
-4599 4615 0
-86 -4599 4600 0
-4600 4616 0
-87 -4600 4601 0
-4601 4617 0
-88 -4601 4602 0
-4602 4618 0
-89 -4602 4603 0
-4603 4619 0
-90 -4603 4604 0
-4604 4620 0
-91 -4604 4605 0
-4605 4621 0
-92 -4605 4606 0
-4606 4622 0
-93 -4606 4607 0
-4607 4623 0
-94 -4607 4608 0
-4608 4624 0
-95 -4608 0
-80 4609 0
-4609 4625 0
-81 -4609 4610 0
-4610 4626 0
-82 -4610 4611 0
-4611 4627 0
-83 -4611 4612 0
-4612 4628 0
-84 -4612 4613 0
-4613 4629 0
-85 -4613 4614 0
-4614 4630 0
-86 -4614 4615 0
-4615 4631 0
-87 -4615 4616 0
-4616 4632 0
-88 -4616 4617 0
-4617 4633 0
-89 -4617 4618 0
-4618 4634 0
-90 -4618 4619 0
-4619 4635 0
-91 -4619 4620 0
-4620 4636 0
-92 -4620 4621 0
-4621 4637 0
-93 -4621 4622 0
-4622 4638 0
-94 -4622 4623 0
-4623 4639 0
-95 -4623 4624 0
-4624 4640 0
-96 -4624 0
-81 4625 0
-4625 4641 0
-82 -4625 4626 0
-4626 4642 0
-83 -4626 4627 0
-4627 4643 0
-84 -4627 4628 0
-4628 4644 0
-85 -4628 4629 0
-4629 4645 0
-86 -4629 4630 0
-4630 4646 0
-87 -4630 4631 0
-4631 4647 0
-88 -4631 4632 0
-4632 4648 0
-89 -4632 4633 0
-4633 4649 0
-90 -4633 4634 0
-4634 4650 0
-91 -4634 4635 0
-4635 4651 0
-92 -4635 4636 0
-4636 4652 0
-93 -4636 4637 0
-4637 4653 0
-94 -4637 4638 0
-4638 4654 0
-95 -4638 4639 0
-4639 4655 0
-96 -4639 4640 0
-4640 4656 0
-97 -4640 0
-82 4641 0
-4641 4657 0
-83 -4641 4642 0
-4642 4658 0
-84 -4642 4643 0
-4643 4659 0
-85 -4643 4644 0
-4644 4660 0
-86 -4644 4645 0
-4645 4661 0
-87 -4645 4646 0
-4646 4662 0
-88 -4646 4647 0
-4647 4663 0
-89 -4647 4648 0
-4648 4664 0
-90 -4648 4649 0
-4649 4665 0
-91 -4649 4650 0
-4650 4666 0
-92 -4650 4651 0
-4651 4667 0
-93 -4651 4652 0
-4652 4668 0
-94 -4652 4653 0
-4653 4669 0
-95 -4653 4654 0
-4654 4670 0
-96 -4654 4655 0
-4655 4671 0
-97 -4655 4656 0
-4656 4672 0
-98 -4656 0
-83 4657 0
-4657 4673 0
-84 -4657 4658 0
-4658 4674 0
-85 -4658 4659 0
-4659 4675 0
-86 -4659 4660 0
-4660 4676 0
-87 -4660 4661 0
-4661 4677 0
-88 -4661 4662 0
-4662 4678 0
-89 -4662 4663 0
-4663 4679 0
-90 -4663 4664 0
-4664 4680 0
-91 -4664 4665 0
-4665 4681 0
-92 -4665 4666 0
-4666 4682 0
-93 -4666 4667 0
-4667 4683 0
-94 -4667 4668 0
-4668 4684 0
-95 -4668 4669 0
-4669 4685 0
-96 -4669 4670 0
-4670 4686 0
-97 -4670 4671 0
-4671 4687 0
-98 -4671 4672 0
-4672 4688 0
-99 -4672 0
-84 4673 0
-4673 4689 0
-85 -4673 4674 0
-4674 4690 0
-86 -4674 4675 0
-4675 4691 0
-87 -4675 4676 0
-4676 4692 0
-88 -4676 4677 0
-4677 4693 0
-89 -4677 4678 0
-4678 4694 0
-90 -4678 4679 0
-4679 4695 0
-91 -4679 4680 0
-4680 4696 0
-92 -4680 4681 0
-4681 4697 0
-93 -4681 4682 0
-4682 4698 0
-94 -4682 4683 0
-4683 4699 0
-95 -4683 4684 0
-4684 4700 0
-96 -4684 4685 0
-4685 4701 0
-97 -4685 4686 0
-4686 4702 0
-98 -4686 4687 0
-4687 4703 0
-99 -4687 4688 0
-4688 4704 0
-100 -4688 0
-85 4689 0
-4689 4705 0
-86 -4689 4690 0
-4690 4706 0
-87 -4690 4691 0
-4691 4707 0
-88 -4691 4692 0
-4692 4708 0
-89 -4692 4693 0
-4693 4709 0
-90 -4693 4694 0
-4694 4710 0
-91 -4694 4695 0
-4695 4711 0
-92 -4695 4696 0
-4696 4712 0
-93 -4696 4697 0
-4697 4713 0
-94 -4697 4698 0
-4698 4714 0
-95 -4698 4699 0
-4699 4715 0
-96 -4699 4700 0
-4700 4716 0
-97 -4700 4701 0
-4701 4717 0
-98 -4701 4702 0
-4702 4718 0
-99 -4702 4703 0
-4703 4719 0
-100 -4703 4704 0
-4704 4720 0
-101 -4704 0
-86 4705 0
-4705 4721 0
-87 -4705 4706 0
-4706 4722 0
-88 -4706 4707 0
-4707 4723 0
-89 -4707 4708 0
-4708 4724 0
-90 -4708 4709 0
-4709 4725 0
-91 -4709 4710 0
-4710 4726 0
-92 -4710 4711 0
-4711 4727 0
-93 -4711 4712 0
-4712 4728 0
-94 -4712 4713 0
-4713 4729 0
-95 -4713 4714 0
-4714 4730 0
-96 -4714 4715 0
-4715 4731 0
-97 -4715 4716 0
-4716 4732 0
-98 -4716 4717 0
-4717 4733 0
-99 -4717 4718 0
-4718 4734 0
-100 -4718 4719 0
-4719 4735 0
-101 -4719 4720 0
-4720 4736 0
-102 -4720 0
-87 4721 0
-4721 4737 0
-88 -4721 4722 0
-4722 4738 0
-89 -4722 4723 0
-4723 4739 0
-90 -4723 4724 0
-4724 4740 0
-91 -4724 4725 0
-4725 4741 0
-92 -4725 4726 0
-4726 4742 0
-93 -4726 4727 0
-4727 4743 0
-94 -4727 4728 0
-4728 4744 0
-95 -4728 4729 0
-4729 4745 0
-96 -4729 4730 0
-4730 4746 0
-97 -4730 4731 0
-4731 4747 0
-98 -4731 4732 0
-4732 4748 0
-99 -4732 4733 0
-4733 4749 0
-100 -4733 4734 0
-4734 4750 0
-101 -4734 4735 0
-4735 4751 0
-102 -4735 4736 0
-4736 4752 0
-103 -4736 0
-88 4737 0
-4737 4753 0
-89 -4737 4738 0
-4738 4754 0
-90 -4738 4739 0
-4739 4755 0
-91 -4739 4740 0
-4740 4756 0
-92 -4740 4741 0
-4741 4757 0
-93 -4741 4742 0
-4742 4758 0
-94 -4742 4743 0
-4743 4759 0
-95 -4743 4744 0
-4744 4760 0
-96 -4744 4745 0
-4745 4761 0
-97 -4745 4746 0
-4746 4762 0
-98 -4746 4747 0
-4747 4763 0
-99 -4747 4748 0
-4748 4764 0
-100 -4748 4749 0
-4749 4765 0
-101 -4749 4750 0
-4750 4766 0
-102 -4750 4751 0
-4751 4767 0
-103 -4751 4752 0
-4752 4768 0
-104 -4752 0
-89 4753 0
-4753 4769 0
-90 -4753 4754 0
-4754 4770 0
-91 -4754 4755 0
-4755 4771 0
-92 -4755 4756 0
-4756 4772 0
-93 -4756 4757 0
-4757 4773 0
-94 -4757 4758 0
-4758 4774 0
-95 -4758 4759 0
-4759 4775 0
-96 -4759 4760 0
-4760 4776 0
-97 -4760 4761 0
-4761 4777 0
-98 -4761 4762 0
-4762 4778 0
-99 -4762 4763 0
-4763 4779 0
-100 -4763 4764 0
-4764 4780 0
-101 -4764 4765 0
-4765 4781 0
-102 -4765 4766 0
-4766 4782 0
-103 -4766 4767 0
-4767 4783 0
-104 -4767 4768 0
-4768 4784 0
-105 -4768 0
-90 4769 0
-4769 4785 0
-91 -4769 4770 0
-4770 4786 0
-92 -4770 4771 0
-4771 4787 0
-93 -4771 4772 0
-4772 4788 0
-94 -4772 4773 0
-4773 4789 0
-95 -4773 4774 0
-4774 4790 0
-96 -4774 4775 0
-4775 4791 0
-97 -4775 4776 0
-4776 4792 0
-98 -4776 4777 0
-4777 4793 0
-99 -4777 4778 0
-4778 4794 0
-100 -4778 4779 0
-4779 4795 0
-101 -4779 4780 0
-4780 4796 0
-102 -4780 4781 0
-4781 4797 0
-103 -4781 4782 0
-4782 4798 0
-104 -4782 4783 0
-4783 4799 0
-105 -4783 4784 0
-4784 4800 0
-106 -4784 0
-91 4785 0
-4785 4801 0
-92 -4785 4786 0
-4786 4802 0
-93 -4786 4787 0
-4787 4803 0
-94 -4787 4788 0
-4788 4804 0
-95 -4788 4789 0
-4789 4805 0
-96 -4789 4790 0
-4790 4806 0
-97 -4790 4791 0
-4791 4807 0
-98 -4791 4792 0
-4792 4808 0
-99 -4792 4793 0
-4793 4809 0
-100 -4793 4794 0
-4794 4810 0
-101 -4794 4795 0
-4795 4811 0
-102 -4795 4796 0
-4796 4812 0
-103 -4796 4797 0
-4797 4813 0
-104 -4797 4798 0
-4798 4814 0
-105 -4798 4799 0
-4799 4815 0
-106 -4799 4800 0
-4800 4816 0
-107 -4800 0
-92 4801 0
-4801 4817 0
-93 -4801 4802 0
-4802 4818 0
-94 -4802 4803 0
-4803 4819 0
-95 -4803 4804 0
-4804 4820 0
-96 -4804 4805 0
-4805 4821 0
-97 -4805 4806 0
-4806 4822 0
-98 -4806 4807 0
-4807 4823 0
-99 -4807 4808 0
-4808 4824 0
-100 -4808 4809 0
-4809 4825 0
-101 -4809 4810 0
-4810 4826 0
-102 -4810 4811 0
-4811 4827 0
-103 -4811 4812 0
-4812 4828 0
-104 -4812 4813 0
-4813 4829 0
-105 -4813 4814 0
-4814 4830 0
-106 -4814 4815 0
-4815 4831 0
-107 -4815 4816 0
-4816 4832 0
-108 -4816 0
-93 4817 0
-4817 4833 0
-94 -4817 4818 0
-4818 4834 0
-95 -4818 4819 0
-4819 4835 0
-96 -4819 4820 0
-4820 4836 0
-97 -4820 4821 0
-4821 4837 0
-98 -4821 4822 0
-4822 4838 0
-99 -4822 4823 0
-4823 4839 0
-100 -4823 4824 0
-4824 4840 0
-101 -4824 4825 0
-4825 4841 0
-102 -4825 4826 0
-4826 4842 0
-103 -4826 4827 0
-4827 4843 0
-104 -4827 4828 0
-4828 4844 0
-105 -4828 4829 0
-4829 4845 0
-106 -4829 4830 0
-4830 4846 0
-107 -4830 4831 0
-4831 4847 0
-108 -4831 4832 0
-4832 4848 0
-109 -4832 0
-94 4833 0
-4833 4849 0
-95 -4833 4834 0
-4834 4850 0
-96 -4834 4835 0
-4835 4851 0
-97 -4835 4836 0
-4836 4852 0
-98 -4836 4837 0
-4837 4853 0
-99 -4837 4838 0
-4838 4854 0
-100 -4838 4839 0
-4839 4855 0
-101 -4839 4840 0
-4840 4856 0
-102 -4840 4841 0
-4841 4857 0
-103 -4841 4842 0
-4842 4858 0
-104 -4842 4843 0
-4843 4859 0
-105 -4843 4844 0
-4844 4860 0
-106 -4844 4845 0
-4845 4861 0
-107 -4845 4846 0
-4846 4862 0
-108 -4846 4847 0
-4847 4863 0
-109 -4847 4848 0
-4848 4864 0
-110 -4848 0
-95 4849 0
-4849 4865 0
-96 -4849 4850 0
-4850 4866 0
-97 -4850 4851 0
-4851 4867 0
-98 -4851 4852 0
-4852 4868 0
-99 -4852 4853 0
-4853 4869 0
-100 -4853 4854 0
-4854 4870 0
-101 -4854 4855 0
-4855 4871 0
-102 -4855 4856 0
-4856 4872 0
-103 -4856 4857 0
-4857 4873 0
-104 -4857 4858 0
-4858 4874 0
-105 -4858 4859 0
-4859 4875 0
-106 -4859 4860 0
-4860 4876 0
-107 -4860 4861 0
-4861 4877 0
-108 -4861 4862 0
-4862 4878 0
-109 -4862 4863 0
-4863 4879 0
-110 -4863 4864 0
-4864 4880 0
-111 -4864 0
-96 4865 0
-4865 4881 0
-97 -4865 4866 0
-4866 4882 0
-98 -4866 4867 0
-4867 4883 0
-99 -4867 4868 0
-4868 4884 0
-100 -4868 4869 0
-4869 4885 0
-101 -4869 4870 0
-4870 4886 0
-102 -4870 4871 0
-4871 4887 0
-103 -4871 4872 0
-4872 4888 0
-104 -4872 4873 0
-4873 4889 0
-105 -4873 4874 0
-4874 4890 0
-106 -4874 4875 0
-4875 4891 0
-107 -4875 4876 0
-4876 4892 0
-108 -4876 4877 0
-4877 4893 0
-109 -4877 4878 0
-4878 4894 0
-110 -4878 4879 0
-4879 4895 0
-111 -4879 4880 0
-4880 4896 0
-112 -4880 0
-97 4881 0
-4881 4897 0
-98 -4881 4882 0
-4882 4898 0
-99 -4882 4883 0
-4883 4899 0
-100 -4883 4884 0
-4884 4900 0
-101 -4884 4885 0
-4885 4901 0
-102 -4885 4886 0
-4886 4902 0
-103 -4886 4887 0
-4887 4903 0
-104 -4887 4888 0
-4888 4904 0
-105 -4888 4889 0
-4889 4905 0
-106 -4889 4890 0
-4890 4906 0
-107 -4890 4891 0
-4891 4907 0
-108 -4891 4892 0
-4892 4908 0
-109 -4892 4893 0
-4893 4909 0
-110 -4893 4894 0
-4894 4910 0
-111 -4894 4895 0
-4895 4911 0
-112 -4895 4896 0
-4896 4912 0
-113 -4896 0
-98 4897 0
-4897 4913 0
-99 -4897 4898 0
-4898 4914 0
-100 -4898 4899 0
-4899 4915 0
-101 -4899 4900 0
-4900 4916 0
-102 -4900 4901 0
-4901 4917 0
-103 -4901 4902 0
-4902 4918 0
-104 -4902 4903 0
-4903 4919 0
-105 -4903 4904 0
-4904 4920 0
-106 -4904 4905 0
-4905 4921 0
-107 -4905 4906 0
-4906 4922 0
-108 -4906 4907 0
-4907 4923 0
-109 -4907 4908 0
-4908 4924 0
-110 -4908 4909 0
-4909 4925 0
-111 -4909 4910 0
-4910 4926 0
-112 -4910 4911 0
-4911 4927 0
-113 -4911 4912 0
-4912 4928 0
-114 -4912 0
-99 4913 0
-4913 4929 0
-100 -4913 4914 0
-4914 4930 0
-101 -4914 4915 0
-4915 4931 0
-102 -4915 4916 0
-4916 4932 0
-103 -4916 4917 0
-4917 4933 0
-104 -4917 4918 0
-4918 4934 0
-105 -4918 4919 0
-4919 4935 0
-106 -4919 4920 0
-4920 4936 0
-107 -4920 4921 0
-4921 4937 0
-108 -4921 4922 0
-4922 4938 0
-109 -4922 4923 0
-4923 4939 0
-110 -4923 4924 0
-4924 4940 0
-111 -4924 4925 0
-4925 4941 0
-112 -4925 4926 0
-4926 4942 0
-113 -4926 4927 0
-4927 4943 0
-114 -4927 4928 0
-4928 4944 0
-115 -4928 0
-100 4929 0
-4929 4945 0
-101 -4929 4930 0
-4930 4946 0
-102 -4930 4931 0
-4931 4947 0
-103 -4931 4932 0
-4932 4948 0
-104 -4932 4933 0
-4933 4949 0
-105 -4933 4934 0
-4934 4950 0
-106 -4934 4935 0
-4935 4951 0
-107 -4935 4936 0
-4936 4952 0
-108 -4936 4937 0
-4937 4953 0
-109 -4937 4938 0
-4938 4954 0
-110 -4938 4939 0
-4939 4955 0
-111 -4939 4940 0
-4940 4956 0
-112 -4940 4941 0
-4941 4957 0
-113 -4941 4942 0
-4942 4958 0
-114 -4942 4943 0
-4943 4959 0
-115 -4943 4944 0
-4944 4960 0
-116 -4944 0
-101 4945 0
-4945 4961 0
-102 -4945 4946 0
-4946 4962 0
-103 -4946 4947 0
-4947 4963 0
-104 -4947 4948 0
-4948 4964 0
-105 -4948 4949 0
-4949 4965 0
-106 -4949 4950 0
-4950 4966 0
-107 -4950 4951 0
-4951 4967 0
-108 -4951 4952 0
-4952 4968 0
-109 -4952 4953 0
-4953 4969 0
-110 -4953 4954 0
-4954 4970 0
-111 -4954 4955 0
-4955 4971 0
-112 -4955 4956 0
-4956 4972 0
-113 -4956 4957 0
-4957 4973 0
-114 -4957 4958 0
-4958 4974 0
-115 -4958 4959 0
-4959 4975 0
-116 -4959 4960 0
-4960 4976 0
-117 -4960 0
-102 4961 0
-4961 4977 0
-103 -4961 4962 0
-4962 4978 0
-104 -4962 4963 0
-4963 4979 0
-105 -4963 4964 0
-4964 4980 0
-106 -4964 4965 0
-4965 4981 0
-107 -4965 4966 0
-4966 4982 0
-108 -4966 4967 0
-4967 4983 0
-109 -4967 4968 0
-4968 4984 0
-110 -4968 4969 0
-4969 4985 0
-111 -4969 4970 0
-4970 4986 0
-112 -4970 4971 0
-4971 4987 0
-113 -4971 4972 0
-4972 4988 0
-114 -4972 4973 0
-4973 4989 0
-115 -4973 4974 0
-4974 4990 0
-116 -4974 4975 0
-4975 4991 0
-117 -4975 4976 0
-4976 4992 0
-118 -4976 0
-103 4977 0
-4977 4993 0
-104 -4977 4978 0
-4978 4994 0
-105 -4978 4979 0
-4979 4995 0
-106 -4979 4980 0
-4980 4996 0
-107 -4980 4981 0
-4981 4997 0
-108 -4981 4982 0
-4982 4998 0
-109 -4982 4983 0
-4983 4999 0
-110 -4983 4984 0
-4984 5000 0
-111 -4984 4985 0
-4985 5001 0
-112 -4985 4986 0
-4986 5002 0
-113 -4986 4987 0
-4987 5003 0
-114 -4987 4988 0
-4988 5004 0
-115 -4988 4989 0
-4989 5005 0
-116 -4989 4990 0
-4990 5006 0
-117 -4990 4991 0
-4991 5007 0
-118 -4991 4992 0
-4992 5008 0
-119 -4992 0
-104 4993 0
-4993 5009 0
-105 -4993 4994 0
-4994 5010 0
-106 -4994 4995 0
-4995 5011 0
-107 -4995 4996 0
-4996 5012 0
-108 -4996 4997 0
-4997 5013 0
-109 -4997 4998 0
-4998 5014 0
-110 -4998 4999 0
-4999 5015 0
-111 -4999 5000 0
-5000 5016 0
-112 -5000 5001 0
-5001 5017 0
-113 -5001 5002 0
-5002 5018 0
-114 -5002 5003 0
-5003 5019 0
-115 -5003 5004 0
-5004 5020 0
-116 -5004 5005 0
-5005 5021 0
-117 -5005 5006 0
-5006 5022 0
-118 -5006 5007 0
-5007 5023 0
-119 -5007 5008 0
-5008 5024 0
-120 -5008 0
-105 5009 0
-5009 5025 0
-106 -5009 5010 0
-5010 5026 0
-107 -5010 5011 0
-5011 5027 0
-108 -5011 5012 0
-5012 5028 0
-109 -5012 5013 0
-5013 5029 0
-110 -5013 5014 0
-5014 5030 0
-111 -5014 5015 0
-5015 5031 0
-112 -5015 5016 0
-5016 5032 0
-113 -5016 5017 0
-5017 5033 0
-114 -5017 5018 0
-5018 5034 0
-115 -5018 5019 0
-5019 5035 0
-116 -5019 5020 0
-5020 5036 0
-117 -5020 5021 0
-5021 5037 0
-118 -5021 5022 0
-5022 5038 0
-119 -5022 5023 0
-5023 5039 0
-120 -5023 5024 0
-5024 5040 0
-121 -5024 0
-106 5025 0
-5025 5041 0
-107 -5025 5026 0
-5026 5042 0
-108 -5026 5027 0
-5027 5043 0
-109 -5027 5028 0
-5028 5044 0
-110 -5028 5029 0
-5029 5045 0
-111 -5029 5030 0
-5030 5046 0
-112 -5030 5031 0
-5031 5047 0
-113 -5031 5032 0
-5032 5048 0
-114 -5032 5033 0
-5033 5049 0
-115 -5033 5034 0
-5034 5050 0
-116 -5034 5035 0
-5035 5051 0
-117 -5035 5036 0
-5036 5052 0
-118 -5036 5037 0
-5037 5053 0
-119 -5037 5038 0
-5038 5054 0
-120 -5038 5039 0
-5039 5055 0
-121 -5039 5040 0
-5040 5056 0
-122 -5040 0
-107 5041 0
-5041 5057 0
-108 -5041 5042 0
-5042 5058 0
-109 -5042 5043 0
-5043 5059 0
-110 -5043 5044 0
-5044 5060 0
-111 -5044 5045 0
-5045 5061 0
-112 -5045 5046 0
-5046 5062 0
-113 -5046 5047 0
-5047 5063 0
-114 -5047 5048 0
-5048 5064 0
-115 -5048 5049 0
-5049 5065 0
-116 -5049 5050 0
-5050 5066 0
-117 -5050 5051 0
-5051 5067 0
-118 -5051 5052 0
-5052 5068 0
-119 -5052 5053 0
-5053 5069 0
-120 -5053 5054 0
-5054 5070 0
-121 -5054 5055 0
-5055 5071 0
-122 -5055 5056 0
-5056 5072 0
-123 -5056 0
-108 5057 0
-5057 5073 0
-109 -5057 5058 0
-5058 5074 0
-110 -5058 5059 0
-5059 5075 0
-111 -5059 5060 0
-5060 5076 0
-112 -5060 5061 0
-5061 5077 0
-113 -5061 5062 0
-5062 5078 0
-114 -5062 5063 0
-5063 5079 0
-115 -5063 5064 0
-5064 5080 0
-116 -5064 5065 0
-5065 5081 0
-117 -5065 5066 0
-5066 5082 0
-118 -5066 5067 0
-5067 5083 0
-119 -5067 5068 0
-5068 5084 0
-120 -5068 5069 0
-5069 5085 0
-121 -5069 5070 0
-5070 5086 0
-122 -5070 5071 0
-5071 5087 0
-123 -5071 5072 0
-5072 5088 0
-124 -5072 0
-109 5073 0
-5073 5089 0
-110 -5073 5074 0
-5074 5090 0
-111 -5074 5075 0
-5075 5091 0
-112 -5075 5076 0
-5076 5092 0
-113 -5076 5077 0
-5077 5093 0
-114 -5077 5078 0
-5078 5094 0
-115 -5078 5079 0
-5079 5095 0
-116 -5079 5080 0
-5080 5096 0
-117 -5080 5081 0
-5081 5097 0
-118 -5081 5082 0
-5082 5098 0
-119 -5082 5083 0
-5083 5099 0
-120 -5083 5084 0
-5084 5100 0
-121 -5084 5085 0
-5085 5101 0
-122 -5085 5086 0
-5086 5102 0
-123 -5086 5087 0
-5087 5103 0
-124 -5087 5088 0
-5088 5104 0
-125 -5088 0
-110 5089 0
-5089 5105 0
-111 -5089 5090 0
-5090 5106 0
-112 -5090 5091 0
-5091 5107 0
-113 -5091 5092 0
-5092 5108 0
-114 -5092 5093 0
-5093 5109 0
-115 -5093 5094 0
-5094 5110 0
-116 -5094 5095 0
-5095 5111 0
-117 -5095 5096 0
-5096 5112 0
-118 -5096 5097 0
-5097 5113 0
-119 -5097 5098 0
-5098 5114 0
-120 -5098 5099 0
-5099 5115 0
-121 -5099 5100 0
-5100 5116 0
-122 -5100 5101 0
-5101 5117 0
-123 -5101 5102 0
-5102 5118 0
-124 -5102 5103 0
-5103 5119 0
-125 -5103 5104 0
-5104 5120 0
-126 -5104 0
-111 5105 0
-5105 5121 0
-112 -5105 5106 0
-5106 5122 0
-113 -5106 5107 0
-5107 5123 0
-114 -5107 5108 0
-5108 5124 0
-115 -5108 5109 0
-5109 5125 0
-116 -5109 5110 0
-5110 5126 0
-117 -5110 5111 0
-5111 5127 0
-118 -5111 5112 0
-5112 5128 0
-119 -5112 5113 0
-5113 5129 0
-120 -5113 5114 0
-5114 5130 0
-121 -5114 5115 0
-5115 5131 0
-122 -5115 5116 0
-5116 5132 0
-123 -5116 5117 0
-5117 5133 0
-124 -5117 5118 0
-5118 5134 0
-125 -5118 5119 0
-5119 5135 0
-126 -5119 5120 0
-5120 5136 0
-127 -5120 0
-112 5121 0
-5121 5137 0
-113 -5121 5122 0
-5122 5138 0
-114 -5122 5123 0
-5123 5139 0
-115 -5123 5124 0
-5124 5140 0
-116 -5124 5125 0
-5125 5141 0
-117 -5125 5126 0
-5126 5142 0
-118 -5126 5127 0
-5127 5143 0
-119 -5127 5128 0
-5128 5144 0
-120 -5128 5129 0
-5129 5145 0
-121 -5129 5130 0
-5130 5146 0
-122 -5130 5131 0
-5131 5147 0
-123 -5131 5132 0
-5132 5148 0
-124 -5132 5133 0
-5133 5149 0
-125 -5133 5134 0
-5134 5150 0
-126 -5134 5135 0
-5135 5151 0
-127 -5135 5136 0
-5136 5152 0
-128 -5136 0
-113 5137 0
-5137 5153 0
-114 -5137 5138 0
-5138 5154 0
-115 -5138 5139 0
-5139 5155 0
-116 -5139 5140 0
-5140 5156 0
-117 -5140 5141 0
-5141 5157 0
-118 -5141 5142 0
-5142 5158 0
-119 -5142 5143 0
-5143 5159 0
-120 -5143 5144 0
-5144 5160 0
-121 -5144 5145 0
-5145 5161 0
-122 -5145 5146 0
-5146 5162 0
-123 -5146 5147 0
-5147 5163 0
-124 -5147 5148 0
-5148 5164 0
-125 -5148 5149 0
-5149 5165 0
-126 -5149 5150 0
-5150 5166 0
-127 -5150 5151 0
-5151 5167 0
-128 -5151 5152 0
-5152 5168 0
-129 -5152 0
-114 5153 0
-5153 5169 0
-115 -5153 5154 0
-5154 5170 0
-116 -5154 5155 0
-5155 5171 0
-117 -5155 5156 0
-5156 5172 0
-118 -5156 5157 0
-5157 5173 0
-119 -5157 5158 0
-5158 5174 0
-120 -5158 5159 0
-5159 5175 0
-121 -5159 5160 0
-5160 5176 0
-122 -5160 5161 0
-5161 5177 0
-123 -5161 5162 0
-5162 5178 0
-124 -5162 5163 0
-5163 5179 0
-125 -5163 5164 0
-5164 5180 0
-126 -5164 5165 0
-5165 5181 0
-127 -5165 5166 0
-5166 5182 0
-128 -5166 5167 0
-5167 5183 0
-129 -5167 5168 0
-5168 5184 0
-130 -5168 0
-115 5169 0
-5169 5185 0
-116 -5169 5170 0
-5170 5186 0
-117 -5170 5171 0
-5171 5187 0
-118 -5171 5172 0
-5172 5188 0
-119 -5172 5173 0
-5173 5189 0
-120 -5173 5174 0
-5174 5190 0
-121 -5174 5175 0
-5175 5191 0
-122 -5175 5176 0
-5176 5192 0
-123 -5176 5177 0
-5177 5193 0
-124 -5177 5178 0
-5178 5194 0
-125 -5178 5179 0
-5179 5195 0
-126 -5179 5180 0
-5180 5196 0
-127 -5180 5181 0
-5181 5197 0
-128 -5181 5182 0
-5182 5198 0
-129 -5182 5183 0
-5183 5199 0
-130 -5183 5184 0
-5184 5200 0
-131 -5184 0
-116 5185 0
-5185 5201 0
-117 -5185 5186 0
-5186 5202 0
-118 -5186 5187 0
-5187 5203 0
-119 -5187 5188 0
-5188 5204 0
-120 -5188 5189 0
-5189 5205 0
-121 -5189 5190 0
-5190 5206 0
-122 -5190 5191 0
-5191 5207 0
-123 -5191 5192 0
-5192 5208 0
-124 -5192 5193 0
-5193 5209 0
-125 -5193 5194 0
-5194 5210 0
-126 -5194 5195 0
-5195 5211 0
-127 -5195 5196 0
-5196 5212 0
-128 -5196 5197 0
-5197 5213 0
-129 -5197 5198 0
-5198 5214 0
-130 -5198 5199 0
-5199 5215 0
-131 -5199 5200 0
-5200 5216 0
-132 -5200 0
-117 5201 0
-5201 5217 0
-118 -5201 5202 0
-5202 5218 0
-119 -5202 5203 0
-5203 5219 0
-120 -5203 5204 0
-5204 5220 0
-121 -5204 5205 0
-5205 5221 0
-122 -5205 5206 0
-5206 5222 0
-123 -5206 5207 0
-5207 5223 0
-124 -5207 5208 0
-5208 5224 0
-125 -5208 5209 0
-5209 5225 0
-126 -5209 5210 0
-5210 5226 0
-127 -5210 5211 0
-5211 5227 0
-128 -5211 5212 0
-5212 5228 0
-129 -5212 5213 0
-5213 5229 0
-130 -5213 5214 0
-5214 5230 0
-131 -5214 5215 0
-5215 5231 0
-132 -5215 5216 0
-5216 5232 0
-133 -5216 0
-118 5217 0
-5217 5233 0
-119 -5217 5218 0
-5218 5234 0
-120 -5218 5219 0
-5219 5235 0
-121 -5219 5220 0
-5220 5236 0
-122 -5220 5221 0
-5221 5237 0
-123 -5221 5222 0
-5222 5238 0
-124 -5222 5223 0
-5223 5239 0
-125 -5223 5224 0
-5224 5240 0
-126 -5224 5225 0
-5225 5241 0
-127 -5225 5226 0
-5226 5242 0
-128 -5226 5227 0
-5227 5243 0
-129 -5227 5228 0
-5228 5244 0
-130 -5228 5229 0
-5229 5245 0
-131 -5229 5230 0
-5230 5246 0
-132 -5230 5231 0
-5231 5247 0
-133 -5231 5232 0
-5232 5248 0
-134 -5232 0
-119 5233 0
-5233 5249 0
-120 -5233 5234 0
-5234 5250 0
-121 -5234 5235 0
-5235 5251 0
-122 -5235 5236 0
-5236 5252 0
-123 -5236 5237 0
-5237 5253 0
-124 -5237 5238 0
-5238 5254 0
-125 -5238 5239 0
-5239 5255 0
-126 -5239 5240 0
-5240 5256 0
-127 -5240 5241 0
-5241 5257 0
-128 -5241 5242 0
-5242 5258 0
-129 -5242 5243 0
-5243 5259 0
-130 -5243 5244 0
-5244 5260 0
-131 -5244 5245 0
-5245 5261 0
-132 -5245 5246 0
-5246 5262 0
-133 -5246 5247 0
-5247 5263 0
-134 -5247 5248 0
-5248 5264 0
-135 -5248 0
-120 5249 0
-5249 5265 0
-121 -5249 5250 0
-5250 5266 0
-122 -5250 5251 0
-5251 5267 0
-123 -5251 5252 0
-5252 5268 0
-124 -5252 5253 0
-5253 5269 0
-125 -5253 5254 0
-5254 5270 0
-126 -5254 5255 0
-5255 5271 0
-127 -5255 5256 0
-5256 5272 0
-128 -5256 5257 0
-5257 5273 0
-129 -5257 5258 0
-5258 5274 0
-130 -5258 5259 0
-5259 5275 0
-131 -5259 5260 0
-5260 5276 0
-132 -5260 5261 0
-5261 5277 0
-133 -5261 5262 0
-5262 5278 0
-134 -5262 5263 0
-5263 5279 0
-135 -5263 5264 0
-5264 5280 0
-136 -5264 0
-121 5265 0
-5265 5281 0
-122 -5265 5266 0
-5266 5282 0
-123 -5266 5267 0
-5267 5283 0
-124 -5267 5268 0
-5268 5284 0
-125 -5268 5269 0
-5269 5285 0
-126 -5269 5270 0
-5270 5286 0
-127 -5270 5271 0
-5271 5287 0
-128 -5271 5272 0
-5272 5288 0
-129 -5272 5273 0
-5273 5289 0
-130 -5273 5274 0
-5274 5290 0
-131 -5274 5275 0
-5275 5291 0
-132 -5275 5276 0
-5276 5292 0
-133 -5276 5277 0
-5277 5293 0
-134 -5277 5278 0
-5278 5294 0
-135 -5278 5279 0
-5279 5295 0
-136 -5279 5280 0
-5280 5296 0
-137 -5280 0
-122 5281 0
-5281 5297 0
-123 -5281 5282 0
-5282 5298 0
-124 -5282 5283 0
-5283 5299 0
-125 -5283 5284 0
-5284 5300 0
-126 -5284 5285 0
-5285 5301 0
-127 -5285 5286 0
-5286 5302 0
-128 -5286 5287 0
-5287 5303 0
-129 -5287 5288 0
-5288 5304 0
-130 -5288 5289 0
-5289 5305 0
-131 -5289 5290 0
-5290 5306 0
-132 -5290 5291 0
-5291 5307 0
-133 -5291 5292 0
-5292 5308 0
-134 -5292 5293 0
-5293 5309 0
-135 -5293 5294 0
-5294 5310 0
-136 -5294 5295 0
-5295 5311 0
-137 -5295 5296 0
-5296 5312 0
-138 -5296 0
-123 5297 0
-5297 5313 0
-124 -5297 5298 0
-5298 5314 0
-125 -5298 5299 0
-5299 5315 0
-126 -5299 5300 0
-5300 5316 0
-127 -5300 5301 0
-5301 5317 0
-128 -5301 5302 0
-5302 5318 0
-129 -5302 5303 0
-5303 5319 0
-130 -5303 5304 0
-5304 5320 0
-131 -5304 5305 0
-5305 5321 0
-132 -5305 5306 0
-5306 5322 0
-133 -5306 5307 0
-5307 5323 0
-134 -5307 5308 0
-5308 5324 0
-135 -5308 5309 0
-5309 5325 0
-136 -5309 5310 0
-5310 5326 0
-137 -5310 5311 0
-5311 5327 0
-138 -5311 5312 0
-5312 5328 0
-139 -5312 0
-124 5313 0
-5313 5329 0
-125 -5313 5314 0
-5314 5330 0
-126 -5314 5315 0
-5315 5331 0
-127 -5315 5316 0
-5316 5332 0
-128 -5316 5317 0
-5317 5333 0
-129 -5317 5318 0
-5318 5334 0
-130 -5318 5319 0
-5319 5335 0
-131 -5319 5320 0
-5320 5336 0
-132 -5320 5321 0
-5321 5337 0
-133 -5321 5322 0
-5322 5338 0
-134 -5322 5323 0
-5323 5339 0
-135 -5323 5324 0
-5324 5340 0
-136 -5324 5325 0
-5325 5341 0
-137 -5325 5326 0
-5326 5342 0
-138 -5326 5327 0
-5327 5343 0
-139 -5327 5328 0
-5328 5344 0
-140 -5328 0
-125 5329 0
-5329 5345 0
-126 -5329 5330 0
-5330 5346 0
-127 -5330 5331 0
-5331 5347 0
-128 -5331 5332 0
-5332 5348 0
-129 -5332 5333 0
-5333 5349 0
-130 -5333 5334 0
-5334 5350 0
-131 -5334 5335 0
-5335 5351 0
-132 -5335 5336 0
-5336 5352 0
-133 -5336 5337 0
-5337 5353 0
-134 -5337 5338 0
-5338 5354 0
-135 -5338 5339 0
-5339 5355 0
-136 -5339 5340 0
-5340 5356 0
-137 -5340 5341 0
-5341 5357 0
-138 -5341 5342 0
-5342 5358 0
-139 -5342 5343 0
-5343 5359 0
-140 -5343 5344 0
-5344 5360 0
-141 -5344 0
-126 5345 0
-5345 5361 0
-127 -5345 5346 0
-5346 5362 0
-128 -5346 5347 0
-5347 5363 0
-129 -5347 5348 0
-5348 5364 0
-130 -5348 5349 0
-5349 5365 0
-131 -5349 5350 0
-5350 5366 0
-132 -5350 5351 0
-5351 5367 0
-133 -5351 5352 0
-5352 5368 0
-134 -5352 5353 0
-5353 5369 0
-135 -5353 5354 0
-5354 5370 0
-136 -5354 5355 0
-5355 5371 0
-137 -5355 5356 0
-5356 5372 0
-138 -5356 5357 0
-5357 5373 0
-139 -5357 5358 0
-5358 5374 0
-140 -5358 5359 0
-5359 5375 0
-141 -5359 5360 0
-5360 5376 0
-142 -5360 0
-127 5361 0
-5361 5377 0
-128 -5361 5362 0
-5362 5378 0
-129 -5362 5363 0
-5363 5379 0
-130 -5363 5364 0
-5364 5380 0
-131 -5364 5365 0
-5365 5381 0
-132 -5365 5366 0
-5366 5382 0
-133 -5366 5367 0
-5367 5383 0
-134 -5367 5368 0
-5368 5384 0
-135 -5368 5369 0
-5369 5385 0
-136 -5369 5370 0
-5370 5386 0
-137 -5370 5371 0
-5371 5387 0
-138 -5371 5372 0
-5372 5388 0
-139 -5372 5373 0
-5373 5389 0
-140 -5373 5374 0
-5374 5390 0
-141 -5374 5375 0
-5375 5391 0
-142 -5375 5376 0
-5376 5392 0
-143 -5376 0
-128 5377 0
-5377 5393 0
-129 -5377 5378 0
-5378 5394 0
-130 -5378 5379 0
-5379 5395 0
-131 -5379 5380 0
-5380 5396 0
-132 -5380 5381 0
-5381 5397 0
-133 -5381 5382 0
-5382 5398 0
-134 -5382 5383 0
-5383 5399 0
-135 -5383 5384 0
-5384 5400 0
-136 -5384 5385 0
-5385 5401 0
-137 -5385 5386 0
-5386 5402 0
-138 -5386 5387 0
-5387 5403 0
-139 -5387 5388 0
-5388 5404 0
-140 -5388 5389 0
-5389 5405 0
-141 -5389 5390 0
-5390 5406 0
-142 -5390 5391 0
-5391 5407 0
-143 -5391 5392 0
-5392 5408 0
-144 -5392 0
-129 5393 0
-5393 5409 0
-130 -5393 5394 0
-5394 5410 0
-131 -5394 5395 0
-5395 5411 0
-132 -5395 5396 0
-5396 5412 0
-133 -5396 5397 0
-5397 5413 0
-134 -5397 5398 0
-5398 5414 0
-135 -5398 5399 0
-5399 5415 0
-136 -5399 5400 0
-5400 5416 0
-137 -5400 5401 0
-5401 5417 0
-138 -5401 5402 0
-5402 5418 0
-139 -5402 5403 0
-5403 5419 0
-140 -5403 5404 0
-5404 5420 0
-141 -5404 5405 0
-5405 5421 0
-142 -5405 5406 0
-5406 5422 0
-143 -5406 5407 0
-5407 5423 0
-144 -5407 5408 0
-5408 5424 0
-145 -5408 0
-130 5409 0
-5409 5425 0
-131 -5409 5410 0
-5410 5426 0
-132 -5410 5411 0
-5411 5427 0
-133 -5411 5412 0
-5412 5428 0
-134 -5412 5413 0
-5413 5429 0
-135 -5413 5414 0
-5414 5430 0
-136 -5414 5415 0
-5415 5431 0
-137 -5415 5416 0
-5416 5432 0
-138 -5416 5417 0
-5417 5433 0
-139 -5417 5418 0
-5418 5434 0
-140 -5418 5419 0
-5419 5435 0
-141 -5419 5420 0
-5420 5436 0
-142 -5420 5421 0
-5421 5437 0
-143 -5421 5422 0
-5422 5438 0
-144 -5422 5423 0
-5423 5439 0
-145 -5423 5424 0
-5424 5440 0
-146 -5424 0
-131 5425 0
-5425 5441 0
-132 -5425 5426 0
-5426 5442 0
-133 -5426 5427 0
-5427 5443 0
-134 -5427 5428 0
-5428 5444 0
-135 -5428 5429 0
-5429 5445 0
-136 -5429 5430 0
-5430 5446 0
-137 -5430 5431 0
-5431 5447 0
-138 -5431 5432 0
-5432 5448 0
-139 -5432 5433 0
-5433 5449 0
-140 -5433 5434 0
-5434 5450 0
-141 -5434 5435 0
-5435 5451 0
-142 -5435 5436 0
-5436 5452 0
-143 -5436 5437 0
-5437 5453 0
-144 -5437 5438 0
-5438 5454 0
-145 -5438 5439 0
-5439 5455 0
-146 -5439 5440 0
-5440 5456 0
-147 -5440 0
-132 5441 0
-5441 5457 0
-133 -5441 5442 0
-5442 5458 0
-134 -5442 5443 0
-5443 5459 0
-135 -5443 5444 0
-5444 5460 0
-136 -5444 5445 0
-5445 5461 0
-137 -5445 5446 0
-5446 5462 0
-138 -5446 5447 0
-5447 5463 0
-139 -5447 5448 0
-5448 5464 0
-140 -5448 5449 0
-5449 5465 0
-141 -5449 5450 0
-5450 5466 0
-142 -5450 5451 0
-5451 5467 0
-143 -5451 5452 0
-5452 5468 0
-144 -5452 5453 0
-5453 5469 0
-145 -5453 5454 0
-5454 5470 0
-146 -5454 5455 0
-5455 5471 0
-147 -5455 5456 0
-5456 5472 0
-148 -5456 0
-133 5457 0
-5457 5473 0
-134 -5457 5458 0
-5458 5474 0
-135 -5458 5459 0
-5459 5475 0
-136 -5459 5460 0
-5460 5476 0
-137 -5460 5461 0
-5461 5477 0
-138 -5461 5462 0
-5462 5478 0
-139 -5462 5463 0
-5463 5479 0
-140 -5463 5464 0
-5464 5480 0
-141 -5464 5465 0
-5465 5481 0
-142 -5465 5466 0
-5466 5482 0
-143 -5466 5467 0
-5467 5483 0
-144 -5467 5468 0
-5468 5484 0
-145 -5468 5469 0
-5469 5485 0
-146 -5469 5470 0
-5470 5486 0
-147 -5470 5471 0
-5471 5487 0
-148 -5471 5472 0
-5472 5488 0
-149 -5472 0
-134 5473 0
-5473 5489 0
-135 -5473 5474 0
-5474 5490 0
-136 -5474 5475 0
-5475 5491 0
-137 -5475 5476 0
-5476 5492 0
-138 -5476 5477 0
-5477 5493 0
-139 -5477 5478 0
-5478 5494 0
-140 -5478 5479 0
-5479 5495 0
-141 -5479 5480 0
-5480 5496 0
-142 -5480 5481 0
-5481 5497 0
-143 -5481 5482 0
-5482 5498 0
-144 -5482 5483 0
-5483 5499 0
-145 -5483 5484 0
-5484 5500 0
-146 -5484 5485 0
-5485 5501 0
-147 -5485 5486 0
-5486 5502 0
-148 -5486 5487 0
-5487 5503 0
-149 -5487 5488 0
-5488 5504 0
-150 -5488 0
-135 5489 0
-5489 5505 0
-136 -5489 5490 0
-5490 5506 0
-137 -5490 5491 0
-5491 5507 0
-138 -5491 5492 0
-5492 5508 0
-139 -5492 5493 0
-5493 5509 0
-140 -5493 5494 0
-5494 5510 0
-141 -5494 5495 0
-5495 5511 0
-142 -5495 5496 0
-5496 5512 0
-143 -5496 5497 0
-5497 5513 0
-144 -5497 5498 0
-5498 5514 0
-145 -5498 5499 0
-5499 5515 0
-146 -5499 5500 0
-5500 5516 0
-147 -5500 5501 0
-5501 5517 0
-148 -5501 5502 0
-5502 5518 0
-149 -5502 5503 0
-5503 5519 0
-150 -5503 5504 0
-5504 5520 0
-151 -5504 0
-136 5505 0
-5505 5521 0
-137 -5505 5506 0
-5506 5522 0
-138 -5506 5507 0
-5507 5523 0
-139 -5507 5508 0
-5508 5524 0
-140 -5508 5509 0
-5509 5525 0
-141 -5509 5510 0
-5510 5526 0
-142 -5510 5511 0
-5511 5527 0
-143 -5511 5512 0
-5512 5528 0
-144 -5512 5513 0
-5513 5529 0
-145 -5513 5514 0
-5514 5530 0
-146 -5514 5515 0
-5515 5531 0
-147 -5515 5516 0
-5516 5532 0
-148 -5516 5517 0
-5517 5533 0
-149 -5517 5518 0
-5518 5534 0
-150 -5518 5519 0
-5519 5535 0
-151 -5519 5520 0
-5520 5536 0
-152 -5520 0
-137 5521 0
-5521 5537 0
-138 -5521 5522 0
-5522 5538 0
-139 -5522 5523 0
-5523 5539 0
-140 -5523 5524 0
-5524 5540 0
-141 -5524 5525 0
-5525 5541 0
-142 -5525 5526 0
-5526 5542 0
-143 -5526 5527 0
-5527 5543 0
-144 -5527 5528 0
-5528 5544 0
-145 -5528 5529 0
-5529 5545 0
-146 -5529 5530 0
-5530 5546 0
-147 -5530 5531 0
-5531 5547 0
-148 -5531 5532 0
-5532 5548 0
-149 -5532 5533 0
-5533 5549 0
-150 -5533 5534 0
-5534 5550 0
-151 -5534 5535 0
-5535 5551 0
-152 -5535 5536 0
-5536 5552 0
-153 -5536 0
-138 5537 0
-5537 5553 0
-139 -5537 5538 0
-5538 5554 0
-140 -5538 5539 0
-5539 5555 0
-141 -5539 5540 0
-5540 5556 0
-142 -5540 5541 0
-5541 5557 0
-143 -5541 5542 0
-5542 5558 0
-144 -5542 5543 0
-5543 5559 0
-145 -5543 5544 0
-5544 5560 0
-146 -5544 5545 0
-5545 5561 0
-147 -5545 5546 0
-5546 5562 0
-148 -5546 5547 0
-5547 5563 0
-149 -5547 5548 0
-5548 5564 0
-150 -5548 5549 0
-5549 5565 0
-151 -5549 5550 0
-5550 5566 0
-152 -5550 5551 0
-5551 5567 0
-153 -5551 5552 0
-5552 5568 0
-154 -5552 0
-139 5553 0
-5553 5569 0
-140 -5553 5554 0
-5554 5570 0
-141 -5554 5555 0
-5555 5571 0
-142 -5555 5556 0
-5556 5572 0
-143 -5556 5557 0
-5557 5573 0
-144 -5557 5558 0
-5558 5574 0
-145 -5558 5559 0
-5559 5575 0
-146 -5559 5560 0
-5560 5576 0
-147 -5560 5561 0
-5561 5577 0
-148 -5561 5562 0
-5562 5578 0
-149 -5562 5563 0
-5563 5579 0
-150 -5563 5564 0
-5564 5580 0
-151 -5564 5565 0
-5565 5581 0
-152 -5565 5566 0
-5566 5582 0
-153 -5566 5567 0
-5567 5583 0
-154 -5567 5568 0
-5568 5584 0
-155 -5568 0
-140 5569 0
-5569 5585 0
-141 -5569 5570 0
-5570 5586 0
-142 -5570 5571 0
-5571 5587 0
-143 -5571 5572 0
-5572 5588 0
-144 -5572 5573 0
-5573 5589 0
-145 -5573 5574 0
-5574 5590 0
-146 -5574 5575 0
-5575 5591 0
-147 -5575 5576 0
-5576 5592 0
-148 -5576 5577 0
-5577 5593 0
-149 -5577 5578 0
-5578 5594 0
-150 -5578 5579 0
-5579 5595 0
-151 -5579 5580 0
-5580 5596 0
-152 -5580 5581 0
-5581 5597 0
-153 -5581 5582 0
-5582 5598 0
-154 -5582 5583 0
-5583 5599 0
-155 -5583 5584 0
-5584 5600 0
-156 -5584 0
-141 5585 0
-5585 5601 0
-142 -5585 5586 0
-5586 5602 0
-143 -5586 5587 0
-5587 5603 0
-144 -5587 5588 0
-5588 5604 0
-145 -5588 5589 0
-5589 5605 0
-146 -5589 5590 0
-5590 5606 0
-147 -5590 5591 0
-5591 5607 0
-148 -5591 5592 0
-5592 5608 0
-149 -5592 5593 0
-5593 5609 0
-150 -5593 5594 0
-5594 5610 0
-151 -5594 5595 0
-5595 5611 0
-152 -5595 5596 0
-5596 5612 0
-153 -5596 5597 0
-5597 5613 0
-154 -5597 5598 0
-5598 5614 0
-155 -5598 5599 0
-5599 5615 0
-156 -5599 5600 0
-5600 5616 0
-157 -5600 0
-142 5601 0
-5601 5617 0
-143 -5601 5602 0
-5602 5618 0
-144 -5602 5603 0
-5603 5619 0
-145 -5603 5604 0
-5604 5620 0
-146 -5604 5605 0
-5605 5621 0
-147 -5605 5606 0
-5606 5622 0
-148 -5606 5607 0
-5607 5623 0
-149 -5607 5608 0
-5608 5624 0
-150 -5608 5609 0
-5609 5625 0
-151 -5609 5610 0
-5610 5626 0
-152 -5610 5611 0
-5611 5627 0
-153 -5611 5612 0
-5612 5628 0
-154 -5612 5613 0
-5613 5629 0
-155 -5613 5614 0
-5614 5630 0
-156 -5614 5615 0
-5615 5631 0
-157 -5615 5616 0
-5616 5632 0
-158 -5616 0
-143 5617 0
-5617 5633 0
-144 -5617 5618 0
-5618 5634 0
-145 -5618 5619 0
-5619 5635 0
-146 -5619 5620 0
-5620 5636 0
-147 -5620 5621 0
-5621 5637 0
-148 -5621 5622 0
-5622 5638 0
-149 -5622 5623 0
-5623 5639 0
-150 -5623 5624 0
-5624 5640 0
-151 -5624 5625 0
-5625 5641 0
-152 -5625 5626 0
-5626 5642 0
-153 -5626 5627 0
-5627 5643 0
-154 -5627 5628 0
-5628 5644 0
-155 -5628 5629 0
-5629 5645 0
-156 -5629 5630 0
-5630 5646 0
-157 -5630 5631 0
-5631 5647 0
-158 -5631 5632 0
-5632 5648 0
-159 -5632 0
-144 5633 0
-5633 5649 0
-145 -5633 5634 0
-5634 5650 0
-146 -5634 5635 0
-5635 5651 0
-147 -5635 5636 0
-5636 5652 0
-148 -5636 5637 0
-5637 5653 0
-149 -5637 5638 0
-5638 5654 0
-150 -5638 5639 0
-5639 5655 0
-151 -5639 5640 0
-5640 5656 0
-152 -5640 5641 0
-5641 5657 0
-153 -5641 5642 0
-5642 5658 0
-154 -5642 5643 0
-5643 5659 0
-155 -5643 5644 0
-5644 5660 0
-156 -5644 5645 0
-5645 5661 0
-157 -5645 5646 0
-5646 5662 0
-158 -5646 5647 0
-5647 5663 0
-159 -5647 5648 0
-5648 5664 0
-160 -5648 0
-145 5649 0
-5649 5665 0
-146 -5649 5650 0
-5650 5666 0
-147 -5650 5651 0
-5651 5667 0
-148 -5651 5652 0
-5652 5668 0
-149 -5652 5653 0
-5653 5669 0
-150 -5653 5654 0
-5654 5670 0
-151 -5654 5655 0
-5655 5671 0
-152 -5655 5656 0
-5656 5672 0
-153 -5656 5657 0
-5657 5673 0
-154 -5657 5658 0
-5658 5674 0
-155 -5658 5659 0
-5659 5675 0
-156 -5659 5660 0
-5660 5676 0
-157 -5660 5661 0
-5661 5677 0
-158 -5661 5662 0
-5662 5678 0
-159 -5662 5663 0
-5663 5679 0
-160 -5663 5664 0
-5664 5680 0
-161 -5664 0
-146 5665 0
-5665 5681 0
-147 -5665 5666 0
-5666 5682 0
-148 -5666 5667 0
-5667 5683 0
-149 -5667 5668 0
-5668 5684 0
-150 -5668 5669 0
-5669 5685 0
-151 -5669 5670 0
-5670 5686 0
-152 -5670 5671 0
-5671 5687 0
-153 -5671 5672 0
-5672 5688 0
-154 -5672 5673 0
-5673 5689 0
-155 -5673 5674 0
-5674 5690 0
-156 -5674 5675 0
-5675 5691 0
-157 -5675 5676 0
-5676 5692 0
-158 -5676 5677 0
-5677 5693 0
-159 -5677 5678 0
-5678 5694 0
-160 -5678 5679 0
-5679 5695 0
-161 -5679 5680 0
-5680 5696 0
-162 -5680 0
-147 5681 0
-5681 5697 0
-148 -5681 5682 0
-5682 5698 0
-149 -5682 5683 0
-5683 5699 0
-150 -5683 5684 0
-5684 5700 0
-151 -5684 5685 0
-5685 5701 0
-152 -5685 5686 0
-5686 5702 0
-153 -5686 5687 0
-5687 5703 0
-154 -5687 5688 0
-5688 5704 0
-155 -5688 5689 0
-5689 5705 0
-156 -5689 5690 0
-5690 5706 0
-157 -5690 5691 0
-5691 5707 0
-158 -5691 5692 0
-5692 5708 0
-159 -5692 5693 0
-5693 5709 0
-160 -5693 5694 0
-5694 5710 0
-161 -5694 5695 0
-5695 5711 0
-162 -5695 5696 0
-5696 5712 0
-163 -5696 0
-148 5697 0
-5697 5713 0
-149 -5697 5698 0
-5698 5714 0
-150 -5698 5699 0
-5699 5715 0
-151 -5699 5700 0
-5700 5716 0
-152 -5700 5701 0
-5701 5717 0
-153 -5701 5702 0
-5702 5718 0
-154 -5702 5703 0
-5703 5719 0
-155 -5703 5704 0
-5704 5720 0
-156 -5704 5705 0
-5705 5721 0
-157 -5705 5706 0
-5706 5722 0
-158 -5706 5707 0
-5707 5723 0
-159 -5707 5708 0
-5708 5724 0
-160 -5708 5709 0
-5709 5725 0
-161 -5709 5710 0
-5710 5726 0
-162 -5710 5711 0
-5711 5727 0
-163 -5711 5712 0
-5712 5728 0
-164 -5712 0
-149 5713 0
-5713 5729 0
-150 -5713 5714 0
-5714 5730 0
-151 -5714 5715 0
-5715 5731 0
-152 -5715 5716 0
-5716 5732 0
-153 -5716 5717 0
-5717 5733 0
-154 -5717 5718 0
-5718 5734 0
-155 -5718 5719 0
-5719 5735 0
-156 -5719 5720 0
-5720 5736 0
-157 -5720 5721 0
-5721 5737 0
-158 -5721 5722 0
-5722 5738 0
-159 -5722 5723 0
-5723 5739 0
-160 -5723 5724 0
-5724 5740 0
-161 -5724 5725 0
-5725 5741 0
-162 -5725 5726 0
-5726 5742 0
-163 -5726 5727 0
-5727 5743 0
-164 -5727 5728 0
-5728 5744 0
-165 -5728 0
-150 5729 0
-5729 5745 0
-151 -5729 5730 0
-5730 5746 0
-152 -5730 5731 0
-5731 5747 0
-153 -5731 5732 0
-5732 5748 0
-154 -5732 5733 0
-5733 5749 0
-155 -5733 5734 0
-5734 5750 0
-156 -5734 5735 0
-5735 5751 0
-157 -5735 5736 0
-5736 5752 0
-158 -5736 5737 0
-5737 5753 0
-159 -5737 5738 0
-5738 5754 0
-160 -5738 5739 0
-5739 5755 0
-161 -5739 5740 0
-5740 5756 0
-162 -5740 5741 0
-5741 5757 0
-163 -5741 5742 0
-5742 5758 0
-164 -5742 5743 0
-5743 5759 0
-165 -5743 5744 0
-5744 5760 0
-166 -5744 0
-151 5745 0
-5745 5761 0
-152 -5745 5746 0
-5746 5762 0
-153 -5746 5747 0
-5747 5763 0
-154 -5747 5748 0
-5748 5764 0
-155 -5748 5749 0
-5749 5765 0
-156 -5749 5750 0
-5750 5766 0
-157 -5750 5751 0
-5751 5767 0
-158 -5751 5752 0
-5752 5768 0
-159 -5752 5753 0
-5753 5769 0
-160 -5753 5754 0
-5754 5770 0
-161 -5754 5755 0
-5755 5771 0
-162 -5755 5756 0
-5756 5772 0
-163 -5756 5757 0
-5757 5773 0
-164 -5757 5758 0
-5758 5774 0
-165 -5758 5759 0
-5759 5775 0
-166 -5759 5760 0
-5760 5776 0
-167 -5760 0
-152 5761 0
-5761 5777 0
-153 -5761 5762 0
-5762 5778 0
-154 -5762 5763 0
-5763 5779 0
-155 -5763 5764 0
-5764 5780 0
-156 -5764 5765 0
-5765 5781 0
-157 -5765 5766 0
-5766 5782 0
-158 -5766 5767 0
-5767 5783 0
-159 -5767 5768 0
-5768 5784 0
-160 -5768 5769 0
-5769 5785 0
-161 -5769 5770 0
-5770 5786 0
-162 -5770 5771 0
-5771 5787 0
-163 -5771 5772 0
-5772 5788 0
-164 -5772 5773 0
-5773 5789 0
-165 -5773 5774 0
-5774 5790 0
-166 -5774 5775 0
-5775 5791 0
-167 -5775 5776 0
-5776 5792 0
-168 -5776 0
-153 5777 0
-5777 5793 0
-154 -5777 5778 0
-5778 5794 0
-155 -5778 5779 0
-5779 5795 0
-156 -5779 5780 0
-5780 5796 0
-157 -5780 5781 0
-5781 5797 0
-158 -5781 5782 0
-5782 5798 0
-159 -5782 5783 0
-5783 5799 0
-160 -5783 5784 0
-5784 5800 0
-161 -5784 5785 0
-5785 5801 0
-162 -5785 5786 0
-5786 5802 0
-163 -5786 5787 0
-5787 5803 0
-164 -5787 5788 0
-5788 5804 0
-165 -5788 5789 0
-5789 5805 0
-166 -5789 5790 0
-5790 5806 0
-167 -5790 5791 0
-5791 5807 0
-168 -5791 5792 0
-5792 5808 0
-169 -5792 0
-154 5793 0
-5793 5809 0
-155 -5793 5794 0
-5794 5810 0
-156 -5794 5795 0
-5795 5811 0
-157 -5795 5796 0
-5796 5812 0
-158 -5796 5797 0
-5797 5813 0
-159 -5797 5798 0
-5798 5814 0
-160 -5798 5799 0
-5799 5815 0
-161 -5799 5800 0
-5800 5816 0
-162 -5800 5801 0
-5801 5817 0
-163 -5801 5802 0
-5802 5818 0
-164 -5802 5803 0
-5803 5819 0
-165 -5803 5804 0
-5804 5820 0
-166 -5804 5805 0
-5805 5821 0
-167 -5805 5806 0
-5806 5822 0
-168 -5806 5807 0
-5807 5823 0
-169 -5807 5808 0
-5808 5824 0
-170 -5808 0
-155 5809 0
-5809 5825 0
-156 -5809 5810 0
-5810 5826 0
-157 -5810 5811 0
-5811 5827 0
-158 -5811 5812 0
-5812 5828 0
-159 -5812 5813 0
-5813 5829 0
-160 -5813 5814 0
-5814 5830 0
-161 -5814 5815 0
-5815 5831 0
-162 -5815 5816 0
-5816 5832 0
-163 -5816 5817 0
-5817 5833 0
-164 -5817 5818 0
-5818 5834 0
-165 -5818 5819 0
-5819 5835 0
-166 -5819 5820 0
-5820 5836 0
-167 -5820 5821 0
-5821 5837 0
-168 -5821 5822 0
-5822 5838 0
-169 -5822 5823 0
-5823 5839 0
-170 -5823 5824 0
-5824 5840 0
-171 -5824 0
-156 5825 0
-5825 5841 0
-157 -5825 5826 0
-5826 5842 0
-158 -5826 5827 0
-5827 5843 0
-159 -5827 5828 0
-5828 5844 0
-160 -5828 5829 0
-5829 5845 0
-161 -5829 5830 0
-5830 5846 0
-162 -5830 5831 0
-5831 5847 0
-163 -5831 5832 0
-5832 5848 0
-164 -5832 5833 0
-5833 5849 0
-165 -5833 5834 0
-5834 5850 0
-166 -5834 5835 0
-5835 5851 0
-167 -5835 5836 0
-5836 5852 0
-168 -5836 5837 0
-5837 5853 0
-169 -5837 5838 0
-5838 5854 0
-170 -5838 5839 0
-5839 5855 0
-171 -5839 5840 0
-5840 5856 0
-172 -5840 0
-157 5841 0
-5841 5857 0
-158 -5841 5842 0
-5842 5858 0
-159 -5842 5843 0
-5843 5859 0
-160 -5843 5844 0
-5844 5860 0
-161 -5844 5845 0
-5845 5861 0
-162 -5845 5846 0
-5846 5862 0
-163 -5846 5847 0
-5847 5863 0
-164 -5847 5848 0
-5848 5864 0
-165 -5848 5849 0
-5849 5865 0
-166 -5849 5850 0
-5850 5866 0
-167 -5850 5851 0
-5851 5867 0
-168 -5851 5852 0
-5852 5868 0
-169 -5852 5853 0
-5853 5869 0
-170 -5853 5854 0
-5854 5870 0
-171 -5854 5855 0
-5855 5871 0
-172 -5855 5856 0
-5856 5872 0
-173 -5856 0
-158 5857 0
-5857 5873 0
-159 -5857 5858 0
-5858 5874 0
-160 -5858 5859 0
-5859 5875 0
-161 -5859 5860 0
-5860 5876 0
-162 -5860 5861 0
-5861 5877 0
-163 -5861 5862 0
-5862 5878 0
-164 -5862 5863 0
-5863 5879 0
-165 -5863 5864 0
-5864 5880 0
-166 -5864 5865 0
-5865 5881 0
-167 -5865 5866 0
-5866 5882 0
-168 -5866 5867 0
-5867 5883 0
-169 -5867 5868 0
-5868 5884 0
-170 -5868 5869 0
-5869 5885 0
-171 -5869 5870 0
-5870 5886 0
-172 -5870 5871 0
-5871 5887 0
-173 -5871 5872 0
-5872 5888 0
-174 -5872 0
-159 5873 0
-5873 5889 0
-160 -5873 5874 0
-5874 5890 0
-161 -5874 5875 0
-5875 5891 0
-162 -5875 5876 0
-5876 5892 0
-163 -5876 5877 0
-5877 5893 0
-164 -5877 5878 0
-5878 5894 0
-165 -5878 5879 0
-5879 5895 0
-166 -5879 5880 0
-5880 5896 0
-167 -5880 5881 0
-5881 5897 0
-168 -5881 5882 0
-5882 5898 0
-169 -5882 5883 0
-5883 5899 0
-170 -5883 5884 0
-5884 5900 0
-171 -5884 5885 0
-5885 5901 0
-172 -5885 5886 0
-5886 5902 0
-173 -5886 5887 0
-5887 5903 0
-174 -5887 5888 0
-5888 5904 0
-175 -5888 0
-160 5889 0
-5889 5905 0
-161 -5889 5890 0
-5890 5906 0
-162 -5890 5891 0
-5891 5907 0
-163 -5891 5892 0
-5892 5908 0
-164 -5892 5893 0
-5893 5909 0
-165 -5893 5894 0
-5894 5910 0
-166 -5894 5895 0
-5895 5911 0
-167 -5895 5896 0
-5896 5912 0
-168 -5896 5897 0
-5897 5913 0
-169 -5897 5898 0
-5898 5914 0
-170 -5898 5899 0
-5899 5915 0
-171 -5899 5900 0
-5900 5916 0
-172 -5900 5901 0
-5901 5917 0
-173 -5901 5902 0
-5902 5918 0
-174 -5902 5903 0
-5903 5919 0
-175 -5903 5904 0
-5904 5920 0
-176 -5904 0
-161 5905 0
-5905 5921 0
-162 -5905 5906 0
-5906 5922 0
-163 -5906 5907 0
-5907 5923 0
-164 -5907 5908 0
-5908 5924 0
-165 -5908 5909 0
-5909 5925 0
-166 -5909 5910 0
-5910 5926 0
-167 -5910 5911 0
-5911 5927 0
-168 -5911 5912 0
-5912 5928 0
-169 -5912 5913 0
-5913 5929 0
-170 -5913 5914 0
-5914 5930 0
-171 -5914 5915 0
-5915 5931 0
-172 -5915 5916 0
-5916 5932 0
-173 -5916 5917 0
-5917 5933 0
-174 -5917 5918 0
-5918 5934 0
-175 -5918 5919 0
-5919 5935 0
-176 -5919 5920 0
-5920 5936 0
-177 -5920 0
-162 5921 0
-5921 5937 0
-163 -5921 5922 0
-5922 5938 0
-164 -5922 5923 0
-5923 5939 0
-165 -5923 5924 0
-5924 5940 0
-166 -5924 5925 0
-5925 5941 0
-167 -5925 5926 0
-5926 5942 0
-168 -5926 5927 0
-5927 5943 0
-169 -5927 5928 0
-5928 5944 0
-170 -5928 5929 0
-5929 5945 0
-171 -5929 5930 0
-5930 5946 0
-172 -5930 5931 0
-5931 5947 0
-173 -5931 5932 0
-5932 5948 0
-174 -5932 5933 0
-5933 5949 0
-175 -5933 5934 0
-5934 5950 0
-176 -5934 5935 0
-5935 5951 0
-177 -5935 5936 0
-5936 5952 0
-178 -5936 0
-163 5937 0
-5937 5953 0
-164 -5937 5938 0
-5938 5954 0
-165 -5938 5939 0
-5939 5955 0
-166 -5939 5940 0
-5940 5956 0
-167 -5940 5941 0
-5941 5957 0
-168 -5941 5942 0
-5942 5958 0
-169 -5942 5943 0
-5943 5959 0
-170 -5943 5944 0
-5944 5960 0
-171 -5944 5945 0
-5945 5961 0
-172 -5945 5946 0
-5946 5962 0
-173 -5946 5947 0
-5947 5963 0
-174 -5947 5948 0
-5948 5964 0
-175 -5948 5949 0
-5949 5965 0
-176 -5949 5950 0
-5950 5966 0
-177 -5950 5951 0
-5951 5967 0
-178 -5951 5952 0
-5952 5968 0
-179 -5952 0
-164 5953 0
-5953 5969 0
-165 -5953 5954 0
-5954 5970 0
-166 -5954 5955 0
-5955 5971 0
-167 -5955 5956 0
-5956 5972 0
-168 -5956 5957 0
-5957 5973 0
-169 -5957 5958 0
-5958 5974 0
-170 -5958 5959 0
-5959 5975 0
-171 -5959 5960 0
-5960 5976 0
-172 -5960 5961 0
-5961 5977 0
-173 -5961 5962 0
-5962 5978 0
-174 -5962 5963 0
-5963 5979 0
-175 -5963 5964 0
-5964 5980 0
-176 -5964 5965 0
-5965 5981 0
-177 -5965 5966 0
-5966 5982 0
-178 -5966 5967 0
-5967 5983 0
-179 -5967 5968 0
-5968 5984 0
-180 -5968 0
-165 5969 0
-5969 5985 0
-166 -5969 5970 0
-5970 5986 0
-167 -5970 5971 0
-5971 5987 0
-168 -5971 5972 0
-5972 5988 0
-169 -5972 5973 0
-5973 5989 0
-170 -5973 5974 0
-5974 5990 0
-171 -5974 5975 0
-5975 5991 0
-172 -5975 5976 0
-5976 5992 0
-173 -5976 5977 0
-5977 5993 0
-174 -5977 5978 0
-5978 5994 0
-175 -5978 5979 0
-5979 5995 0
-176 -5979 5980 0
-5980 5996 0
-177 -5980 5981 0
-5981 5997 0
-178 -5981 5982 0
-5982 5998 0
-179 -5982 5983 0
-5983 5999 0
-180 -5983 5984 0
-5984 6000 0
-181 -5984 0
-166 5985 0
-5985 6001 0
-167 -5985 5986 0
-5986 6002 0
-168 -5986 5987 0
-5987 6003 0
-169 -5987 5988 0
-5988 6004 0
-170 -5988 5989 0
-5989 6005 0
-171 -5989 5990 0
-5990 6006 0
-172 -5990 5991 0
-5991 6007 0
-173 -5991 5992 0
-5992 6008 0
-174 -5992 5993 0
-5993 6009 0
-175 -5993 5994 0
-5994 6010 0
-176 -5994 5995 0
-5995 6011 0
-177 -5995 5996 0
-5996 6012 0
-178 -5996 5997 0
-5997 6013 0
-179 -5997 5998 0
-5998 6014 0
-180 -5998 5999 0
-5999 6015 0
-181 -5999 6000 0
-6000 6016 0
-182 -6000 0
-167 6001 0
-6001 6017 0
-168 -6001 6002 0
-6002 6018 0
-169 -6002 6003 0
-6003 6019 0
-170 -6003 6004 0
-6004 6020 0
-171 -6004 6005 0
-6005 6021 0
-172 -6005 6006 0
-6006 6022 0
-173 -6006 6007 0
-6007 6023 0
-174 -6007 6008 0
-6008 6024 0
-175 -6008 6009 0
-6009 6025 0
-176 -6009 6010 0
-6010 6026 0
-177 -6010 6011 0
-6011 6027 0
-178 -6011 6012 0
-6012 6028 0
-179 -6012 6013 0
-6013 6029 0
-180 -6013 6014 0
-6014 6030 0
-181 -6014 6015 0
-6015 6031 0
-182 -6015 6016 0
-6016 6032 0
-183 -6016 0
-168 6017 0
-6017 6033 0
-169 -6017 6018 0
-6018 6034 0
-170 -6018 6019 0
-6019 6035 0
-171 -6019 6020 0
-6020 6036 0
-172 -6020 6021 0
-6021 6037 0
-173 -6021 6022 0
-6022 6038 0
-174 -6022 6023 0
-6023 6039 0
-175 -6023 6024 0
-6024 6040 0
-176 -6024 6025 0
-6025 6041 0
-177 -6025 6026 0
-6026 6042 0
-178 -6026 6027 0
-6027 6043 0
-179 -6027 6028 0
-6028 6044 0
-180 -6028 6029 0
-6029 6045 0
-181 -6029 6030 0
-6030 6046 0
-182 -6030 6031 0
-6031 6047 0
-183 -6031 6032 0
-6032 6048 0
-184 -6032 0
-169 6033 0
-6033 6049 0
-170 -6033 6034 0
-6034 6050 0
-171 -6034 6035 0
-6035 6051 0
-172 -6035 6036 0
-6036 6052 0
-173 -6036 6037 0
-6037 6053 0
-174 -6037 6038 0
-6038 6054 0
-175 -6038 6039 0
-6039 6055 0
-176 -6039 6040 0
-6040 6056 0
-177 -6040 6041 0
-6041 6057 0
-178 -6041 6042 0
-6042 6058 0
-179 -6042 6043 0
-6043 6059 0
-180 -6043 6044 0
-6044 6060 0
-181 -6044 6045 0
-6045 6061 0
-182 -6045 6046 0
-6046 6062 0
-183 -6046 6047 0
-6047 6063 0
-184 -6047 6048 0
-6048 6064 0
-185 -6048 0
-170 6049 0
-6049 6065 0
-171 -6049 6050 0
-6050 6066 0
-172 -6050 6051 0
-6051 6067 0
-173 -6051 6052 0
-6052 6068 0
-174 -6052 6053 0
-6053 6069 0
-175 -6053 6054 0
-6054 6070 0
-176 -6054 6055 0
-6055 6071 0
-177 -6055 6056 0
-6056 6072 0
-178 -6056 6057 0
-6057 6073 0
-179 -6057 6058 0
-6058 6074 0
-180 -6058 6059 0
-6059 6075 0
-181 -6059 6060 0
-6060 6076 0
-182 -6060 6061 0
-6061 6077 0
-183 -6061 6062 0
-6062 6078 0
-184 -6062 6063 0
-6063 6079 0
-185 -6063 6064 0
-6064 6080 0
-186 -6064 0
-171 6065 0
-6065 6081 0
-172 -6065 6066 0
-6066 6082 0
-173 -6066 6067 0
-6067 6083 0
-174 -6067 6068 0
-6068 6084 0
-175 -6068 6069 0
-6069 6085 0
-176 -6069 6070 0
-6070 6086 0
-177 -6070 6071 0
-6071 6087 0
-178 -6071 6072 0
-6072 6088 0
-179 -6072 6073 0
-6073 6089 0
-180 -6073 6074 0
-6074 6090 0
-181 -6074 6075 0
-6075 6091 0
-182 -6075 6076 0
-6076 6092 0
-183 -6076 6077 0
-6077 6093 0
-184 -6077 6078 0
-6078 6094 0
-185 -6078 6079 0
-6079 6095 0
-186 -6079 6080 0
-6080 6096 0
-187 -6080 0
-172 6081 0
-6081 6097 0
-173 -6081 6082 0
-6082 6098 0
-174 -6082 6083 0
-6083 6099 0
-175 -6083 6084 0
-6084 6100 0
-176 -6084 6085 0
-6085 6101 0
-177 -6085 6086 0
-6086 6102 0
-178 -6086 6087 0
-6087 6103 0
-179 -6087 6088 0
-6088 6104 0
-180 -6088 6089 0
-6089 6105 0
-181 -6089 6090 0
-6090 6106 0
-182 -6090 6091 0
-6091 6107 0
-183 -6091 6092 0
-6092 6108 0
-184 -6092 6093 0
-6093 6109 0
-185 -6093 6094 0
-6094 6110 0
-186 -6094 6095 0
-6095 6111 0
-187 -6095 6096 0
-6096 6112 0
-188 -6096 0
-173 6097 0
-6097 6113 0
-174 -6097 6098 0
-6098 6114 0
-175 -6098 6099 0
-6099 6115 0
-176 -6099 6100 0
-6100 6116 0
-177 -6100 6101 0
-6101 6117 0
-178 -6101 6102 0
-6102 6118 0
-179 -6102 6103 0
-6103 6119 0
-180 -6103 6104 0
-6104 6120 0
-181 -6104 6105 0
-6105 6121 0
-182 -6105 6106 0
-6106 6122 0
-183 -6106 6107 0
-6107 6123 0
-184 -6107 6108 0
-6108 6124 0
-185 -6108 6109 0
-6109 6125 0
-186 -6109 6110 0
-6110 6126 0
-187 -6110 6111 0
-6111 6127 0
-188 -6111 6112 0
-6112 6128 0
-189 -6112 0
-174 6113 0
-6113 6129 0
-175 -6113 6114 0
-6114 6130 0
-176 -6114 6115 0
-6115 6131 0
-177 -6115 6116 0
-6116 6132 0
-178 -6116 6117 0
-6117 6133 0
-179 -6117 6118 0
-6118 6134 0
-180 -6118 6119 0
-6119 6135 0
-181 -6119 6120 0
-6120 6136 0
-182 -6120 6121 0
-6121 6137 0
-183 -6121 6122 0
-6122 6138 0
-184 -6122 6123 0
-6123 6139 0
-185 -6123 6124 0
-6124 6140 0
-186 -6124 6125 0
-6125 6141 0
-187 -6125 6126 0
-6126 6142 0
-188 -6126 6127 0
-6127 6143 0
-189 -6127 6128 0
-6128 6144 0
-190 -6128 0
-175 6129 0
-6129 6145 0
-176 -6129 6130 0
-6130 6146 0
-177 -6130 6131 0
-6131 6147 0
-178 -6131 6132 0
-6132 6148 0
-179 -6132 6133 0
-6133 6149 0
-180 -6133 6134 0
-6134 6150 0
-181 -6134 6135 0
-6135 6151 0
-182 -6135 6136 0
-6136 6152 0
-183 -6136 6137 0
-6137 6153 0
-184 -6137 6138 0
-6138 6154 0
-185 -6138 6139 0
-6139 6155 0
-186 -6139 6140 0
-6140 6156 0
-187 -6140 6141 0
-6141 6157 0
-188 -6141 6142 0
-6142 6158 0
-189 -6142 6143 0
-6143 6159 0
-190 -6143 6144 0
-6144 6160 0
-191 -6144 0
-176 6145 0
-6145 6161 0
-177 -6145 6146 0
-6146 6162 0
-178 -6146 6147 0
-6147 6163 0
-179 -6147 6148 0
-6148 6164 0
-180 -6148 6149 0
-6149 6165 0
-181 -6149 6150 0
-6150 6166 0
-182 -6150 6151 0
-6151 6167 0
-183 -6151 6152 0
-6152 6168 0
-184 -6152 6153 0
-6153 6169 0
-185 -6153 6154 0
-6154 6170 0
-186 -6154 6155 0
-6155 6171 0
-187 -6155 6156 0
-6156 6172 0
-188 -6156 6157 0
-6157 6173 0
-189 -6157 6158 0
-6158 6174 0
-190 -6158 6159 0
-6159 6175 0
-191 -6159 6160 0
-6160 6176 0
-192 -6160 0
-177 6161 0
-6161 6177 0
-178 -6161 6162 0
-6162 6178 0
-179 -6162 6163 0
-6163 6179 0
-180 -6163 6164 0
-6164 6180 0
-181 -6164 6165 0
-6165 6181 0
-182 -6165 6166 0
-6166 6182 0
-183 -6166 6167 0
-6167 6183 0
-184 -6167 6168 0
-6168 6184 0
-185 -6168 6169 0
-6169 6185 0
-186 -6169 6170 0
-6170 6186 0
-187 -6170 6171 0
-6171 6187 0
-188 -6171 6172 0
-6172 6188 0
-189 -6172 6173 0
-6173 6189 0
-190 -6173 6174 0
-6174 6190 0
-191 -6174 6175 0
-6175 6191 0
-192 -6175 6176 0
-6176 6192 0
-193 -6176 0
-178 6177 0
-6177 6193 0
-179 -6177 6178 0
-6178 6194 0
-180 -6178 6179 0
-6179 6195 0
-181 -6179 6180 0
-6180 6196 0
-182 -6180 6181 0
-6181 6197 0
-183 -6181 6182 0
-6182 6198 0
-184 -6182 6183 0
-6183 6199 0
-185 -6183 6184 0
-6184 6200 0
-186 -6184 6185 0
-6185 6201 0
-187 -6185 6186 0
-6186 6202 0
-188 -6186 6187 0
-6187 6203 0
-189 -6187 6188 0
-6188 6204 0
-190 -6188 6189 0
-6189 6205 0
-191 -6189 6190 0
-6190 6206 0
-192 -6190 6191 0
-6191 6207 0
-193 -6191 6192 0
-6192 6208 0
-194 -6192 0
-179 6193 0
-6193 6209 0
-180 -6193 6194 0
-6194 6210 0
-181 -6194 6195 0
-6195 6211 0
-182 -6195 6196 0
-6196 6212 0
-183 -6196 6197 0
-6197 6213 0
-184 -6197 6198 0
-6198 6214 0
-185 -6198 6199 0
-6199 6215 0
-186 -6199 6200 0
-6200 6216 0
-187 -6200 6201 0
-6201 6217 0
-188 -6201 6202 0
-6202 6218 0
-189 -6202 6203 0
-6203 6219 0
-190 -6203 6204 0
-6204 6220 0
-191 -6204 6205 0
-6205 6221 0
-192 -6205 6206 0
-6206 6222 0
-193 -6206 6207 0
-6207 6223 0
-194 -6207 6208 0
-6208 6224 0
-195 -6208 0
-180 6209 0
-6209 6225 0
-181 -6209 6210 0
-6210 6226 0
-182 -6210 6211 0
-6211 6227 0
-183 -6211 6212 0
-6212 6228 0
-184 -6212 6213 0
-6213 6229 0
-185 -6213 6214 0
-6214 6230 0
-186 -6214 6215 0
-6215 6231 0
-187 -6215 6216 0
-6216 6232 0
-188 -6216 6217 0
-6217 6233 0
-189 -6217 6218 0
-6218 6234 0
-190 -6218 6219 0
-6219 6235 0
-191 -6219 6220 0
-6220 6236 0
-192 -6220 6221 0
-6221 6237 0
-193 -6221 6222 0
-6222 6238 0
-194 -6222 6223 0
-6223 6239 0
-195 -6223 6224 0
-6224 6240 0
-196 -6224 0
-181 6225 0
-6225 6241 0
-182 -6225 6226 0
-6226 6242 0
-183 -6226 6227 0
-6227 6243 0
-184 -6227 6228 0
-6228 6244 0
-185 -6228 6229 0
-6229 6245 0
-186 -6229 6230 0
-6230 6246 0
-187 -6230 6231 0
-6231 6247 0
-188 -6231 6232 0
-6232 6248 0
-189 -6232 6233 0
-6233 6249 0
-190 -6233 6234 0
-6234 6250 0
-191 -6234 6235 0
-6235 6251 0
-192 -6235 6236 0
-6236 6252 0
-193 -6236 6237 0
-6237 6253 0
-194 -6237 6238 0
-6238 6254 0
-195 -6238 6239 0
-6239 6255 0
-196 -6239 6240 0
-6240 6256 0
-197 -6240 0
-182 6241 0
-6241 6257 0
-183 -6241 6242 0
-6242 6258 0
-184 -6242 6243 0
-6243 6259 0
-185 -6243 6244 0
-6244 6260 0
-186 -6244 6245 0
-6245 6261 0
-187 -6245 6246 0
-6246 6262 0
-188 -6246 6247 0
-6247 6263 0
-189 -6247 6248 0
-6248 6264 0
-190 -6248 6249 0
-6249 6265 0
-191 -6249 6250 0
-6250 6266 0
-192 -6250 6251 0
-6251 6267 0
-193 -6251 6252 0
-6252 6268 0
-194 -6252 6253 0
-6253 6269 0
-195 -6253 6254 0
-6254 6270 0
-196 -6254 6255 0
-6255 6271 0
-197 -6255 6256 0
-6256 6272 0
-198 -6256 0
-183 6257 0
-6257 6273 0
-184 -6257 6258 0
-6258 6274 0
-185 -6258 6259 0
-6259 6275 0
-186 -6259 6260 0
-6260 6276 0
-187 -6260 6261 0
-6261 6277 0
-188 -6261 6262 0
-6262 6278 0
-189 -6262 6263 0
-6263 6279 0
-190 -6263 6264 0
-6264 6280 0
-191 -6264 6265 0
-6265 6281 0
-192 -6265 6266 0
-6266 6282 0
-193 -6266 6267 0
-6267 6283 0
-194 -6267 6268 0
-6268 6284 0
-195 -6268 6269 0
-6269 6285 0
-196 -6269 6270 0
-6270 6286 0
-197 -6270 6271 0
-6271 6287 0
-198 -6271 6272 0
-6272 6288 0
-199 -6272 0
-184 6273 0
-185 -6273 6274 0
-186 -6274 6275 0
-187 -6275 6276 0
-188 -6276 6277 0
-189 -6277 6278 0
-190 -6278 6279 0
-191 -6279 6280 0
-192 -6280 6281 0
-193 -6281 6282 0
-194 -6282 6283 0
-195 -6283 6284 0
-196 -6284 6285 0
-197 -6285 6286 0
-198 -6286 6287 0
-199 -6287 6288 0
-200 -6288 0
-201 6289 0
-6289 6290 0
-202 -6289 6291 0
-6291 6292 0
-203 -6291 6293 0
-6293 6294 0
-204 -6293 6295 0
-6295 6296 0
-205 -6295 6297 0
-6297 6298 0
-206 -6297 6299 0
-6299 6300 0
-207 -6299 6301 0
-6301 6302 0
-208 -6301 6303 0
-6303 6304 0
-209 -6303 6305 0
-6305 6306 0
-210 -6305 0
-202 6290 0
-6290 6307 0
-203 -6290 6292 0
-6292 6308 0
-204 -6292 6294 0
-6294 6309 0
-205 -6294 6296 0
-6296 6310 0
-206 -6296 6298 0
-6298 6311 0
-207 -6298 6300 0
-6300 6312 0
-208 -6300 6302 0
-6302 6313 0
-209 -6302 6304 0
-6304 6314 0
-210 -6304 6306 0
-6306 6315 0
-211 -6306 0
-203 6307 0
-6307 6316 0
-204 -6307 6308 0
-6308 6317 0
-205 -6308 6309 0
-6309 6318 0
-206 -6309 6310 0
-6310 6319 0
-207 -6310 6311 0
-6311 6320 0
-208 -6311 6312 0
-6312 6321 0
-209 -6312 6313 0
-6313 6322 0
-210 -6313 6314 0
-6314 6323 0
-211 -6314 6315 0
-6315 6324 0
-212 -6315 0
-204 6316 0
-6316 6325 0
-205 -6316 6317 0
-6317 6326 0
-206 -6317 6318 0
-6318 6327 0
-207 -6318 6319 0
-6319 6328 0
-208 -6319 6320 0
-6320 6329 0
-209 -6320 6321 0
-6321 6330 0
-210 -6321 6322 0
-6322 6331 0
-211 -6322 6323 0
-6323 6332 0
-212 -6323 6324 0
-6324 6333 0
-213 -6324 0
-205 6325 0
-6325 6334 0
-206 -6325 6326 0
-6326 6335 0
-207 -6326 6327 0
-6327 6336 0
-208 -6327 6328 0
-6328 6337 0
-209 -6328 6329 0
-6329 6338 0
-210 -6329 6330 0
-6330 6339 0
-211 -6330 6331 0
-6331 6340 0
-212 -6331 6332 0
-6332 6341 0
-213 -6332 6333 0
-6333 6342 0
-214 -6333 0
-206 6334 0
-6334 6343 0
-207 -6334 6335 0
-6335 6344 0
-208 -6335 6336 0
-6336 6345 0
-209 -6336 6337 0
-6337 6346 0
-210 -6337 6338 0
-6338 6347 0
-211 -6338 6339 0
-6339 6348 0
-212 -6339 6340 0
-6340 6349 0
-213 -6340 6341 0
-6341 6350 0
-214 -6341 6342 0
-6342 6351 0
-215 -6342 0
-207 6343 0
-6343 6352 0
-208 -6343 6344 0
-6344 6353 0
-209 -6344 6345 0
-6345 6354 0
-210 -6345 6346 0
-6346 6355 0
-211 -6346 6347 0
-6347 6356 0
-212 -6347 6348 0
-6348 6357 0
-213 -6348 6349 0
-6349 6358 0
-214 -6349 6350 0
-6350 6359 0
-215 -6350 6351 0
-6351 6360 0
-216 -6351 0
-208 6352 0
-6352 6361 0
-209 -6352 6353 0
-6353 6362 0
-210 -6353 6354 0
-6354 6363 0
-211 -6354 6355 0
-6355 6364 0
-212 -6355 6356 0
-6356 6365 0
-213 -6356 6357 0
-6357 6366 0
-214 -6357 6358 0
-6358 6367 0
-215 -6358 6359 0
-6359 6368 0
-216 -6359 6360 0
-6360 6369 0
-217 -6360 0
-209 6361 0
-6361 6370 0
-210 -6361 6362 0
-6362 6371 0
-211 -6362 6363 0
-6363 6372 0
-212 -6363 6364 0
-6364 6373 0
-213 -6364 6365 0
-6365 6374 0
-214 -6365 6366 0
-6366 6375 0
-215 -6366 6367 0
-6367 6376 0
-216 -6367 6368 0
-6368 6377 0
-217 -6368 6369 0
-6369 6378 0
-218 -6369 0
-210 6370 0
-6370 6379 0
-211 -6370 6371 0
-6371 6380 0
-212 -6371 6372 0
-6372 6381 0
-213 -6372 6373 0
-6373 6382 0
-214 -6373 6374 0
-6374 6383 0
-215 -6374 6375 0
-6375 6384 0
-216 -6375 6376 0
-6376 6385 0
-217 -6376 6377 0
-6377 6386 0
-218 -6377 6378 0
-6378 6387 0
-219 -6378 0
-211 6379 0
-6379 6388 0
-212 -6379 6380 0
-6380 6389 0
-213 -6380 6381 0
-6381 6390 0
-214 -6381 6382 0
-6382 6391 0
-215 -6382 6383 0
-6383 6392 0
-216 -6383 6384 0
-6384 6393 0
-217 -6384 6385 0
-6385 6394 0
-218 -6385 6386 0
-6386 6395 0
-219 -6386 6387 0
-6387 6396 0
-220 -6387 0
-212 6388 0
-6388 6397 0
-213 -6388 6389 0
-6389 6398 0
-214 -6389 6390 0
-6390 6399 0
-215 -6390 6391 0
-6391 6400 0
-216 -6391 6392 0
-6392 6401 0
-217 -6392 6393 0
-6393 6402 0
-218 -6393 6394 0
-6394 6403 0
-219 -6394 6395 0
-6395 6404 0
-220 -6395 6396 0
-6396 6405 0
-221 -6396 0
-213 6397 0
-6397 6406 0
-214 -6397 6398 0
-6398 6407 0
-215 -6398 6399 0
-6399 6408 0
-216 -6399 6400 0
-6400 6409 0
-217 -6400 6401 0
-6401 6410 0
-218 -6401 6402 0
-6402 6411 0
-219 -6402 6403 0
-6403 6412 0
-220 -6403 6404 0
-6404 6413 0
-221 -6404 6405 0
-6405 6414 0
-222 -6405 0
-214 6406 0
-6406 6415 0
-215 -6406 6407 0
-6407 6416 0
-216 -6407 6408 0
-6408 6417 0
-217 -6408 6409 0
-6409 6418 0
-218 -6409 6410 0
-6410 6419 0
-219 -6410 6411 0
-6411 6420 0
-220 -6411 6412 0
-6412 6421 0
-221 -6412 6413 0
-6413 6422 0
-222 -6413 6414 0
-6414 6423 0
-223 -6414 0
-215 6415 0
-6415 6424 0
-216 -6415 6416 0
-6416 6425 0
-217 -6416 6417 0
-6417 6426 0
-218 -6417 6418 0
-6418 6427 0
-219 -6418 6419 0
-6419 6428 0
-220 -6419 6420 0
-6420 6429 0
-221 -6420 6421 0
-6421 6430 0
-222 -6421 6422 0
-6422 6431 0
-223 -6422 6423 0
-6423 6432 0
-224 -6423 0
-216 6424 0
-6424 6433 0
-217 -6424 6425 0
-6425 6434 0
-218 -6425 6426 0
-6426 6435 0
-219 -6426 6427 0
-6427 6436 0
-220 -6427 6428 0
-6428 6437 0
-221 -6428 6429 0
-6429 6438 0
-222 -6429 6430 0
-6430 6439 0
-223 -6430 6431 0
-6431 6440 0
-224 -6431 6432 0
-6432 6441 0
-225 -6432 0
-217 6433 0
-6433 6442 0
-218 -6433 6434 0
-6434 6443 0
-219 -6434 6435 0
-6435 6444 0
-220 -6435 6436 0
-6436 6445 0
-221 -6436 6437 0
-6437 6446 0
-222 -6437 6438 0
-6438 6447 0
-223 -6438 6439 0
-6439 6448 0
-224 -6439 6440 0
-6440 6449 0
-225 -6440 6441 0
-6441 6450 0
-226 -6441 0
-218 6442 0
-6442 6451 0
-219 -6442 6443 0
-6443 6452 0
-220 -6443 6444 0
-6444 6453 0
-221 -6444 6445 0
-6445 6454 0
-222 -6445 6446 0
-6446 6455 0
-223 -6446 6447 0
-6447 6456 0
-224 -6447 6448 0
-6448 6457 0
-225 -6448 6449 0
-6449 6458 0
-226 -6449 6450 0
-6450 6459 0
-227 -6450 0
-219 6451 0
-6451 6460 0
-220 -6451 6452 0
-6452 6461 0
-221 -6452 6453 0
-6453 6462 0
-222 -6453 6454 0
-6454 6463 0
-223 -6454 6455 0
-6455 6464 0
-224 -6455 6456 0
-6456 6465 0
-225 -6456 6457 0
-6457 6466 0
-226 -6457 6458 0
-6458 6467 0
-227 -6458 6459 0
-6459 6468 0
-228 -6459 0
-220 6460 0
-6460 6469 0
-221 -6460 6461 0
-6461 6470 0
-222 -6461 6462 0
-6462 6471 0
-223 -6462 6463 0
-6463 6472 0
-224 -6463 6464 0
-6464 6473 0
-225 -6464 6465 0
-6465 6474 0
-226 -6465 6466 0
-6466 6475 0
-227 -6466 6467 0
-6467 6476 0
-228 -6467 6468 0
-6468 6477 0
-229 -6468 0
-221 6469 0
-6469 6478 0
-222 -6469 6470 0
-6470 6479 0
-223 -6470 6471 0
-6471 6480 0
-224 -6471 6472 0
-6472 6481 0
-225 -6472 6473 0
-6473 6482 0
-226 -6473 6474 0
-6474 6483 0
-227 -6474 6475 0
-6475 6484 0
-228 -6475 6476 0
-6476 6485 0
-229 -6476 6477 0
-6477 6486 0
-230 -6477 0
-222 6478 0
-6478 6487 0
-223 -6478 6479 0
-6479 6488 0
-224 -6479 6480 0
-6480 6489 0
-225 -6480 6481 0
-6481 6490 0
-226 -6481 6482 0
-6482 6491 0
-227 -6482 6483 0
-6483 6492 0
-228 -6483 6484 0
-6484 6493 0
-229 -6484 6485 0
-6485 6494 0
-230 -6485 6486 0
-6486 6495 0
-231 -6486 0
-223 6487 0
-6487 6496 0
-224 -6487 6488 0
-6488 6497 0
-225 -6488 6489 0
-6489 6498 0
-226 -6489 6490 0
-6490 6499 0
-227 -6490 6491 0
-6491 6500 0
-228 -6491 6492 0
-6492 6501 0
-229 -6492 6493 0
-6493 6502 0
-230 -6493 6494 0
-6494 6503 0
-231 -6494 6495 0
-6495 6504 0
-232 -6495 0
-224 6496 0
-6496 6505 0
-225 -6496 6497 0
-6497 6506 0
-226 -6497 6498 0
-6498 6507 0
-227 -6498 6499 0
-6499 6508 0
-228 -6499 6500 0
-6500 6509 0
-229 -6500 6501 0
-6501 6510 0
-230 -6501 6502 0
-6502 6511 0
-231 -6502 6503 0
-6503 6512 0
-232 -6503 6504 0
-6504 6513 0
-233 -6504 0
-225 6505 0
-6505 6514 0
-226 -6505 6506 0
-6506 6515 0
-227 -6506 6507 0
-6507 6516 0
-228 -6507 6508 0
-6508 6517 0
-229 -6508 6509 0
-6509 6518 0
-230 -6509 6510 0
-6510 6519 0
-231 -6510 6511 0
-6511 6520 0
-232 -6511 6512 0
-6512 6521 0
-233 -6512 6513 0
-6513 6522 0
-234 -6513 0
-226 6514 0
-6514 6523 0
-227 -6514 6515 0
-6515 6524 0
-228 -6515 6516 0
-6516 6525 0
-229 -6516 6517 0
-6517 6526 0
-230 -6517 6518 0
-6518 6527 0
-231 -6518 6519 0
-6519 6528 0
-232 -6519 6520 0
-6520 6529 0
-233 -6520 6521 0
-6521 6530 0
-234 -6521 6522 0
-6522 6531 0
-235 -6522 0
-227 6523 0
-6523 6532 0
-228 -6523 6524 0
-6524 6533 0
-229 -6524 6525 0
-6525 6534 0
-230 -6525 6526 0
-6526 6535 0
-231 -6526 6527 0
-6527 6536 0
-232 -6527 6528 0
-6528 6537 0
-233 -6528 6529 0
-6529 6538 0
-234 -6529 6530 0
-6530 6539 0
-235 -6530 6531 0
-6531 6540 0
-236 -6531 0
-228 6532 0
-6532 6541 0
-229 -6532 6533 0
-6533 6542 0
-230 -6533 6534 0
-6534 6543 0
-231 -6534 6535 0
-6535 6544 0
-232 -6535 6536 0
-6536 6545 0
-233 -6536 6537 0
-6537 6546 0
-234 -6537 6538 0
-6538 6547 0
-235 -6538 6539 0
-6539 6548 0
-236 -6539 6540 0
-6540 6549 0
-237 -6540 0
-229 6541 0
-6541 6550 0
-230 -6541 6542 0
-6542 6551 0
-231 -6542 6543 0
-6543 6552 0
-232 -6543 6544 0
-6544 6553 0
-233 -6544 6545 0
-6545 6554 0
-234 -6545 6546 0
-6546 6555 0
-235 -6546 6547 0
-6547 6556 0
-236 -6547 6548 0
-6548 6557 0
-237 -6548 6549 0
-6549 6558 0
-238 -6549 0
-230 6550 0
-6550 6559 0
-231 -6550 6551 0
-6551 6560 0
-232 -6551 6552 0
-6552 6561 0
-233 -6552 6553 0
-6553 6562 0
-234 -6553 6554 0
-6554 6563 0
-235 -6554 6555 0
-6555 6564 0
-236 -6555 6556 0
-6556 6565 0
-237 -6556 6557 0
-6557 6566 0
-238 -6557 6558 0
-6558 6567 0
-239 -6558 0
-231 6559 0
-6559 6568 0
-232 -6559 6560 0
-6560 6569 0
-233 -6560 6561 0
-6561 6570 0
-234 -6561 6562 0
-6562 6571 0
-235 -6562 6563 0
-6563 6572 0
-236 -6563 6564 0
-6564 6573 0
-237 -6564 6565 0
-6565 6574 0
-238 -6565 6566 0
-6566 6575 0
-239 -6566 6567 0
-6567 6576 0
-240 -6567 0
-232 6568 0
-6568 6577 0
-233 -6568 6569 0
-6569 6578 0
-234 -6569 6570 0
-6570 6579 0
-235 -6570 6571 0
-6571 6580 0
-236 -6571 6572 0
-6572 6581 0
-237 -6572 6573 0
-6573 6582 0
-238 -6573 6574 0
-6574 6583 0
-239 -6574 6575 0
-6575 6584 0
-240 -6575 6576 0
-6576 6585 0
-241 -6576 0
-233 6577 0
-6577 6586 0
-234 -6577 6578 0
-6578 6587 0
-235 -6578 6579 0
-6579 6588 0
-236 -6579 6580 0
-6580 6589 0
-237 -6580 6581 0
-6581 6590 0
-238 -6581 6582 0
-6582 6591 0
-239 -6582 6583 0
-6583 6592 0
-240 -6583 6584 0
-6584 6593 0
-241 -6584 6585 0
-6585 6594 0
-242 -6585 0
-234 6586 0
-6586 6595 0
-235 -6586 6587 0
-6587 6596 0
-236 -6587 6588 0
-6588 6597 0
-237 -6588 6589 0
-6589 6598 0
-238 -6589 6590 0
-6590 6599 0
-239 -6590 6591 0
-6591 6600 0
-240 -6591 6592 0
-6592 6601 0
-241 -6592 6593 0
-6593 6602 0
-242 -6593 6594 0
-6594 6603 0
-243 -6594 0
-235 6595 0
-6595 6604 0
-236 -6595 6596 0
-6596 6605 0
-237 -6596 6597 0
-6597 6606 0
-238 -6597 6598 0
-6598 6607 0
-239 -6598 6599 0
-6599 6608 0
-240 -6599 6600 0
-6600 6609 0
-241 -6600 6601 0
-6601 6610 0
-242 -6601 6602 0
-6602 6611 0
-243 -6602 6603 0
-6603 6612 0
-244 -6603 0
-236 6604 0
-6604 6613 0
-237 -6604 6605 0
-6605 6614 0
-238 -6605 6606 0
-6606 6615 0
-239 -6606 6607 0
-6607 6616 0
-240 -6607 6608 0
-6608 6617 0
-241 -6608 6609 0
-6609 6618 0
-242 -6609 6610 0
-6610 6619 0
-243 -6610 6611 0
-6611 6620 0
-244 -6611 6612 0
-6612 6621 0
-245 -6612 0
-237 6613 0
-6613 6622 0
-238 -6613 6614 0
-6614 6623 0
-239 -6614 6615 0
-6615 6624 0
-240 -6615 6616 0
-6616 6625 0
-241 -6616 6617 0
-6617 6626 0
-242 -6617 6618 0
-6618 6627 0
-243 -6618 6619 0
-6619 6628 0
-244 -6619 6620 0
-6620 6629 0
-245 -6620 6621 0
-6621 6630 0
-246 -6621 0
-238 6622 0
-6622 6631 0
-239 -6622 6623 0
-6623 6632 0
-240 -6623 6624 0
-6624 6633 0
-241 -6624 6625 0
-6625 6634 0
-242 -6625 6626 0
-6626 6635 0
-243 -6626 6627 0
-6627 6636 0
-244 -6627 6628 0
-6628 6637 0
-245 -6628 6629 0
-6629 6638 0
-246 -6629 6630 0
-6630 6639 0
-247 -6630 0
-239 6631 0
-6631 6640 0
-240 -6631 6632 0
-6632 6641 0
-241 -6632 6633 0
-6633 6642 0
-242 -6633 6634 0
-6634 6643 0
-243 -6634 6635 0
-6635 6644 0
-244 -6635 6636 0
-6636 6645 0
-245 -6636 6637 0
-6637 6646 0
-246 -6637 6638 0
-6638 6647 0
-247 -6638 6639 0
-6639 6648 0
-248 -6639 0
-240 6640 0
-6640 6649 0
-241 -6640 6641 0
-6641 6650 0
-242 -6641 6642 0
-6642 6651 0
-243 -6642 6643 0
-6643 6652 0
-244 -6643 6644 0
-6644 6653 0
-245 -6644 6645 0
-6645 6654 0
-246 -6645 6646 0
-6646 6655 0
-247 -6646 6647 0
-6647 6656 0
-248 -6647 6648 0
-6648 6657 0
-249 -6648 0
-241 6649 0
-6649 6658 0
-242 -6649 6650 0
-6650 6659 0
-243 -6650 6651 0
-6651 6660 0
-244 -6651 6652 0
-6652 6661 0
-245 -6652 6653 0
-6653 6662 0
-246 -6653 6654 0
-6654 6663 0
-247 -6654 6655 0
-6655 6664 0
-248 -6655 6656 0
-6656 6665 0
-249 -6656 6657 0
-6657 6666 0
-250 -6657 0
-242 6658 0
-6658 6667 0
-243 -6658 6659 0
-6659 6668 0
-244 -6659 6660 0
-6660 6669 0
-245 -6660 6661 0
-6661 6670 0
-246 -6661 6662 0
-6662 6671 0
-247 -6662 6663 0
-6663 6672 0
-248 -6663 6664 0
-6664 6673 0
-249 -6664 6665 0
-6665 6674 0
-250 -6665 6666 0
-6666 6675 0
-251 -6666 0
-243 6667 0
-6667 6676 0
-244 -6667 6668 0
-6668 6677 0
-245 -6668 6669 0
-6669 6678 0
-246 -6669 6670 0
-6670 6679 0
-247 -6670 6671 0
-6671 6680 0
-248 -6671 6672 0
-6672 6681 0
-249 -6672 6673 0
-6673 6682 0
-250 -6673 6674 0
-6674 6683 0
-251 -6674 6675 0
-6675 6684 0
-252 -6675 0
-244 6676 0
-6676 6685 0
-245 -6676 6677 0
-6677 6686 0
-246 -6677 6678 0
-6678 6687 0
-247 -6678 6679 0
-6679 6688 0
-248 -6679 6680 0
-6680 6689 0
-249 -6680 6681 0
-6681 6690 0
-250 -6681 6682 0
-6682 6691 0
-251 -6682 6683 0
-6683 6692 0
-252 -6683 6684 0
-6684 6693 0
-253 -6684 0
-245 6685 0
-6685 6694 0
-246 -6685 6686 0
-6686 6695 0
-247 -6686 6687 0
-6687 6696 0
-248 -6687 6688 0
-6688 6697 0
-249 -6688 6689 0
-6689 6698 0
-250 -6689 6690 0
-6690 6699 0
-251 -6690 6691 0
-6691 6700 0
-252 -6691 6692 0
-6692 6701 0
-253 -6692 6693 0
-6693 6702 0
-254 -6693 0
-246 6694 0
-6694 6703 0
-247 -6694 6695 0
-6695 6704 0
-248 -6695 6696 0
-6696 6705 0
-249 -6696 6697 0
-6697 6706 0
-250 -6697 6698 0
-6698 6707 0
-251 -6698 6699 0
-6699 6708 0
-252 -6699 6700 0
-6700 6709 0
-253 -6700 6701 0
-6701 6710 0
-254 -6701 6702 0
-6702 6711 0
-255 -6702 0
-247 6703 0
-6703 6712 0
-248 -6703 6704 0
-6704 6713 0
-249 -6704 6705 0
-6705 6714 0
-250 -6705 6706 0
-6706 6715 0
-251 -6706 6707 0
-6707 6716 0
-252 -6707 6708 0
-6708 6717 0
-253 -6708 6709 0
-6709 6718 0
-254 -6709 6710 0
-6710 6719 0
-255 -6710 6711 0
-6711 6720 0
-256 -6711 0
-248 6712 0
-6712 6721 0
-249 -6712 6713 0
-6713 6722 0
-250 -6713 6714 0
-6714 6723 0
-251 -6714 6715 0
-6715 6724 0
-252 -6715 6716 0
-6716 6725 0
-253 -6716 6717 0
-6717 6726 0
-254 -6717 6718 0
-6718 6727 0
-255 -6718 6719 0
-6719 6728 0
-256 -6719 6720 0
-6720 6729 0
-257 -6720 0
-249 6721 0
-6721 6730 0
-250 -6721 6722 0
-6722 6731 0
-251 -6722 6723 0
-6723 6732 0
-252 -6723 6724 0
-6724 6733 0
-253 -6724 6725 0
-6725 6734 0
-254 -6725 6726 0
-6726 6735 0
-255 -6726 6727 0
-6727 6736 0
-256 -6727 6728 0
-6728 6737 0
-257 -6728 6729 0
-6729 6738 0
-258 -6729 0
-250 6730 0
-6730 6739 0
-251 -6730 6731 0
-6731 6740 0
-252 -6731 6732 0
-6732 6741 0
-253 -6732 6733 0
-6733 6742 0
-254 -6733 6734 0
-6734 6743 0
-255 -6734 6735 0
-6735 6744 0
-256 -6735 6736 0
-6736 6745 0
-257 -6736 6737 0
-6737 6746 0
-258 -6737 6738 0
-6738 6747 0
-259 -6738 0
-251 6739 0
-6739 6748 0
-252 -6739 6740 0
-6740 6749 0
-253 -6740 6741 0
-6741 6750 0
-254 -6741 6742 0
-6742 6751 0
-255 -6742 6743 0
-6743 6752 0
-256 -6743 6744 0
-6744 6753 0
-257 -6744 6745 0
-6745 6754 0
-258 -6745 6746 0
-6746 6755 0
-259 -6746 6747 0
-6747 6756 0
-260 -6747 0
-252 6748 0
-6748 6757 0
-253 -6748 6749 0
-6749 6758 0
-254 -6749 6750 0
-6750 6759 0
-255 -6750 6751 0
-6751 6760 0
-256 -6751 6752 0
-6752 6761 0
-257 -6752 6753 0
-6753 6762 0
-258 -6753 6754 0
-6754 6763 0
-259 -6754 6755 0
-6755 6764 0
-260 -6755 6756 0
-6756 6765 0
-261 -6756 0
-253 6757 0
-6757 6766 0
-254 -6757 6758 0
-6758 6767 0
-255 -6758 6759 0
-6759 6768 0
-256 -6759 6760 0
-6760 6769 0
-257 -6760 6761 0
-6761 6770 0
-258 -6761 6762 0
-6762 6771 0
-259 -6762 6763 0
-6763 6772 0
-260 -6763 6764 0
-6764 6773 0
-261 -6764 6765 0
-6765 6774 0
-262 -6765 0
-254 6766 0
-6766 6775 0
-255 -6766 6767 0
-6767 6776 0
-256 -6767 6768 0
-6768 6777 0
-257 -6768 6769 0
-6769 6778 0
-258 -6769 6770 0
-6770 6779 0
-259 -6770 6771 0
-6771 6780 0
-260 -6771 6772 0
-6772 6781 0
-261 -6772 6773 0
-6773 6782 0
-262 -6773 6774 0
-6774 6783 0
-263 -6774 0
-255 6775 0
-6775 6784 0
-256 -6775 6776 0
-6776 6785 0
-257 -6776 6777 0
-6777 6786 0
-258 -6777 6778 0
-6778 6787 0
-259 -6778 6779 0
-6779 6788 0
-260 -6779 6780 0
-6780 6789 0
-261 -6780 6781 0
-6781 6790 0
-262 -6781 6782 0
-6782 6791 0
-263 -6782 6783 0
-6783 6792 0
-264 -6783 0
-256 6784 0
-6784 6793 0
-257 -6784 6785 0
-6785 6794 0
-258 -6785 6786 0
-6786 6795 0
-259 -6786 6787 0
-6787 6796 0
-260 -6787 6788 0
-6788 6797 0
-261 -6788 6789 0
-6789 6798 0
-262 -6789 6790 0
-6790 6799 0
-263 -6790 6791 0
-6791 6800 0
-264 -6791 6792 0
-6792 6801 0
-265 -6792 0
-257 6793 0
-6793 6802 0
-258 -6793 6794 0
-6794 6803 0
-259 -6794 6795 0
-6795 6804 0
-260 -6795 6796 0
-6796 6805 0
-261 -6796 6797 0
-6797 6806 0
-262 -6797 6798 0
-6798 6807 0
-263 -6798 6799 0
-6799 6808 0
-264 -6799 6800 0
-6800 6809 0
-265 -6800 6801 0
-6801 6810 0
-266 -6801 0
-258 6802 0
-6802 6811 0
-259 -6802 6803 0
-6803 6812 0
-260 -6803 6804 0
-6804 6813 0
-261 -6804 6805 0
-6805 6814 0
-262 -6805 6806 0
-6806 6815 0
-263 -6806 6807 0
-6807 6816 0
-264 -6807 6808 0
-6808 6817 0
-265 -6808 6809 0
-6809 6818 0
-266 -6809 6810 0
-6810 6819 0
-267 -6810 0
-259 6811 0
-6811 6820 0
-260 -6811 6812 0
-6812 6821 0
-261 -6812 6813 0
-6813 6822 0
-262 -6813 6814 0
-6814 6823 0
-263 -6814 6815 0
-6815 6824 0
-264 -6815 6816 0
-6816 6825 0
-265 -6816 6817 0
-6817 6826 0
-266 -6817 6818 0
-6818 6827 0
-267 -6818 6819 0
-6819 6828 0
-268 -6819 0
-260 6820 0
-6820 6829 0
-261 -6820 6821 0
-6821 6830 0
-262 -6821 6822 0
-6822 6831 0
-263 -6822 6823 0
-6823 6832 0
-264 -6823 6824 0
-6824 6833 0
-265 -6824 6825 0
-6825 6834 0
-266 -6825 6826 0
-6826 6835 0
-267 -6826 6827 0
-6827 6836 0
-268 -6827 6828 0
-6828 6837 0
-269 -6828 0
-261 6829 0
-6829 6838 0
-262 -6829 6830 0
-6830 6839 0
-263 -6830 6831 0
-6831 6840 0
-264 -6831 6832 0
-6832 6841 0
-265 -6832 6833 0
-6833 6842 0
-266 -6833 6834 0
-6834 6843 0
-267 -6834 6835 0
-6835 6844 0
-268 -6835 6836 0
-6836 6845 0
-269 -6836 6837 0
-6837 6846 0
-270 -6837 0
-262 6838 0
-6838 6847 0
-263 -6838 6839 0
-6839 6848 0
-264 -6839 6840 0
-6840 6849 0
-265 -6840 6841 0
-6841 6850 0
-266 -6841 6842 0
-6842 6851 0
-267 -6842 6843 0
-6843 6852 0
-268 -6843 6844 0
-6844 6853 0
-269 -6844 6845 0
-6845 6854 0
-270 -6845 6846 0
-6846 6855 0
-271 -6846 0
-263 6847 0
-6847 6856 0
-264 -6847 6848 0
-6848 6857 0
-265 -6848 6849 0
-6849 6858 0
-266 -6849 6850 0
-6850 6859 0
-267 -6850 6851 0
-6851 6860 0
-268 -6851 6852 0
-6852 6861 0
-269 -6852 6853 0
-6853 6862 0
-270 -6853 6854 0
-6854 6863 0
-271 -6854 6855 0
-6855 6864 0
-272 -6855 0
-264 6856 0
-6856 6865 0
-265 -6856 6857 0
-6857 6866 0
-266 -6857 6858 0
-6858 6867 0
-267 -6858 6859 0
-6859 6868 0
-268 -6859 6860 0
-6860 6869 0
-269 -6860 6861 0
-6861 6870 0
-270 -6861 6862 0
-6862 6871 0
-271 -6862 6863 0
-6863 6872 0
-272 -6863 6864 0
-6864 6873 0
-273 -6864 0
-265 6865 0
-6865 6874 0
-266 -6865 6866 0
-6866 6875 0
-267 -6866 6867 0
-6867 6876 0
-268 -6867 6868 0
-6868 6877 0
-269 -6868 6869 0
-6869 6878 0
-270 -6869 6870 0
-6870 6879 0
-271 -6870 6871 0
-6871 6880 0
-272 -6871 6872 0
-6872 6881 0
-273 -6872 6873 0
-6873 6882 0
-274 -6873 0
-266 6874 0
-6874 6883 0
-267 -6874 6875 0
-6875 6884 0
-268 -6875 6876 0
-6876 6885 0
-269 -6876 6877 0
-6877 6886 0
-270 -6877 6878 0
-6878 6887 0
-271 -6878 6879 0
-6879 6888 0
-272 -6879 6880 0
-6880 6889 0
-273 -6880 6881 0
-6881 6890 0
-274 -6881 6882 0
-6882 6891 0
-275 -6882 0
-267 6883 0
-6883 6892 0
-268 -6883 6884 0
-6884 6893 0
-269 -6884 6885 0
-6885 6894 0
-270 -6885 6886 0
-6886 6895 0
-271 -6886 6887 0
-6887 6896 0
-272 -6887 6888 0
-6888 6897 0
-273 -6888 6889 0
-6889 6898 0
-274 -6889 6890 0
-6890 6899 0
-275 -6890 6891 0
-6891 6900 0
-276 -6891 0
-268 6892 0
-6892 6901 0
-269 -6892 6893 0
-6893 6902 0
-270 -6893 6894 0
-6894 6903 0
-271 -6894 6895 0
-6895 6904 0
-272 -6895 6896 0
-6896 6905 0
-273 -6896 6897 0
-6897 6906 0
-274 -6897 6898 0
-6898 6907 0
-275 -6898 6899 0
-6899 6908 0
-276 -6899 6900 0
-6900 6909 0
-277 -6900 0
-269 6901 0
-6901 6910 0
-270 -6901 6902 0
-6902 6911 0
-271 -6902 6903 0
-6903 6912 0
-272 -6903 6904 0
-6904 6913 0
-273 -6904 6905 0
-6905 6914 0
-274 -6905 6906 0
-6906 6915 0
-275 -6906 6907 0
-6907 6916 0
-276 -6907 6908 0
-6908 6917 0
-277 -6908 6909 0
-6909 6918 0
-278 -6909 0
-270 6910 0
-6910 6919 0
-271 -6910 6911 0
-6911 6920 0
-272 -6911 6912 0
-6912 6921 0
-273 -6912 6913 0
-6913 6922 0
-274 -6913 6914 0
-6914 6923 0
-275 -6914 6915 0
-6915 6924 0
-276 -6915 6916 0
-6916 6925 0
-277 -6916 6917 0
-6917 6926 0
-278 -6917 6918 0
-6918 6927 0
-279 -6918 0
-271 6919 0
-6919 6928 0
-272 -6919 6920 0
-6920 6929 0
-273 -6920 6921 0
-6921 6930 0
-274 -6921 6922 0
-6922 6931 0
-275 -6922 6923 0
-6923 6932 0
-276 -6923 6924 0
-6924 6933 0
-277 -6924 6925 0
-6925 6934 0
-278 -6925 6926 0
-6926 6935 0
-279 -6926 6927 0
-6927 6936 0
-280 -6927 0
-272 6928 0
-6928 6937 0
-273 -6928 6929 0
-6929 6938 0
-274 -6929 6930 0
-6930 6939 0
-275 -6930 6931 0
-6931 6940 0
-276 -6931 6932 0
-6932 6941 0
-277 -6932 6933 0
-6933 6942 0
-278 -6933 6934 0
-6934 6943 0
-279 -6934 6935 0
-6935 6944 0
-280 -6935 6936 0
-6936 6945 0
-281 -6936 0
-273 6937 0
-6937 6946 0
-274 -6937 6938 0
-6938 6947 0
-275 -6938 6939 0
-6939 6948 0
-276 -6939 6940 0
-6940 6949 0
-277 -6940 6941 0
-6941 6950 0
-278 -6941 6942 0
-6942 6951 0
-279 -6942 6943 0
-6943 6952 0
-280 -6943 6944 0
-6944 6953 0
-281 -6944 6945 0
-6945 6954 0
-282 -6945 0
-274 6946 0
-6946 6955 0
-275 -6946 6947 0
-6947 6956 0
-276 -6947 6948 0
-6948 6957 0
-277 -6948 6949 0
-6949 6958 0
-278 -6949 6950 0
-6950 6959 0
-279 -6950 6951 0
-6951 6960 0
-280 -6951 6952 0
-6952 6961 0
-281 -6952 6953 0
-6953 6962 0
-282 -6953 6954 0
-6954 6963 0
-283 -6954 0
-275 6955 0
-6955 6964 0
-276 -6955 6956 0
-6956 6965 0
-277 -6956 6957 0
-6957 6966 0
-278 -6957 6958 0
-6958 6967 0
-279 -6958 6959 0
-6959 6968 0
-280 -6959 6960 0
-6960 6969 0
-281 -6960 6961 0
-6961 6970 0
-282 -6961 6962 0
-6962 6971 0
-283 -6962 6963 0
-6963 6972 0
-284 -6963 0
-276 6964 0
-6964 6973 0
-277 -6964 6965 0
-6965 6974 0
-278 -6965 6966 0
-6966 6975 0
-279 -6966 6967 0
-6967 6976 0
-280 -6967 6968 0
-6968 6977 0
-281 -6968 6969 0
-6969 6978 0
-282 -6969 6970 0
-6970 6979 0
-283 -6970 6971 0
-6971 6980 0
-284 -6971 6972 0
-6972 6981 0
-285 -6972 0
-277 6973 0
-6973 6982 0
-278 -6973 6974 0
-6974 6983 0
-279 -6974 6975 0
-6975 6984 0
-280 -6975 6976 0
-6976 6985 0
-281 -6976 6977 0
-6977 6986 0
-282 -6977 6978 0
-6978 6987 0
-283 -6978 6979 0
-6979 6988 0
-284 -6979 6980 0
-6980 6989 0
-285 -6980 6981 0
-6981 6990 0
-286 -6981 0
-278 6982 0
-6982 6991 0
-279 -6982 6983 0
-6983 6992 0
-280 -6983 6984 0
-6984 6993 0
-281 -6984 6985 0
-6985 6994 0
-282 -6985 6986 0
-6986 6995 0
-283 -6986 6987 0
-6987 6996 0
-284 -6987 6988 0
-6988 6997 0
-285 -6988 6989 0
-6989 6998 0
-286 -6989 6990 0
-6990 6999 0
-287 -6990 0
-279 6991 0
-6991 7000 0
-280 -6991 6992 0
-6992 7001 0
-281 -6992 6993 0
-6993 7002 0
-282 -6993 6994 0
-6994 7003 0
-283 -6994 6995 0
-6995 7004 0
-284 -6995 6996 0
-6996 7005 0
-285 -6996 6997 0
-6997 7006 0
-286 -6997 6998 0
-6998 7007 0
-287 -6998 6999 0
-6999 7008 0
-288 -6999 0
-280 7000 0
-7000 7009 0
-281 -7000 7001 0
-7001 7010 0
-282 -7001 7002 0
-7002 7011 0
-283 -7002 7003 0
-7003 7012 0
-284 -7003 7004 0
-7004 7013 0
-285 -7004 7005 0
-7005 7014 0
-286 -7005 7006 0
-7006 7015 0
-287 -7006 7007 0
-7007 7016 0
-288 -7007 7008 0
-7008 7017 0
-289 -7008 0
-281 7009 0
-7009 7018 0
-282 -7009 7010 0
-7010 7019 0
-283 -7010 7011 0
-7011 7020 0
-284 -7011 7012 0
-7012 7021 0
-285 -7012 7013 0
-7013 7022 0
-286 -7013 7014 0
-7014 7023 0
-287 -7014 7015 0
-7015 7024 0
-288 -7015 7016 0
-7016 7025 0
-289 -7016 7017 0
-7017 7026 0
-290 -7017 0
-282 7018 0
-7018 7027 0
-283 -7018 7019 0
-7019 7028 0
-284 -7019 7020 0
-7020 7029 0
-285 -7020 7021 0
-7021 7030 0
-286 -7021 7022 0
-7022 7031 0
-287 -7022 7023 0
-7023 7032 0
-288 -7023 7024 0
-7024 7033 0
-289 -7024 7025 0
-7025 7034 0
-290 -7025 7026 0
-7026 7035 0
-291 -7026 0
-283 7027 0
-7027 7036 0
-284 -7027 7028 0
-7028 7037 0
-285 -7028 7029 0
-7029 7038 0
-286 -7029 7030 0
-7030 7039 0
-287 -7030 7031 0
-7031 7040 0
-288 -7031 7032 0
-7032 7041 0
-289 -7032 7033 0
-7033 7042 0
-290 -7033 7034 0
-7034 7043 0
-291 -7034 7035 0
-7035 7044 0
-292 -7035 0
-284 7036 0
-7036 7045 0
-285 -7036 7037 0
-7037 7046 0
-286 -7037 7038 0
-7038 7047 0
-287 -7038 7039 0
-7039 7048 0
-288 -7039 7040 0
-7040 7049 0
-289 -7040 7041 0
-7041 7050 0
-290 -7041 7042 0
-7042 7051 0
-291 -7042 7043 0
-7043 7052 0
-292 -7043 7044 0
-7044 7053 0
-293 -7044 0
-285 7045 0
-7045 7054 0
-286 -7045 7046 0
-7046 7055 0
-287 -7046 7047 0
-7047 7056 0
-288 -7047 7048 0
-7048 7057 0
-289 -7048 7049 0
-7049 7058 0
-290 -7049 7050 0
-7050 7059 0
-291 -7050 7051 0
-7051 7060 0
-292 -7051 7052 0
-7052 7061 0
-293 -7052 7053 0
-7053 7062 0
-294 -7053 0
-286 7054 0
-7054 7063 0
-287 -7054 7055 0
-7055 7064 0
-288 -7055 7056 0
-7056 7065 0
-289 -7056 7057 0
-7057 7066 0
-290 -7057 7058 0
-7058 7067 0
-291 -7058 7059 0
-7059 7068 0
-292 -7059 7060 0
-7060 7069 0
-293 -7060 7061 0
-7061 7070 0
-294 -7061 7062 0
-7062 7071 0
-295 -7062 0
-287 7063 0
-7063 7072 0
-288 -7063 7064 0
-7064 7073 0
-289 -7064 7065 0
-7065 7074 0
-290 -7065 7066 0
-7066 7075 0
-291 -7066 7067 0
-7067 7076 0
-292 -7067 7068 0
-7068 7077 0
-293 -7068 7069 0
-7069 7078 0
-294 -7069 7070 0
-7070 7079 0
-295 -7070 7071 0
-7071 7080 0
-296 -7071 0
-288 7072 0
-7072 7081 0
-289 -7072 7073 0
-7073 7082 0
-290 -7073 7074 0
-7074 7083 0
-291 -7074 7075 0
-7075 7084 0
-292 -7075 7076 0
-7076 7085 0
-293 -7076 7077 0
-7077 7086 0
-294 -7077 7078 0
-7078 7087 0
-295 -7078 7079 0
-7079 7088 0
-296 -7079 7080 0
-7080 7089 0
-297 -7080 0
-289 7081 0
-7081 7090 0
-290 -7081 7082 0
-7082 7091 0
-291 -7082 7083 0
-7083 7092 0
-292 -7083 7084 0
-7084 7093 0
-293 -7084 7085 0
-7085 7094 0
-294 -7085 7086 0
-7086 7095 0
-295 -7086 7087 0
-7087 7096 0
-296 -7087 7088 0
-7088 7097 0
-297 -7088 7089 0
-7089 7098 0
-298 -7089 0
-290 7090 0
-7090 7099 0
-291 -7090 7091 0
-7091 7100 0
-292 -7091 7092 0
-7092 7101 0
-293 -7092 7093 0
-7093 7102 0
-294 -7093 7094 0
-7094 7103 0
-295 -7094 7095 0
-7095 7104 0
-296 -7095 7096 0
-7096 7105 0
-297 -7096 7097 0
-7097 7106 0
-298 -7097 7098 0
-7098 7107 0
-299 -7098 0
-291 7099 0
-7099 7108 0
-292 -7099 7100 0
-7100 7109 0
-293 -7100 7101 0
-7101 7110 0
-294 -7101 7102 0
-7102 7111 0
-295 -7102 7103 0
-7103 7112 0
-296 -7103 7104 0
-7104 7113 0
-297 -7104 7105 0
-7105 7114 0
-298 -7105 7106 0
-7106 7115 0
-299 -7106 7107 0
-7107 7116 0
-300 -7107 0
-292 7108 0
-7108 7117 0
-293 -7108 7109 0
-7109 7118 0
-294 -7109 7110 0
-7110 7119 0
-295 -7110 7111 0
-7111 7120 0
-296 -7111 7112 0
-7112 7121 0
-297 -7112 7113 0
-7113 7122 0
-298 -7113 7114 0
-7114 7123 0
-299 -7114 7115 0
-7115 7124 0
-300 -7115 7116 0
-7116 7125 0
-301 -7116 0
-293 7117 0
-7117 7126 0
-294 -7117 7118 0
-7118 7127 0
-295 -7118 7119 0
-7119 7128 0
-296 -7119 7120 0
-7120 7129 0
-297 -7120 7121 0
-7121 7130 0
-298 -7121 7122 0
-7122 7131 0
-299 -7122 7123 0
-7123 7132 0
-300 -7123 7124 0
-7124 7133 0
-301 -7124 7125 0
-7125 7134 0
-302 -7125 0
-294 7126 0
-7126 7135 0
-295 -7126 7127 0
-7127 7136 0
-296 -7127 7128 0
-7128 7137 0
-297 -7128 7129 0
-7129 7138 0
-298 -7129 7130 0
-7130 7139 0
-299 -7130 7131 0
-7131 7140 0
-300 -7131 7132 0
-7132 7141 0
-301 -7132 7133 0
-7133 7142 0
-302 -7133 7134 0
-7134 7143 0
-303 -7134 0
-295 7135 0
-7135 7144 0
-296 -7135 7136 0
-7136 7145 0
-297 -7136 7137 0
-7137 7146 0
-298 -7137 7138 0
-7138 7147 0
-299 -7138 7139 0
-7139 7148 0
-300 -7139 7140 0
-7140 7149 0
-301 -7140 7141 0
-7141 7150 0
-302 -7141 7142 0
-7142 7151 0
-303 -7142 7143 0
-7143 7152 0
-304 -7143 0
-296 7144 0
-7144 7153 0
-297 -7144 7145 0
-7145 7154 0
-298 -7145 7146 0
-7146 7155 0
-299 -7146 7147 0
-7147 7156 0
-300 -7147 7148 0
-7148 7157 0
-301 -7148 7149 0
-7149 7158 0
-302 -7149 7150 0
-7150 7159 0
-303 -7150 7151 0
-7151 7160 0
-304 -7151 7152 0
-7152 7161 0
-305 -7152 0
-297 7153 0
-7153 7162 0
-298 -7153 7154 0
-7154 7163 0
-299 -7154 7155 0
-7155 7164 0
-300 -7155 7156 0
-7156 7165 0
-301 -7156 7157 0
-7157 7166 0
-302 -7157 7158 0
-7158 7167 0
-303 -7158 7159 0
-7159 7168 0
-304 -7159 7160 0
-7160 7169 0
-305 -7160 7161 0
-7161 7170 0
-306 -7161 0
-298 7162 0
-7162 7171 0
-299 -7162 7163 0
-7163 7172 0
-300 -7163 7164 0
-7164 7173 0
-301 -7164 7165 0
-7165 7174 0
-302 -7165 7166 0
-7166 7175 0
-303 -7166 7167 0
-7167 7176 0
-304 -7167 7168 0
-7168 7177 0
-305 -7168 7169 0
-7169 7178 0
-306 -7169 7170 0
-7170 7179 0
-307 -7170 0
-299 7171 0
-7171 7180 0
-300 -7171 7172 0
-7172 7181 0
-301 -7172 7173 0
-7173 7182 0
-302 -7173 7174 0
-7174 7183 0
-303 -7174 7175 0
-7175 7184 0
-304 -7175 7176 0
-7176 7185 0
-305 -7176 7177 0
-7177 7186 0
-306 -7177 7178 0
-7178 7187 0
-307 -7178 7179 0
-7179 7188 0
-308 -7179 0
-300 7180 0
-7180 7189 0
-301 -7180 7181 0
-7181 7190 0
-302 -7181 7182 0
-7182 7191 0
-303 -7182 7183 0
-7183 7192 0
-304 -7183 7184 0
-7184 7193 0
-305 -7184 7185 0
-7185 7194 0
-306 -7185 7186 0
-7186 7195 0
-307 -7186 7187 0
-7187 7196 0
-308 -7187 7188 0
-7188 7197 0
-309 -7188 0
-301 7189 0
-7189 7198 0
-302 -7189 7190 0
-7190 7199 0
-303 -7190 7191 0
-7191 7200 0
-304 -7191 7192 0
-7192 7201 0
-305 -7192 7193 0
-7193 7202 0
-306 -7193 7194 0
-7194 7203 0
-307 -7194 7195 0
-7195 7204 0
-308 -7195 7196 0
-7196 7205 0
-309 -7196 7197 0
-7197 7206 0
-310 -7197 0
-302 7198 0
-7198 7207 0
-303 -7198 7199 0
-7199 7208 0
-304 -7199 7200 0
-7200 7209 0
-305 -7200 7201 0
-7201 7210 0
-306 -7201 7202 0
-7202 7211 0
-307 -7202 7203 0
-7203 7212 0
-308 -7203 7204 0
-7204 7213 0
-309 -7204 7205 0
-7205 7214 0
-310 -7205 7206 0
-7206 7215 0
-311 -7206 0
-303 7207 0
-7207 7216 0
-304 -7207 7208 0
-7208 7217 0
-305 -7208 7209 0
-7209 7218 0
-306 -7209 7210 0
-7210 7219 0
-307 -7210 7211 0
-7211 7220 0
-308 -7211 7212 0
-7212 7221 0
-309 -7212 7213 0
-7213 7222 0
-310 -7213 7214 0
-7214 7223 0
-311 -7214 7215 0
-7215 7224 0
-312 -7215 0
-304 7216 0
-7216 7225 0
-305 -7216 7217 0
-7217 7226 0
-306 -7217 7218 0
-7218 7227 0
-307 -7218 7219 0
-7219 7228 0
-308 -7219 7220 0
-7220 7229 0
-309 -7220 7221 0
-7221 7230 0
-310 -7221 7222 0
-7222 7231 0
-311 -7222 7223 0
-7223 7232 0
-312 -7223 7224 0
-7224 7233 0
-313 -7224 0
-305 7225 0
-7225 7234 0
-306 -7225 7226 0
-7226 7235 0
-307 -7226 7227 0
-7227 7236 0
-308 -7227 7228 0
-7228 7237 0
-309 -7228 7229 0
-7229 7238 0
-310 -7229 7230 0
-7230 7239 0
-311 -7230 7231 0
-7231 7240 0
-312 -7231 7232 0
-7232 7241 0
-313 -7232 7233 0
-7233 7242 0
-314 -7233 0
-306 7234 0
-7234 7243 0
-307 -7234 7235 0
-7235 7244 0
-308 -7235 7236 0
-7236 7245 0
-309 -7236 7237 0
-7237 7246 0
-310 -7237 7238 0
-7238 7247 0
-311 -7238 7239 0
-7239 7248 0
-312 -7239 7240 0
-7240 7249 0
-313 -7240 7241 0
-7241 7250 0
-314 -7241 7242 0
-7242 7251 0
-315 -7242 0
-307 7243 0
-7243 7252 0
-308 -7243 7244 0
-7244 7253 0
-309 -7244 7245 0
-7245 7254 0
-310 -7245 7246 0
-7246 7255 0
-311 -7246 7247 0
-7247 7256 0
-312 -7247 7248 0
-7248 7257 0
-313 -7248 7249 0
-7249 7258 0
-314 -7249 7250 0
-7250 7259 0
-315 -7250 7251 0
-7251 7260 0
-316 -7251 0
-308 7252 0
-7252 7261 0
-309 -7252 7253 0
-7253 7262 0
-310 -7253 7254 0
-7254 7263 0
-311 -7254 7255 0
-7255 7264 0
-312 -7255 7256 0
-7256 7265 0
-313 -7256 7257 0
-7257 7266 0
-314 -7257 7258 0
-7258 7267 0
-315 -7258 7259 0
-7259 7268 0
-316 -7259 7260 0
-7260 7269 0
-317 -7260 0
-309 7261 0
-7261 7270 0
-310 -7261 7262 0
-7262 7271 0
-311 -7262 7263 0
-7263 7272 0
-312 -7263 7264 0
-7264 7273 0
-313 -7264 7265 0
-7265 7274 0
-314 -7265 7266 0
-7266 7275 0
-315 -7266 7267 0
-7267 7276 0
-316 -7267 7268 0
-7268 7277 0
-317 -7268 7269 0
-7269 7278 0
-318 -7269 0
-310 7270 0
-7270 7279 0
-311 -7270 7271 0
-7271 7280 0
-312 -7271 7272 0
-7272 7281 0
-313 -7272 7273 0
-7273 7282 0
-314 -7273 7274 0
-7274 7283 0
-315 -7274 7275 0
-7275 7284 0
-316 -7275 7276 0
-7276 7285 0
-317 -7276 7277 0
-7277 7286 0
-318 -7277 7278 0
-7278 7287 0
-319 -7278 0
-311 7279 0
-7279 7288 0
-312 -7279 7280 0
-7280 7289 0
-313 -7280 7281 0
-7281 7290 0
-314 -7281 7282 0
-7282 7291 0
-315 -7282 7283 0
-7283 7292 0
-316 -7283 7284 0
-7284 7293 0
-317 -7284 7285 0
-7285 7294 0
-318 -7285 7286 0
-7286 7295 0
-319 -7286 7287 0
-7287 7296 0
-320 -7287 0
-312 7288 0
-7288 7297 0
-313 -7288 7289 0
-7289 7298 0
-314 -7289 7290 0
-7290 7299 0
-315 -7290 7291 0
-7291 7300 0
-316 -7291 7292 0
-7292 7301 0
-317 -7292 7293 0
-7293 7302 0
-318 -7293 7294 0
-7294 7303 0
-319 -7294 7295 0
-7295 7304 0
-320 -7295 7296 0
-7296 7305 0
-321 -7296 0
-313 7297 0
-7297 7306 0
-314 -7297 7298 0
-7298 7307 0
-315 -7298 7299 0
-7299 7308 0
-316 -7299 7300 0
-7300 7309 0
-317 -7300 7301 0
-7301 7310 0
-318 -7301 7302 0
-7302 7311 0
-319 -7302 7303 0
-7303 7312 0
-320 -7303 7304 0
-7304 7313 0
-321 -7304 7305 0
-7305 7314 0
-322 -7305 0
-314 7306 0
-7306 7315 0
-315 -7306 7307 0
-7307 7316 0
-316 -7307 7308 0
-7308 7317 0
-317 -7308 7309 0
-7309 7318 0
-318 -7309 7310 0
-7310 7319 0
-319 -7310 7311 0
-7311 7320 0
-320 -7311 7312 0
-7312 7321 0
-321 -7312 7313 0
-7313 7322 0
-322 -7313 7314 0
-7314 7323 0
-323 -7314 0
-315 7315 0
-7315 7324 0
-316 -7315 7316 0
-7316 7325 0
-317 -7316 7317 0
-7317 7326 0
-318 -7317 7318 0
-7318 7327 0
-319 -7318 7319 0
-7319 7328 0
-320 -7319 7320 0
-7320 7329 0
-321 -7320 7321 0
-7321 7330 0
-322 -7321 7322 0
-7322 7331 0
-323 -7322 7323 0
-7323 7332 0
-324 -7323 0
-316 7324 0
-7324 7333 0
-317 -7324 7325 0
-7325 7334 0
-318 -7325 7326 0
-7326 7335 0
-319 -7326 7327 0
-7327 7336 0
-320 -7327 7328 0
-7328 7337 0
-321 -7328 7329 0
-7329 7338 0
-322 -7329 7330 0
-7330 7339 0
-323 -7330 7331 0
-7331 7340 0
-324 -7331 7332 0
-7332 7341 0
-325 -7332 0
-317 7333 0
-7333 7342 0
-318 -7333 7334 0
-7334 7343 0
-319 -7334 7335 0
-7335 7344 0
-320 -7335 7336 0
-7336 7345 0
-321 -7336 7337 0
-7337 7346 0
-322 -7337 7338 0
-7338 7347 0
-323 -7338 7339 0
-7339 7348 0
-324 -7339 7340 0
-7340 7349 0
-325 -7340 7341 0
-7341 7350 0
-326 -7341 0
-318 7342 0
-7342 7351 0
-319 -7342 7343 0
-7343 7352 0
-320 -7343 7344 0
-7344 7353 0
-321 -7344 7345 0
-7345 7354 0
-322 -7345 7346 0
-7346 7355 0
-323 -7346 7347 0
-7347 7356 0
-324 -7347 7348 0
-7348 7357 0
-325 -7348 7349 0
-7349 7358 0
-326 -7349 7350 0
-7350 7359 0
-327 -7350 0
-319 7351 0
-7351 7360 0
-320 -7351 7352 0
-7352 7361 0
-321 -7352 7353 0
-7353 7362 0
-322 -7353 7354 0
-7354 7363 0
-323 -7354 7355 0
-7355 7364 0
-324 -7355 7356 0
-7356 7365 0
-325 -7356 7357 0
-7357 7366 0
-326 -7357 7358 0
-7358 7367 0
-327 -7358 7359 0
-7359 7368 0
-328 -7359 0
-320 7360 0
-7360 7369 0
-321 -7360 7361 0
-7361 7370 0
-322 -7361 7362 0
-7362 7371 0
-323 -7362 7363 0
-7363 7372 0
-324 -7363 7364 0
-7364 7373 0
-325 -7364 7365 0
-7365 7374 0
-326 -7365 7366 0
-7366 7375 0
-327 -7366 7367 0
-7367 7376 0
-328 -7367 7368 0
-7368 7377 0
-329 -7368 0
-321 7369 0
-7369 7378 0
-322 -7369 7370 0
-7370 7379 0
-323 -7370 7371 0
-7371 7380 0
-324 -7371 7372 0
-7372 7381 0
-325 -7372 7373 0
-7373 7382 0
-326 -7373 7374 0
-7374 7383 0
-327 -7374 7375 0
-7375 7384 0
-328 -7375 7376 0
-7376 7385 0
-329 -7376 7377 0
-7377 7386 0
-330 -7377 0
-322 7378 0
-7378 7387 0
-323 -7378 7379 0
-7379 7388 0
-324 -7379 7380 0
-7380 7389 0
-325 -7380 7381 0
-7381 7390 0
-326 -7381 7382 0
-7382 7391 0
-327 -7382 7383 0
-7383 7392 0
-328 -7383 7384 0
-7384 7393 0
-329 -7384 7385 0
-7385 7394 0
-330 -7385 7386 0
-7386 7395 0
-331 -7386 0
-323 7387 0
-7387 7396 0
-324 -7387 7388 0
-7388 7397 0
-325 -7388 7389 0
-7389 7398 0
-326 -7389 7390 0
-7390 7399 0
-327 -7390 7391 0
-7391 7400 0
-328 -7391 7392 0
-7392 7401 0
-329 -7392 7393 0
-7393 7402 0
-330 -7393 7394 0
-7394 7403 0
-331 -7394 7395 0
-7395 7404 0
-332 -7395 0
-324 7396 0
-7396 7405 0
-325 -7396 7397 0
-7397 7406 0
-326 -7397 7398 0
-7398 7407 0
-327 -7398 7399 0
-7399 7408 0
-328 -7399 7400 0
-7400 7409 0
-329 -7400 7401 0
-7401 7410 0
-330 -7401 7402 0
-7402 7411 0
-331 -7402 7403 0
-7403 7412 0
-332 -7403 7404 0
-7404 7413 0
-333 -7404 0
-325 7405 0
-7405 7414 0
-326 -7405 7406 0
-7406 7415 0
-327 -7406 7407 0
-7407 7416 0
-328 -7407 7408 0
-7408 7417 0
-329 -7408 7409 0
-7409 7418 0
-330 -7409 7410 0
-7410 7419 0
-331 -7410 7411 0
-7411 7420 0
-332 -7411 7412 0
-7412 7421 0
-333 -7412 7413 0
-7413 7422 0
-334 -7413 0
-326 7414 0
-7414 7423 0
-327 -7414 7415 0
-7415 7424 0
-328 -7415 7416 0
-7416 7425 0
-329 -7416 7417 0
-7417 7426 0
-330 -7417 7418 0
-7418 7427 0
-331 -7418 7419 0
-7419 7428 0
-332 -7419 7420 0
-7420 7429 0
-333 -7420 7421 0
-7421 7430 0
-334 -7421 7422 0
-7422 7431 0
-335 -7422 0
-327 7423 0
-7423 7432 0
-328 -7423 7424 0
-7424 7433 0
-329 -7424 7425 0
-7425 7434 0
-330 -7425 7426 0
-7426 7435 0
-331 -7426 7427 0
-7427 7436 0
-332 -7427 7428 0
-7428 7437 0
-333 -7428 7429 0
-7429 7438 0
-334 -7429 7430 0
-7430 7439 0
-335 -7430 7431 0
-7431 7440 0
-336 -7431 0
-328 7432 0
-7432 7441 0
-329 -7432 7433 0
-7433 7442 0
-330 -7433 7434 0
-7434 7443 0
-331 -7434 7435 0
-7435 7444 0
-332 -7435 7436 0
-7436 7445 0
-333 -7436 7437 0
-7437 7446 0
-334 -7437 7438 0
-7438 7447 0
-335 -7438 7439 0
-7439 7448 0
-336 -7439 7440 0
-7440 7449 0
-337 -7440 0
-329 7441 0
-7441 7450 0
-330 -7441 7442 0
-7442 7451 0
-331 -7442 7443 0
-7443 7452 0
-332 -7443 7444 0
-7444 7453 0
-333 -7444 7445 0
-7445 7454 0
-334 -7445 7446 0
-7446 7455 0
-335 -7446 7447 0
-7447 7456 0
-336 -7447 7448 0
-7448 7457 0
-337 -7448 7449 0
-7449 7458 0
-338 -7449 0
-330 7450 0
-7450 7459 0
-331 -7450 7451 0
-7451 7460 0
-332 -7451 7452 0
-7452 7461 0
-333 -7452 7453 0
-7453 7462 0
-334 -7453 7454 0
-7454 7463 0
-335 -7454 7455 0
-7455 7464 0
-336 -7455 7456 0
-7456 7465 0
-337 -7456 7457 0
-7457 7466 0
-338 -7457 7458 0
-7458 7467 0
-339 -7458 0
-331 7459 0
-7459 7468 0
-332 -7459 7460 0
-7460 7469 0
-333 -7460 7461 0
-7461 7470 0
-334 -7461 7462 0
-7462 7471 0
-335 -7462 7463 0
-7463 7472 0
-336 -7463 7464 0
-7464 7473 0
-337 -7464 7465 0
-7465 7474 0
-338 -7465 7466 0
-7466 7475 0
-339 -7466 7467 0
-7467 7476 0
-340 -7467 0
-332 7468 0
-7468 7477 0
-333 -7468 7469 0
-7469 7478 0
-334 -7469 7470 0
-7470 7479 0
-335 -7470 7471 0
-7471 7480 0
-336 -7471 7472 0
-7472 7481 0
-337 -7472 7473 0
-7473 7482 0
-338 -7473 7474 0
-7474 7483 0
-339 -7474 7475 0
-7475 7484 0
-340 -7475 7476 0
-7476 7485 0
-341 -7476 0
-333 7477 0
-7477 7486 0
-334 -7477 7478 0
-7478 7487 0
-335 -7478 7479 0
-7479 7488 0
-336 -7479 7480 0
-7480 7489 0
-337 -7480 7481 0
-7481 7490 0
-338 -7481 7482 0
-7482 7491 0
-339 -7482 7483 0
-7483 7492 0
-340 -7483 7484 0
-7484 7493 0
-341 -7484 7485 0
-7485 7494 0
-342 -7485 0
-334 7486 0
-7486 7495 0
-335 -7486 7487 0
-7487 7496 0
-336 -7487 7488 0
-7488 7497 0
-337 -7488 7489 0
-7489 7498 0
-338 -7489 7490 0
-7490 7499 0
-339 -7490 7491 0
-7491 7500 0
-340 -7491 7492 0
-7492 7501 0
-341 -7492 7493 0
-7493 7502 0
-342 -7493 7494 0
-7494 7503 0
-343 -7494 0
-335 7495 0
-7495 7504 0
-336 -7495 7496 0
-7496 7505 0
-337 -7496 7497 0
-7497 7506 0
-338 -7497 7498 0
-7498 7507 0
-339 -7498 7499 0
-7499 7508 0
-340 -7499 7500 0
-7500 7509 0
-341 -7500 7501 0
-7501 7510 0
-342 -7501 7502 0
-7502 7511 0
-343 -7502 7503 0
-7503 7512 0
-344 -7503 0
-336 7504 0
-7504 7513 0
-337 -7504 7505 0
-7505 7514 0
-338 -7505 7506 0
-7506 7515 0
-339 -7506 7507 0
-7507 7516 0
-340 -7507 7508 0
-7508 7517 0
-341 -7508 7509 0
-7509 7518 0
-342 -7509 7510 0
-7510 7519 0
-343 -7510 7511 0
-7511 7520 0
-344 -7511 7512 0
-7512 7521 0
-345 -7512 0
-337 7513 0
-7513 7522 0
-338 -7513 7514 0
-7514 7523 0
-339 -7514 7515 0
-7515 7524 0
-340 -7515 7516 0
-7516 7525 0
-341 -7516 7517 0
-7517 7526 0
-342 -7517 7518 0
-7518 7527 0
-343 -7518 7519 0
-7519 7528 0
-344 -7519 7520 0
-7520 7529 0
-345 -7520 7521 0
-7521 7530 0
-346 -7521 0
-338 7522 0
-7522 7531 0
-339 -7522 7523 0
-7523 7532 0
-340 -7523 7524 0
-7524 7533 0
-341 -7524 7525 0
-7525 7534 0
-342 -7525 7526 0
-7526 7535 0
-343 -7526 7527 0
-7527 7536 0
-344 -7527 7528 0
-7528 7537 0
-345 -7528 7529 0
-7529 7538 0
-346 -7529 7530 0
-7530 7539 0
-347 -7530 0
-339 7531 0
-7531 7540 0
-340 -7531 7532 0
-7532 7541 0
-341 -7532 7533 0
-7533 7542 0
-342 -7533 7534 0
-7534 7543 0
-343 -7534 7535 0
-7535 7544 0
-344 -7535 7536 0
-7536 7545 0
-345 -7536 7537 0
-7537 7546 0
-346 -7537 7538 0
-7538 7547 0
-347 -7538 7539 0
-7539 7548 0
-348 -7539 0
-340 7540 0
-7540 7549 0
-341 -7540 7541 0
-7541 7550 0
-342 -7541 7542 0
-7542 7551 0
-343 -7542 7543 0
-7543 7552 0
-344 -7543 7544 0
-7544 7553 0
-345 -7544 7545 0
-7545 7554 0
-346 -7545 7546 0
-7546 7555 0
-347 -7546 7547 0
-7547 7556 0
-348 -7547 7548 0
-7548 7557 0
-349 -7548 0
-341 7549 0
-7549 7558 0
-342 -7549 7550 0
-7550 7559 0
-343 -7550 7551 0
-7551 7560 0
-344 -7551 7552 0
-7552 7561 0
-345 -7552 7553 0
-7553 7562 0
-346 -7553 7554 0
-7554 7563 0
-347 -7554 7555 0
-7555 7564 0
-348 -7555 7556 0
-7556 7565 0
-349 -7556 7557 0
-7557 7566 0
-350 -7557 0
-342 7558 0
-7558 7567 0
-343 -7558 7559 0
-7559 7568 0
-344 -7559 7560 0
-7560 7569 0
-345 -7560 7561 0
-7561 7570 0
-346 -7561 7562 0
-7562 7571 0
-347 -7562 7563 0
-7563 7572 0
-348 -7563 7564 0
-7564 7573 0
-349 -7564 7565 0
-7565 7574 0
-350 -7565 7566 0
-7566 7575 0
-351 -7566 0
-343 7567 0
-7567 7576 0
-344 -7567 7568 0
-7568 7577 0
-345 -7568 7569 0
-7569 7578 0
-346 -7569 7570 0
-7570 7579 0
-347 -7570 7571 0
-7571 7580 0
-348 -7571 7572 0
-7572 7581 0
-349 -7572 7573 0
-7573 7582 0
-350 -7573 7574 0
-7574 7583 0
-351 -7574 7575 0
-7575 7584 0
-352 -7575 0
-344 7576 0
-7576 7585 0
-345 -7576 7577 0
-7577 7586 0
-346 -7577 7578 0
-7578 7587 0
-347 -7578 7579 0
-7579 7588 0
-348 -7579 7580 0
-7580 7589 0
-349 -7580 7581 0
-7581 7590 0
-350 -7581 7582 0
-7582 7591 0
-351 -7582 7583 0
-7583 7592 0
-352 -7583 7584 0
-7584 7593 0
-353 -7584 0
-345 7585 0
-7585 7594 0
-346 -7585 7586 0
-7586 7595 0
-347 -7586 7587 0
-7587 7596 0
-348 -7587 7588 0
-7588 7597 0
-349 -7588 7589 0
-7589 7598 0
-350 -7589 7590 0
-7590 7599 0
-351 -7590 7591 0
-7591 7600 0
-352 -7591 7592 0
-7592 7601 0
-353 -7592 7593 0
-7593 7602 0
-354 -7593 0
-346 7594 0
-7594 7603 0
-347 -7594 7595 0
-7595 7604 0
-348 -7595 7596 0
-7596 7605 0
-349 -7596 7597 0
-7597 7606 0
-350 -7597 7598 0
-7598 7607 0
-351 -7598 7599 0
-7599 7608 0
-352 -7599 7600 0
-7600 7609 0
-353 -7600 7601 0
-7601 7610 0
-354 -7601 7602 0
-7602 7611 0
-355 -7602 0
-347 7603 0
-7603 7612 0
-348 -7603 7604 0
-7604 7613 0
-349 -7604 7605 0
-7605 7614 0
-350 -7605 7606 0
-7606 7615 0
-351 -7606 7607 0
-7607 7616 0
-352 -7607 7608 0
-7608 7617 0
-353 -7608 7609 0
-7609 7618 0
-354 -7609 7610 0
-7610 7619 0
-355 -7610 7611 0
-7611 7620 0
-356 -7611 0
-348 7612 0
-7612 7621 0
-349 -7612 7613 0
-7613 7622 0
-350 -7613 7614 0
-7614 7623 0
-351 -7614 7615 0
-7615 7624 0
-352 -7615 7616 0
-7616 7625 0
-353 -7616 7617 0
-7617 7626 0
-354 -7617 7618 0
-7618 7627 0
-355 -7618 7619 0
-7619 7628 0
-356 -7619 7620 0
-7620 7629 0
-357 -7620 0
-349 7621 0
-7621 7630 0
-350 -7621 7622 0
-7622 7631 0
-351 -7622 7623 0
-7623 7632 0
-352 -7623 7624 0
-7624 7633 0
-353 -7624 7625 0
-7625 7634 0
-354 -7625 7626 0
-7626 7635 0
-355 -7626 7627 0
-7627 7636 0
-356 -7627 7628 0
-7628 7637 0
-357 -7628 7629 0
-7629 7638 0
-358 -7629 0
-350 7630 0
-7630 7639 0
-351 -7630 7631 0
-7631 7640 0
-352 -7631 7632 0
-7632 7641 0
-353 -7632 7633 0
-7633 7642 0
-354 -7633 7634 0
-7634 7643 0
-355 -7634 7635 0
-7635 7644 0
-356 -7635 7636 0
-7636 7645 0
-357 -7636 7637 0
-7637 7646 0
-358 -7637 7638 0
-7638 7647 0
-359 -7638 0
-351 7639 0
-7639 7648 0
-352 -7639 7640 0
-7640 7649 0
-353 -7640 7641 0
-7641 7650 0
-354 -7641 7642 0
-7642 7651 0
-355 -7642 7643 0
-7643 7652 0
-356 -7643 7644 0
-7644 7653 0
-357 -7644 7645 0
-7645 7654 0
-358 -7645 7646 0
-7646 7655 0
-359 -7646 7647 0
-7647 7656 0
-360 -7647 0
-352 7648 0
-7648 7657 0
-353 -7648 7649 0
-7649 7658 0
-354 -7649 7650 0
-7650 7659 0
-355 -7650 7651 0
-7651 7660 0
-356 -7651 7652 0
-7652 7661 0
-357 -7652 7653 0
-7653 7662 0
-358 -7653 7654 0
-7654 7663 0
-359 -7654 7655 0
-7655 7664 0
-360 -7655 7656 0
-7656 7665 0
-361 -7656 0
-353 7657 0
-7657 7666 0
-354 -7657 7658 0
-7658 7667 0
-355 -7658 7659 0
-7659 7668 0
-356 -7659 7660 0
-7660 7669 0
-357 -7660 7661 0
-7661 7670 0
-358 -7661 7662 0
-7662 7671 0
-359 -7662 7663 0
-7663 7672 0
-360 -7663 7664 0
-7664 7673 0
-361 -7664 7665 0
-7665 7674 0
-362 -7665 0
-354 7666 0
-7666 7675 0
-355 -7666 7667 0
-7667 7676 0
-356 -7667 7668 0
-7668 7677 0
-357 -7668 7669 0
-7669 7678 0
-358 -7669 7670 0
-7670 7679 0
-359 -7670 7671 0
-7671 7680 0
-360 -7671 7672 0
-7672 7681 0
-361 -7672 7673 0
-7673 7682 0
-362 -7673 7674 0
-7674 7683 0
-363 -7674 0
-355 7675 0
-7675 7684 0
-356 -7675 7676 0
-7676 7685 0
-357 -7676 7677 0
-7677 7686 0
-358 -7677 7678 0
-7678 7687 0
-359 -7678 7679 0
-7679 7688 0
-360 -7679 7680 0
-7680 7689 0
-361 -7680 7681 0
-7681 7690 0
-362 -7681 7682 0
-7682 7691 0
-363 -7682 7683 0
-7683 7692 0
-364 -7683 0
-356 7684 0
-7684 7693 0
-357 -7684 7685 0
-7685 7694 0
-358 -7685 7686 0
-7686 7695 0
-359 -7686 7687 0
-7687 7696 0
-360 -7687 7688 0
-7688 7697 0
-361 -7688 7689 0
-7689 7698 0
-362 -7689 7690 0
-7690 7699 0
-363 -7690 7691 0
-7691 7700 0
-364 -7691 7692 0
-7692 7701 0
-365 -7692 0
-357 7693 0
-7693 7702 0
-358 -7693 7694 0
-7694 7703 0
-359 -7694 7695 0
-7695 7704 0
-360 -7695 7696 0
-7696 7705 0
-361 -7696 7697 0
-7697 7706 0
-362 -7697 7698 0
-7698 7707 0
-363 -7698 7699 0
-7699 7708 0
-364 -7699 7700 0
-7700 7709 0
-365 -7700 7701 0
-7701 7710 0
-366 -7701 0
-358 7702 0
-7702 7711 0
-359 -7702 7703 0
-7703 7712 0
-360 -7703 7704 0
-7704 7713 0
-361 -7704 7705 0
-7705 7714 0
-362 -7705 7706 0
-7706 7715 0
-363 -7706 7707 0
-7707 7716 0
-364 -7707 7708 0
-7708 7717 0
-365 -7708 7709 0
-7709 7718 0
-366 -7709 7710 0
-7710 7719 0
-367 -7710 0
-359 7711 0
-7711 7720 0
-360 -7711 7712 0
-7712 7721 0
-361 -7712 7713 0
-7713 7722 0
-362 -7713 7714 0
-7714 7723 0
-363 -7714 7715 0
-7715 7724 0
-364 -7715 7716 0
-7716 7725 0
-365 -7716 7717 0
-7717 7726 0
-366 -7717 7718 0
-7718 7727 0
-367 -7718 7719 0
-7719 7728 0
-368 -7719 0
-360 7720 0
-7720 7729 0
-361 -7720 7721 0
-7721 7730 0
-362 -7721 7722 0
-7722 7731 0
-363 -7722 7723 0
-7723 7732 0
-364 -7723 7724 0
-7724 7733 0
-365 -7724 7725 0
-7725 7734 0
-366 -7725 7726 0
-7726 7735 0
-367 -7726 7727 0
-7727 7736 0
-368 -7727 7728 0
-7728 7737 0
-369 -7728 0
-361 7729 0
-7729 7738 0
-362 -7729 7730 0
-7730 7739 0
-363 -7730 7731 0
-7731 7740 0
-364 -7731 7732 0
-7732 7741 0
-365 -7732 7733 0
-7733 7742 0
-366 -7733 7734 0
-7734 7743 0
-367 -7734 7735 0
-7735 7744 0
-368 -7735 7736 0
-7736 7745 0
-369 -7736 7737 0
-7737 7746 0
-370 -7737 0
-362 7738 0
-7738 7747 0
-363 -7738 7739 0
-7739 7748 0
-364 -7739 7740 0
-7740 7749 0
-365 -7740 7741 0
-7741 7750 0
-366 -7741 7742 0
-7742 7751 0
-367 -7742 7743 0
-7743 7752 0
-368 -7743 7744 0
-7744 7753 0
-369 -7744 7745 0
-7745 7754 0
-370 -7745 7746 0
-7746 7755 0
-371 -7746 0
-363 7747 0
-7747 7756 0
-364 -7747 7748 0
-7748 7757 0
-365 -7748 7749 0
-7749 7758 0
-366 -7749 7750 0
-7750 7759 0
-367 -7750 7751 0
-7751 7760 0
-368 -7751 7752 0
-7752 7761 0
-369 -7752 7753 0
-7753 7762 0
-370 -7753 7754 0
-7754 7763 0
-371 -7754 7755 0
-7755 7764 0
-372 -7755 0
-364 7756 0
-7756 7765 0
-365 -7756 7757 0
-7757 7766 0
-366 -7757 7758 0
-7758 7767 0
-367 -7758 7759 0
-7759 7768 0
-368 -7759 7760 0
-7760 7769 0
-369 -7760 7761 0
-7761 7770 0
-370 -7761 7762 0
-7762 7771 0
-371 -7762 7763 0
-7763 7772 0
-372 -7763 7764 0
-7764 7773 0
-373 -7764 0
-365 7765 0
-7765 7774 0
-366 -7765 7766 0
-7766 7775 0
-367 -7766 7767 0
-7767 7776 0
-368 -7767 7768 0
-7768 7777 0
-369 -7768 7769 0
-7769 7778 0
-370 -7769 7770 0
-7770 7779 0
-371 -7770 7771 0
-7771 7780 0
-372 -7771 7772 0
-7772 7781 0
-373 -7772 7773 0
-7773 7782 0
-374 -7773 0
-366 7774 0
-7774 7783 0
-367 -7774 7775 0
-7775 7784 0
-368 -7775 7776 0
-7776 7785 0
-369 -7776 7777 0
-7777 7786 0
-370 -7777 7778 0
-7778 7787 0
-371 -7778 7779 0
-7779 7788 0
-372 -7779 7780 0
-7780 7789 0
-373 -7780 7781 0
-7781 7790 0
-374 -7781 7782 0
-7782 7791 0
-375 -7782 0
-367 7783 0
-7783 7792 0
-368 -7783 7784 0
-7784 7793 0
-369 -7784 7785 0
-7785 7794 0
-370 -7785 7786 0
-7786 7795 0
-371 -7786 7787 0
-7787 7796 0
-372 -7787 7788 0
-7788 7797 0
-373 -7788 7789 0
-7789 7798 0
-374 -7789 7790 0
-7790 7799 0
-375 -7790 7791 0
-7791 7800 0
-376 -7791 0
-368 7792 0
-7792 7801 0
-369 -7792 7793 0
-7793 7802 0
-370 -7793 7794 0
-7794 7803 0
-371 -7794 7795 0
-7795 7804 0
-372 -7795 7796 0
-7796 7805 0
-373 -7796 7797 0
-7797 7806 0
-374 -7797 7798 0
-7798 7807 0
-375 -7798 7799 0
-7799 7808 0
-376 -7799 7800 0
-7800 7809 0
-377 -7800 0
-369 7801 0
-7801 7810 0
-370 -7801 7802 0
-7802 7811 0
-371 -7802 7803 0
-7803 7812 0
-372 -7803 7804 0
-7804 7813 0
-373 -7804 7805 0
-7805 7814 0
-374 -7805 7806 0
-7806 7815 0
-375 -7806 7807 0
-7807 7816 0
-376 -7807 7808 0
-7808 7817 0
-377 -7808 7809 0
-7809 7818 0
-378 -7809 0
-370 7810 0
-7810 7819 0
-371 -7810 7811 0
-7811 7820 0
-372 -7811 7812 0
-7812 7821 0
-373 -7812 7813 0
-7813 7822 0
-374 -7813 7814 0
-7814 7823 0
-375 -7814 7815 0
-7815 7824 0
-376 -7815 7816 0
-7816 7825 0
-377 -7816 7817 0
-7817 7826 0
-378 -7817 7818 0
-7818 7827 0
-379 -7818 0
-371 7819 0
-7819 7828 0
-372 -7819 7820 0
-7820 7829 0
-373 -7820 7821 0
-7821 7830 0
-374 -7821 7822 0
-7822 7831 0
-375 -7822 7823 0
-7823 7832 0
-376 -7823 7824 0
-7824 7833 0
-377 -7824 7825 0
-7825 7834 0
-378 -7825 7826 0
-7826 7835 0
-379 -7826 7827 0
-7827 7836 0
-380 -7827 0
-372 7828 0
-7828 7837 0
-373 -7828 7829 0
-7829 7838 0
-374 -7829 7830 0
-7830 7839 0
-375 -7830 7831 0
-7831 7840 0
-376 -7831 7832 0
-7832 7841 0
-377 -7832 7833 0
-7833 7842 0
-378 -7833 7834 0
-7834 7843 0
-379 -7834 7835 0
-7835 7844 0
-380 -7835 7836 0
-7836 7845 0
-381 -7836 0
-373 7837 0
-7837 7846 0
-374 -7837 7838 0
-7838 7847 0
-375 -7838 7839 0
-7839 7848 0
-376 -7839 7840 0
-7840 7849 0
-377 -7840 7841 0
-7841 7850 0
-378 -7841 7842 0
-7842 7851 0
-379 -7842 7843 0
-7843 7852 0
-380 -7843 7844 0
-7844 7853 0
-381 -7844 7845 0
-7845 7854 0
-382 -7845 0
-374 7846 0
-7846 7855 0
-375 -7846 7847 0
-7847 7856 0
-376 -7847 7848 0
-7848 7857 0
-377 -7848 7849 0
-7849 7858 0
-378 -7849 7850 0
-7850 7859 0
-379 -7850 7851 0
-7851 7860 0
-380 -7851 7852 0
-7852 7861 0
-381 -7852 7853 0
-7853 7862 0
-382 -7853 7854 0
-7854 7863 0
-383 -7854 0
-375 7855 0
-7855 7864 0
-376 -7855 7856 0
-7856 7865 0
-377 -7856 7857 0
-7857 7866 0
-378 -7857 7858 0
-7858 7867 0
-379 -7858 7859 0
-7859 7868 0
-380 -7859 7860 0
-7860 7869 0
-381 -7860 7861 0
-7861 7870 0
-382 -7861 7862 0
-7862 7871 0
-383 -7862 7863 0
-7863 7872 0
-384 -7863 0
-376 7864 0
-7864 7873 0
-377 -7864 7865 0
-7865 7874 0
-378 -7865 7866 0
-7866 7875 0
-379 -7866 7867 0
-7867 7876 0
-380 -7867 7868 0
-7868 7877 0
-381 -7868 7869 0
-7869 7878 0
-382 -7869 7870 0
-7870 7879 0
-383 -7870 7871 0
-7871 7880 0
-384 -7871 7872 0
-7872 7881 0
-385 -7872 0
-377 7873 0
-7873 7882 0
-378 -7873 7874 0
-7874 7883 0
-379 -7874 7875 0
-7875 7884 0
-380 -7875 7876 0
-7876 7885 0
-381 -7876 7877 0
-7877 7886 0
-382 -7877 7878 0
-7878 7887 0
-383 -7878 7879 0
-7879 7888 0
-384 -7879 7880 0
-7880 7889 0
-385 -7880 7881 0
-7881 7890 0
-386 -7881 0
-378 7882 0
-7882 7891 0
-379 -7882 7883 0
-7883 7892 0
-380 -7883 7884 0
-7884 7893 0
-381 -7884 7885 0
-7885 7894 0
-382 -7885 7886 0
-7886 7895 0
-383 -7886 7887 0
-7887 7896 0
-384 -7887 7888 0
-7888 7897 0
-385 -7888 7889 0
-7889 7898 0
-386 -7889 7890 0
-7890 7899 0
-387 -7890 0
-379 7891 0
-7891 7900 0
-380 -7891 7892 0
-7892 7901 0
-381 -7892 7893 0
-7893 7902 0
-382 -7893 7894 0
-7894 7903 0
-383 -7894 7895 0
-7895 7904 0
-384 -7895 7896 0
-7896 7905 0
-385 -7896 7897 0
-7897 7906 0
-386 -7897 7898 0
-7898 7907 0
-387 -7898 7899 0
-7899 7908 0
-388 -7899 0
-380 7900 0
-7900 7909 0
-381 -7900 7901 0
-7901 7910 0
-382 -7901 7902 0
-7902 7911 0
-383 -7902 7903 0
-7903 7912 0
-384 -7903 7904 0
-7904 7913 0
-385 -7904 7905 0
-7905 7914 0
-386 -7905 7906 0
-7906 7915 0
-387 -7906 7907 0
-7907 7916 0
-388 -7907 7908 0
-7908 7917 0
-389 -7908 0
-381 7909 0
-7909 7918 0
-382 -7909 7910 0
-7910 7919 0
-383 -7910 7911 0
-7911 7920 0
-384 -7911 7912 0
-7912 7921 0
-385 -7912 7913 0
-7913 7922 0
-386 -7913 7914 0
-7914 7923 0
-387 -7914 7915 0
-7915 7924 0
-388 -7915 7916 0
-7916 7925 0
-389 -7916 7917 0
-7917 7926 0
-390 -7917 0
-382 7918 0
-7918 7927 0
-383 -7918 7919 0
-7919 7928 0
-384 -7919 7920 0
-7920 7929 0
-385 -7920 7921 0
-7921 7930 0
-386 -7921 7922 0
-7922 7931 0
-387 -7922 7923 0
-7923 7932 0
-388 -7923 7924 0
-7924 7933 0
-389 -7924 7925 0
-7925 7934 0
-390 -7925 7926 0
-7926 7935 0
-391 -7926 0
-383 7927 0
-7927 7936 0
-384 -7927 7928 0
-7928 7937 0
-385 -7928 7929 0
-7929 7938 0
-386 -7929 7930 0
-7930 7939 0
-387 -7930 7931 0
-7931 7940 0
-388 -7931 7932 0
-7932 7941 0
-389 -7932 7933 0
-7933 7942 0
-390 -7933 7934 0
-7934 7943 0
-391 -7934 7935 0
-7935 7944 0
-392 -7935 0
-384 7936 0
-7936 7945 0
-385 -7936 7937 0
-7937 7946 0
-386 -7937 7938 0
-7938 7947 0
-387 -7938 7939 0
-7939 7948 0
-388 -7939 7940 0
-7940 7949 0
-389 -7940 7941 0
-7941 7950 0
-390 -7941 7942 0
-7942 7951 0
-391 -7942 7943 0
-7943 7952 0
-392 -7943 7944 0
-7944 7953 0
-393 -7944 0
-385 7945 0
-7945 7954 0
-386 -7945 7946 0
-7946 7955 0
-387 -7946 7947 0
-7947 7956 0
-388 -7947 7948 0
-7948 7957 0
-389 -7948 7949 0
-7949 7958 0
-390 -7949 7950 0
-7950 7959 0
-391 -7950 7951 0
-7951 7960 0
-392 -7951 7952 0
-7952 7961 0
-393 -7952 7953 0
-7953 7962 0
-394 -7953 0
-386 7954 0
-7954 7963 0
-387 -7954 7955 0
-7955 7964 0
-388 -7955 7956 0
-7956 7965 0
-389 -7956 7957 0
-7957 7966 0
-390 -7957 7958 0
-7958 7967 0
-391 -7958 7959 0
-7959 7968 0
-392 -7959 7960 0
-7960 7969 0
-393 -7960 7961 0
-7961 7970 0
-394 -7961 7962 0
-7962 7971 0
-395 -7962 0
-387 7963 0
-7963 7972 0
-388 -7963 7964 0
-7964 7973 0
-389 -7964 7965 0
-7965 7974 0
-390 -7965 7966 0
-7966 7975 0
-391 -7966 7967 0
-7967 7976 0
-392 -7967 7968 0
-7968 7977 0
-393 -7968 7969 0
-7969 7978 0
-394 -7969 7970 0
-7970 7979 0
-395 -7970 7971 0
-7971 7980 0
-396 -7971 0
-388 7972 0
-7972 7981 0
-389 -7972 7973 0
-7973 7982 0
-390 -7973 7974 0
-7974 7983 0
-391 -7974 7975 0
-7975 7984 0
-392 -7975 7976 0
-7976 7985 0
-393 -7976 7977 0
-7977 7986 0
-394 -7977 7978 0
-7978 7987 0
-395 -7978 7979 0
-7979 7988 0
-396 -7979 7980 0
-7980 7989 0
-397 -7980 0
-389 7981 0
-7981 7990 0
-390 -7981 7982 0
-7982 7991 0
-391 -7982 7983 0
-7983 7992 0
-392 -7983 7984 0
-7984 7993 0
-393 -7984 7985 0
-7985 7994 0
-394 -7985 7986 0
-7986 7995 0
-395 -7986 7987 0
-7987 7996 0
-396 -7987 7988 0
-7988 7997 0
-397 -7988 7989 0
-7989 7998 0
-398 -7989 0
-390 7990 0
-7990 7999 0
-391 -7990 7991 0
-7991 8000 0
-392 -7991 7992 0
-7992 8001 0
-393 -7992 7993 0
-7993 8002 0
-394 -7993 7994 0
-7994 8003 0
-395 -7994 7995 0
-7995 8004 0
-396 -7995 7996 0
-7996 8005 0
-397 -7996 7997 0
-7997 8006 0
-398 -7997 7998 0
-7998 8007 0
-399 -7998 0
-391 7999 0
-392 -7999 8000 0
-393 -8000 8001 0
-394 -8001 8002 0
-395 -8002 8003 0
-396 -8003 8004 0
-397 -8004 8005 0
-398 -8005 8006 0
-399 -8006 8007 0
-400 -8007 0
1 101 0
