p cnf 6373 13053
-163 -1 0
-163 2 81 82 0
-2 1 163 0
-81 1 163 0
-82 1 163 0
-164 -2 0
-164 1 3 83 0
-1 2 164 0
-3 2 164 0
-83 2 164 0
-165 -3 0
-165 2 4 84 0
-2 3 165 0
-4 3 165 0
-84 3 165 0
-166 -4 0
-166 3 5 85 0
-3 4 166 0
-5 4 166 0
-85 4 166 0
-167 -5 0
-167 4 6 86 0
-4 5 167 0
-6 5 167 0
-86 5 167 0
-168 -6 0
-168 5 7 87 0
-5 6 168 0
-7 6 168 0
-87 6 168 0
-169 -7 0
-169 6 8 88 0
-6 7 169 0
-8 7 169 0
-88 7 169 0
-170 -8 0
-170 7 9 89 0
-7 8 170 0
-9 8 170 0
-89 8 170 0
-171 -9 0
-171 8 10 90 0
-8 9 171 0
-10 9 171 0
-90 9 171 0
-172 -10 0
-172 9 11 91 0
-9 10 172 0
-11 10 172 0
-91 10 172 0
-173 -11 0
-173 10 12 92 0
-10 11 173 0
-12 11 173 0
-92 11 173 0
-174 -12 0
-174 11 13 93 0
-11 12 174 0
-13 12 174 0
-93 12 174 0
-175 -13 0
-175 12 14 94 0
-12 13 175 0
-14 13 175 0
-94 13 175 0
-176 -14 0
-176 13 15 95 0
-13 14 176 0
-15 14 176 0
-95 14 176 0
-177 -15 0
-177 14 16 96 0
-14 15 177 0
-16 15 177 0
-96 15 177 0
-178 -16 0
-178 15 17 97 0
-15 16 178 0
-17 16 178 0
-97 16 178 0
-179 -17 0
-179 16 18 98 0
-16 17 179 0
-18 17 179 0
-98 17 179 0
-180 -18 0
-180 17 19 99 0
-17 18 180 0
-19 18 180 0
-99 18 180 0
-181 -19 0
-181 18 20 100 0
-18 19 181 0
-20 19 181 0
-100 19 181 0
-182 -20 0
-182 19 21 101 0
-19 20 182 0
-21 20 182 0
-101 20 182 0
-183 -21 0
-183 20 22 102 0
-20 21 183 0
-22 21 183 0
-102 21 183 0
-184 -22 0
-184 21 23 103 0
-21 22 184 0
-23 22 184 0
-103 22 184 0
-185 -23 0
-185 22 24 104 0
-22 23 185 0
-24 23 185 0
-104 23 185 0
-186 -24 0
-186 23 25 105 0
-23 24 186 0
-25 24 186 0
-105 24 186 0
-187 -25 0
-187 24 26 106 0
-24 25 187 0
-26 25 187 0
-106 25 187 0
-188 -26 0
-188 25 27 107 0
-25 26 188 0
-27 26 188 0
-107 26 188 0
-189 -27 0
-189 26 28 108 0
-26 27 189 0
-28 27 189 0
-108 27 189 0
-190 -28 0
-190 27 29 109 0
-27 28 190 0
-29 28 190 0
-109 28 190 0
-191 -29 0
-191 28 30 110 0
-28 29 191 0
-30 29 191 0
-110 29 191 0
-192 -30 0
-192 29 31 111 0
-29 30 192 0
-31 30 192 0
-111 30 192 0
-193 -31 0
-193 30 32 112 0
-30 31 193 0
-32 31 193 0
-112 31 193 0
-194 -32 0
-194 31 33 113 0
-31 32 194 0
-33 32 194 0
-113 32 194 0
-195 -33 0
-195 32 34 114 0
-32 33 195 0
-34 33 195 0
-114 33 195 0
-196 -34 0
-196 33 35 115 0
-33 34 196 0
-35 34 196 0
-115 34 196 0
-197 -35 0
-197 34 36 116 0
-34 35 197 0
-36 35 197 0
-116 35 197 0
-198 -36 0
-198 35 37 117 0
-35 36 198 0
-37 36 198 0
-117 36 198 0
-199 -37 0
-199 36 38 118 0
-36 37 199 0
-38 37 199 0
-118 37 199 0
-200 -38 0
-200 37 39 119 0
-37 38 200 0
-39 38 200 0
-119 38 200 0
-201 -39 0
-201 38 40 120 0
-38 39 201 0
-40 39 201 0
-120 39 201 0
-202 -40 0
-202 39 41 121 0
-39 40 202 0
-41 40 202 0
-121 40 202 0
-203 -41 0
-203 40 42 122 0
-40 41 203 0
-42 41 203 0
-122 41 203 0
-204 -42 0
-204 41 43 123 0
-41 42 204 0
-43 42 204 0
-123 42 204 0
-205 -43 0
-205 42 44 124 0
-42 43 205 0
-44 43 205 0
-124 43 205 0
-206 -44 0
-206 43 45 125 0
-43 44 206 0
-45 44 206 0
-125 44 206 0
-207 -45 0
-207 44 46 126 0
-44 45 207 0
-46 45 207 0
-126 45 207 0
-208 -46 0
-208 45 47 127 0
-45 46 208 0
-47 46 208 0
-127 46 208 0
-209 -47 0
-209 46 48 128 0
-46 47 209 0
-48 47 209 0
-128 47 209 0
-210 -48 0
-210 47 49 129 0
-47 48 210 0
-49 48 210 0
-129 48 210 0
-211 -49 0
-211 48 50 130 0
-48 49 211 0
-50 49 211 0
-130 49 211 0
-212 -50 0
-212 49 51 131 0
-49 50 212 0
-51 50 212 0
-131 50 212 0
-213 -51 0
-213 50 52 132 0
-50 51 213 0
-52 51 213 0
-132 51 213 0
-214 -52 0
-214 51 53 133 0
-51 52 214 0
-53 52 214 0
-133 52 214 0
-215 -53 0
-215 52 54 134 0
-52 53 215 0
-54 53 215 0
-134 53 215 0
-216 -54 0
-216 53 55 135 0
-53 54 216 0
-55 54 216 0
-135 54 216 0
-217 -55 0
-217 54 56 136 0
-54 55 217 0
-56 55 217 0
-136 55 217 0
-218 -56 0
-218 55 57 137 0
-55 56 218 0
-57 56 218 0
-137 56 218 0
-219 -57 0
-219 56 58 138 0
-56 57 219 0
-58 57 219 0
-138 57 219 0
-220 -58 0
-220 57 59 139 0
-57 58 220 0
-59 58 220 0
-139 58 220 0
-221 -59 0
-221 58 60 140 0
-58 59 221 0
-60 59 221 0
-140 59 221 0
-222 -60 0
-222 59 61 141 0
-59 60 222 0
-61 60 222 0
-141 60 222 0
-223 -61 0
-223 60 62 142 0
-60 61 223 0
-62 61 223 0
-142 61 223 0
-224 -62 0
-224 61 63 143 0
-61 62 224 0
-63 62 224 0
-143 62 224 0
-225 -63 0
-225 62 64 144 0
-62 63 225 0
-64 63 225 0
-144 63 225 0
-226 -64 0
-226 63 65 145 0
-63 64 226 0
-65 64 226 0
-145 64 226 0
-227 -65 0
-227 64 66 146 0
-64 65 227 0
-66 65 227 0
-146 65 227 0
-228 -66 0
-228 65 67 147 0
-65 66 228 0
-67 66 228 0
-147 66 228 0
-229 -67 0
-229 66 68 148 0
-66 67 229 0
-68 67 229 0
-148 67 229 0
-230 -68 0
-230 67 69 149 0
-67 68 230 0
-69 68 230 0
-149 68 230 0
-231 -69 0
-231 68 70 150 0
-68 69 231 0
-70 69 231 0
-150 69 231 0
-232 -70 0
-232 69 71 151 0
-69 70 232 0
-71 70 232 0
-151 70 232 0
-233 -71 0
-233 70 72 152 0
-70 71 233 0
-72 71 233 0
-152 71 233 0
-234 -72 0
-234 71 73 153 0
-71 72 234 0
-73 72 234 0
-153 72 234 0
-235 -73 0
-235 72 74 154 0
-72 73 235 0
-74 73 235 0
-154 73 235 0
-236 -74 0
-236 73 75 155 0
-73 74 236 0
-75 74 236 0
-155 74 236 0
-237 -75 0
-237 74 76 156 0
-74 75 237 0
-76 75 237 0
-156 75 237 0
-238 -76 0
-238 75 77 157 0
-75 76 238 0
-77 76 238 0
-157 76 238 0
-239 -77 0
-239 76 78 158 0
-76 77 239 0
-78 77 239 0
-158 77 239 0
-240 -78 0
-240 77 79 159 0
-77 78 240 0
-79 78 240 0
-159 78 240 0
-241 -79 0
-241 78 80 160 0
-78 79 241 0
-80 79 241 0
-160 79 241 0
-242 -80 0
-242 79 81 161 0
-79 80 242 0
-81 80 242 0
-161 80 242 0
-243 -81 0
-243 1 80 162 0
-1 81 243 0
-80 81 243 0
-162 81 243 0
-244 -82 0
-244 1 86 159 0
-1 82 244 0
-86 82 244 0
-159 82 244 0
-245 -83 0
-245 2 87 160 0
-2 83 245 0
-87 83 245 0
-160 83 245 0
-246 -84 0
-246 3 88 161 0
-3 84 246 0
-88 84 246 0
-161 84 246 0
-247 -85 0
-247 4 89 162 0
-4 85 247 0
-89 85 247 0
-162 85 247 0
-248 -86 0
-248 5 82 90 0
-5 86 248 0
-82 86 248 0
-90 86 248 0
-249 -87 0
-249 6 83 91 0
-6 87 249 0
-83 87 249 0
-91 87 249 0
-250 -88 0
-250 7 84 92 0
-7 88 250 0
-84 88 250 0
-92 88 250 0
-251 -89 0
-251 8 85 93 0
-8 89 251 0
-85 89 251 0
-93 89 251 0
-252 -90 0
-252 9 86 94 0
-9 90 252 0
-86 90 252 0
-94 90 252 0
-253 -91 0
-253 10 87 95 0
-10 91 253 0
-87 91 253 0
-95 91 253 0
-254 -92 0
-254 11 88 96 0
-11 92 254 0
-88 92 254 0
-96 92 254 0
-255 -93 0
-255 12 89 97 0
-12 93 255 0
-89 93 255 0
-97 93 255 0
-256 -94 0
-256 13 90 98 0
-13 94 256 0
-90 94 256 0
-98 94 256 0
-257 -95 0
-257 14 91 99 0
-14 95 257 0
-91 95 257 0
-99 95 257 0
-258 -96 0
-258 15 92 100 0
-15 96 258 0
-92 96 258 0
-100 96 258 0
-259 -97 0
-259 16 93 101 0
-16 97 259 0
-93 97 259 0
-101 97 259 0
-260 -98 0
-260 17 94 102 0
-17 98 260 0
-94 98 260 0
-102 98 260 0
-261 -99 0
-261 18 95 103 0
-18 99 261 0
-95 99 261 0
-103 99 261 0
-262 -100 0
-262 19 96 104 0
-19 100 262 0
-96 100 262 0
-104 100 262 0
-263 -101 0
-263 20 97 105 0
-20 101 263 0
-97 101 263 0
-105 101 263 0
-264 -102 0
-264 21 98 106 0
-21 102 264 0
-98 102 264 0
-106 102 264 0
-265 -103 0
-265 22 99 107 0
-22 103 265 0
-99 103 265 0
-107 103 265 0
-266 -104 0
-266 23 100 108 0
-23 104 266 0
-100 104 266 0
-108 104 266 0
-267 -105 0
-267 24 101 109 0
-24 105 267 0
-101 105 267 0
-109 105 267 0
-268 -106 0
-268 25 102 110 0
-25 106 268 0
-102 106 268 0
-110 106 268 0
-269 -107 0
-269 26 103 111 0
-26 107 269 0
-103 107 269 0
-111 107 269 0
-270 -108 0
-270 27 104 112 0
-27 108 270 0
-104 108 270 0
-112 108 270 0
-271 -109 0
-271 28 105 113 0
-28 109 271 0
-105 109 271 0
-113 109 271 0
-272 -110 0
-272 29 106 114 0
-29 110 272 0
-106 110 272 0
-114 110 272 0
-273 -111 0
-273 30 107 115 0
-30 111 273 0
-107 111 273 0
-115 111 273 0
-274 -112 0
-274 31 108 116 0
-31 112 274 0
-108 112 274 0
-116 112 274 0
-275 -113 0
-275 32 109 117 0
-32 113 275 0
-109 113 275 0
-117 113 275 0
-276 -114 0
-276 33 110 118 0
-33 114 276 0
-110 114 276 0
-118 114 276 0
-277 -115 0
-277 34 111 119 0
-34 115 277 0
-111 115 277 0
-119 115 277 0
-278 -116 0
-278 35 112 120 0
-35 116 278 0
-112 116 278 0
-120 116 278 0
-279 -117 0
-279 36 113 121 0
-36 117 279 0
-113 117 279 0
-121 117 279 0
-280 -118 0
-280 37 114 122 0
-37 118 280 0
-114 118 280 0
-122 118 280 0
-281 -119 0
-281 38 115 123 0
-38 119 281 0
-115 119 281 0
-123 119 281 0
-282 -120 0
-282 39 116 124 0
-39 120 282 0
-116 120 282 0
-124 120 282 0
-283 -121 0
-283 40 117 125 0
-40 121 283 0
-117 121 283 0
-125 121 283 0
-284 -122 0
-284 41 118 126 0
-41 122 284 0
-118 122 284 0
-126 122 284 0
-285 -123 0
-285 42 119 127 0
-42 123 285 0
-119 123 285 0
-127 123 285 0
-286 -124 0
-286 43 120 128 0
-43 124 286 0
-120 124 286 0
-128 124 286 0
-287 -125 0
-287 44 121 129 0
-44 125 287 0
-121 125 287 0
-129 125 287 0
-288 -126 0
-288 45 122 130 0
-45 126 288 0
-122 126 288 0
-130 126 288 0
-289 -127 0
-289 46 123 131 0
-46 127 289 0
-123 127 289 0
-131 127 289 0
-290 -128 0
-290 47 124 132 0
-47 128 290 0
-124 128 290 0
-132 128 290 0
-291 -129 0
-291 48 125 133 0
-48 129 291 0
-125 129 291 0
-133 129 291 0
-292 -130 0
-292 49 126 134 0
-49 130 292 0
-126 130 292 0
-134 130 292 0
-293 -131 0
-293 50 127 135 0
-50 131 293 0
-127 131 293 0
-135 131 293 0
-294 -132 0
-294 51 128 136 0
-51 132 294 0
-128 132 294 0
-136 132 294 0
-295 -133 0
-295 52 129 137 0
-52 133 295 0
-129 133 295 0
-137 133 295 0
-296 -134 0
-296 53 130 138 0
-53 134 296 0
-130 134 296 0
-138 134 296 0
-297 -135 0
-297 54 131 139 0
-54 135 297 0
-131 135 297 0
-139 135 297 0
-298 -136 0
-298 55 132 140 0
-55 136 298 0
-132 136 298 0
-140 136 298 0
-299 -137 0
-299 56 133 141 0
-56 137 299 0
-133 137 299 0
-141 137 299 0
-300 -138 0
-300 57 134 142 0
-57 138 300 0
-134 138 300 0
-142 138 300 0
-301 -139 0
-301 58 135 143 0
-58 139 301 0
-135 139 301 0
-143 139 301 0
-302 -140 0
-302 59 136 144 0
-59 140 302 0
-136 140 302 0
-144 140 302 0
-303 -141 0
-303 60 137 145 0
-60 141 303 0
-137 141 303 0
-145 141 303 0
-304 -142 0
-304 61 138 146 0
-61 142 304 0
-138 142 304 0
-146 142 304 0
-305 -143 0
-305 62 139 147 0
-62 143 305 0
-139 143 305 0
-147 143 305 0
-306 -144 0
-306 63 140 148 0
-63 144 306 0
-140 144 306 0
-148 144 306 0
-307 -145 0
-307 64 141 149 0
-64 145 307 0
-141 145 307 0
-149 145 307 0
-308 -146 0
-308 65 142 150 0
-65 146 308 0
-142 146 308 0
-150 146 308 0
-309 -147 0
-309 66 143 151 0
-66 147 309 0
-143 147 309 0
-151 147 309 0
-310 -148 0
-310 67 144 152 0
-67 148 310 0
-144 148 310 0
-152 148 310 0
-311 -149 0
-311 68 145 153 0
-68 149 311 0
-145 149 311 0
-153 149 311 0
-312 -150 0
-312 69 146 154 0
-69 150 312 0
-146 150 312 0
-154 150 312 0
-313 -151 0
-313 70 147 155 0
-70 151 313 0
-147 151 313 0
-155 151 313 0
-314 -152 0
-314 71 148 156 0
-71 152 314 0
-148 152 314 0
-156 152 314 0
-315 -153 0
-315 72 149 157 0
-72 153 315 0
-149 153 315 0
-157 153 315 0
-316 -154 0
-316 73 150 158 0
-73 154 316 0
-150 154 316 0
-158 154 316 0
-317 -155 0
-317 74 151 159 0
-74 155 317 0
-151 155 317 0
-159 155 317 0
-318 -156 0
-318 75 152 160 0
-75 156 318 0
-152 156 318 0
-160 156 318 0
-319 -157 0
-319 76 153 161 0
-76 157 319 0
-153 157 319 0
-161 157 319 0
-320 -158 0
-320 77 154 162 0
-77 158 320 0
-154 158 320 0
-162 158 320 0
-321 -159 0
-321 78 82 155 0
-78 159 321 0
-82 159 321 0
-155 159 321 0
-322 -160 0
-322 79 83 156 0
-79 160 322 0
-83 160 322 0
-156 160 322 0
-323 -161 0
-323 80 84 157 0
-80 161 323 0
-84 161 323 0
-157 161 323 0
-324 -162 0
-324 81 85 158 0
-81 162 324 0
-85 162 324 0
-158 162 324 0
1 325 0
-325 326 0
2 -325 327 0
-327 328 0
3 -327 329 0
-329 330 0
4 -329 331 0
-331 332 0
5 -331 333 0
-333 334 0
6 -333 335 0
-335 336 0
7 -335 337 0
-337 338 0
8 -337 339 0
-339 340 0
9 -339 341 0
-341 342 0
10 -341 343 0
-343 344 0
11 -343 345 0
-345 346 0
12 -345 347 0
-347 348 0
13 -347 349 0
-349 350 0
14 -349 351 0
-351 352 0
15 -351 353 0
-353 354 0
16 -353 355 0
-355 356 0
17 -355 357 0
-357 358 0
18 -357 359 0
-359 360 0
19 -359 361 0
-361 362 0
20 -361 363 0
-363 364 0
21 -363 365 0
-365 366 0
22 -365 367 0
-367 368 0
23 -367 369 0
-369 370 0
24 -369 371 0
-371 372 0
25 -371 373 0
-373 374 0
26 -373 375 0
-375 376 0
27 -375 377 0
-377 378 0
28 -377 379 0
-379 380 0
29 -379 381 0
-381 382 0
30 -381 383 0
-383 384 0
31 -383 385 0
-385 386 0
32 -385 387 0
-387 388 0
33 -387 389 0
-389 390 0
34 -389 391 0
-391 392 0
35 -391 393 0
-393 394 0
36 -393 395 0
-395 396 0
37 -395 397 0
-397 398 0
38 -397 399 0
-399 400 0
39 -399 401 0
-401 402 0
40 -401 403 0
-403 404 0
41 -403 405 0
-405 406 0
42 -405 407 0
-407 408 0
43 -407 409 0
-409 410 0
44 -409 411 0
-411 412 0
45 -411 413 0
-413 414 0
46 -413 415 0
-415 416 0
47 -415 417 0
-417 418 0
48 -417 419 0
-419 420 0
49 -419 421 0
-421 422 0
50 -421 423 0
-423 424 0
51 -423 425 0
-425 426 0
52 -425 427 0
-427 428 0
53 -427 429 0
-429 430 0
54 -429 431 0
-431 432 0
55 -431 433 0
-433 434 0
56 -433 435 0
-435 436 0
57 -435 437 0
-437 438 0
58 -437 439 0
-439 440 0
59 -439 441 0
-441 442 0
60 -441 443 0
-443 444 0
61 -443 445 0
-445 446 0
62 -445 447 0
-447 448 0
63 -447 449 0
-449 450 0
64 -449 451 0
-451 452 0
65 -451 453 0
-453 454 0
66 -453 455 0
-455 456 0
67 -455 457 0
-457 458 0
68 -457 459 0
-459 460 0
69 -459 461 0
-461 462 0
70 -461 463 0
-463 464 0
71 -463 465 0
-465 466 0
72 -465 467 0
-467 468 0
73 -467 469 0
-469 470 0
74 -469 471 0
-471 472 0
75 -471 473 0
-473 474 0
76 -473 475 0
-475 476 0
77 -475 477 0
-477 478 0
78 -477 479 0
-479 480 0
79 -479 481 0
-481 482 0
80 -481 483 0
-483 484 0
81 -483 485 0
-485 486 0
82 -485 487 0
-487 488 0
83 -487 489 0
-489 490 0
84 -489 491 0
-491 492 0
85 -491 493 0
-493 494 0
86 -493 495 0
-495 496 0
87 -495 497 0
-497 498 0
88 -497 499 0
-499 500 0
89 -499 501 0
-501 502 0
90 -501 503 0
-503 504 0
91 -503 505 0
-505 506 0
92 -505 507 0
-507 508 0
93 -507 509 0
-509 510 0
94 -509 511 0
-511 512 0
95 -511 513 0
-513 514 0
96 -513 515 0
-515 516 0
97 -515 517 0
-517 518 0
98 -517 519 0
-519 520 0
99 -519 521 0
-521 522 0
100 -521 523 0
-523 524 0
101 -523 525 0
-525 526 0
102 -525 527 0
-527 528 0
103 -527 529 0
-529 530 0
104 -529 531 0
-531 532 0
105 -531 533 0
-533 534 0
106 -533 535 0
-535 536 0
107 -535 537 0
-537 538 0
108 -537 539 0
-539 540 0
109 -539 541 0
-541 542 0
110 -541 543 0
-543 544 0
111 -543 545 0
-545 546 0
112 -545 547 0
-547 548 0
113 -547 549 0
-549 550 0
114 -549 551 0
-551 552 0
115 -551 553 0
-553 554 0
116 -553 555 0
-555 556 0
117 -555 557 0
-557 558 0
118 -557 559 0
-559 560 0
119 -559 561 0
-561 562 0
120 -561 563 0
-563 564 0
121 -563 565 0
-565 566 0
122 -565 567 0
-567 568 0
123 -567 569 0
-569 570 0
124 -569 571 0
-571 572 0
125 -571 573 0
-573 574 0
126 -573 575 0
-575 576 0
127 -575 577 0
-577 578 0
128 -577 579 0
-579 580 0
129 -579 581 0
-581 582 0
130 -581 583 0
-583 584 0
131 -583 585 0
-585 586 0
132 -585 587 0
-587 588 0
133 -587 589 0
-589 590 0
134 -589 591 0
-591 592 0
135 -591 593 0
-593 594 0
136 -593 595 0
-595 596 0
137 -595 597 0
-597 598 0
138 -597 599 0
-599 600 0
139 -599 601 0
-601 602 0
140 -601 603 0
-603 604 0
141 -603 605 0
-605 606 0
142 -605 607 0
-607 608 0
143 -607 609 0
-609 610 0
144 -609 611 0
-611 612 0
145 -611 613 0
-613 614 0
146 -613 615 0
-615 616 0
147 -615 0
2 326 0
-326 617 0
3 -326 328 0
-328 618 0
4 -328 330 0
-330 619 0
5 -330 332 0
-332 620 0
6 -332 334 0
-334 621 0
7 -334 336 0
-336 622 0
8 -336 338 0
-338 623 0
9 -338 340 0
-340 624 0
10 -340 342 0
-342 625 0
11 -342 344 0
-344 626 0
12 -344 346 0
-346 627 0
13 -346 348 0
-348 628 0
14 -348 350 0
-350 629 0
15 -350 352 0
-352 630 0
16 -352 354 0
-354 631 0
17 -354 356 0
-356 632 0
18 -356 358 0
-358 633 0
19 -358 360 0
-360 634 0
20 -360 362 0
-362 635 0
21 -362 364 0
-364 636 0
22 -364 366 0
-366 637 0
23 -366 368 0
-368 638 0
24 -368 370 0
-370 639 0
25 -370 372 0
-372 640 0
26 -372 374 0
-374 641 0
27 -374 376 0
-376 642 0
28 -376 378 0
-378 643 0
29 -378 380 0
-380 644 0
30 -380 382 0
-382 645 0
31 -382 384 0
-384 646 0
32 -384 386 0
-386 647 0
33 -386 388 0
-388 648 0
34 -388 390 0
-390 649 0
35 -390 392 0
-392 650 0
36 -392 394 0
-394 651 0
37 -394 396 0
-396 652 0
38 -396 398 0
-398 653 0
39 -398 400 0
-400 654 0
40 -400 402 0
-402 655 0
41 -402 404 0
-404 656 0
42 -404 406 0
-406 657 0
43 -406 408 0
-408 658 0
44 -408 410 0
-410 659 0
45 -410 412 0
-412 660 0
46 -412 414 0
-414 661 0
47 -414 416 0
-416 662 0
48 -416 418 0
-418 663 0
49 -418 420 0
-420 664 0
50 -420 422 0
-422 665 0
51 -422 424 0
-424 666 0
52 -424 426 0
-426 667 0
53 -426 428 0
-428 668 0
54 -428 430 0
-430 669 0
55 -430 432 0
-432 670 0
56 -432 434 0
-434 671 0
57 -434 436 0
-436 672 0
58 -436 438 0
-438 673 0
59 -438 440 0
-440 674 0
60 -440 442 0
-442 675 0
61 -442 444 0
-444 676 0
62 -444 446 0
-446 677 0
63 -446 448 0
-448 678 0
64 -448 450 0
-450 679 0
65 -450 452 0
-452 680 0
66 -452 454 0
-454 681 0
67 -454 456 0
-456 682 0
68 -456 458 0
-458 683 0
69 -458 460 0
-460 684 0
70 -460 462 0
-462 685 0
71 -462 464 0
-464 686 0
72 -464 466 0
-466 687 0
73 -466 468 0
-468 688 0
74 -468 470 0
-470 689 0
75 -470 472 0
-472 690 0
76 -472 474 0
-474 691 0
77 -474 476 0
-476 692 0
78 -476 478 0
-478 693 0
79 -478 480 0
-480 694 0
80 -480 482 0
-482 695 0
81 -482 484 0
-484 696 0
82 -484 486 0
-486 697 0
83 -486 488 0
-488 698 0
84 -488 490 0
-490 699 0
85 -490 492 0
-492 700 0
86 -492 494 0
-494 701 0
87 -494 496 0
-496 702 0
88 -496 498 0
-498 703 0
89 -498 500 0
-500 704 0
90 -500 502 0
-502 705 0
91 -502 504 0
-504 706 0
92 -504 506 0
-506 707 0
93 -506 508 0
-508 708 0
94 -508 510 0
-510 709 0
95 -510 512 0
-512 710 0
96 -512 514 0
-514 711 0
97 -514 516 0
-516 712 0
98 -516 518 0
-518 713 0
99 -518 520 0
-520 714 0
100 -520 522 0
-522 715 0
101 -522 524 0
-524 716 0
102 -524 526 0
-526 717 0
103 -526 528 0
-528 718 0
104 -528 530 0
-530 719 0
105 -530 532 0
-532 720 0
106 -532 534 0
-534 721 0
107 -534 536 0
-536 722 0
108 -536 538 0
-538 723 0
109 -538 540 0
-540 724 0
110 -540 542 0
-542 725 0
111 -542 544 0
-544 726 0
112 -544 546 0
-546 727 0
113 -546 548 0
-548 728 0
114 -548 550 0
-550 729 0
115 -550 552 0
-552 730 0
116 -552 554 0
-554 731 0
117 -554 556 0
-556 732 0
118 -556 558 0
-558 733 0
119 -558 560 0
-560 734 0
120 -560 562 0
-562 735 0
121 -562 564 0
-564 736 0
122 -564 566 0
-566 737 0
123 -566 568 0
-568 738 0
124 -568 570 0
-570 739 0
125 -570 572 0
-572 740 0
126 -572 574 0
-574 741 0
127 -574 576 0
-576 742 0
128 -576 578 0
-578 743 0
129 -578 580 0
-580 744 0
130 -580 582 0
-582 745 0
131 -582 584 0
-584 746 0
132 -584 586 0
-586 747 0
133 -586 588 0
-588 748 0
134 -588 590 0
-590 749 0
135 -590 592 0
-592 750 0
136 -592 594 0
-594 751 0
137 -594 596 0
-596 752 0
138 -596 598 0
-598 753 0
139 -598 600 0
-600 754 0
140 -600 602 0
-602 755 0
141 -602 604 0
-604 756 0
142 -604 606 0
-606 757 0
143 -606 608 0
-608 758 0
144 -608 610 0
-610 759 0
145 -610 612 0
-612 760 0
146 -612 614 0
-614 761 0
147 -614 616 0
-616 762 0
148 -616 0
3 617 0
-617 763 0
4 -617 618 0
-618 764 0
5 -618 619 0
-619 765 0
6 -619 620 0
-620 766 0
7 -620 621 0
-621 767 0
8 -621 622 0
-622 768 0
9 -622 623 0
-623 769 0
10 -623 624 0
-624 770 0
11 -624 625 0
-625 771 0
12 -625 626 0
-626 772 0
13 -626 627 0
-627 773 0
14 -627 628 0
-628 774 0
15 -628 629 0
-629 775 0
16 -629 630 0
-630 776 0
17 -630 631 0
-631 777 0
18 -631 632 0
-632 778 0
19 -632 633 0
-633 779 0
20 -633 634 0
-634 780 0
21 -634 635 0
-635 781 0
22 -635 636 0
-636 782 0
23 -636 637 0
-637 783 0
24 -637 638 0
-638 784 0
25 -638 639 0
-639 785 0
26 -639 640 0
-640 786 0
27 -640 641 0
-641 787 0
28 -641 642 0
-642 788 0
29 -642 643 0
-643 789 0
30 -643 644 0
-644 790 0
31 -644 645 0
-645 791 0
32 -645 646 0
-646 792 0
33 -646 647 0
-647 793 0
34 -647 648 0
-648 794 0
35 -648 649 0
-649 795 0
36 -649 650 0
-650 796 0
37 -650 651 0
-651 797 0
38 -651 652 0
-652 798 0
39 -652 653 0
-653 799 0
40 -653 654 0
-654 800 0
41 -654 655 0
-655 801 0
42 -655 656 0
-656 802 0
43 -656 657 0
-657 803 0
44 -657 658 0
-658 804 0
45 -658 659 0
-659 805 0
46 -659 660 0
-660 806 0
47 -660 661 0
-661 807 0
48 -661 662 0
-662 808 0
49 -662 663 0
-663 809 0
50 -663 664 0
-664 810 0
51 -664 665 0
-665 811 0
52 -665 666 0
-666 812 0
53 -666 667 0
-667 813 0
54 -667 668 0
-668 814 0
55 -668 669 0
-669 815 0
56 -669 670 0
-670 816 0
57 -670 671 0
-671 817 0
58 -671 672 0
-672 818 0
59 -672 673 0
-673 819 0
60 -673 674 0
-674 820 0
61 -674 675 0
-675 821 0
62 -675 676 0
-676 822 0
63 -676 677 0
-677 823 0
64 -677 678 0
-678 824 0
65 -678 679 0
-679 825 0
66 -679 680 0
-680 826 0
67 -680 681 0
-681 827 0
68 -681 682 0
-682 828 0
69 -682 683 0
-683 829 0
70 -683 684 0
-684 830 0
71 -684 685 0
-685 831 0
72 -685 686 0
-686 832 0
73 -686 687 0
-687 833 0
74 -687 688 0
-688 834 0
75 -688 689 0
-689 835 0
76 -689 690 0
-690 836 0
77 -690 691 0
-691 837 0
78 -691 692 0
-692 838 0
79 -692 693 0
-693 839 0
80 -693 694 0
-694 840 0
81 -694 695 0
-695 841 0
82 -695 696 0
-696 842 0
83 -696 697 0
-697 843 0
84 -697 698 0
-698 844 0
85 -698 699 0
-699 845 0
86 -699 700 0
-700 846 0
87 -700 701 0
-701 847 0
88 -701 702 0
-702 848 0
89 -702 703 0
-703 849 0
90 -703 704 0
-704 850 0
91 -704 705 0
-705 851 0
92 -705 706 0
-706 852 0
93 -706 707 0
-707 853 0
94 -707 708 0
-708 854 0
95 -708 709 0
-709 855 0
96 -709 710 0
-710 856 0
97 -710 711 0
-711 857 0
98 -711 712 0
-712 858 0
99 -712 713 0
-713 859 0
100 -713 714 0
-714 860 0
101 -714 715 0
-715 861 0
102 -715 716 0
-716 862 0
103 -716 717 0
-717 863 0
104 -717 718 0
-718 864 0
105 -718 719 0
-719 865 0
106 -719 720 0
-720 866 0
107 -720 721 0
-721 867 0
108 -721 722 0
-722 868 0
109 -722 723 0
-723 869 0
110 -723 724 0
-724 870 0
111 -724 725 0
-725 871 0
112 -725 726 0
-726 872 0
113 -726 727 0
-727 873 0
114 -727 728 0
-728 874 0
115 -728 729 0
-729 875 0
116 -729 730 0
-730 876 0
117 -730 731 0
-731 877 0
118 -731 732 0
-732 878 0
119 -732 733 0
-733 879 0
120 -733 734 0
-734 880 0
121 -734 735 0
-735 881 0
122 -735 736 0
-736 882 0
123 -736 737 0
-737 883 0
124 -737 738 0
-738 884 0
125 -738 739 0
-739 885 0
126 -739 740 0
-740 886 0
127 -740 741 0
-741 887 0
128 -741 742 0
-742 888 0
129 -742 743 0
-743 889 0
130 -743 744 0
-744 890 0
131 -744 745 0
-745 891 0
132 -745 746 0
-746 892 0
133 -746 747 0
-747 893 0
134 -747 748 0
-748 894 0
135 -748 749 0
-749 895 0
136 -749 750 0
-750 896 0
137 -750 751 0
-751 897 0
138 -751 752 0
-752 898 0
139 -752 753 0
-753 899 0
140 -753 754 0
-754 900 0
141 -754 755 0
-755 901 0
142 -755 756 0
-756 902 0
143 -756 757 0
-757 903 0
144 -757 758 0
-758 904 0
145 -758 759 0
-759 905 0
146 -759 760 0
-760 906 0
147 -760 761 0
-761 907 0
148 -761 762 0
-762 908 0
149 -762 0
4 763 0
-763 909 0
5 -763 764 0
-764 910 0
6 -764 765 0
-765 911 0
7 -765 766 0
-766 912 0
8 -766 767 0
-767 913 0
9 -767 768 0
-768 914 0
10 -768 769 0
-769 915 0
11 -769 770 0
-770 916 0
12 -770 771 0
-771 917 0
13 -771 772 0
-772 918 0
14 -772 773 0
-773 919 0
15 -773 774 0
-774 920 0
16 -774 775 0
-775 921 0
17 -775 776 0
-776 922 0
18 -776 777 0
-777 923 0
19 -777 778 0
-778 924 0
20 -778 779 0
-779 925 0
21 -779 780 0
-780 926 0
22 -780 781 0
-781 927 0
23 -781 782 0
-782 928 0
24 -782 783 0
-783 929 0
25 -783 784 0
-784 930 0
26 -784 785 0
-785 931 0
27 -785 786 0
-786 932 0
28 -786 787 0
-787 933 0
29 -787 788 0
-788 934 0
30 -788 789 0
-789 935 0
31 -789 790 0
-790 936 0
32 -790 791 0
-791 937 0
33 -791 792 0
-792 938 0
34 -792 793 0
-793 939 0
35 -793 794 0
-794 940 0
36 -794 795 0
-795 941 0
37 -795 796 0
-796 942 0
38 -796 797 0
-797 943 0
39 -797 798 0
-798 944 0
40 -798 799 0
-799 945 0
41 -799 800 0
-800 946 0
42 -800 801 0
-801 947 0
43 -801 802 0
-802 948 0
44 -802 803 0
-803 949 0
45 -803 804 0
-804 950 0
46 -804 805 0
-805 951 0
47 -805 806 0
-806 952 0
48 -806 807 0
-807 953 0
49 -807 808 0
-808 954 0
50 -808 809 0
-809 955 0
51 -809 810 0
-810 956 0
52 -810 811 0
-811 957 0
53 -811 812 0
-812 958 0
54 -812 813 0
-813 959 0
55 -813 814 0
-814 960 0
56 -814 815 0
-815 961 0
57 -815 816 0
-816 962 0
58 -816 817 0
-817 963 0
59 -817 818 0
-818 964 0
60 -818 819 0
-819 965 0
61 -819 820 0
-820 966 0
62 -820 821 0
-821 967 0
63 -821 822 0
-822 968 0
64 -822 823 0
-823 969 0
65 -823 824 0
-824 970 0
66 -824 825 0
-825 971 0
67 -825 826 0
-826 972 0
68 -826 827 0
-827 973 0
69 -827 828 0
-828 974 0
70 -828 829 0
-829 975 0
71 -829 830 0
-830 976 0
72 -830 831 0
-831 977 0
73 -831 832 0
-832 978 0
74 -832 833 0
-833 979 0
75 -833 834 0
-834 980 0
76 -834 835 0
-835 981 0
77 -835 836 0
-836 982 0
78 -836 837 0
-837 983 0
79 -837 838 0
-838 984 0
80 -838 839 0
-839 985 0
81 -839 840 0
-840 986 0
82 -840 841 0
-841 987 0
83 -841 842 0
-842 988 0
84 -842 843 0
-843 989 0
85 -843 844 0
-844 990 0
86 -844 845 0
-845 991 0
87 -845 846 0
-846 992 0
88 -846 847 0
-847 993 0
89 -847 848 0
-848 994 0
90 -848 849 0
-849 995 0
91 -849 850 0
-850 996 0
92 -850 851 0
-851 997 0
93 -851 852 0
-852 998 0
94 -852 853 0
-853 999 0
95 -853 854 0
-854 1000 0
96 -854 855 0
-855 1001 0
97 -855 856 0
-856 1002 0
98 -856 857 0
-857 1003 0
99 -857 858 0
-858 1004 0
100 -858 859 0
-859 1005 0
101 -859 860 0
-860 1006 0
102 -860 861 0
-861 1007 0
103 -861 862 0
-862 1008 0
104 -862 863 0
-863 1009 0
105 -863 864 0
-864 1010 0
106 -864 865 0
-865 1011 0
107 -865 866 0
-866 1012 0
108 -866 867 0
-867 1013 0
109 -867 868 0
-868 1014 0
110 -868 869 0
-869 1015 0
111 -869 870 0
-870 1016 0
112 -870 871 0
-871 1017 0
113 -871 872 0
-872 1018 0
114 -872 873 0
-873 1019 0
115 -873 874 0
-874 1020 0
116 -874 875 0
-875 1021 0
117 -875 876 0
-876 1022 0
118 -876 877 0
-877 1023 0
119 -877 878 0
-878 1024 0
120 -878 879 0
-879 1025 0
121 -879 880 0
-880 1026 0
122 -880 881 0
-881 1027 0
123 -881 882 0
-882 1028 0
124 -882 883 0
-883 1029 0
125 -883 884 0
-884 1030 0
126 -884 885 0
-885 1031 0
127 -885 886 0
-886 1032 0
128 -886 887 0
-887 1033 0
129 -887 888 0
-888 1034 0
130 -888 889 0
-889 1035 0
131 -889 890 0
-890 1036 0
132 -890 891 0
-891 1037 0
133 -891 892 0
-892 1038 0
134 -892 893 0
-893 1039 0
135 -893 894 0
-894 1040 0
136 -894 895 0
-895 1041 0
137 -895 896 0
-896 1042 0
138 -896 897 0
-897 1043 0
139 -897 898 0
-898 1044 0
140 -898 899 0
-899 1045 0
141 -899 900 0
-900 1046 0
142 -900 901 0
-901 1047 0
143 -901 902 0
-902 1048 0
144 -902 903 0
-903 1049 0
145 -903 904 0
-904 1050 0
146 -904 905 0
-905 1051 0
147 -905 906 0
-906 1052 0
148 -906 907 0
-907 1053 0
149 -907 908 0
-908 1054 0
150 -908 0
5 909 0
-909 1055 0
6 -909 910 0
-910 1056 0
7 -910 911 0
-911 1057 0
8 -911 912 0
-912 1058 0
9 -912 913 0
-913 1059 0
10 -913 914 0
-914 1060 0
11 -914 915 0
-915 1061 0
12 -915 916 0
-916 1062 0
13 -916 917 0
-917 1063 0
14 -917 918 0
-918 1064 0
15 -918 919 0
-919 1065 0
16 -919 920 0
-920 1066 0
17 -920 921 0
-921 1067 0
18 -921 922 0
-922 1068 0
19 -922 923 0
-923 1069 0
20 -923 924 0
-924 1070 0
21 -924 925 0
-925 1071 0
22 -925 926 0
-926 1072 0
23 -926 927 0
-927 1073 0
24 -927 928 0
-928 1074 0
25 -928 929 0
-929 1075 0
26 -929 930 0
-930 1076 0
27 -930 931 0
-931 1077 0
28 -931 932 0
-932 1078 0
29 -932 933 0
-933 1079 0
30 -933 934 0
-934 1080 0
31 -934 935 0
-935 1081 0
32 -935 936 0
-936 1082 0
33 -936 937 0
-937 1083 0
34 -937 938 0
-938 1084 0
35 -938 939 0
-939 1085 0
36 -939 940 0
-940 1086 0
37 -940 941 0
-941 1087 0
38 -941 942 0
-942 1088 0
39 -942 943 0
-943 1089 0
40 -943 944 0
-944 1090 0
41 -944 945 0
-945 1091 0
42 -945 946 0
-946 1092 0
43 -946 947 0
-947 1093 0
44 -947 948 0
-948 1094 0
45 -948 949 0
-949 1095 0
46 -949 950 0
-950 1096 0
47 -950 951 0
-951 1097 0
48 -951 952 0
-952 1098 0
49 -952 953 0
-953 1099 0
50 -953 954 0
-954 1100 0
51 -954 955 0
-955 1101 0
52 -955 956 0
-956 1102 0
53 -956 957 0
-957 1103 0
54 -957 958 0
-958 1104 0
55 -958 959 0
-959 1105 0
56 -959 960 0
-960 1106 0
57 -960 961 0
-961 1107 0
58 -961 962 0
-962 1108 0
59 -962 963 0
-963 1109 0
60 -963 964 0
-964 1110 0
61 -964 965 0
-965 1111 0
62 -965 966 0
-966 1112 0
63 -966 967 0
-967 1113 0
64 -967 968 0
-968 1114 0
65 -968 969 0
-969 1115 0
66 -969 970 0
-970 1116 0
67 -970 971 0
-971 1117 0
68 -971 972 0
-972 1118 0
69 -972 973 0
-973 1119 0
70 -973 974 0
-974 1120 0
71 -974 975 0
-975 1121 0
72 -975 976 0
-976 1122 0
73 -976 977 0
-977 1123 0
74 -977 978 0
-978 1124 0
75 -978 979 0
-979 1125 0
76 -979 980 0
-980 1126 0
77 -980 981 0
-981 1127 0
78 -981 982 0
-982 1128 0
79 -982 983 0
-983 1129 0
80 -983 984 0
-984 1130 0
81 -984 985 0
-985 1131 0
82 -985 986 0
-986 1132 0
83 -986 987 0
-987 1133 0
84 -987 988 0
-988 1134 0
85 -988 989 0
-989 1135 0
86 -989 990 0
-990 1136 0
87 -990 991 0
-991 1137 0
88 -991 992 0
-992 1138 0
89 -992 993 0
-993 1139 0
90 -993 994 0
-994 1140 0
91 -994 995 0
-995 1141 0
92 -995 996 0
-996 1142 0
93 -996 997 0
-997 1143 0
94 -997 998 0
-998 1144 0
95 -998 999 0
-999 1145 0
96 -999 1000 0
-1000 1146 0
97 -1000 1001 0
-1001 1147 0
98 -1001 1002 0
-1002 1148 0
99 -1002 1003 0
-1003 1149 0
100 -1003 1004 0
-1004 1150 0
101 -1004 1005 0
-1005 1151 0
102 -1005 1006 0
-1006 1152 0
103 -1006 1007 0
-1007 1153 0
104 -1007 1008 0
-1008 1154 0
105 -1008 1009 0
-1009 1155 0
106 -1009 1010 0
-1010 1156 0
107 -1010 1011 0
-1011 1157 0
108 -1011 1012 0
-1012 1158 0
109 -1012 1013 0
-1013 1159 0
110 -1013 1014 0
-1014 1160 0
111 -1014 1015 0
-1015 1161 0
112 -1015 1016 0
-1016 1162 0
113 -1016 1017 0
-1017 1163 0
114 -1017 1018 0
-1018 1164 0
115 -1018 1019 0
-1019 1165 0
116 -1019 1020 0
-1020 1166 0
117 -1020 1021 0
-1021 1167 0
118 -1021 1022 0
-1022 1168 0
119 -1022 1023 0
-1023 1169 0
120 -1023 1024 0
-1024 1170 0
121 -1024 1025 0
-1025 1171 0
122 -1025 1026 0
-1026 1172 0
123 -1026 1027 0
-1027 1173 0
124 -1027 1028 0
-1028 1174 0
125 -1028 1029 0
-1029 1175 0
126 -1029 1030 0
-1030 1176 0
127 -1030 1031 0
-1031 1177 0
128 -1031 1032 0
-1032 1178 0
129 -1032 1033 0
-1033 1179 0
130 -1033 1034 0
-1034 1180 0
131 -1034 1035 0
-1035 1181 0
132 -1035 1036 0
-1036 1182 0
133 -1036 1037 0
-1037 1183 0
134 -1037 1038 0
-1038 1184 0
135 -1038 1039 0
-1039 1185 0
136 -1039 1040 0
-1040 1186 0
137 -1040 1041 0
-1041 1187 0
138 -1041 1042 0
-1042 1188 0
139 -1042 1043 0
-1043 1189 0
140 -1043 1044 0
-1044 1190 0
141 -1044 1045 0
-1045 1191 0
142 -1045 1046 0
-1046 1192 0
143 -1046 1047 0
-1047 1193 0
144 -1047 1048 0
-1048 1194 0
145 -1048 1049 0
-1049 1195 0
146 -1049 1050 0
-1050 1196 0
147 -1050 1051 0
-1051 1197 0
148 -1051 1052 0
-1052 1198 0
149 -1052 1053 0
-1053 1199 0
150 -1053 1054 0
-1054 1200 0
151 -1054 0
6 1055 0
-1055 1201 0
7 -1055 1056 0
-1056 1202 0
8 -1056 1057 0
-1057 1203 0
9 -1057 1058 0
-1058 1204 0
10 -1058 1059 0
-1059 1205 0
11 -1059 1060 0
-1060 1206 0
12 -1060 1061 0
-1061 1207 0
13 -1061 1062 0
-1062 1208 0
14 -1062 1063 0
-1063 1209 0
15 -1063 1064 0
-1064 1210 0
16 -1064 1065 0
-1065 1211 0
17 -1065 1066 0
-1066 1212 0
18 -1066 1067 0
-1067 1213 0
19 -1067 1068 0
-1068 1214 0
20 -1068 1069 0
-1069 1215 0
21 -1069 1070 0
-1070 1216 0
22 -1070 1071 0
-1071 1217 0
23 -1071 1072 0
-1072 1218 0
24 -1072 1073 0
-1073 1219 0
25 -1073 1074 0
-1074 1220 0
26 -1074 1075 0
-1075 1221 0
27 -1075 1076 0
-1076 1222 0
28 -1076 1077 0
-1077 1223 0
29 -1077 1078 0
-1078 1224 0
30 -1078 1079 0
-1079 1225 0
31 -1079 1080 0
-1080 1226 0
32 -1080 1081 0
-1081 1227 0
33 -1081 1082 0
-1082 1228 0
34 -1082 1083 0
-1083 1229 0
35 -1083 1084 0
-1084 1230 0
36 -1084 1085 0
-1085 1231 0
37 -1085 1086 0
-1086 1232 0
38 -1086 1087 0
-1087 1233 0
39 -1087 1088 0
-1088 1234 0
40 -1088 1089 0
-1089 1235 0
41 -1089 1090 0
-1090 1236 0
42 -1090 1091 0
-1091 1237 0
43 -1091 1092 0
-1092 1238 0
44 -1092 1093 0
-1093 1239 0
45 -1093 1094 0
-1094 1240 0
46 -1094 1095 0
-1095 1241 0
47 -1095 1096 0
-1096 1242 0
48 -1096 1097 0
-1097 1243 0
49 -1097 1098 0
-1098 1244 0
50 -1098 1099 0
-1099 1245 0
51 -1099 1100 0
-1100 1246 0
52 -1100 1101 0
-1101 1247 0
53 -1101 1102 0
-1102 1248 0
54 -1102 1103 0
-1103 1249 0
55 -1103 1104 0
-1104 1250 0
56 -1104 1105 0
-1105 1251 0
57 -1105 1106 0
-1106 1252 0
58 -1106 1107 0
-1107 1253 0
59 -1107 1108 0
-1108 1254 0
60 -1108 1109 0
-1109 1255 0
61 -1109 1110 0
-1110 1256 0
62 -1110 1111 0
-1111 1257 0
63 -1111 1112 0
-1112 1258 0
64 -1112 1113 0
-1113 1259 0
65 -1113 1114 0
-1114 1260 0
66 -1114 1115 0
-1115 1261 0
67 -1115 1116 0
-1116 1262 0
68 -1116 1117 0
-1117 1263 0
69 -1117 1118 0
-1118 1264 0
70 -1118 1119 0
-1119 1265 0
71 -1119 1120 0
-1120 1266 0
72 -1120 1121 0
-1121 1267 0
73 -1121 1122 0
-1122 1268 0
74 -1122 1123 0
-1123 1269 0
75 -1123 1124 0
-1124 1270 0
76 -1124 1125 0
-1125 1271 0
77 -1125 1126 0
-1126 1272 0
78 -1126 1127 0
-1127 1273 0
79 -1127 1128 0
-1128 1274 0
80 -1128 1129 0
-1129 1275 0
81 -1129 1130 0
-1130 1276 0
82 -1130 1131 0
-1131 1277 0
83 -1131 1132 0
-1132 1278 0
84 -1132 1133 0
-1133 1279 0
85 -1133 1134 0
-1134 1280 0
86 -1134 1135 0
-1135 1281 0
87 -1135 1136 0
-1136 1282 0
88 -1136 1137 0
-1137 1283 0
89 -1137 1138 0
-1138 1284 0
90 -1138 1139 0
-1139 1285 0
91 -1139 1140 0
-1140 1286 0
92 -1140 1141 0
-1141 1287 0
93 -1141 1142 0
-1142 1288 0
94 -1142 1143 0
-1143 1289 0
95 -1143 1144 0
-1144 1290 0
96 -1144 1145 0
-1145 1291 0
97 -1145 1146 0
-1146 1292 0
98 -1146 1147 0
-1147 1293 0
99 -1147 1148 0
-1148 1294 0
100 -1148 1149 0
-1149 1295 0
101 -1149 1150 0
-1150 1296 0
102 -1150 1151 0
-1151 1297 0
103 -1151 1152 0
-1152 1298 0
104 -1152 1153 0
-1153 1299 0
105 -1153 1154 0
-1154 1300 0
106 -1154 1155 0
-1155 1301 0
107 -1155 1156 0
-1156 1302 0
108 -1156 1157 0
-1157 1303 0
109 -1157 1158 0
-1158 1304 0
110 -1158 1159 0
-1159 1305 0
111 -1159 1160 0
-1160 1306 0
112 -1160 1161 0
-1161 1307 0
113 -1161 1162 0
-1162 1308 0
114 -1162 1163 0
-1163 1309 0
115 -1163 1164 0
-1164 1310 0
116 -1164 1165 0
-1165 1311 0
117 -1165 1166 0
-1166 1312 0
118 -1166 1167 0
-1167 1313 0
119 -1167 1168 0
-1168 1314 0
120 -1168 1169 0
-1169 1315 0
121 -1169 1170 0
-1170 1316 0
122 -1170 1171 0
-1171 1317 0
123 -1171 1172 0
-1172 1318 0
124 -1172 1173 0
-1173 1319 0
125 -1173 1174 0
-1174 1320 0
126 -1174 1175 0
-1175 1321 0
127 -1175 1176 0
-1176 1322 0
128 -1176 1177 0
-1177 1323 0
129 -1177 1178 0
-1178 1324 0
130 -1178 1179 0
-1179 1325 0
131 -1179 1180 0
-1180 1326 0
132 -1180 1181 0
-1181 1327 0
133 -1181 1182 0
-1182 1328 0
134 -1182 1183 0
-1183 1329 0
135 -1183 1184 0
-1184 1330 0
136 -1184 1185 0
-1185 1331 0
137 -1185 1186 0
-1186 1332 0
138 -1186 1187 0
-1187 1333 0
139 -1187 1188 0
-1188 1334 0
140 -1188 1189 0
-1189 1335 0
141 -1189 1190 0
-1190 1336 0
142 -1190 1191 0
-1191 1337 0
143 -1191 1192 0
-1192 1338 0
144 -1192 1193 0
-1193 1339 0
145 -1193 1194 0
-1194 1340 0
146 -1194 1195 0
-1195 1341 0
147 -1195 1196 0
-1196 1342 0
148 -1196 1197 0
-1197 1343 0
149 -1197 1198 0
-1198 1344 0
150 -1198 1199 0
-1199 1345 0
151 -1199 1200 0
-1200 1346 0
152 -1200 0
7 1201 0
-1201 1347 0
8 -1201 1202 0
-1202 1348 0
9 -1202 1203 0
-1203 1349 0
10 -1203 1204 0
-1204 1350 0
11 -1204 1205 0
-1205 1351 0
12 -1205 1206 0
-1206 1352 0
13 -1206 1207 0
-1207 1353 0
14 -1207 1208 0
-1208 1354 0
15 -1208 1209 0
-1209 1355 0
16 -1209 1210 0
-1210 1356 0
17 -1210 1211 0
-1211 1357 0
18 -1211 1212 0
-1212 1358 0
19 -1212 1213 0
-1213 1359 0
20 -1213 1214 0
-1214 1360 0
21 -1214 1215 0
-1215 1361 0
22 -1215 1216 0
-1216 1362 0
23 -1216 1217 0
-1217 1363 0
24 -1217 1218 0
-1218 1364 0
25 -1218 1219 0
-1219 1365 0
26 -1219 1220 0
-1220 1366 0
27 -1220 1221 0
-1221 1367 0
28 -1221 1222 0
-1222 1368 0
29 -1222 1223 0
-1223 1369 0
30 -1223 1224 0
-1224 1370 0
31 -1224 1225 0
-1225 1371 0
32 -1225 1226 0
-1226 1372 0
33 -1226 1227 0
-1227 1373 0
34 -1227 1228 0
-1228 1374 0
35 -1228 1229 0
-1229 1375 0
36 -1229 1230 0
-1230 1376 0
37 -1230 1231 0
-1231 1377 0
38 -1231 1232 0
-1232 1378 0
39 -1232 1233 0
-1233 1379 0
40 -1233 1234 0
-1234 1380 0
41 -1234 1235 0
-1235 1381 0
42 -1235 1236 0
-1236 1382 0
43 -1236 1237 0
-1237 1383 0
44 -1237 1238 0
-1238 1384 0
45 -1238 1239 0
-1239 1385 0
46 -1239 1240 0
-1240 1386 0
47 -1240 1241 0
-1241 1387 0
48 -1241 1242 0
-1242 1388 0
49 -1242 1243 0
-1243 1389 0
50 -1243 1244 0
-1244 1390 0
51 -1244 1245 0
-1245 1391 0
52 -1245 1246 0
-1246 1392 0
53 -1246 1247 0
-1247 1393 0
54 -1247 1248 0
-1248 1394 0
55 -1248 1249 0
-1249 1395 0
56 -1249 1250 0
-1250 1396 0
57 -1250 1251 0
-1251 1397 0
58 -1251 1252 0
-1252 1398 0
59 -1252 1253 0
-1253 1399 0
60 -1253 1254 0
-1254 1400 0
61 -1254 1255 0
-1255 1401 0
62 -1255 1256 0
-1256 1402 0
63 -1256 1257 0
-1257 1403 0
64 -1257 1258 0
-1258 1404 0
65 -1258 1259 0
-1259 1405 0
66 -1259 1260 0
-1260 1406 0
67 -1260 1261 0
-1261 1407 0
68 -1261 1262 0
-1262 1408 0
69 -1262 1263 0
-1263 1409 0
70 -1263 1264 0
-1264 1410 0
71 -1264 1265 0
-1265 1411 0
72 -1265 1266 0
-1266 1412 0
73 -1266 1267 0
-1267 1413 0
74 -1267 1268 0
-1268 1414 0
75 -1268 1269 0
-1269 1415 0
76 -1269 1270 0
-1270 1416 0
77 -1270 1271 0
-1271 1417 0
78 -1271 1272 0
-1272 1418 0
79 -1272 1273 0
-1273 1419 0
80 -1273 1274 0
-1274 1420 0
81 -1274 1275 0
-1275 1421 0
82 -1275 1276 0
-1276 1422 0
83 -1276 1277 0
-1277 1423 0
84 -1277 1278 0
-1278 1424 0
85 -1278 1279 0
-1279 1425 0
86 -1279 1280 0
-1280 1426 0
87 -1280 1281 0
-1281 1427 0
88 -1281 1282 0
-1282 1428 0
89 -1282 1283 0
-1283 1429 0
90 -1283 1284 0
-1284 1430 0
91 -1284 1285 0
-1285 1431 0
92 -1285 1286 0
-1286 1432 0
93 -1286 1287 0
-1287 1433 0
94 -1287 1288 0
-1288 1434 0
95 -1288 1289 0
-1289 1435 0
96 -1289 1290 0
-1290 1436 0
97 -1290 1291 0
-1291 1437 0
98 -1291 1292 0
-1292 1438 0
99 -1292 1293 0
-1293 1439 0
100 -1293 1294 0
-1294 1440 0
101 -1294 1295 0
-1295 1441 0
102 -1295 1296 0
-1296 1442 0
103 -1296 1297 0
-1297 1443 0
104 -1297 1298 0
-1298 1444 0
105 -1298 1299 0
-1299 1445 0
106 -1299 1300 0
-1300 1446 0
107 -1300 1301 0
-1301 1447 0
108 -1301 1302 0
-1302 1448 0
109 -1302 1303 0
-1303 1449 0
110 -1303 1304 0
-1304 1450 0
111 -1304 1305 0
-1305 1451 0
112 -1305 1306 0
-1306 1452 0
113 -1306 1307 0
-1307 1453 0
114 -1307 1308 0
-1308 1454 0
115 -1308 1309 0
-1309 1455 0
116 -1309 1310 0
-1310 1456 0
117 -1310 1311 0
-1311 1457 0
118 -1311 1312 0
-1312 1458 0
119 -1312 1313 0
-1313 1459 0
120 -1313 1314 0
-1314 1460 0
121 -1314 1315 0
-1315 1461 0
122 -1315 1316 0
-1316 1462 0
123 -1316 1317 0
-1317 1463 0
124 -1317 1318 0
-1318 1464 0
125 -1318 1319 0
-1319 1465 0
126 -1319 1320 0
-1320 1466 0
127 -1320 1321 0
-1321 1467 0
128 -1321 1322 0
-1322 1468 0
129 -1322 1323 0
-1323 1469 0
130 -1323 1324 0
-1324 1470 0
131 -1324 1325 0
-1325 1471 0
132 -1325 1326 0
-1326 1472 0
133 -1326 1327 0
-1327 1473 0
134 -1327 1328 0
-1328 1474 0
135 -1328 1329 0
-1329 1475 0
136 -1329 1330 0
-1330 1476 0
137 -1330 1331 0
-1331 1477 0
138 -1331 1332 0
-1332 1478 0
139 -1332 1333 0
-1333 1479 0
140 -1333 1334 0
-1334 1480 0
141 -1334 1335 0
-1335 1481 0
142 -1335 1336 0
-1336 1482 0
143 -1336 1337 0
-1337 1483 0
144 -1337 1338 0
-1338 1484 0
145 -1338 1339 0
-1339 1485 0
146 -1339 1340 0
-1340 1486 0
147 -1340 1341 0
-1341 1487 0
148 -1341 1342 0
-1342 1488 0
149 -1342 1343 0
-1343 1489 0
150 -1343 1344 0
-1344 1490 0
151 -1344 1345 0
-1345 1491 0
152 -1345 1346 0
-1346 1492 0
153 -1346 0
8 1347 0
-1347 1493 0
9 -1347 1348 0
-1348 1494 0
10 -1348 1349 0
-1349 1495 0
11 -1349 1350 0
-1350 1496 0
12 -1350 1351 0
-1351 1497 0
13 -1351 1352 0
-1352 1498 0
14 -1352 1353 0
-1353 1499 0
15 -1353 1354 0
-1354 1500 0
16 -1354 1355 0
-1355 1501 0
17 -1355 1356 0
-1356 1502 0
18 -1356 1357 0
-1357 1503 0
19 -1357 1358 0
-1358 1504 0
20 -1358 1359 0
-1359 1505 0
21 -1359 1360 0
-1360 1506 0
22 -1360 1361 0
-1361 1507 0
23 -1361 1362 0
-1362 1508 0
24 -1362 1363 0
-1363 1509 0
25 -1363 1364 0
-1364 1510 0
26 -1364 1365 0
-1365 1511 0
27 -1365 1366 0
-1366 1512 0
28 -1366 1367 0
-1367 1513 0
29 -1367 1368 0
-1368 1514 0
30 -1368 1369 0
-1369 1515 0
31 -1369 1370 0
-1370 1516 0
32 -1370 1371 0
-1371 1517 0
33 -1371 1372 0
-1372 1518 0
34 -1372 1373 0
-1373 1519 0
35 -1373 1374 0
-1374 1520 0
36 -1374 1375 0
-1375 1521 0
37 -1375 1376 0
-1376 1522 0
38 -1376 1377 0
-1377 1523 0
39 -1377 1378 0
-1378 1524 0
40 -1378 1379 0
-1379 1525 0
41 -1379 1380 0
-1380 1526 0
42 -1380 1381 0
-1381 1527 0
43 -1381 1382 0
-1382 1528 0
44 -1382 1383 0
-1383 1529 0
45 -1383 1384 0
-1384 1530 0
46 -1384 1385 0
-1385 1531 0
47 -1385 1386 0
-1386 1532 0
48 -1386 1387 0
-1387 1533 0
49 -1387 1388 0
-1388 1534 0
50 -1388 1389 0
-1389 1535 0
51 -1389 1390 0
-1390 1536 0
52 -1390 1391 0
-1391 1537 0
53 -1391 1392 0
-1392 1538 0
54 -1392 1393 0
-1393 1539 0
55 -1393 1394 0
-1394 1540 0
56 -1394 1395 0
-1395 1541 0
57 -1395 1396 0
-1396 1542 0
58 -1396 1397 0
-1397 1543 0
59 -1397 1398 0
-1398 1544 0
60 -1398 1399 0
-1399 1545 0
61 -1399 1400 0
-1400 1546 0
62 -1400 1401 0
-1401 1547 0
63 -1401 1402 0
-1402 1548 0
64 -1402 1403 0
-1403 1549 0
65 -1403 1404 0
-1404 1550 0
66 -1404 1405 0
-1405 1551 0
67 -1405 1406 0
-1406 1552 0
68 -1406 1407 0
-1407 1553 0
69 -1407 1408 0
-1408 1554 0
70 -1408 1409 0
-1409 1555 0
71 -1409 1410 0
-1410 1556 0
72 -1410 1411 0
-1411 1557 0
73 -1411 1412 0
-1412 1558 0
74 -1412 1413 0
-1413 1559 0
75 -1413 1414 0
-1414 1560 0
76 -1414 1415 0
-1415 1561 0
77 -1415 1416 0
-1416 1562 0
78 -1416 1417 0
-1417 1563 0
79 -1417 1418 0
-1418 1564 0
80 -1418 1419 0
-1419 1565 0
81 -1419 1420 0
-1420 1566 0
82 -1420 1421 0
-1421 1567 0
83 -1421 1422 0
-1422 1568 0
84 -1422 1423 0
-1423 1569 0
85 -1423 1424 0
-1424 1570 0
86 -1424 1425 0
-1425 1571 0
87 -1425 1426 0
-1426 1572 0
88 -1426 1427 0
-1427 1573 0
89 -1427 1428 0
-1428 1574 0
90 -1428 1429 0
-1429 1575 0
91 -1429 1430 0
-1430 1576 0
92 -1430 1431 0
-1431 1577 0
93 -1431 1432 0
-1432 1578 0
94 -1432 1433 0
-1433 1579 0
95 -1433 1434 0
-1434 1580 0
96 -1434 1435 0
-1435 1581 0
97 -1435 1436 0
-1436 1582 0
98 -1436 1437 0
-1437 1583 0
99 -1437 1438 0
-1438 1584 0
100 -1438 1439 0
-1439 1585 0
101 -1439 1440 0
-1440 1586 0
102 -1440 1441 0
-1441 1587 0
103 -1441 1442 0
-1442 1588 0
104 -1442 1443 0
-1443 1589 0
105 -1443 1444 0
-1444 1590 0
106 -1444 1445 0
-1445 1591 0
107 -1445 1446 0
-1446 1592 0
108 -1446 1447 0
-1447 1593 0
109 -1447 1448 0
-1448 1594 0
110 -1448 1449 0
-1449 1595 0
111 -1449 1450 0
-1450 1596 0
112 -1450 1451 0
-1451 1597 0
113 -1451 1452 0
-1452 1598 0
114 -1452 1453 0
-1453 1599 0
115 -1453 1454 0
-1454 1600 0
116 -1454 1455 0
-1455 1601 0
117 -1455 1456 0
-1456 1602 0
118 -1456 1457 0
-1457 1603 0
119 -1457 1458 0
-1458 1604 0
120 -1458 1459 0
-1459 1605 0
121 -1459 1460 0
-1460 1606 0
122 -1460 1461 0
-1461 1607 0
123 -1461 1462 0
-1462 1608 0
124 -1462 1463 0
-1463 1609 0
125 -1463 1464 0
-1464 1610 0
126 -1464 1465 0
-1465 1611 0
127 -1465 1466 0
-1466 1612 0
128 -1466 1467 0
-1467 1613 0
129 -1467 1468 0
-1468 1614 0
130 -1468 1469 0
-1469 1615 0
131 -1469 1470 0
-1470 1616 0
132 -1470 1471 0
-1471 1617 0
133 -1471 1472 0
-1472 1618 0
134 -1472 1473 0
-1473 1619 0
135 -1473 1474 0
-1474 1620 0
136 -1474 1475 0
-1475 1621 0
137 -1475 1476 0
-1476 1622 0
138 -1476 1477 0
-1477 1623 0
139 -1477 1478 0
-1478 1624 0
140 -1478 1479 0
-1479 1625 0
141 -1479 1480 0
-1480 1626 0
142 -1480 1481 0
-1481 1627 0
143 -1481 1482 0
-1482 1628 0
144 -1482 1483 0
-1483 1629 0
145 -1483 1484 0
-1484 1630 0
146 -1484 1485 0
-1485 1631 0
147 -1485 1486 0
-1486 1632 0
148 -1486 1487 0
-1487 1633 0
149 -1487 1488 0
-1488 1634 0
150 -1488 1489 0
-1489 1635 0
151 -1489 1490 0
-1490 1636 0
152 -1490 1491 0
-1491 1637 0
153 -1491 1492 0
-1492 1638 0
154 -1492 0
9 1493 0
-1493 1639 0
10 -1493 1494 0
-1494 1640 0
11 -1494 1495 0
-1495 1641 0
12 -1495 1496 0
-1496 1642 0
13 -1496 1497 0
-1497 1643 0
14 -1497 1498 0
-1498 1644 0
15 -1498 1499 0
-1499 1645 0
16 -1499 1500 0
-1500 1646 0
17 -1500 1501 0
-1501 1647 0
18 -1501 1502 0
-1502 1648 0
19 -1502 1503 0
-1503 1649 0
20 -1503 1504 0
-1504 1650 0
21 -1504 1505 0
-1505 1651 0
22 -1505 1506 0
-1506 1652 0
23 -1506 1507 0
-1507 1653 0
24 -1507 1508 0
-1508 1654 0
25 -1508 1509 0
-1509 1655 0
26 -1509 1510 0
-1510 1656 0
27 -1510 1511 0
-1511 1657 0
28 -1511 1512 0
-1512 1658 0
29 -1512 1513 0
-1513 1659 0
30 -1513 1514 0
-1514 1660 0
31 -1514 1515 0
-1515 1661 0
32 -1515 1516 0
-1516 1662 0
33 -1516 1517 0
-1517 1663 0
34 -1517 1518 0
-1518 1664 0
35 -1518 1519 0
-1519 1665 0
36 -1519 1520 0
-1520 1666 0
37 -1520 1521 0
-1521 1667 0
38 -1521 1522 0
-1522 1668 0
39 -1522 1523 0
-1523 1669 0
40 -1523 1524 0
-1524 1670 0
41 -1524 1525 0
-1525 1671 0
42 -1525 1526 0
-1526 1672 0
43 -1526 1527 0
-1527 1673 0
44 -1527 1528 0
-1528 1674 0
45 -1528 1529 0
-1529 1675 0
46 -1529 1530 0
-1530 1676 0
47 -1530 1531 0
-1531 1677 0
48 -1531 1532 0
-1532 1678 0
49 -1532 1533 0
-1533 1679 0
50 -1533 1534 0
-1534 1680 0
51 -1534 1535 0
-1535 1681 0
52 -1535 1536 0
-1536 1682 0
53 -1536 1537 0
-1537 1683 0
54 -1537 1538 0
-1538 1684 0
55 -1538 1539 0
-1539 1685 0
56 -1539 1540 0
-1540 1686 0
57 -1540 1541 0
-1541 1687 0
58 -1541 1542 0
-1542 1688 0
59 -1542 1543 0
-1543 1689 0
60 -1543 1544 0
-1544 1690 0
61 -1544 1545 0
-1545 1691 0
62 -1545 1546 0
-1546 1692 0
63 -1546 1547 0
-1547 1693 0
64 -1547 1548 0
-1548 1694 0
65 -1548 1549 0
-1549 1695 0
66 -1549 1550 0
-1550 1696 0
67 -1550 1551 0
-1551 1697 0
68 -1551 1552 0
-1552 1698 0
69 -1552 1553 0
-1553 1699 0
70 -1553 1554 0
-1554 1700 0
71 -1554 1555 0
-1555 1701 0
72 -1555 1556 0
-1556 1702 0
73 -1556 1557 0
-1557 1703 0
74 -1557 1558 0
-1558 1704 0
75 -1558 1559 0
-1559 1705 0
76 -1559 1560 0
-1560 1706 0
77 -1560 1561 0
-1561 1707 0
78 -1561 1562 0
-1562 1708 0
79 -1562 1563 0
-1563 1709 0
80 -1563 1564 0
-1564 1710 0
81 -1564 1565 0
-1565 1711 0
82 -1565 1566 0
-1566 1712 0
83 -1566 1567 0
-1567 1713 0
84 -1567 1568 0
-1568 1714 0
85 -1568 1569 0
-1569 1715 0
86 -1569 1570 0
-1570 1716 0
87 -1570 1571 0
-1571 1717 0
88 -1571 1572 0
-1572 1718 0
89 -1572 1573 0
-1573 1719 0
90 -1573 1574 0
-1574 1720 0
91 -1574 1575 0
-1575 1721 0
92 -1575 1576 0
-1576 1722 0
93 -1576 1577 0
-1577 1723 0
94 -1577 1578 0
-1578 1724 0
95 -1578 1579 0
-1579 1725 0
96 -1579 1580 0
-1580 1726 0
97 -1580 1581 0
-1581 1727 0
98 -1581 1582 0
-1582 1728 0
99 -1582 1583 0
-1583 1729 0
100 -1583 1584 0
-1584 1730 0
101 -1584 1585 0
-1585 1731 0
102 -1585 1586 0
-1586 1732 0
103 -1586 1587 0
-1587 1733 0
104 -1587 1588 0
-1588 1734 0
105 -1588 1589 0
-1589 1735 0
106 -1589 1590 0
-1590 1736 0
107 -1590 1591 0
-1591 1737 0
108 -1591 1592 0
-1592 1738 0
109 -1592 1593 0
-1593 1739 0
110 -1593 1594 0
-1594 1740 0
111 -1594 1595 0
-1595 1741 0
112 -1595 1596 0
-1596 1742 0
113 -1596 1597 0
-1597 1743 0
114 -1597 1598 0
-1598 1744 0
115 -1598 1599 0
-1599 1745 0
116 -1599 1600 0
-1600 1746 0
117 -1600 1601 0
-1601 1747 0
118 -1601 1602 0
-1602 1748 0
119 -1602 1603 0
-1603 1749 0
120 -1603 1604 0
-1604 1750 0
121 -1604 1605 0
-1605 1751 0
122 -1605 1606 0
-1606 1752 0
123 -1606 1607 0
-1607 1753 0
124 -1607 1608 0
-1608 1754 0
125 -1608 1609 0
-1609 1755 0
126 -1609 1610 0
-1610 1756 0
127 -1610 1611 0
-1611 1757 0
128 -1611 1612 0
-1612 1758 0
129 -1612 1613 0
-1613 1759 0
130 -1613 1614 0
-1614 1760 0
131 -1614 1615 0
-1615 1761 0
132 -1615 1616 0
-1616 1762 0
133 -1616 1617 0
-1617 1763 0
134 -1617 1618 0
-1618 1764 0
135 -1618 1619 0
-1619 1765 0
136 -1619 1620 0
-1620 1766 0
137 -1620 1621 0
-1621 1767 0
138 -1621 1622 0
-1622 1768 0
139 -1622 1623 0
-1623 1769 0
140 -1623 1624 0
-1624 1770 0
141 -1624 1625 0
-1625 1771 0
142 -1625 1626 0
-1626 1772 0
143 -1626 1627 0
-1627 1773 0
144 -1627 1628 0
-1628 1774 0
145 -1628 1629 0
-1629 1775 0
146 -1629 1630 0
-1630 1776 0
147 -1630 1631 0
-1631 1777 0
148 -1631 1632 0
-1632 1778 0
149 -1632 1633 0
-1633 1779 0
150 -1633 1634 0
-1634 1780 0
151 -1634 1635 0
-1635 1781 0
152 -1635 1636 0
-1636 1782 0
153 -1636 1637 0
-1637 1783 0
154 -1637 1638 0
-1638 1784 0
155 -1638 0
10 1639 0
-1639 1785 0
11 -1639 1640 0
-1640 1786 0
12 -1640 1641 0
-1641 1787 0
13 -1641 1642 0
-1642 1788 0
14 -1642 1643 0
-1643 1789 0
15 -1643 1644 0
-1644 1790 0
16 -1644 1645 0
-1645 1791 0
17 -1645 1646 0
-1646 1792 0
18 -1646 1647 0
-1647 1793 0
19 -1647 1648 0
-1648 1794 0
20 -1648 1649 0
-1649 1795 0
21 -1649 1650 0
-1650 1796 0
22 -1650 1651 0
-1651 1797 0
23 -1651 1652 0
-1652 1798 0
24 -1652 1653 0
-1653 1799 0
25 -1653 1654 0
-1654 1800 0
26 -1654 1655 0
-1655 1801 0
27 -1655 1656 0
-1656 1802 0
28 -1656 1657 0
-1657 1803 0
29 -1657 1658 0
-1658 1804 0
30 -1658 1659 0
-1659 1805 0
31 -1659 1660 0
-1660 1806 0
32 -1660 1661 0
-1661 1807 0
33 -1661 1662 0
-1662 1808 0
34 -1662 1663 0
-1663 1809 0
35 -1663 1664 0
-1664 1810 0
36 -1664 1665 0
-1665 1811 0
37 -1665 1666 0
-1666 1812 0
38 -1666 1667 0
-1667 1813 0
39 -1667 1668 0
-1668 1814 0
40 -1668 1669 0
-1669 1815 0
41 -1669 1670 0
-1670 1816 0
42 -1670 1671 0
-1671 1817 0
43 -1671 1672 0
-1672 1818 0
44 -1672 1673 0
-1673 1819 0
45 -1673 1674 0
-1674 1820 0
46 -1674 1675 0
-1675 1821 0
47 -1675 1676 0
-1676 1822 0
48 -1676 1677 0
-1677 1823 0
49 -1677 1678 0
-1678 1824 0
50 -1678 1679 0
-1679 1825 0
51 -1679 1680 0
-1680 1826 0
52 -1680 1681 0
-1681 1827 0
53 -1681 1682 0
-1682 1828 0
54 -1682 1683 0
-1683 1829 0
55 -1683 1684 0
-1684 1830 0
56 -1684 1685 0
-1685 1831 0
57 -1685 1686 0
-1686 1832 0
58 -1686 1687 0
-1687 1833 0
59 -1687 1688 0
-1688 1834 0
60 -1688 1689 0
-1689 1835 0
61 -1689 1690 0
-1690 1836 0
62 -1690 1691 0
-1691 1837 0
63 -1691 1692 0
-1692 1838 0
64 -1692 1693 0
-1693 1839 0
65 -1693 1694 0
-1694 1840 0
66 -1694 1695 0
-1695 1841 0
67 -1695 1696 0
-1696 1842 0
68 -1696 1697 0
-1697 1843 0
69 -1697 1698 0
-1698 1844 0
70 -1698 1699 0
-1699 1845 0
71 -1699 1700 0
-1700 1846 0
72 -1700 1701 0
-1701 1847 0
73 -1701 1702 0
-1702 1848 0
74 -1702 1703 0
-1703 1849 0
75 -1703 1704 0
-1704 1850 0
76 -1704 1705 0
-1705 1851 0
77 -1705 1706 0
-1706 1852 0
78 -1706 1707 0
-1707 1853 0
79 -1707 1708 0
-1708 1854 0
80 -1708 1709 0
-1709 1855 0
81 -1709 1710 0
-1710 1856 0
82 -1710 1711 0
-1711 1857 0
83 -1711 1712 0
-1712 1858 0
84 -1712 1713 0
-1713 1859 0
85 -1713 1714 0
-1714 1860 0
86 -1714 1715 0
-1715 1861 0
87 -1715 1716 0
-1716 1862 0
88 -1716 1717 0
-1717 1863 0
89 -1717 1718 0
-1718 1864 0
90 -1718 1719 0
-1719 1865 0
91 -1719 1720 0
-1720 1866 0
92 -1720 1721 0
-1721 1867 0
93 -1721 1722 0
-1722 1868 0
94 -1722 1723 0
-1723 1869 0
95 -1723 1724 0
-1724 1870 0
96 -1724 1725 0
-1725 1871 0
97 -1725 1726 0
-1726 1872 0
98 -1726 1727 0
-1727 1873 0
99 -1727 1728 0
-1728 1874 0
100 -1728 1729 0
-1729 1875 0
101 -1729 1730 0
-1730 1876 0
102 -1730 1731 0
-1731 1877 0
103 -1731 1732 0
-1732 1878 0
104 -1732 1733 0
-1733 1879 0
105 -1733 1734 0
-1734 1880 0
106 -1734 1735 0
-1735 1881 0
107 -1735 1736 0
-1736 1882 0
108 -1736 1737 0
-1737 1883 0
109 -1737 1738 0
-1738 1884 0
110 -1738 1739 0
-1739 1885 0
111 -1739 1740 0
-1740 1886 0
112 -1740 1741 0
-1741 1887 0
113 -1741 1742 0
-1742 1888 0
114 -1742 1743 0
-1743 1889 0
115 -1743 1744 0
-1744 1890 0
116 -1744 1745 0
-1745 1891 0
117 -1745 1746 0
-1746 1892 0
118 -1746 1747 0
-1747 1893 0
119 -1747 1748 0
-1748 1894 0
120 -1748 1749 0
-1749 1895 0
121 -1749 1750 0
-1750 1896 0
122 -1750 1751 0
-1751 1897 0
123 -1751 1752 0
-1752 1898 0
124 -1752 1753 0
-1753 1899 0
125 -1753 1754 0
-1754 1900 0
126 -1754 1755 0
-1755 1901 0
127 -1755 1756 0
-1756 1902 0
128 -1756 1757 0
-1757 1903 0
129 -1757 1758 0
-1758 1904 0
130 -1758 1759 0
-1759 1905 0
131 -1759 1760 0
-1760 1906 0
132 -1760 1761 0
-1761 1907 0
133 -1761 1762 0
-1762 1908 0
134 -1762 1763 0
-1763 1909 0
135 -1763 1764 0
-1764 1910 0
136 -1764 1765 0
-1765 1911 0
137 -1765 1766 0
-1766 1912 0
138 -1766 1767 0
-1767 1913 0
139 -1767 1768 0
-1768 1914 0
140 -1768 1769 0
-1769 1915 0
141 -1769 1770 0
-1770 1916 0
142 -1770 1771 0
-1771 1917 0
143 -1771 1772 0
-1772 1918 0
144 -1772 1773 0
-1773 1919 0
145 -1773 1774 0
-1774 1920 0
146 -1774 1775 0
-1775 1921 0
147 -1775 1776 0
-1776 1922 0
148 -1776 1777 0
-1777 1923 0
149 -1777 1778 0
-1778 1924 0
150 -1778 1779 0
-1779 1925 0
151 -1779 1780 0
-1780 1926 0
152 -1780 1781 0
-1781 1927 0
153 -1781 1782 0
-1782 1928 0
154 -1782 1783 0
-1783 1929 0
155 -1783 1784 0
-1784 1930 0
156 -1784 0
11 1785 0
-1785 1931 0
12 -1785 1786 0
-1786 1932 0
13 -1786 1787 0
-1787 1933 0
14 -1787 1788 0
-1788 1934 0
15 -1788 1789 0
-1789 1935 0
16 -1789 1790 0
-1790 1936 0
17 -1790 1791 0
-1791 1937 0
18 -1791 1792 0
-1792 1938 0
19 -1792 1793 0
-1793 1939 0
20 -1793 1794 0
-1794 1940 0
21 -1794 1795 0
-1795 1941 0
22 -1795 1796 0
-1796 1942 0
23 -1796 1797 0
-1797 1943 0
24 -1797 1798 0
-1798 1944 0
25 -1798 1799 0
-1799 1945 0
26 -1799 1800 0
-1800 1946 0
27 -1800 1801 0
-1801 1947 0
28 -1801 1802 0
-1802 1948 0
29 -1802 1803 0
-1803 1949 0
30 -1803 1804 0
-1804 1950 0
31 -1804 1805 0
-1805 1951 0
32 -1805 1806 0
-1806 1952 0
33 -1806 1807 0
-1807 1953 0
34 -1807 1808 0
-1808 1954 0
35 -1808 1809 0
-1809 1955 0
36 -1809 1810 0
-1810 1956 0
37 -1810 1811 0
-1811 1957 0
38 -1811 1812 0
-1812 1958 0
39 -1812 1813 0
-1813 1959 0
40 -1813 1814 0
-1814 1960 0
41 -1814 1815 0
-1815 1961 0
42 -1815 1816 0
-1816 1962 0
43 -1816 1817 0
-1817 1963 0
44 -1817 1818 0
-1818 1964 0
45 -1818 1819 0
-1819 1965 0
46 -1819 1820 0
-1820 1966 0
47 -1820 1821 0
-1821 1967 0
48 -1821 1822 0
-1822 1968 0
49 -1822 1823 0
-1823 1969 0
50 -1823 1824 0
-1824 1970 0
51 -1824 1825 0
-1825 1971 0
52 -1825 1826 0
-1826 1972 0
53 -1826 1827 0
-1827 1973 0
54 -1827 1828 0
-1828 1974 0
55 -1828 1829 0
-1829 1975 0
56 -1829 1830 0
-1830 1976 0
57 -1830 1831 0
-1831 1977 0
58 -1831 1832 0
-1832 1978 0
59 -1832 1833 0
-1833 1979 0
60 -1833 1834 0
-1834 1980 0
61 -1834 1835 0
-1835 1981 0
62 -1835 1836 0
-1836 1982 0
63 -1836 1837 0
-1837 1983 0
64 -1837 1838 0
-1838 1984 0
65 -1838 1839 0
-1839 1985 0
66 -1839 1840 0
-1840 1986 0
67 -1840 1841 0
-1841 1987 0
68 -1841 1842 0
-1842 1988 0
69 -1842 1843 0
-1843 1989 0
70 -1843 1844 0
-1844 1990 0
71 -1844 1845 0
-1845 1991 0
72 -1845 1846 0
-1846 1992 0
73 -1846 1847 0
-1847 1993 0
74 -1847 1848 0
-1848 1994 0
75 -1848 1849 0
-1849 1995 0
76 -1849 1850 0
-1850 1996 0
77 -1850 1851 0
-1851 1997 0
78 -1851 1852 0
-1852 1998 0
79 -1852 1853 0
-1853 1999 0
80 -1853 1854 0
-1854 2000 0
81 -1854 1855 0
-1855 2001 0
82 -1855 1856 0
-1856 2002 0
83 -1856 1857 0
-1857 2003 0
84 -1857 1858 0
-1858 2004 0
85 -1858 1859 0
-1859 2005 0
86 -1859 1860 0
-1860 2006 0
87 -1860 1861 0
-1861 2007 0
88 -1861 1862 0
-1862 2008 0
89 -1862 1863 0
-1863 2009 0
90 -1863 1864 0
-1864 2010 0
91 -1864 1865 0
-1865 2011 0
92 -1865 1866 0
-1866 2012 0
93 -1866 1867 0
-1867 2013 0
94 -1867 1868 0
-1868 2014 0
95 -1868 1869 0
-1869 2015 0
96 -1869 1870 0
-1870 2016 0
97 -1870 1871 0
-1871 2017 0
98 -1871 1872 0
-1872 2018 0
99 -1872 1873 0
-1873 2019 0
100 -1873 1874 0
-1874 2020 0
101 -1874 1875 0
-1875 2021 0
102 -1875 1876 0
-1876 2022 0
103 -1876 1877 0
-1877 2023 0
104 -1877 1878 0
-1878 2024 0
105 -1878 1879 0
-1879 2025 0
106 -1879 1880 0
-1880 2026 0
107 -1880 1881 0
-1881 2027 0
108 -1881 1882 0
-1882 2028 0
109 -1882 1883 0
-1883 2029 0
110 -1883 1884 0
-1884 2030 0
111 -1884 1885 0
-1885 2031 0
112 -1885 1886 0
-1886 2032 0
113 -1886 1887 0
-1887 2033 0
114 -1887 1888 0
-1888 2034 0
115 -1888 1889 0
-1889 2035 0
116 -1889 1890 0
-1890 2036 0
117 -1890 1891 0
-1891 2037 0
118 -1891 1892 0
-1892 2038 0
119 -1892 1893 0
-1893 2039 0
120 -1893 1894 0
-1894 2040 0
121 -1894 1895 0
-1895 2041 0
122 -1895 1896 0
-1896 2042 0
123 -1896 1897 0
-1897 2043 0
124 -1897 1898 0
-1898 2044 0
125 -1898 1899 0
-1899 2045 0
126 -1899 1900 0
-1900 2046 0
127 -1900 1901 0
-1901 2047 0
128 -1901 1902 0
-1902 2048 0
129 -1902 1903 0
-1903 2049 0
130 -1903 1904 0
-1904 2050 0
131 -1904 1905 0
-1905 2051 0
132 -1905 1906 0
-1906 2052 0
133 -1906 1907 0
-1907 2053 0
134 -1907 1908 0
-1908 2054 0
135 -1908 1909 0
-1909 2055 0
136 -1909 1910 0
-1910 2056 0
137 -1910 1911 0
-1911 2057 0
138 -1911 1912 0
-1912 2058 0
139 -1912 1913 0
-1913 2059 0
140 -1913 1914 0
-1914 2060 0
141 -1914 1915 0
-1915 2061 0
142 -1915 1916 0
-1916 2062 0
143 -1916 1917 0
-1917 2063 0
144 -1917 1918 0
-1918 2064 0
145 -1918 1919 0
-1919 2065 0
146 -1919 1920 0
-1920 2066 0
147 -1920 1921 0
-1921 2067 0
148 -1921 1922 0
-1922 2068 0
149 -1922 1923 0
-1923 2069 0
150 -1923 1924 0
-1924 2070 0
151 -1924 1925 0
-1925 2071 0
152 -1925 1926 0
-1926 2072 0
153 -1926 1927 0
-1927 2073 0
154 -1927 1928 0
-1928 2074 0
155 -1928 1929 0
-1929 2075 0
156 -1929 1930 0
-1930 2076 0
157 -1930 0
12 1931 0
-1931 2077 0
13 -1931 1932 0
-1932 2078 0
14 -1932 1933 0
-1933 2079 0
15 -1933 1934 0
-1934 2080 0
16 -1934 1935 0
-1935 2081 0
17 -1935 1936 0
-1936 2082 0
18 -1936 1937 0
-1937 2083 0
19 -1937 1938 0
-1938 2084 0
20 -1938 1939 0
-1939 2085 0
21 -1939 1940 0
-1940 2086 0
22 -1940 1941 0
-1941 2087 0
23 -1941 1942 0
-1942 2088 0
24 -1942 1943 0
-1943 2089 0
25 -1943 1944 0
-1944 2090 0
26 -1944 1945 0
-1945 2091 0
27 -1945 1946 0
-1946 2092 0
28 -1946 1947 0
-1947 2093 0
29 -1947 1948 0
-1948 2094 0
30 -1948 1949 0
-1949 2095 0
31 -1949 1950 0
-1950 2096 0
32 -1950 1951 0
-1951 2097 0
33 -1951 1952 0
-1952 2098 0
34 -1952 1953 0
-1953 2099 0
35 -1953 1954 0
-1954 2100 0
36 -1954 1955 0
-1955 2101 0
37 -1955 1956 0
-1956 2102 0
38 -1956 1957 0
-1957 2103 0
39 -1957 1958 0
-1958 2104 0
40 -1958 1959 0
-1959 2105 0
41 -1959 1960 0
-1960 2106 0
42 -1960 1961 0
-1961 2107 0
43 -1961 1962 0
-1962 2108 0
44 -1962 1963 0
-1963 2109 0
45 -1963 1964 0
-1964 2110 0
46 -1964 1965 0
-1965 2111 0
47 -1965 1966 0
-1966 2112 0
48 -1966 1967 0
-1967 2113 0
49 -1967 1968 0
-1968 2114 0
50 -1968 1969 0
-1969 2115 0
51 -1969 1970 0
-1970 2116 0
52 -1970 1971 0
-1971 2117 0
53 -1971 1972 0
-1972 2118 0
54 -1972 1973 0
-1973 2119 0
55 -1973 1974 0
-1974 2120 0
56 -1974 1975 0
-1975 2121 0
57 -1975 1976 0
-1976 2122 0
58 -1976 1977 0
-1977 2123 0
59 -1977 1978 0
-1978 2124 0
60 -1978 1979 0
-1979 2125 0
61 -1979 1980 0
-1980 2126 0
62 -1980 1981 0
-1981 2127 0
63 -1981 1982 0
-1982 2128 0
64 -1982 1983 0
-1983 2129 0
65 -1983 1984 0
-1984 2130 0
66 -1984 1985 0
-1985 2131 0
67 -1985 1986 0
-1986 2132 0
68 -1986 1987 0
-1987 2133 0
69 -1987 1988 0
-1988 2134 0
70 -1988 1989 0
-1989 2135 0
71 -1989 1990 0
-1990 2136 0
72 -1990 1991 0
-1991 2137 0
73 -1991 1992 0
-1992 2138 0
74 -1992 1993 0
-1993 2139 0
75 -1993 1994 0
-1994 2140 0
76 -1994 1995 0
-1995 2141 0
77 -1995 1996 0
-1996 2142 0
78 -1996 1997 0
-1997 2143 0
79 -1997 1998 0
-1998 2144 0
80 -1998 1999 0
-1999 2145 0
81 -1999 2000 0
-2000 2146 0
82 -2000 2001 0
-2001 2147 0
83 -2001 2002 0
-2002 2148 0
84 -2002 2003 0
-2003 2149 0
85 -2003 2004 0
-2004 2150 0
86 -2004 2005 0
-2005 2151 0
87 -2005 2006 0
-2006 2152 0
88 -2006 2007 0
-2007 2153 0
89 -2007 2008 0
-2008 2154 0
90 -2008 2009 0
-2009 2155 0
91 -2009 2010 0
-2010 2156 0
92 -2010 2011 0
-2011 2157 0
93 -2011 2012 0
-2012 2158 0
94 -2012 2013 0
-2013 2159 0
95 -2013 2014 0
-2014 2160 0
96 -2014 2015 0
-2015 2161 0
97 -2015 2016 0
-2016 2162 0
98 -2016 2017 0
-2017 2163 0
99 -2017 2018 0
-2018 2164 0
100 -2018 2019 0
-2019 2165 0
101 -2019 2020 0
-2020 2166 0
102 -2020 2021 0
-2021 2167 0
103 -2021 2022 0
-2022 2168 0
104 -2022 2023 0
-2023 2169 0
105 -2023 2024 0
-2024 2170 0
106 -2024 2025 0
-2025 2171 0
107 -2025 2026 0
-2026 2172 0
108 -2026 2027 0
-2027 2173 0
109 -2027 2028 0
-2028 2174 0
110 -2028 2029 0
-2029 2175 0
111 -2029 2030 0
-2030 2176 0
112 -2030 2031 0
-2031 2177 0
113 -2031 2032 0
-2032 2178 0
114 -2032 2033 0
-2033 2179 0
115 -2033 2034 0
-2034 2180 0
116 -2034 2035 0
-2035 2181 0
117 -2035 2036 0
-2036 2182 0
118 -2036 2037 0
-2037 2183 0
119 -2037 2038 0
-2038 2184 0
120 -2038 2039 0
-2039 2185 0
121 -2039 2040 0
-2040 2186 0
122 -2040 2041 0
-2041 2187 0
123 -2041 2042 0
-2042 2188 0
124 -2042 2043 0
-2043 2189 0
125 -2043 2044 0
-2044 2190 0
126 -2044 2045 0
-2045 2191 0
127 -2045 2046 0
-2046 2192 0
128 -2046 2047 0
-2047 2193 0
129 -2047 2048 0
-2048 2194 0
130 -2048 2049 0
-2049 2195 0
131 -2049 2050 0
-2050 2196 0
132 -2050 2051 0
-2051 2197 0
133 -2051 2052 0
-2052 2198 0
134 -2052 2053 0
-2053 2199 0
135 -2053 2054 0
-2054 2200 0
136 -2054 2055 0
-2055 2201 0
137 -2055 2056 0
-2056 2202 0
138 -2056 2057 0
-2057 2203 0
139 -2057 2058 0
-2058 2204 0
140 -2058 2059 0
-2059 2205 0
141 -2059 2060 0
-2060 2206 0
142 -2060 2061 0
-2061 2207 0
143 -2061 2062 0
-2062 2208 0
144 -2062 2063 0
-2063 2209 0
145 -2063 2064 0
-2064 2210 0
146 -2064 2065 0
-2065 2211 0
147 -2065 2066 0
-2066 2212 0
148 -2066 2067 0
-2067 2213 0
149 -2067 2068 0
-2068 2214 0
150 -2068 2069 0
-2069 2215 0
151 -2069 2070 0
-2070 2216 0
152 -2070 2071 0
-2071 2217 0
153 -2071 2072 0
-2072 2218 0
154 -2072 2073 0
-2073 2219 0
155 -2073 2074 0
-2074 2220 0
156 -2074 2075 0
-2075 2221 0
157 -2075 2076 0
-2076 2222 0
158 -2076 0
13 2077 0
-2077 2223 0
14 -2077 2078 0
-2078 2224 0
15 -2078 2079 0
-2079 2225 0
16 -2079 2080 0
-2080 2226 0
17 -2080 2081 0
-2081 2227 0
18 -2081 2082 0
-2082 2228 0
19 -2082 2083 0
-2083 2229 0
20 -2083 2084 0
-2084 2230 0
21 -2084 2085 0
-2085 2231 0
22 -2085 2086 0
-2086 2232 0
23 -2086 2087 0
-2087 2233 0
24 -2087 2088 0
-2088 2234 0
25 -2088 2089 0
-2089 2235 0
26 -2089 2090 0
-2090 2236 0
27 -2090 2091 0
-2091 2237 0
28 -2091 2092 0
-2092 2238 0
29 -2092 2093 0
-2093 2239 0
30 -2093 2094 0
-2094 2240 0
31 -2094 2095 0
-2095 2241 0
32 -2095 2096 0
-2096 2242 0
33 -2096 2097 0
-2097 2243 0
34 -2097 2098 0
-2098 2244 0
35 -2098 2099 0
-2099 2245 0
36 -2099 2100 0
-2100 2246 0
37 -2100 2101 0
-2101 2247 0
38 -2101 2102 0
-2102 2248 0
39 -2102 2103 0
-2103 2249 0
40 -2103 2104 0
-2104 2250 0
41 -2104 2105 0
-2105 2251 0
42 -2105 2106 0
-2106 2252 0
43 -2106 2107 0
-2107 2253 0
44 -2107 2108 0
-2108 2254 0
45 -2108 2109 0
-2109 2255 0
46 -2109 2110 0
-2110 2256 0
47 -2110 2111 0
-2111 2257 0
48 -2111 2112 0
-2112 2258 0
49 -2112 2113 0
-2113 2259 0
50 -2113 2114 0
-2114 2260 0
51 -2114 2115 0
-2115 2261 0
52 -2115 2116 0
-2116 2262 0
53 -2116 2117 0
-2117 2263 0
54 -2117 2118 0
-2118 2264 0
55 -2118 2119 0
-2119 2265 0
56 -2119 2120 0
-2120 2266 0
57 -2120 2121 0
-2121 2267 0
58 -2121 2122 0
-2122 2268 0
59 -2122 2123 0
-2123 2269 0
60 -2123 2124 0
-2124 2270 0
61 -2124 2125 0
-2125 2271 0
62 -2125 2126 0
-2126 2272 0
63 -2126 2127 0
-2127 2273 0
64 -2127 2128 0
-2128 2274 0
65 -2128 2129 0
-2129 2275 0
66 -2129 2130 0
-2130 2276 0
67 -2130 2131 0
-2131 2277 0
68 -2131 2132 0
-2132 2278 0
69 -2132 2133 0
-2133 2279 0
70 -2133 2134 0
-2134 2280 0
71 -2134 2135 0
-2135 2281 0
72 -2135 2136 0
-2136 2282 0
73 -2136 2137 0
-2137 2283 0
74 -2137 2138 0
-2138 2284 0
75 -2138 2139 0
-2139 2285 0
76 -2139 2140 0
-2140 2286 0
77 -2140 2141 0
-2141 2287 0
78 -2141 2142 0
-2142 2288 0
79 -2142 2143 0
-2143 2289 0
80 -2143 2144 0
-2144 2290 0
81 -2144 2145 0
-2145 2291 0
82 -2145 2146 0
-2146 2292 0
83 -2146 2147 0
-2147 2293 0
84 -2147 2148 0
-2148 2294 0
85 -2148 2149 0
-2149 2295 0
86 -2149 2150 0
-2150 2296 0
87 -2150 2151 0
-2151 2297 0
88 -2151 2152 0
-2152 2298 0
89 -2152 2153 0
-2153 2299 0
90 -2153 2154 0
-2154 2300 0
91 -2154 2155 0
-2155 2301 0
92 -2155 2156 0
-2156 2302 0
93 -2156 2157 0
-2157 2303 0
94 -2157 2158 0
-2158 2304 0
95 -2158 2159 0
-2159 2305 0
96 -2159 2160 0
-2160 2306 0
97 -2160 2161 0
-2161 2307 0
98 -2161 2162 0
-2162 2308 0
99 -2162 2163 0
-2163 2309 0
100 -2163 2164 0
-2164 2310 0
101 -2164 2165 0
-2165 2311 0
102 -2165 2166 0
-2166 2312 0
103 -2166 2167 0
-2167 2313 0
104 -2167 2168 0
-2168 2314 0
105 -2168 2169 0
-2169 2315 0
106 -2169 2170 0
-2170 2316 0
107 -2170 2171 0
-2171 2317 0
108 -2171 2172 0
-2172 2318 0
109 -2172 2173 0
-2173 2319 0
110 -2173 2174 0
-2174 2320 0
111 -2174 2175 0
-2175 2321 0
112 -2175 2176 0
-2176 2322 0
113 -2176 2177 0
-2177 2323 0
114 -2177 2178 0
-2178 2324 0
115 -2178 2179 0
-2179 2325 0
116 -2179 2180 0
-2180 2326 0
117 -2180 2181 0
-2181 2327 0
118 -2181 2182 0
-2182 2328 0
119 -2182 2183 0
-2183 2329 0
120 -2183 2184 0
-2184 2330 0
121 -2184 2185 0
-2185 2331 0
122 -2185 2186 0
-2186 2332 0
123 -2186 2187 0
-2187 2333 0
124 -2187 2188 0
-2188 2334 0
125 -2188 2189 0
-2189 2335 0
126 -2189 2190 0
-2190 2336 0
127 -2190 2191 0
-2191 2337 0
128 -2191 2192 0
-2192 2338 0
129 -2192 2193 0
-2193 2339 0
130 -2193 2194 0
-2194 2340 0
131 -2194 2195 0
-2195 2341 0
132 -2195 2196 0
-2196 2342 0
133 -2196 2197 0
-2197 2343 0
134 -2197 2198 0
-2198 2344 0
135 -2198 2199 0
-2199 2345 0
136 -2199 2200 0
-2200 2346 0
137 -2200 2201 0
-2201 2347 0
138 -2201 2202 0
-2202 2348 0
139 -2202 2203 0
-2203 2349 0
140 -2203 2204 0
-2204 2350 0
141 -2204 2205 0
-2205 2351 0
142 -2205 2206 0
-2206 2352 0
143 -2206 2207 0
-2207 2353 0
144 -2207 2208 0
-2208 2354 0
145 -2208 2209 0
-2209 2355 0
146 -2209 2210 0
-2210 2356 0
147 -2210 2211 0
-2211 2357 0
148 -2211 2212 0
-2212 2358 0
149 -2212 2213 0
-2213 2359 0
150 -2213 2214 0
-2214 2360 0
151 -2214 2215 0
-2215 2361 0
152 -2215 2216 0
-2216 2362 0
153 -2216 2217 0
-2217 2363 0
154 -2217 2218 0
-2218 2364 0
155 -2218 2219 0
-2219 2365 0
156 -2219 2220 0
-2220 2366 0
157 -2220 2221 0
-2221 2367 0
158 -2221 2222 0
-2222 2368 0
159 -2222 0
14 2223 0
-2223 2369 0
15 -2223 2224 0
-2224 2370 0
16 -2224 2225 0
-2225 2371 0
17 -2225 2226 0
-2226 2372 0
18 -2226 2227 0
-2227 2373 0
19 -2227 2228 0
-2228 2374 0
20 -2228 2229 0
-2229 2375 0
21 -2229 2230 0
-2230 2376 0
22 -2230 2231 0
-2231 2377 0
23 -2231 2232 0
-2232 2378 0
24 -2232 2233 0
-2233 2379 0
25 -2233 2234 0
-2234 2380 0
26 -2234 2235 0
-2235 2381 0
27 -2235 2236 0
-2236 2382 0
28 -2236 2237 0
-2237 2383 0
29 -2237 2238 0
-2238 2384 0
30 -2238 2239 0
-2239 2385 0
31 -2239 2240 0
-2240 2386 0
32 -2240 2241 0
-2241 2387 0
33 -2241 2242 0
-2242 2388 0
34 -2242 2243 0
-2243 2389 0
35 -2243 2244 0
-2244 2390 0
36 -2244 2245 0
-2245 2391 0
37 -2245 2246 0
-2246 2392 0
38 -2246 2247 0
-2247 2393 0
39 -2247 2248 0
-2248 2394 0
40 -2248 2249 0
-2249 2395 0
41 -2249 2250 0
-2250 2396 0
42 -2250 2251 0
-2251 2397 0
43 -2251 2252 0
-2252 2398 0
44 -2252 2253 0
-2253 2399 0
45 -2253 2254 0
-2254 2400 0
46 -2254 2255 0
-2255 2401 0
47 -2255 2256 0
-2256 2402 0
48 -2256 2257 0
-2257 2403 0
49 -2257 2258 0
-2258 2404 0
50 -2258 2259 0
-2259 2405 0
51 -2259 2260 0
-2260 2406 0
52 -2260 2261 0
-2261 2407 0
53 -2261 2262 0
-2262 2408 0
54 -2262 2263 0
-2263 2409 0
55 -2263 2264 0
-2264 2410 0
56 -2264 2265 0
-2265 2411 0
57 -2265 2266 0
-2266 2412 0
58 -2266 2267 0
-2267 2413 0
59 -2267 2268 0
-2268 2414 0
60 -2268 2269 0
-2269 2415 0
61 -2269 2270 0
-2270 2416 0
62 -2270 2271 0
-2271 2417 0
63 -2271 2272 0
-2272 2418 0
64 -2272 2273 0
-2273 2419 0
65 -2273 2274 0
-2274 2420 0
66 -2274 2275 0
-2275 2421 0
67 -2275 2276 0
-2276 2422 0
68 -2276 2277 0
-2277 2423 0
69 -2277 2278 0
-2278 2424 0
70 -2278 2279 0
-2279 2425 0
71 -2279 2280 0
-2280 2426 0
72 -2280 2281 0
-2281 2427 0
73 -2281 2282 0
-2282 2428 0
74 -2282 2283 0
-2283 2429 0
75 -2283 2284 0
-2284 2430 0
76 -2284 2285 0
-2285 2431 0
77 -2285 2286 0
-2286 2432 0
78 -2286 2287 0
-2287 2433 0
79 -2287 2288 0
-2288 2434 0
80 -2288 2289 0
-2289 2435 0
81 -2289 2290 0
-2290 2436 0
82 -2290 2291 0
-2291 2437 0
83 -2291 2292 0
-2292 2438 0
84 -2292 2293 0
-2293 2439 0
85 -2293 2294 0
-2294 2440 0
86 -2294 2295 0
-2295 2441 0
87 -2295 2296 0
-2296 2442 0
88 -2296 2297 0
-2297 2443 0
89 -2297 2298 0
-2298 2444 0
90 -2298 2299 0
-2299 2445 0
91 -2299 2300 0
-2300 2446 0
92 -2300 2301 0
-2301 2447 0
93 -2301 2302 0
-2302 2448 0
94 -2302 2303 0
-2303 2449 0
95 -2303 2304 0
-2304 2450 0
96 -2304 2305 0
-2305 2451 0
97 -2305 2306 0
-2306 2452 0
98 -2306 2307 0
-2307 2453 0
99 -2307 2308 0
-2308 2454 0
100 -2308 2309 0
-2309 2455 0
101 -2309 2310 0
-2310 2456 0
102 -2310 2311 0
-2311 2457 0
103 -2311 2312 0
-2312 2458 0
104 -2312 2313 0
-2313 2459 0
105 -2313 2314 0
-2314 2460 0
106 -2314 2315 0
-2315 2461 0
107 -2315 2316 0
-2316 2462 0
108 -2316 2317 0
-2317 2463 0
109 -2317 2318 0
-2318 2464 0
110 -2318 2319 0
-2319 2465 0
111 -2319 2320 0
-2320 2466 0
112 -2320 2321 0
-2321 2467 0
113 -2321 2322 0
-2322 2468 0
114 -2322 2323 0
-2323 2469 0
115 -2323 2324 0
-2324 2470 0
116 -2324 2325 0
-2325 2471 0
117 -2325 2326 0
-2326 2472 0
118 -2326 2327 0
-2327 2473 0
119 -2327 2328 0
-2328 2474 0
120 -2328 2329 0
-2329 2475 0
121 -2329 2330 0
-2330 2476 0
122 -2330 2331 0
-2331 2477 0
123 -2331 2332 0
-2332 2478 0
124 -2332 2333 0
-2333 2479 0
125 -2333 2334 0
-2334 2480 0
126 -2334 2335 0
-2335 2481 0
127 -2335 2336 0
-2336 2482 0
128 -2336 2337 0
-2337 2483 0
129 -2337 2338 0
-2338 2484 0
130 -2338 2339 0
-2339 2485 0
131 -2339 2340 0
-2340 2486 0
132 -2340 2341 0
-2341 2487 0
133 -2341 2342 0
-2342 2488 0
134 -2342 2343 0
-2343 2489 0
135 -2343 2344 0
-2344 2490 0
136 -2344 2345 0
-2345 2491 0
137 -2345 2346 0
-2346 2492 0
138 -2346 2347 0
-2347 2493 0
139 -2347 2348 0
-2348 2494 0
140 -2348 2349 0
-2349 2495 0
141 -2349 2350 0
-2350 2496 0
142 -2350 2351 0
-2351 2497 0
143 -2351 2352 0
-2352 2498 0
144 -2352 2353 0
-2353 2499 0
145 -2353 2354 0
-2354 2500 0
146 -2354 2355 0
-2355 2501 0
147 -2355 2356 0
-2356 2502 0
148 -2356 2357 0
-2357 2503 0
149 -2357 2358 0
-2358 2504 0
150 -2358 2359 0
-2359 2505 0
151 -2359 2360 0
-2360 2506 0
152 -2360 2361 0
-2361 2507 0
153 -2361 2362 0
-2362 2508 0
154 -2362 2363 0
-2363 2509 0
155 -2363 2364 0
-2364 2510 0
156 -2364 2365 0
-2365 2511 0
157 -2365 2366 0
-2366 2512 0
158 -2366 2367 0
-2367 2513 0
159 -2367 2368 0
-2368 2514 0
160 -2368 0
15 2369 0
-2369 2515 0
16 -2369 2370 0
-2370 2516 0
17 -2370 2371 0
-2371 2517 0
18 -2371 2372 0
-2372 2518 0
19 -2372 2373 0
-2373 2519 0
20 -2373 2374 0
-2374 2520 0
21 -2374 2375 0
-2375 2521 0
22 -2375 2376 0
-2376 2522 0
23 -2376 2377 0
-2377 2523 0
24 -2377 2378 0
-2378 2524 0
25 -2378 2379 0
-2379 2525 0
26 -2379 2380 0
-2380 2526 0
27 -2380 2381 0
-2381 2527 0
28 -2381 2382 0
-2382 2528 0
29 -2382 2383 0
-2383 2529 0
30 -2383 2384 0
-2384 2530 0
31 -2384 2385 0
-2385 2531 0
32 -2385 2386 0
-2386 2532 0
33 -2386 2387 0
-2387 2533 0
34 -2387 2388 0
-2388 2534 0
35 -2388 2389 0
-2389 2535 0
36 -2389 2390 0
-2390 2536 0
37 -2390 2391 0
-2391 2537 0
38 -2391 2392 0
-2392 2538 0
39 -2392 2393 0
-2393 2539 0
40 -2393 2394 0
-2394 2540 0
41 -2394 2395 0
-2395 2541 0
42 -2395 2396 0
-2396 2542 0
43 -2396 2397 0
-2397 2543 0
44 -2397 2398 0
-2398 2544 0
45 -2398 2399 0
-2399 2545 0
46 -2399 2400 0
-2400 2546 0
47 -2400 2401 0
-2401 2547 0
48 -2401 2402 0
-2402 2548 0
49 -2402 2403 0
-2403 2549 0
50 -2403 2404 0
-2404 2550 0
51 -2404 2405 0
-2405 2551 0
52 -2405 2406 0
-2406 2552 0
53 -2406 2407 0
-2407 2553 0
54 -2407 2408 0
-2408 2554 0
55 -2408 2409 0
-2409 2555 0
56 -2409 2410 0
-2410 2556 0
57 -2410 2411 0
-2411 2557 0
58 -2411 2412 0
-2412 2558 0
59 -2412 2413 0
-2413 2559 0
60 -2413 2414 0
-2414 2560 0
61 -2414 2415 0
-2415 2561 0
62 -2415 2416 0
-2416 2562 0
63 -2416 2417 0
-2417 2563 0
64 -2417 2418 0
-2418 2564 0
65 -2418 2419 0
-2419 2565 0
66 -2419 2420 0
-2420 2566 0
67 -2420 2421 0
-2421 2567 0
68 -2421 2422 0
-2422 2568 0
69 -2422 2423 0
-2423 2569 0
70 -2423 2424 0
-2424 2570 0
71 -2424 2425 0
-2425 2571 0
72 -2425 2426 0
-2426 2572 0
73 -2426 2427 0
-2427 2573 0
74 -2427 2428 0
-2428 2574 0
75 -2428 2429 0
-2429 2575 0
76 -2429 2430 0
-2430 2576 0
77 -2430 2431 0
-2431 2577 0
78 -2431 2432 0
-2432 2578 0
79 -2432 2433 0
-2433 2579 0
80 -2433 2434 0
-2434 2580 0
81 -2434 2435 0
-2435 2581 0
82 -2435 2436 0
-2436 2582 0
83 -2436 2437 0
-2437 2583 0
84 -2437 2438 0
-2438 2584 0
85 -2438 2439 0
-2439 2585 0
86 -2439 2440 0
-2440 2586 0
87 -2440 2441 0
-2441 2587 0
88 -2441 2442 0
-2442 2588 0
89 -2442 2443 0
-2443 2589 0
90 -2443 2444 0
-2444 2590 0
91 -2444 2445 0
-2445 2591 0
92 -2445 2446 0
-2446 2592 0
93 -2446 2447 0
-2447 2593 0
94 -2447 2448 0
-2448 2594 0
95 -2448 2449 0
-2449 2595 0
96 -2449 2450 0
-2450 2596 0
97 -2450 2451 0
-2451 2597 0
98 -2451 2452 0
-2452 2598 0
99 -2452 2453 0
-2453 2599 0
100 -2453 2454 0
-2454 2600 0
101 -2454 2455 0
-2455 2601 0
102 -2455 2456 0
-2456 2602 0
103 -2456 2457 0
-2457 2603 0
104 -2457 2458 0
-2458 2604 0
105 -2458 2459 0
-2459 2605 0
106 -2459 2460 0
-2460 2606 0
107 -2460 2461 0
-2461 2607 0
108 -2461 2462 0
-2462 2608 0
109 -2462 2463 0
-2463 2609 0
110 -2463 2464 0
-2464 2610 0
111 -2464 2465 0
-2465 2611 0
112 -2465 2466 0
-2466 2612 0
113 -2466 2467 0
-2467 2613 0
114 -2467 2468 0
-2468 2614 0
115 -2468 2469 0
-2469 2615 0
116 -2469 2470 0
-2470 2616 0
117 -2470 2471 0
-2471 2617 0
118 -2471 2472 0
-2472 2618 0
119 -2472 2473 0
-2473 2619 0
120 -2473 2474 0
-2474 2620 0
121 -2474 2475 0
-2475 2621 0
122 -2475 2476 0
-2476 2622 0
123 -2476 2477 0
-2477 2623 0
124 -2477 2478 0
-2478 2624 0
125 -2478 2479 0
-2479 2625 0
126 -2479 2480 0
-2480 2626 0
127 -2480 2481 0
-2481 2627 0
128 -2481 2482 0
-2482 2628 0
129 -2482 2483 0
-2483 2629 0
130 -2483 2484 0
-2484 2630 0
131 -2484 2485 0
-2485 2631 0
132 -2485 2486 0
-2486 2632 0
133 -2486 2487 0
-2487 2633 0
134 -2487 2488 0
-2488 2634 0
135 -2488 2489 0
-2489 2635 0
136 -2489 2490 0
-2490 2636 0
137 -2490 2491 0
-2491 2637 0
138 -2491 2492 0
-2492 2638 0
139 -2492 2493 0
-2493 2639 0
140 -2493 2494 0
-2494 2640 0
141 -2494 2495 0
-2495 2641 0
142 -2495 2496 0
-2496 2642 0
143 -2496 2497 0
-2497 2643 0
144 -2497 2498 0
-2498 2644 0
145 -2498 2499 0
-2499 2645 0
146 -2499 2500 0
-2500 2646 0
147 -2500 2501 0
-2501 2647 0
148 -2501 2502 0
-2502 2648 0
149 -2502 2503 0
-2503 2649 0
150 -2503 2504 0
-2504 2650 0
151 -2504 2505 0
-2505 2651 0
152 -2505 2506 0
-2506 2652 0
153 -2506 2507 0
-2507 2653 0
154 -2507 2508 0
-2508 2654 0
155 -2508 2509 0
-2509 2655 0
156 -2509 2510 0
-2510 2656 0
157 -2510 2511 0
-2511 2657 0
158 -2511 2512 0
-2512 2658 0
159 -2512 2513 0
-2513 2659 0
160 -2513 2514 0
-2514 2660 0
161 -2514 0
16 2515 0
17 -2515 2516 0
18 -2516 2517 0
19 -2517 2518 0
20 -2518 2519 0
21 -2519 2520 0
22 -2520 2521 0
23 -2521 2522 0
24 -2522 2523 0
25 -2523 2524 0
26 -2524 2525 0
27 -2525 2526 0
28 -2526 2527 0
29 -2527 2528 0
30 -2528 2529 0
31 -2529 2530 0
32 -2530 2531 0
33 -2531 2532 0
34 -2532 2533 0
35 -2533 2534 0
36 -2534 2535 0
37 -2535 2536 0
38 -2536 2537 0
39 -2537 2538 0
40 -2538 2539 0
41 -2539 2540 0
42 -2540 2541 0
43 -2541 2542 0
44 -2542 2543 0
45 -2543 2544 0
46 -2544 2545 0
47 -2545 2546 0
48 -2546 2547 0
49 -2547 2548 0
50 -2548 2549 0
51 -2549 2550 0
52 -2550 2551 0
53 -2551 2552 0
54 -2552 2553 0
55 -2553 2554 0
56 -2554 2555 0
57 -2555 2556 0
58 -2556 2557 0
59 -2557 2558 0
60 -2558 2559 0
61 -2559 2560 0
62 -2560 2561 0
63 -2561 2562 0
64 -2562 2563 0
65 -2563 2564 0
66 -2564 2565 0
67 -2565 2566 0
68 -2566 2567 0
69 -2567 2568 0
70 -2568 2569 0
71 -2569 2570 0
72 -2570 2571 0
73 -2571 2572 0
74 -2572 2573 0
75 -2573 2574 0
76 -2574 2575 0
77 -2575 2576 0
78 -2576 2577 0
79 -2577 2578 0
80 -2578 2579 0
81 -2579 2580 0
82 -2580 2581 0
83 -2581 2582 0
84 -2582 2583 0
85 -2583 2584 0
86 -2584 2585 0
87 -2585 2586 0
88 -2586 2587 0
89 -2587 2588 0
90 -2588 2589 0
91 -2589 2590 0
92 -2590 2591 0
93 -2591 2592 0
94 -2592 2593 0
95 -2593 2594 0
96 -2594 2595 0
97 -2595 2596 0
98 -2596 2597 0
99 -2597 2598 0
100 -2598 2599 0
101 -2599 2600 0
102 -2600 2601 0
103 -2601 2602 0
104 -2602 2603 0
105 -2603 2604 0
106 -2604 2605 0
107 -2605 2606 0
108 -2606 2607 0
109 -2607 2608 0
110 -2608 2609 0
111 -2609 2610 0
112 -2610 2611 0
113 -2611 2612 0
114 -2612 2613 0
115 -2613 2614 0
116 -2614 2615 0
117 -2615 2616 0
118 -2616 2617 0
119 -2617 2618 0
120 -2618 2619 0
121 -2619 2620 0
122 -2620 2621 0
123 -2621 2622 0
124 -2622 2623 0
125 -2623 2624 0
126 -2624 2625 0
127 -2625 2626 0
128 -2626 2627 0
129 -2627 2628 0
130 -2628 2629 0
131 -2629 2630 0
132 -2630 2631 0
133 -2631 2632 0
134 -2632 2633 0
135 -2633 2634 0
136 -2634 2635 0
137 -2635 2636 0
138 -2636 2637 0
139 -2637 2638 0
140 -2638 2639 0
141 -2639 2640 0
142 -2640 2641 0
143 -2641 2642 0
144 -2642 2643 0
145 -2643 2644 0
146 -2644 2645 0
147 -2645 2646 0
148 -2646 2647 0
149 -2647 2648 0
150 -2648 2649 0
151 -2649 2650 0
152 -2650 2651 0
153 -2651 2652 0
154 -2652 2653 0
155 -2653 2654 0
156 -2654 2655 0
157 -2655 2656 0
158 -2656 2657 0
159 -2657 2658 0
160 -2658 2659 0
161 -2659 2660 0
162 -2660 0
-1 2661 0
-2661 2662 0
-2 -2661 2663 0
-2663 2664 0
-3 -2663 2665 0
-2665 2666 0
-4 -2665 2667 0
-2667 2668 0
-5 -2667 2669 0
-2669 2670 0
-6 -2669 2671 0
-2671 2672 0
-7 -2671 2673 0
-2673 2674 0
-8 -2673 2675 0
-2675 2676 0
-9 -2675 2677 0
-2677 2678 0
-10 -2677 2679 0
-2679 2680 0
-11 -2679 2681 0
-2681 2682 0
-12 -2681 2683 0
-2683 2684 0
-13 -2683 2685 0
-2685 2686 0
-14 -2685 2687 0
-2687 2688 0
-15 -2687 2689 0
-2689 2690 0
-16 -2689 2691 0
-2691 2692 0
-17 -2691 0
-2 2662 0
-2662 2693 0
-3 -2662 2664 0
-2664 2694 0
-4 -2664 2666 0
-2666 2695 0
-5 -2666 2668 0
-2668 2696 0
-6 -2668 2670 0
-2670 2697 0
-7 -2670 2672 0
-2672 2698 0
-8 -2672 2674 0
-2674 2699 0
-9 -2674 2676 0
-2676 2700 0
-10 -2676 2678 0
-2678 2701 0
-11 -2678 2680 0
-2680 2702 0
-12 -2680 2682 0
-2682 2703 0
-13 -2682 2684 0
-2684 2704 0
-14 -2684 2686 0
-2686 2705 0
-15 -2686 2688 0
-2688 2706 0
-16 -2688 2690 0
-2690 2707 0
-17 -2690 2692 0
-2692 2708 0
-18 -2692 0
-3 2693 0
-2693 2709 0
-4 -2693 2694 0
-2694 2710 0
-5 -2694 2695 0
-2695 2711 0
-6 -2695 2696 0
-2696 2712 0
-7 -2696 2697 0
-2697 2713 0
-8 -2697 2698 0
-2698 2714 0
-9 -2698 2699 0
-2699 2715 0
-10 -2699 2700 0
-2700 2716 0
-11 -2700 2701 0
-2701 2717 0
-12 -2701 2702 0
-2702 2718 0
-13 -2702 2703 0
-2703 2719 0
-14 -2703 2704 0
-2704 2720 0
-15 -2704 2705 0
-2705 2721 0
-16 -2705 2706 0
-2706 2722 0
-17 -2706 2707 0
-2707 2723 0
-18 -2707 2708 0
-2708 2724 0
-19 -2708 0
-4 2709 0
-2709 2725 0
-5 -2709 2710 0
-2710 2726 0
-6 -2710 2711 0
-2711 2727 0
-7 -2711 2712 0
-2712 2728 0
-8 -2712 2713 0
-2713 2729 0
-9 -2713 2714 0
-2714 2730 0
-10 -2714 2715 0
-2715 2731 0
-11 -2715 2716 0
-2716 2732 0
-12 -2716 2717 0
-2717 2733 0
-13 -2717 2718 0
-2718 2734 0
-14 -2718 2719 0
-2719 2735 0
-15 -2719 2720 0
-2720 2736 0
-16 -2720 2721 0
-2721 2737 0
-17 -2721 2722 0
-2722 2738 0
-18 -2722 2723 0
-2723 2739 0
-19 -2723 2724 0
-2724 2740 0
-20 -2724 0
-5 2725 0
-2725 2741 0
-6 -2725 2726 0
-2726 2742 0
-7 -2726 2727 0
-2727 2743 0
-8 -2727 2728 0
-2728 2744 0
-9 -2728 2729 0
-2729 2745 0
-10 -2729 2730 0
-2730 2746 0
-11 -2730 2731 0
-2731 2747 0
-12 -2731 2732 0
-2732 2748 0
-13 -2732 2733 0
-2733 2749 0
-14 -2733 2734 0
-2734 2750 0
-15 -2734 2735 0
-2735 2751 0
-16 -2735 2736 0
-2736 2752 0
-17 -2736 2737 0
-2737 2753 0
-18 -2737 2738 0
-2738 2754 0
-19 -2738 2739 0
-2739 2755 0
-20 -2739 2740 0
-2740 2756 0
-21 -2740 0
-6 2741 0
-2741 2757 0
-7 -2741 2742 0
-2742 2758 0
-8 -2742 2743 0
-2743 2759 0
-9 -2743 2744 0
-2744 2760 0
-10 -2744 2745 0
-2745 2761 0
-11 -2745 2746 0
-2746 2762 0
-12 -2746 2747 0
-2747 2763 0
-13 -2747 2748 0
-2748 2764 0
-14 -2748 2749 0
-2749 2765 0
-15 -2749 2750 0
-2750 2766 0
-16 -2750 2751 0
-2751 2767 0
-17 -2751 2752 0
-2752 2768 0
-18 -2752 2753 0
-2753 2769 0
-19 -2753 2754 0
-2754 2770 0
-20 -2754 2755 0
-2755 2771 0
-21 -2755 2756 0
-2756 2772 0
-22 -2756 0
-7 2757 0
-2757 2773 0
-8 -2757 2758 0
-2758 2774 0
-9 -2758 2759 0
-2759 2775 0
-10 -2759 2760 0
-2760 2776 0
-11 -2760 2761 0
-2761 2777 0
-12 -2761 2762 0
-2762 2778 0
-13 -2762 2763 0
-2763 2779 0
-14 -2763 2764 0
-2764 2780 0
-15 -2764 2765 0
-2765 2781 0
-16 -2765 2766 0
-2766 2782 0
-17 -2766 2767 0
-2767 2783 0
-18 -2767 2768 0
-2768 2784 0
-19 -2768 2769 0
-2769 2785 0
-20 -2769 2770 0
-2770 2786 0
-21 -2770 2771 0
-2771 2787 0
-22 -2771 2772 0
-2772 2788 0
-23 -2772 0
-8 2773 0
-2773 2789 0
-9 -2773 2774 0
-2774 2790 0
-10 -2774 2775 0
-2775 2791 0
-11 -2775 2776 0
-2776 2792 0
-12 -2776 2777 0
-2777 2793 0
-13 -2777 2778 0
-2778 2794 0
-14 -2778 2779 0
-2779 2795 0
-15 -2779 2780 0
-2780 2796 0
-16 -2780 2781 0
-2781 2797 0
-17 -2781 2782 0
-2782 2798 0
-18 -2782 2783 0
-2783 2799 0
-19 -2783 2784 0
-2784 2800 0
-20 -2784 2785 0
-2785 2801 0
-21 -2785 2786 0
-2786 2802 0
-22 -2786 2787 0
-2787 2803 0
-23 -2787 2788 0
-2788 2804 0
-24 -2788 0
-9 2789 0
-2789 2805 0
-10 -2789 2790 0
-2790 2806 0
-11 -2790 2791 0
-2791 2807 0
-12 -2791 2792 0
-2792 2808 0
-13 -2792 2793 0
-2793 2809 0
-14 -2793 2794 0
-2794 2810 0
-15 -2794 2795 0
-2795 2811 0
-16 -2795 2796 0
-2796 2812 0
-17 -2796 2797 0
-2797 2813 0
-18 -2797 2798 0
-2798 2814 0
-19 -2798 2799 0
-2799 2815 0
-20 -2799 2800 0
-2800 2816 0
-21 -2800 2801 0
-2801 2817 0
-22 -2801 2802 0
-2802 2818 0
-23 -2802 2803 0
-2803 2819 0
-24 -2803 2804 0
-2804 2820 0
-25 -2804 0
-10 2805 0
-2805 2821 0
-11 -2805 2806 0
-2806 2822 0
-12 -2806 2807 0
-2807 2823 0
-13 -2807 2808 0
-2808 2824 0
-14 -2808 2809 0
-2809 2825 0
-15 -2809 2810 0
-2810 2826 0
-16 -2810 2811 0
-2811 2827 0
-17 -2811 2812 0
-2812 2828 0
-18 -2812 2813 0
-2813 2829 0
-19 -2813 2814 0
-2814 2830 0
-20 -2814 2815 0
-2815 2831 0
-21 -2815 2816 0
-2816 2832 0
-22 -2816 2817 0
-2817 2833 0
-23 -2817 2818 0
-2818 2834 0
-24 -2818 2819 0
-2819 2835 0
-25 -2819 2820 0
-2820 2836 0
-26 -2820 0
-11 2821 0
-2821 2837 0
-12 -2821 2822 0
-2822 2838 0
-13 -2822 2823 0
-2823 2839 0
-14 -2823 2824 0
-2824 2840 0
-15 -2824 2825 0
-2825 2841 0
-16 -2825 2826 0
-2826 2842 0
-17 -2826 2827 0
-2827 2843 0
-18 -2827 2828 0
-2828 2844 0
-19 -2828 2829 0
-2829 2845 0
-20 -2829 2830 0
-2830 2846 0
-21 -2830 2831 0
-2831 2847 0
-22 -2831 2832 0
-2832 2848 0
-23 -2832 2833 0
-2833 2849 0
-24 -2833 2834 0
-2834 2850 0
-25 -2834 2835 0
-2835 2851 0
-26 -2835 2836 0
-2836 2852 0
-27 -2836 0
-12 2837 0
-2837 2853 0
-13 -2837 2838 0
-2838 2854 0
-14 -2838 2839 0
-2839 2855 0
-15 -2839 2840 0
-2840 2856 0
-16 -2840 2841 0
-2841 2857 0
-17 -2841 2842 0
-2842 2858 0
-18 -2842 2843 0
-2843 2859 0
-19 -2843 2844 0
-2844 2860 0
-20 -2844 2845 0
-2845 2861 0
-21 -2845 2846 0
-2846 2862 0
-22 -2846 2847 0
-2847 2863 0
-23 -2847 2848 0
-2848 2864 0
-24 -2848 2849 0
-2849 2865 0
-25 -2849 2850 0
-2850 2866 0
-26 -2850 2851 0
-2851 2867 0
-27 -2851 2852 0
-2852 2868 0
-28 -2852 0
-13 2853 0
-2853 2869 0
-14 -2853 2854 0
-2854 2870 0
-15 -2854 2855 0
-2855 2871 0
-16 -2855 2856 0
-2856 2872 0
-17 -2856 2857 0
-2857 2873 0
-18 -2857 2858 0
-2858 2874 0
-19 -2858 2859 0
-2859 2875 0
-20 -2859 2860 0
-2860 2876 0
-21 -2860 2861 0
-2861 2877 0
-22 -2861 2862 0
-2862 2878 0
-23 -2862 2863 0
-2863 2879 0
-24 -2863 2864 0
-2864 2880 0
-25 -2864 2865 0
-2865 2881 0
-26 -2865 2866 0
-2866 2882 0
-27 -2866 2867 0
-2867 2883 0
-28 -2867 2868 0
-2868 2884 0
-29 -2868 0
-14 2869 0
-2869 2885 0
-15 -2869 2870 0
-2870 2886 0
-16 -2870 2871 0
-2871 2887 0
-17 -2871 2872 0
-2872 2888 0
-18 -2872 2873 0
-2873 2889 0
-19 -2873 2874 0
-2874 2890 0
-20 -2874 2875 0
-2875 2891 0
-21 -2875 2876 0
-2876 2892 0
-22 -2876 2877 0
-2877 2893 0
-23 -2877 2878 0
-2878 2894 0
-24 -2878 2879 0
-2879 2895 0
-25 -2879 2880 0
-2880 2896 0
-26 -2880 2881 0
-2881 2897 0
-27 -2881 2882 0
-2882 2898 0
-28 -2882 2883 0
-2883 2899 0
-29 -2883 2884 0
-2884 2900 0
-30 -2884 0
-15 2885 0
-2885 2901 0
-16 -2885 2886 0
-2886 2902 0
-17 -2886 2887 0
-2887 2903 0
-18 -2887 2888 0
-2888 2904 0
-19 -2888 2889 0
-2889 2905 0
-20 -2889 2890 0
-2890 2906 0
-21 -2890 2891 0
-2891 2907 0
-22 -2891 2892 0
-2892 2908 0
-23 -2892 2893 0
-2893 2909 0
-24 -2893 2894 0
-2894 2910 0
-25 -2894 2895 0
-2895 2911 0
-26 -2895 2896 0
-2896 2912 0
-27 -2896 2897 0
-2897 2913 0
-28 -2897 2898 0
-2898 2914 0
-29 -2898 2899 0
-2899 2915 0
-30 -2899 2900 0
-2900 2916 0
-31 -2900 0
-16 2901 0
-2901 2917 0
-17 -2901 2902 0
-2902 2918 0
-18 -2902 2903 0
-2903 2919 0
-19 -2903 2904 0
-2904 2920 0
-20 -2904 2905 0
-2905 2921 0
-21 -2905 2906 0
-2906 2922 0
-22 -2906 2907 0
-2907 2923 0
-23 -2907 2908 0
-2908 2924 0
-24 -2908 2909 0
-2909 2925 0
-25 -2909 2910 0
-2910 2926 0
-26 -2910 2911 0
-2911 2927 0
-27 -2911 2912 0
-2912 2928 0
-28 -2912 2913 0
-2913 2929 0
-29 -2913 2914 0
-2914 2930 0
-30 -2914 2915 0
-2915 2931 0
-31 -2915 2916 0
-2916 2932 0
-32 -2916 0
-17 2917 0
-2917 2933 0
-18 -2917 2918 0
-2918 2934 0
-19 -2918 2919 0
-2919 2935 0
-20 -2919 2920 0
-2920 2936 0
-21 -2920 2921 0
-2921 2937 0
-22 -2921 2922 0
-2922 2938 0
-23 -2922 2923 0
-2923 2939 0
-24 -2923 2924 0
-2924 2940 0
-25 -2924 2925 0
-2925 2941 0
-26 -2925 2926 0
-2926 2942 0
-27 -2926 2927 0
-2927 2943 0
-28 -2927 2928 0
-2928 2944 0
-29 -2928 2929 0
-2929 2945 0
-30 -2929 2930 0
-2930 2946 0
-31 -2930 2931 0
-2931 2947 0
-32 -2931 2932 0
-2932 2948 0
-33 -2932 0
-18 2933 0
-2933 2949 0
-19 -2933 2934 0
-2934 2950 0
-20 -2934 2935 0
-2935 2951 0
-21 -2935 2936 0
-2936 2952 0
-22 -2936 2937 0
-2937 2953 0
-23 -2937 2938 0
-2938 2954 0
-24 -2938 2939 0
-2939 2955 0
-25 -2939 2940 0
-2940 2956 0
-26 -2940 2941 0
-2941 2957 0
-27 -2941 2942 0
-2942 2958 0
-28 -2942 2943 0
-2943 2959 0
-29 -2943 2944 0
-2944 2960 0
-30 -2944 2945 0
-2945 2961 0
-31 -2945 2946 0
-2946 2962 0
-32 -2946 2947 0
-2947 2963 0
-33 -2947 2948 0
-2948 2964 0
-34 -2948 0
-19 2949 0
-2949 2965 0
-20 -2949 2950 0
-2950 2966 0
-21 -2950 2951 0
-2951 2967 0
-22 -2951 2952 0
-2952 2968 0
-23 -2952 2953 0
-2953 2969 0
-24 -2953 2954 0
-2954 2970 0
-25 -2954 2955 0
-2955 2971 0
-26 -2955 2956 0
-2956 2972 0
-27 -2956 2957 0
-2957 2973 0
-28 -2957 2958 0
-2958 2974 0
-29 -2958 2959 0
-2959 2975 0
-30 -2959 2960 0
-2960 2976 0
-31 -2960 2961 0
-2961 2977 0
-32 -2961 2962 0
-2962 2978 0
-33 -2962 2963 0
-2963 2979 0
-34 -2963 2964 0
-2964 2980 0
-35 -2964 0
-20 2965 0
-2965 2981 0
-21 -2965 2966 0
-2966 2982 0
-22 -2966 2967 0
-2967 2983 0
-23 -2967 2968 0
-2968 2984 0
-24 -2968 2969 0
-2969 2985 0
-25 -2969 2970 0
-2970 2986 0
-26 -2970 2971 0
-2971 2987 0
-27 -2971 2972 0
-2972 2988 0
-28 -2972 2973 0
-2973 2989 0
-29 -2973 2974 0
-2974 2990 0
-30 -2974 2975 0
-2975 2991 0
-31 -2975 2976 0
-2976 2992 0
-32 -2976 2977 0
-2977 2993 0
-33 -2977 2978 0
-2978 2994 0
-34 -2978 2979 0
-2979 2995 0
-35 -2979 2980 0
-2980 2996 0
-36 -2980 0
-21 2981 0
-2981 2997 0
-22 -2981 2982 0
-2982 2998 0
-23 -2982 2983 0
-2983 2999 0
-24 -2983 2984 0
-2984 3000 0
-25 -2984 2985 0
-2985 3001 0
-26 -2985 2986 0
-2986 3002 0
-27 -2986 2987 0
-2987 3003 0
-28 -2987 2988 0
-2988 3004 0
-29 -2988 2989 0
-2989 3005 0
-30 -2989 2990 0
-2990 3006 0
-31 -2990 2991 0
-2991 3007 0
-32 -2991 2992 0
-2992 3008 0
-33 -2992 2993 0
-2993 3009 0
-34 -2993 2994 0
-2994 3010 0
-35 -2994 2995 0
-2995 3011 0
-36 -2995 2996 0
-2996 3012 0
-37 -2996 0
-22 2997 0
-2997 3013 0
-23 -2997 2998 0
-2998 3014 0
-24 -2998 2999 0
-2999 3015 0
-25 -2999 3000 0
-3000 3016 0
-26 -3000 3001 0
-3001 3017 0
-27 -3001 3002 0
-3002 3018 0
-28 -3002 3003 0
-3003 3019 0
-29 -3003 3004 0
-3004 3020 0
-30 -3004 3005 0
-3005 3021 0
-31 -3005 3006 0
-3006 3022 0
-32 -3006 3007 0
-3007 3023 0
-33 -3007 3008 0
-3008 3024 0
-34 -3008 3009 0
-3009 3025 0
-35 -3009 3010 0
-3010 3026 0
-36 -3010 3011 0
-3011 3027 0
-37 -3011 3012 0
-3012 3028 0
-38 -3012 0
-23 3013 0
-3013 3029 0
-24 -3013 3014 0
-3014 3030 0
-25 -3014 3015 0
-3015 3031 0
-26 -3015 3016 0
-3016 3032 0
-27 -3016 3017 0
-3017 3033 0
-28 -3017 3018 0
-3018 3034 0
-29 -3018 3019 0
-3019 3035 0
-30 -3019 3020 0
-3020 3036 0
-31 -3020 3021 0
-3021 3037 0
-32 -3021 3022 0
-3022 3038 0
-33 -3022 3023 0
-3023 3039 0
-34 -3023 3024 0
-3024 3040 0
-35 -3024 3025 0
-3025 3041 0
-36 -3025 3026 0
-3026 3042 0
-37 -3026 3027 0
-3027 3043 0
-38 -3027 3028 0
-3028 3044 0
-39 -3028 0
-24 3029 0
-3029 3045 0
-25 -3029 3030 0
-3030 3046 0
-26 -3030 3031 0
-3031 3047 0
-27 -3031 3032 0
-3032 3048 0
-28 -3032 3033 0
-3033 3049 0
-29 -3033 3034 0
-3034 3050 0
-30 -3034 3035 0
-3035 3051 0
-31 -3035 3036 0
-3036 3052 0
-32 -3036 3037 0
-3037 3053 0
-33 -3037 3038 0
-3038 3054 0
-34 -3038 3039 0
-3039 3055 0
-35 -3039 3040 0
-3040 3056 0
-36 -3040 3041 0
-3041 3057 0
-37 -3041 3042 0
-3042 3058 0
-38 -3042 3043 0
-3043 3059 0
-39 -3043 3044 0
-3044 3060 0
-40 -3044 0
-25 3045 0
-3045 3061 0
-26 -3045 3046 0
-3046 3062 0
-27 -3046 3047 0
-3047 3063 0
-28 -3047 3048 0
-3048 3064 0
-29 -3048 3049 0
-3049 3065 0
-30 -3049 3050 0
-3050 3066 0
-31 -3050 3051 0
-3051 3067 0
-32 -3051 3052 0
-3052 3068 0
-33 -3052 3053 0
-3053 3069 0
-34 -3053 3054 0
-3054 3070 0
-35 -3054 3055 0
-3055 3071 0
-36 -3055 3056 0
-3056 3072 0
-37 -3056 3057 0
-3057 3073 0
-38 -3057 3058 0
-3058 3074 0
-39 -3058 3059 0
-3059 3075 0
-40 -3059 3060 0
-3060 3076 0
-41 -3060 0
-26 3061 0
-3061 3077 0
-27 -3061 3062 0
-3062 3078 0
-28 -3062 3063 0
-3063 3079 0
-29 -3063 3064 0
-3064 3080 0
-30 -3064 3065 0
-3065 3081 0
-31 -3065 3066 0
-3066 3082 0
-32 -3066 3067 0
-3067 3083 0
-33 -3067 3068 0
-3068 3084 0
-34 -3068 3069 0
-3069 3085 0
-35 -3069 3070 0
-3070 3086 0
-36 -3070 3071 0
-3071 3087 0
-37 -3071 3072 0
-3072 3088 0
-38 -3072 3073 0
-3073 3089 0
-39 -3073 3074 0
-3074 3090 0
-40 -3074 3075 0
-3075 3091 0
-41 -3075 3076 0
-3076 3092 0
-42 -3076 0
-27 3077 0
-3077 3093 0
-28 -3077 3078 0
-3078 3094 0
-29 -3078 3079 0
-3079 3095 0
-30 -3079 3080 0
-3080 3096 0
-31 -3080 3081 0
-3081 3097 0
-32 -3081 3082 0
-3082 3098 0
-33 -3082 3083 0
-3083 3099 0
-34 -3083 3084 0
-3084 3100 0
-35 -3084 3085 0
-3085 3101 0
-36 -3085 3086 0
-3086 3102 0
-37 -3086 3087 0
-3087 3103 0
-38 -3087 3088 0
-3088 3104 0
-39 -3088 3089 0
-3089 3105 0
-40 -3089 3090 0
-3090 3106 0
-41 -3090 3091 0
-3091 3107 0
-42 -3091 3092 0
-3092 3108 0
-43 -3092 0
-28 3093 0
-3093 3109 0
-29 -3093 3094 0
-3094 3110 0
-30 -3094 3095 0
-3095 3111 0
-31 -3095 3096 0
-3096 3112 0
-32 -3096 3097 0
-3097 3113 0
-33 -3097 3098 0
-3098 3114 0
-34 -3098 3099 0
-3099 3115 0
-35 -3099 3100 0
-3100 3116 0
-36 -3100 3101 0
-3101 3117 0
-37 -3101 3102 0
-3102 3118 0
-38 -3102 3103 0
-3103 3119 0
-39 -3103 3104 0
-3104 3120 0
-40 -3104 3105 0
-3105 3121 0
-41 -3105 3106 0
-3106 3122 0
-42 -3106 3107 0
-3107 3123 0
-43 -3107 3108 0
-3108 3124 0
-44 -3108 0
-29 3109 0
-3109 3125 0
-30 -3109 3110 0
-3110 3126 0
-31 -3110 3111 0
-3111 3127 0
-32 -3111 3112 0
-3112 3128 0
-33 -3112 3113 0
-3113 3129 0
-34 -3113 3114 0
-3114 3130 0
-35 -3114 3115 0
-3115 3131 0
-36 -3115 3116 0
-3116 3132 0
-37 -3116 3117 0
-3117 3133 0
-38 -3117 3118 0
-3118 3134 0
-39 -3118 3119 0
-3119 3135 0
-40 -3119 3120 0
-3120 3136 0
-41 -3120 3121 0
-3121 3137 0
-42 -3121 3122 0
-3122 3138 0
-43 -3122 3123 0
-3123 3139 0
-44 -3123 3124 0
-3124 3140 0
-45 -3124 0
-30 3125 0
-3125 3141 0
-31 -3125 3126 0
-3126 3142 0
-32 -3126 3127 0
-3127 3143 0
-33 -3127 3128 0
-3128 3144 0
-34 -3128 3129 0
-3129 3145 0
-35 -3129 3130 0
-3130 3146 0
-36 -3130 3131 0
-3131 3147 0
-37 -3131 3132 0
-3132 3148 0
-38 -3132 3133 0
-3133 3149 0
-39 -3133 3134 0
-3134 3150 0
-40 -3134 3135 0
-3135 3151 0
-41 -3135 3136 0
-3136 3152 0
-42 -3136 3137 0
-3137 3153 0
-43 -3137 3138 0
-3138 3154 0
-44 -3138 3139 0
-3139 3155 0
-45 -3139 3140 0
-3140 3156 0
-46 -3140 0
-31 3141 0
-3141 3157 0
-32 -3141 3142 0
-3142 3158 0
-33 -3142 3143 0
-3143 3159 0
-34 -3143 3144 0
-3144 3160 0
-35 -3144 3145 0
-3145 3161 0
-36 -3145 3146 0
-3146 3162 0
-37 -3146 3147 0
-3147 3163 0
-38 -3147 3148 0
-3148 3164 0
-39 -3148 3149 0
-3149 3165 0
-40 -3149 3150 0
-3150 3166 0
-41 -3150 3151 0
-3151 3167 0
-42 -3151 3152 0
-3152 3168 0
-43 -3152 3153 0
-3153 3169 0
-44 -3153 3154 0
-3154 3170 0
-45 -3154 3155 0
-3155 3171 0
-46 -3155 3156 0
-3156 3172 0
-47 -3156 0
-32 3157 0
-3157 3173 0
-33 -3157 3158 0
-3158 3174 0
-34 -3158 3159 0
-3159 3175 0
-35 -3159 3160 0
-3160 3176 0
-36 -3160 3161 0
-3161 3177 0
-37 -3161 3162 0
-3162 3178 0
-38 -3162 3163 0
-3163 3179 0
-39 -3163 3164 0
-3164 3180 0
-40 -3164 3165 0
-3165 3181 0
-41 -3165 3166 0
-3166 3182 0
-42 -3166 3167 0
-3167 3183 0
-43 -3167 3168 0
-3168 3184 0
-44 -3168 3169 0
-3169 3185 0
-45 -3169 3170 0
-3170 3186 0
-46 -3170 3171 0
-3171 3187 0
-47 -3171 3172 0
-3172 3188 0
-48 -3172 0
-33 3173 0
-3173 3189 0
-34 -3173 3174 0
-3174 3190 0
-35 -3174 3175 0
-3175 3191 0
-36 -3175 3176 0
-3176 3192 0
-37 -3176 3177 0
-3177 3193 0
-38 -3177 3178 0
-3178 3194 0
-39 -3178 3179 0
-3179 3195 0
-40 -3179 3180 0
-3180 3196 0
-41 -3180 3181 0
-3181 3197 0
-42 -3181 3182 0
-3182 3198 0
-43 -3182 3183 0
-3183 3199 0
-44 -3183 3184 0
-3184 3200 0
-45 -3184 3185 0
-3185 3201 0
-46 -3185 3186 0
-3186 3202 0
-47 -3186 3187 0
-3187 3203 0
-48 -3187 3188 0
-3188 3204 0
-49 -3188 0
-34 3189 0
-3189 3205 0
-35 -3189 3190 0
-3190 3206 0
-36 -3190 3191 0
-3191 3207 0
-37 -3191 3192 0
-3192 3208 0
-38 -3192 3193 0
-3193 3209 0
-39 -3193 3194 0
-3194 3210 0
-40 -3194 3195 0
-3195 3211 0
-41 -3195 3196 0
-3196 3212 0
-42 -3196 3197 0
-3197 3213 0
-43 -3197 3198 0
-3198 3214 0
-44 -3198 3199 0
-3199 3215 0
-45 -3199 3200 0
-3200 3216 0
-46 -3200 3201 0
-3201 3217 0
-47 -3201 3202 0
-3202 3218 0
-48 -3202 3203 0
-3203 3219 0
-49 -3203 3204 0
-3204 3220 0
-50 -3204 0
-35 3205 0
-3205 3221 0
-36 -3205 3206 0
-3206 3222 0
-37 -3206 3207 0
-3207 3223 0
-38 -3207 3208 0
-3208 3224 0
-39 -3208 3209 0
-3209 3225 0
-40 -3209 3210 0
-3210 3226 0
-41 -3210 3211 0
-3211 3227 0
-42 -3211 3212 0
-3212 3228 0
-43 -3212 3213 0
-3213 3229 0
-44 -3213 3214 0
-3214 3230 0
-45 -3214 3215 0
-3215 3231 0
-46 -3215 3216 0
-3216 3232 0
-47 -3216 3217 0
-3217 3233 0
-48 -3217 3218 0
-3218 3234 0
-49 -3218 3219 0
-3219 3235 0
-50 -3219 3220 0
-3220 3236 0
-51 -3220 0
-36 3221 0
-3221 3237 0
-37 -3221 3222 0
-3222 3238 0
-38 -3222 3223 0
-3223 3239 0
-39 -3223 3224 0
-3224 3240 0
-40 -3224 3225 0
-3225 3241 0
-41 -3225 3226 0
-3226 3242 0
-42 -3226 3227 0
-3227 3243 0
-43 -3227 3228 0
-3228 3244 0
-44 -3228 3229 0
-3229 3245 0
-45 -3229 3230 0
-3230 3246 0
-46 -3230 3231 0
-3231 3247 0
-47 -3231 3232 0
-3232 3248 0
-48 -3232 3233 0
-3233 3249 0
-49 -3233 3234 0
-3234 3250 0
-50 -3234 3235 0
-3235 3251 0
-51 -3235 3236 0
-3236 3252 0
-52 -3236 0
-37 3237 0
-3237 3253 0
-38 -3237 3238 0
-3238 3254 0
-39 -3238 3239 0
-3239 3255 0
-40 -3239 3240 0
-3240 3256 0
-41 -3240 3241 0
-3241 3257 0
-42 -3241 3242 0
-3242 3258 0
-43 -3242 3243 0
-3243 3259 0
-44 -3243 3244 0
-3244 3260 0
-45 -3244 3245 0
-3245 3261 0
-46 -3245 3246 0
-3246 3262 0
-47 -3246 3247 0
-3247 3263 0
-48 -3247 3248 0
-3248 3264 0
-49 -3248 3249 0
-3249 3265 0
-50 -3249 3250 0
-3250 3266 0
-51 -3250 3251 0
-3251 3267 0
-52 -3251 3252 0
-3252 3268 0
-53 -3252 0
-38 3253 0
-3253 3269 0
-39 -3253 3254 0
-3254 3270 0
-40 -3254 3255 0
-3255 3271 0
-41 -3255 3256 0
-3256 3272 0
-42 -3256 3257 0
-3257 3273 0
-43 -3257 3258 0
-3258 3274 0
-44 -3258 3259 0
-3259 3275 0
-45 -3259 3260 0
-3260 3276 0
-46 -3260 3261 0
-3261 3277 0
-47 -3261 3262 0
-3262 3278 0
-48 -3262 3263 0
-3263 3279 0
-49 -3263 3264 0
-3264 3280 0
-50 -3264 3265 0
-3265 3281 0
-51 -3265 3266 0
-3266 3282 0
-52 -3266 3267 0
-3267 3283 0
-53 -3267 3268 0
-3268 3284 0
-54 -3268 0
-39 3269 0
-3269 3285 0
-40 -3269 3270 0
-3270 3286 0
-41 -3270 3271 0
-3271 3287 0
-42 -3271 3272 0
-3272 3288 0
-43 -3272 3273 0
-3273 3289 0
-44 -3273 3274 0
-3274 3290 0
-45 -3274 3275 0
-3275 3291 0
-46 -3275 3276 0
-3276 3292 0
-47 -3276 3277 0
-3277 3293 0
-48 -3277 3278 0
-3278 3294 0
-49 -3278 3279 0
-3279 3295 0
-50 -3279 3280 0
-3280 3296 0
-51 -3280 3281 0
-3281 3297 0
-52 -3281 3282 0
-3282 3298 0
-53 -3282 3283 0
-3283 3299 0
-54 -3283 3284 0
-3284 3300 0
-55 -3284 0
-40 3285 0
-3285 3301 0
-41 -3285 3286 0
-3286 3302 0
-42 -3286 3287 0
-3287 3303 0
-43 -3287 3288 0
-3288 3304 0
-44 -3288 3289 0
-3289 3305 0
-45 -3289 3290 0
-3290 3306 0
-46 -3290 3291 0
-3291 3307 0
-47 -3291 3292 0
-3292 3308 0
-48 -3292 3293 0
-3293 3309 0
-49 -3293 3294 0
-3294 3310 0
-50 -3294 3295 0
-3295 3311 0
-51 -3295 3296 0
-3296 3312 0
-52 -3296 3297 0
-3297 3313 0
-53 -3297 3298 0
-3298 3314 0
-54 -3298 3299 0
-3299 3315 0
-55 -3299 3300 0
-3300 3316 0
-56 -3300 0
-41 3301 0
-3301 3317 0
-42 -3301 3302 0
-3302 3318 0
-43 -3302 3303 0
-3303 3319 0
-44 -3303 3304 0
-3304 3320 0
-45 -3304 3305 0
-3305 3321 0
-46 -3305 3306 0
-3306 3322 0
-47 -3306 3307 0
-3307 3323 0
-48 -3307 3308 0
-3308 3324 0
-49 -3308 3309 0
-3309 3325 0
-50 -3309 3310 0
-3310 3326 0
-51 -3310 3311 0
-3311 3327 0
-52 -3311 3312 0
-3312 3328 0
-53 -3312 3313 0
-3313 3329 0
-54 -3313 3314 0
-3314 3330 0
-55 -3314 3315 0
-3315 3331 0
-56 -3315 3316 0
-3316 3332 0
-57 -3316 0
-42 3317 0
-3317 3333 0
-43 -3317 3318 0
-3318 3334 0
-44 -3318 3319 0
-3319 3335 0
-45 -3319 3320 0
-3320 3336 0
-46 -3320 3321 0
-3321 3337 0
-47 -3321 3322 0
-3322 3338 0
-48 -3322 3323 0
-3323 3339 0
-49 -3323 3324 0
-3324 3340 0
-50 -3324 3325 0
-3325 3341 0
-51 -3325 3326 0
-3326 3342 0
-52 -3326 3327 0
-3327 3343 0
-53 -3327 3328 0
-3328 3344 0
-54 -3328 3329 0
-3329 3345 0
-55 -3329 3330 0
-3330 3346 0
-56 -3330 3331 0
-3331 3347 0
-57 -3331 3332 0
-3332 3348 0
-58 -3332 0
-43 3333 0
-3333 3349 0
-44 -3333 3334 0
-3334 3350 0
-45 -3334 3335 0
-3335 3351 0
-46 -3335 3336 0
-3336 3352 0
-47 -3336 3337 0
-3337 3353 0
-48 -3337 3338 0
-3338 3354 0
-49 -3338 3339 0
-3339 3355 0
-50 -3339 3340 0
-3340 3356 0
-51 -3340 3341 0
-3341 3357 0
-52 -3341 3342 0
-3342 3358 0
-53 -3342 3343 0
-3343 3359 0
-54 -3343 3344 0
-3344 3360 0
-55 -3344 3345 0
-3345 3361 0
-56 -3345 3346 0
-3346 3362 0
-57 -3346 3347 0
-3347 3363 0
-58 -3347 3348 0
-3348 3364 0
-59 -3348 0
-44 3349 0
-3349 3365 0
-45 -3349 3350 0
-3350 3366 0
-46 -3350 3351 0
-3351 3367 0
-47 -3351 3352 0
-3352 3368 0
-48 -3352 3353 0
-3353 3369 0
-49 -3353 3354 0
-3354 3370 0
-50 -3354 3355 0
-3355 3371 0
-51 -3355 3356 0
-3356 3372 0
-52 -3356 3357 0
-3357 3373 0
-53 -3357 3358 0
-3358 3374 0
-54 -3358 3359 0
-3359 3375 0
-55 -3359 3360 0
-3360 3376 0
-56 -3360 3361 0
-3361 3377 0
-57 -3361 3362 0
-3362 3378 0
-58 -3362 3363 0
-3363 3379 0
-59 -3363 3364 0
-3364 3380 0
-60 -3364 0
-45 3365 0
-3365 3381 0
-46 -3365 3366 0
-3366 3382 0
-47 -3366 3367 0
-3367 3383 0
-48 -3367 3368 0
-3368 3384 0
-49 -3368 3369 0
-3369 3385 0
-50 -3369 3370 0
-3370 3386 0
-51 -3370 3371 0
-3371 3387 0
-52 -3371 3372 0
-3372 3388 0
-53 -3372 3373 0
-3373 3389 0
-54 -3373 3374 0
-3374 3390 0
-55 -3374 3375 0
-3375 3391 0
-56 -3375 3376 0
-3376 3392 0
-57 -3376 3377 0
-3377 3393 0
-58 -3377 3378 0
-3378 3394 0
-59 -3378 3379 0
-3379 3395 0
-60 -3379 3380 0
-3380 3396 0
-61 -3380 0
-46 3381 0
-3381 3397 0
-47 -3381 3382 0
-3382 3398 0
-48 -3382 3383 0
-3383 3399 0
-49 -3383 3384 0
-3384 3400 0
-50 -3384 3385 0
-3385 3401 0
-51 -3385 3386 0
-3386 3402 0
-52 -3386 3387 0
-3387 3403 0
-53 -3387 3388 0
-3388 3404 0
-54 -3388 3389 0
-3389 3405 0
-55 -3389 3390 0
-3390 3406 0
-56 -3390 3391 0
-3391 3407 0
-57 -3391 3392 0
-3392 3408 0
-58 -3392 3393 0
-3393 3409 0
-59 -3393 3394 0
-3394 3410 0
-60 -3394 3395 0
-3395 3411 0
-61 -3395 3396 0
-3396 3412 0
-62 -3396 0
-47 3397 0
-3397 3413 0
-48 -3397 3398 0
-3398 3414 0
-49 -3398 3399 0
-3399 3415 0
-50 -3399 3400 0
-3400 3416 0
-51 -3400 3401 0
-3401 3417 0
-52 -3401 3402 0
-3402 3418 0
-53 -3402 3403 0
-3403 3419 0
-54 -3403 3404 0
-3404 3420 0
-55 -3404 3405 0
-3405 3421 0
-56 -3405 3406 0
-3406 3422 0
-57 -3406 3407 0
-3407 3423 0
-58 -3407 3408 0
-3408 3424 0
-59 -3408 3409 0
-3409 3425 0
-60 -3409 3410 0
-3410 3426 0
-61 -3410 3411 0
-3411 3427 0
-62 -3411 3412 0
-3412 3428 0
-63 -3412 0
-48 3413 0
-3413 3429 0
-49 -3413 3414 0
-3414 3430 0
-50 -3414 3415 0
-3415 3431 0
-51 -3415 3416 0
-3416 3432 0
-52 -3416 3417 0
-3417 3433 0
-53 -3417 3418 0
-3418 3434 0
-54 -3418 3419 0
-3419 3435 0
-55 -3419 3420 0
-3420 3436 0
-56 -3420 3421 0
-3421 3437 0
-57 -3421 3422 0
-3422 3438 0
-58 -3422 3423 0
-3423 3439 0
-59 -3423 3424 0
-3424 3440 0
-60 -3424 3425 0
-3425 3441 0
-61 -3425 3426 0
-3426 3442 0
-62 -3426 3427 0
-3427 3443 0
-63 -3427 3428 0
-3428 3444 0
-64 -3428 0
-49 3429 0
-3429 3445 0
-50 -3429 3430 0
-3430 3446 0
-51 -3430 3431 0
-3431 3447 0
-52 -3431 3432 0
-3432 3448 0
-53 -3432 3433 0
-3433 3449 0
-54 -3433 3434 0
-3434 3450 0
-55 -3434 3435 0
-3435 3451 0
-56 -3435 3436 0
-3436 3452 0
-57 -3436 3437 0
-3437 3453 0
-58 -3437 3438 0
-3438 3454 0
-59 -3438 3439 0
-3439 3455 0
-60 -3439 3440 0
-3440 3456 0
-61 -3440 3441 0
-3441 3457 0
-62 -3441 3442 0
-3442 3458 0
-63 -3442 3443 0
-3443 3459 0
-64 -3443 3444 0
-3444 3460 0
-65 -3444 0
-50 3445 0
-3445 3461 0
-51 -3445 3446 0
-3446 3462 0
-52 -3446 3447 0
-3447 3463 0
-53 -3447 3448 0
-3448 3464 0
-54 -3448 3449 0
-3449 3465 0
-55 -3449 3450 0
-3450 3466 0
-56 -3450 3451 0
-3451 3467 0
-57 -3451 3452 0
-3452 3468 0
-58 -3452 3453 0
-3453 3469 0
-59 -3453 3454 0
-3454 3470 0
-60 -3454 3455 0
-3455 3471 0
-61 -3455 3456 0
-3456 3472 0
-62 -3456 3457 0
-3457 3473 0
-63 -3457 3458 0
-3458 3474 0
-64 -3458 3459 0
-3459 3475 0
-65 -3459 3460 0
-3460 3476 0
-66 -3460 0
-51 3461 0
-3461 3477 0
-52 -3461 3462 0
-3462 3478 0
-53 -3462 3463 0
-3463 3479 0
-54 -3463 3464 0
-3464 3480 0
-55 -3464 3465 0
-3465 3481 0
-56 -3465 3466 0
-3466 3482 0
-57 -3466 3467 0
-3467 3483 0
-58 -3467 3468 0
-3468 3484 0
-59 -3468 3469 0
-3469 3485 0
-60 -3469 3470 0
-3470 3486 0
-61 -3470 3471 0
-3471 3487 0
-62 -3471 3472 0
-3472 3488 0
-63 -3472 3473 0
-3473 3489 0
-64 -3473 3474 0
-3474 3490 0
-65 -3474 3475 0
-3475 3491 0
-66 -3475 3476 0
-3476 3492 0
-67 -3476 0
-52 3477 0
-3477 3493 0
-53 -3477 3478 0
-3478 3494 0
-54 -3478 3479 0
-3479 3495 0
-55 -3479 3480 0
-3480 3496 0
-56 -3480 3481 0
-3481 3497 0
-57 -3481 3482 0
-3482 3498 0
-58 -3482 3483 0
-3483 3499 0
-59 -3483 3484 0
-3484 3500 0
-60 -3484 3485 0
-3485 3501 0
-61 -3485 3486 0
-3486 3502 0
-62 -3486 3487 0
-3487 3503 0
-63 -3487 3488 0
-3488 3504 0
-64 -3488 3489 0
-3489 3505 0
-65 -3489 3490 0
-3490 3506 0
-66 -3490 3491 0
-3491 3507 0
-67 -3491 3492 0
-3492 3508 0
-68 -3492 0
-53 3493 0
-3493 3509 0
-54 -3493 3494 0
-3494 3510 0
-55 -3494 3495 0
-3495 3511 0
-56 -3495 3496 0
-3496 3512 0
-57 -3496 3497 0
-3497 3513 0
-58 -3497 3498 0
-3498 3514 0
-59 -3498 3499 0
-3499 3515 0
-60 -3499 3500 0
-3500 3516 0
-61 -3500 3501 0
-3501 3517 0
-62 -3501 3502 0
-3502 3518 0
-63 -3502 3503 0
-3503 3519 0
-64 -3503 3504 0
-3504 3520 0
-65 -3504 3505 0
-3505 3521 0
-66 -3505 3506 0
-3506 3522 0
-67 -3506 3507 0
-3507 3523 0
-68 -3507 3508 0
-3508 3524 0
-69 -3508 0
-54 3509 0
-3509 3525 0
-55 -3509 3510 0
-3510 3526 0
-56 -3510 3511 0
-3511 3527 0
-57 -3511 3512 0
-3512 3528 0
-58 -3512 3513 0
-3513 3529 0
-59 -3513 3514 0
-3514 3530 0
-60 -3514 3515 0
-3515 3531 0
-61 -3515 3516 0
-3516 3532 0
-62 -3516 3517 0
-3517 3533 0
-63 -3517 3518 0
-3518 3534 0
-64 -3518 3519 0
-3519 3535 0
-65 -3519 3520 0
-3520 3536 0
-66 -3520 3521 0
-3521 3537 0
-67 -3521 3522 0
-3522 3538 0
-68 -3522 3523 0
-3523 3539 0
-69 -3523 3524 0
-3524 3540 0
-70 -3524 0
-55 3525 0
-3525 3541 0
-56 -3525 3526 0
-3526 3542 0
-57 -3526 3527 0
-3527 3543 0
-58 -3527 3528 0
-3528 3544 0
-59 -3528 3529 0
-3529 3545 0
-60 -3529 3530 0
-3530 3546 0
-61 -3530 3531 0
-3531 3547 0
-62 -3531 3532 0
-3532 3548 0
-63 -3532 3533 0
-3533 3549 0
-64 -3533 3534 0
-3534 3550 0
-65 -3534 3535 0
-3535 3551 0
-66 -3535 3536 0
-3536 3552 0
-67 -3536 3537 0
-3537 3553 0
-68 -3537 3538 0
-3538 3554 0
-69 -3538 3539 0
-3539 3555 0
-70 -3539 3540 0
-3540 3556 0
-71 -3540 0
-56 3541 0
-3541 3557 0
-57 -3541 3542 0
-3542 3558 0
-58 -3542 3543 0
-3543 3559 0
-59 -3543 3544 0
-3544 3560 0
-60 -3544 3545 0
-3545 3561 0
-61 -3545 3546 0
-3546 3562 0
-62 -3546 3547 0
-3547 3563 0
-63 -3547 3548 0
-3548 3564 0
-64 -3548 3549 0
-3549 3565 0
-65 -3549 3550 0
-3550 3566 0
-66 -3550 3551 0
-3551 3567 0
-67 -3551 3552 0
-3552 3568 0
-68 -3552 3553 0
-3553 3569 0
-69 -3553 3554 0
-3554 3570 0
-70 -3554 3555 0
-3555 3571 0
-71 -3555 3556 0
-3556 3572 0
-72 -3556 0
-57 3557 0
-3557 3573 0
-58 -3557 3558 0
-3558 3574 0
-59 -3558 3559 0
-3559 3575 0
-60 -3559 3560 0
-3560 3576 0
-61 -3560 3561 0
-3561 3577 0
-62 -3561 3562 0
-3562 3578 0
-63 -3562 3563 0
-3563 3579 0
-64 -3563 3564 0
-3564 3580 0
-65 -3564 3565 0
-3565 3581 0
-66 -3565 3566 0
-3566 3582 0
-67 -3566 3567 0
-3567 3583 0
-68 -3567 3568 0
-3568 3584 0
-69 -3568 3569 0
-3569 3585 0
-70 -3569 3570 0
-3570 3586 0
-71 -3570 3571 0
-3571 3587 0
-72 -3571 3572 0
-3572 3588 0
-73 -3572 0
-58 3573 0
-3573 3589 0
-59 -3573 3574 0
-3574 3590 0
-60 -3574 3575 0
-3575 3591 0
-61 -3575 3576 0
-3576 3592 0
-62 -3576 3577 0
-3577 3593 0
-63 -3577 3578 0
-3578 3594 0
-64 -3578 3579 0
-3579 3595 0
-65 -3579 3580 0
-3580 3596 0
-66 -3580 3581 0
-3581 3597 0
-67 -3581 3582 0
-3582 3598 0
-68 -3582 3583 0
-3583 3599 0
-69 -3583 3584 0
-3584 3600 0
-70 -3584 3585 0
-3585 3601 0
-71 -3585 3586 0
-3586 3602 0
-72 -3586 3587 0
-3587 3603 0
-73 -3587 3588 0
-3588 3604 0
-74 -3588 0
-59 3589 0
-3589 3605 0
-60 -3589 3590 0
-3590 3606 0
-61 -3590 3591 0
-3591 3607 0
-62 -3591 3592 0
-3592 3608 0
-63 -3592 3593 0
-3593 3609 0
-64 -3593 3594 0
-3594 3610 0
-65 -3594 3595 0
-3595 3611 0
-66 -3595 3596 0
-3596 3612 0
-67 -3596 3597 0
-3597 3613 0
-68 -3597 3598 0
-3598 3614 0
-69 -3598 3599 0
-3599 3615 0
-70 -3599 3600 0
-3600 3616 0
-71 -3600 3601 0
-3601 3617 0
-72 -3601 3602 0
-3602 3618 0
-73 -3602 3603 0
-3603 3619 0
-74 -3603 3604 0
-3604 3620 0
-75 -3604 0
-60 3605 0
-3605 3621 0
-61 -3605 3606 0
-3606 3622 0
-62 -3606 3607 0
-3607 3623 0
-63 -3607 3608 0
-3608 3624 0
-64 -3608 3609 0
-3609 3625 0
-65 -3609 3610 0
-3610 3626 0
-66 -3610 3611 0
-3611 3627 0
-67 -3611 3612 0
-3612 3628 0
-68 -3612 3613 0
-3613 3629 0
-69 -3613 3614 0
-3614 3630 0
-70 -3614 3615 0
-3615 3631 0
-71 -3615 3616 0
-3616 3632 0
-72 -3616 3617 0
-3617 3633 0
-73 -3617 3618 0
-3618 3634 0
-74 -3618 3619 0
-3619 3635 0
-75 -3619 3620 0
-3620 3636 0
-76 -3620 0
-61 3621 0
-3621 3637 0
-62 -3621 3622 0
-3622 3638 0
-63 -3622 3623 0
-3623 3639 0
-64 -3623 3624 0
-3624 3640 0
-65 -3624 3625 0
-3625 3641 0
-66 -3625 3626 0
-3626 3642 0
-67 -3626 3627 0
-3627 3643 0
-68 -3627 3628 0
-3628 3644 0
-69 -3628 3629 0
-3629 3645 0
-70 -3629 3630 0
-3630 3646 0
-71 -3630 3631 0
-3631 3647 0
-72 -3631 3632 0
-3632 3648 0
-73 -3632 3633 0
-3633 3649 0
-74 -3633 3634 0
-3634 3650 0
-75 -3634 3635 0
-3635 3651 0
-76 -3635 3636 0
-3636 3652 0
-77 -3636 0
-62 3637 0
-3637 3653 0
-63 -3637 3638 0
-3638 3654 0
-64 -3638 3639 0
-3639 3655 0
-65 -3639 3640 0
-3640 3656 0
-66 -3640 3641 0
-3641 3657 0
-67 -3641 3642 0
-3642 3658 0
-68 -3642 3643 0
-3643 3659 0
-69 -3643 3644 0
-3644 3660 0
-70 -3644 3645 0
-3645 3661 0
-71 -3645 3646 0
-3646 3662 0
-72 -3646 3647 0
-3647 3663 0
-73 -3647 3648 0
-3648 3664 0
-74 -3648 3649 0
-3649 3665 0
-75 -3649 3650 0
-3650 3666 0
-76 -3650 3651 0
-3651 3667 0
-77 -3651 3652 0
-3652 3668 0
-78 -3652 0
-63 3653 0
-3653 3669 0
-64 -3653 3654 0
-3654 3670 0
-65 -3654 3655 0
-3655 3671 0
-66 -3655 3656 0
-3656 3672 0
-67 -3656 3657 0
-3657 3673 0
-68 -3657 3658 0
-3658 3674 0
-69 -3658 3659 0
-3659 3675 0
-70 -3659 3660 0
-3660 3676 0
-71 -3660 3661 0
-3661 3677 0
-72 -3661 3662 0
-3662 3678 0
-73 -3662 3663 0
-3663 3679 0
-74 -3663 3664 0
-3664 3680 0
-75 -3664 3665 0
-3665 3681 0
-76 -3665 3666 0
-3666 3682 0
-77 -3666 3667 0
-3667 3683 0
-78 -3667 3668 0
-3668 3684 0
-79 -3668 0
-64 3669 0
-3669 3685 0
-65 -3669 3670 0
-3670 3686 0
-66 -3670 3671 0
-3671 3687 0
-67 -3671 3672 0
-3672 3688 0
-68 -3672 3673 0
-3673 3689 0
-69 -3673 3674 0
-3674 3690 0
-70 -3674 3675 0
-3675 3691 0
-71 -3675 3676 0
-3676 3692 0
-72 -3676 3677 0
-3677 3693 0
-73 -3677 3678 0
-3678 3694 0
-74 -3678 3679 0
-3679 3695 0
-75 -3679 3680 0
-3680 3696 0
-76 -3680 3681 0
-3681 3697 0
-77 -3681 3682 0
-3682 3698 0
-78 -3682 3683 0
-3683 3699 0
-79 -3683 3684 0
-3684 3700 0
-80 -3684 0
-65 3685 0
-3685 3701 0
-66 -3685 3686 0
-3686 3702 0
-67 -3686 3687 0
-3687 3703 0
-68 -3687 3688 0
-3688 3704 0
-69 -3688 3689 0
-3689 3705 0
-70 -3689 3690 0
-3690 3706 0
-71 -3690 3691 0
-3691 3707 0
-72 -3691 3692 0
-3692 3708 0
-73 -3692 3693 0
-3693 3709 0
-74 -3693 3694 0
-3694 3710 0
-75 -3694 3695 0
-3695 3711 0
-76 -3695 3696 0
-3696 3712 0
-77 -3696 3697 0
-3697 3713 0
-78 -3697 3698 0
-3698 3714 0
-79 -3698 3699 0
-3699 3715 0
-80 -3699 3700 0
-3700 3716 0
-81 -3700 0
-66 3701 0
-3701 3717 0
-67 -3701 3702 0
-3702 3718 0
-68 -3702 3703 0
-3703 3719 0
-69 -3703 3704 0
-3704 3720 0
-70 -3704 3705 0
-3705 3721 0
-71 -3705 3706 0
-3706 3722 0
-72 -3706 3707 0
-3707 3723 0
-73 -3707 3708 0
-3708 3724 0
-74 -3708 3709 0
-3709 3725 0
-75 -3709 3710 0
-3710 3726 0
-76 -3710 3711 0
-3711 3727 0
-77 -3711 3712 0
-3712 3728 0
-78 -3712 3713 0
-3713 3729 0
-79 -3713 3714 0
-3714 3730 0
-80 -3714 3715 0
-3715 3731 0
-81 -3715 3716 0
-3716 3732 0
-82 -3716 0
-67 3717 0
-3717 3733 0
-68 -3717 3718 0
-3718 3734 0
-69 -3718 3719 0
-3719 3735 0
-70 -3719 3720 0
-3720 3736 0
-71 -3720 3721 0
-3721 3737 0
-72 -3721 3722 0
-3722 3738 0
-73 -3722 3723 0
-3723 3739 0
-74 -3723 3724 0
-3724 3740 0
-75 -3724 3725 0
-3725 3741 0
-76 -3725 3726 0
-3726 3742 0
-77 -3726 3727 0
-3727 3743 0
-78 -3727 3728 0
-3728 3744 0
-79 -3728 3729 0
-3729 3745 0
-80 -3729 3730 0
-3730 3746 0
-81 -3730 3731 0
-3731 3747 0
-82 -3731 3732 0
-3732 3748 0
-83 -3732 0
-68 3733 0
-3733 3749 0
-69 -3733 3734 0
-3734 3750 0
-70 -3734 3735 0
-3735 3751 0
-71 -3735 3736 0
-3736 3752 0
-72 -3736 3737 0
-3737 3753 0
-73 -3737 3738 0
-3738 3754 0
-74 -3738 3739 0
-3739 3755 0
-75 -3739 3740 0
-3740 3756 0
-76 -3740 3741 0
-3741 3757 0
-77 -3741 3742 0
-3742 3758 0
-78 -3742 3743 0
-3743 3759 0
-79 -3743 3744 0
-3744 3760 0
-80 -3744 3745 0
-3745 3761 0
-81 -3745 3746 0
-3746 3762 0
-82 -3746 3747 0
-3747 3763 0
-83 -3747 3748 0
-3748 3764 0
-84 -3748 0
-69 3749 0
-3749 3765 0
-70 -3749 3750 0
-3750 3766 0
-71 -3750 3751 0
-3751 3767 0
-72 -3751 3752 0
-3752 3768 0
-73 -3752 3753 0
-3753 3769 0
-74 -3753 3754 0
-3754 3770 0
-75 -3754 3755 0
-3755 3771 0
-76 -3755 3756 0
-3756 3772 0
-77 -3756 3757 0
-3757 3773 0
-78 -3757 3758 0
-3758 3774 0
-79 -3758 3759 0
-3759 3775 0
-80 -3759 3760 0
-3760 3776 0
-81 -3760 3761 0
-3761 3777 0
-82 -3761 3762 0
-3762 3778 0
-83 -3762 3763 0
-3763 3779 0
-84 -3763 3764 0
-3764 3780 0
-85 -3764 0
-70 3765 0
-3765 3781 0
-71 -3765 3766 0
-3766 3782 0
-72 -3766 3767 0
-3767 3783 0
-73 -3767 3768 0
-3768 3784 0
-74 -3768 3769 0
-3769 3785 0
-75 -3769 3770 0
-3770 3786 0
-76 -3770 3771 0
-3771 3787 0
-77 -3771 3772 0
-3772 3788 0
-78 -3772 3773 0
-3773 3789 0
-79 -3773 3774 0
-3774 3790 0
-80 -3774 3775 0
-3775 3791 0
-81 -3775 3776 0
-3776 3792 0
-82 -3776 3777 0
-3777 3793 0
-83 -3777 3778 0
-3778 3794 0
-84 -3778 3779 0
-3779 3795 0
-85 -3779 3780 0
-3780 3796 0
-86 -3780 0
-71 3781 0
-3781 3797 0
-72 -3781 3782 0
-3782 3798 0
-73 -3782 3783 0
-3783 3799 0
-74 -3783 3784 0
-3784 3800 0
-75 -3784 3785 0
-3785 3801 0
-76 -3785 3786 0
-3786 3802 0
-77 -3786 3787 0
-3787 3803 0
-78 -3787 3788 0
-3788 3804 0
-79 -3788 3789 0
-3789 3805 0
-80 -3789 3790 0
-3790 3806 0
-81 -3790 3791 0
-3791 3807 0
-82 -3791 3792 0
-3792 3808 0
-83 -3792 3793 0
-3793 3809 0
-84 -3793 3794 0
-3794 3810 0
-85 -3794 3795 0
-3795 3811 0
-86 -3795 3796 0
-3796 3812 0
-87 -3796 0
-72 3797 0
-3797 3813 0
-73 -3797 3798 0
-3798 3814 0
-74 -3798 3799 0
-3799 3815 0
-75 -3799 3800 0
-3800 3816 0
-76 -3800 3801 0
-3801 3817 0
-77 -3801 3802 0
-3802 3818 0
-78 -3802 3803 0
-3803 3819 0
-79 -3803 3804 0
-3804 3820 0
-80 -3804 3805 0
-3805 3821 0
-81 -3805 3806 0
-3806 3822 0
-82 -3806 3807 0
-3807 3823 0
-83 -3807 3808 0
-3808 3824 0
-84 -3808 3809 0
-3809 3825 0
-85 -3809 3810 0
-3810 3826 0
-86 -3810 3811 0
-3811 3827 0
-87 -3811 3812 0
-3812 3828 0
-88 -3812 0
-73 3813 0
-3813 3829 0
-74 -3813 3814 0
-3814 3830 0
-75 -3814 3815 0
-3815 3831 0
-76 -3815 3816 0
-3816 3832 0
-77 -3816 3817 0
-3817 3833 0
-78 -3817 3818 0
-3818 3834 0
-79 -3818 3819 0
-3819 3835 0
-80 -3819 3820 0
-3820 3836 0
-81 -3820 3821 0
-3821 3837 0
-82 -3821 3822 0
-3822 3838 0
-83 -3822 3823 0
-3823 3839 0
-84 -3823 3824 0
-3824 3840 0
-85 -3824 3825 0
-3825 3841 0
-86 -3825 3826 0
-3826 3842 0
-87 -3826 3827 0
-3827 3843 0
-88 -3827 3828 0
-3828 3844 0
-89 -3828 0
-74 3829 0
-3829 3845 0
-75 -3829 3830 0
-3830 3846 0
-76 -3830 3831 0
-3831 3847 0
-77 -3831 3832 0
-3832 3848 0
-78 -3832 3833 0
-3833 3849 0
-79 -3833 3834 0
-3834 3850 0
-80 -3834 3835 0
-3835 3851 0
-81 -3835 3836 0
-3836 3852 0
-82 -3836 3837 0
-3837 3853 0
-83 -3837 3838 0
-3838 3854 0
-84 -3838 3839 0
-3839 3855 0
-85 -3839 3840 0
-3840 3856 0
-86 -3840 3841 0
-3841 3857 0
-87 -3841 3842 0
-3842 3858 0
-88 -3842 3843 0
-3843 3859 0
-89 -3843 3844 0
-3844 3860 0
-90 -3844 0
-75 3845 0
-3845 3861 0
-76 -3845 3846 0
-3846 3862 0
-77 -3846 3847 0
-3847 3863 0
-78 -3847 3848 0
-3848 3864 0
-79 -3848 3849 0
-3849 3865 0
-80 -3849 3850 0
-3850 3866 0
-81 -3850 3851 0
-3851 3867 0
-82 -3851 3852 0
-3852 3868 0
-83 -3852 3853 0
-3853 3869 0
-84 -3853 3854 0
-3854 3870 0
-85 -3854 3855 0
-3855 3871 0
-86 -3855 3856 0
-3856 3872 0
-87 -3856 3857 0
-3857 3873 0
-88 -3857 3858 0
-3858 3874 0
-89 -3858 3859 0
-3859 3875 0
-90 -3859 3860 0
-3860 3876 0
-91 -3860 0
-76 3861 0
-3861 3877 0
-77 -3861 3862 0
-3862 3878 0
-78 -3862 3863 0
-3863 3879 0
-79 -3863 3864 0
-3864 3880 0
-80 -3864 3865 0
-3865 3881 0
-81 -3865 3866 0
-3866 3882 0
-82 -3866 3867 0
-3867 3883 0
-83 -3867 3868 0
-3868 3884 0
-84 -3868 3869 0
-3869 3885 0
-85 -3869 3870 0
-3870 3886 0
-86 -3870 3871 0
-3871 3887 0
-87 -3871 3872 0
-3872 3888 0
-88 -3872 3873 0
-3873 3889 0
-89 -3873 3874 0
-3874 3890 0
-90 -3874 3875 0
-3875 3891 0
-91 -3875 3876 0
-3876 3892 0
-92 -3876 0
-77 3877 0
-3877 3893 0
-78 -3877 3878 0
-3878 3894 0
-79 -3878 3879 0
-3879 3895 0
-80 -3879 3880 0
-3880 3896 0
-81 -3880 3881 0
-3881 3897 0
-82 -3881 3882 0
-3882 3898 0
-83 -3882 3883 0
-3883 3899 0
-84 -3883 3884 0
-3884 3900 0
-85 -3884 3885 0
-3885 3901 0
-86 -3885 3886 0
-3886 3902 0
-87 -3886 3887 0
-3887 3903 0
-88 -3887 3888 0
-3888 3904 0
-89 -3888 3889 0
-3889 3905 0
-90 -3889 3890 0
-3890 3906 0
-91 -3890 3891 0
-3891 3907 0
-92 -3891 3892 0
-3892 3908 0
-93 -3892 0
-78 3893 0
-3893 3909 0
-79 -3893 3894 0
-3894 3910 0
-80 -3894 3895 0
-3895 3911 0
-81 -3895 3896 0
-3896 3912 0
-82 -3896 3897 0
-3897 3913 0
-83 -3897 3898 0
-3898 3914 0
-84 -3898 3899 0
-3899 3915 0
-85 -3899 3900 0
-3900 3916 0
-86 -3900 3901 0
-3901 3917 0
-87 -3901 3902 0
-3902 3918 0
-88 -3902 3903 0
-3903 3919 0
-89 -3903 3904 0
-3904 3920 0
-90 -3904 3905 0
-3905 3921 0
-91 -3905 3906 0
-3906 3922 0
-92 -3906 3907 0
-3907 3923 0
-93 -3907 3908 0
-3908 3924 0
-94 -3908 0
-79 3909 0
-3909 3925 0
-80 -3909 3910 0
-3910 3926 0
-81 -3910 3911 0
-3911 3927 0
-82 -3911 3912 0
-3912 3928 0
-83 -3912 3913 0
-3913 3929 0
-84 -3913 3914 0
-3914 3930 0
-85 -3914 3915 0
-3915 3931 0
-86 -3915 3916 0
-3916 3932 0
-87 -3916 3917 0
-3917 3933 0
-88 -3917 3918 0
-3918 3934 0
-89 -3918 3919 0
-3919 3935 0
-90 -3919 3920 0
-3920 3936 0
-91 -3920 3921 0
-3921 3937 0
-92 -3921 3922 0
-3922 3938 0
-93 -3922 3923 0
-3923 3939 0
-94 -3923 3924 0
-3924 3940 0
-95 -3924 0
-80 3925 0
-3925 3941 0
-81 -3925 3926 0
-3926 3942 0
-82 -3926 3927 0
-3927 3943 0
-83 -3927 3928 0
-3928 3944 0
-84 -3928 3929 0
-3929 3945 0
-85 -3929 3930 0
-3930 3946 0
-86 -3930 3931 0
-3931 3947 0
-87 -3931 3932 0
-3932 3948 0
-88 -3932 3933 0
-3933 3949 0
-89 -3933 3934 0
-3934 3950 0
-90 -3934 3935 0
-3935 3951 0
-91 -3935 3936 0
-3936 3952 0
-92 -3936 3937 0
-3937 3953 0
-93 -3937 3938 0
-3938 3954 0
-94 -3938 3939 0
-3939 3955 0
-95 -3939 3940 0
-3940 3956 0
-96 -3940 0
-81 3941 0
-3941 3957 0
-82 -3941 3942 0
-3942 3958 0
-83 -3942 3943 0
-3943 3959 0
-84 -3943 3944 0
-3944 3960 0
-85 -3944 3945 0
-3945 3961 0
-86 -3945 3946 0
-3946 3962 0
-87 -3946 3947 0
-3947 3963 0
-88 -3947 3948 0
-3948 3964 0
-89 -3948 3949 0
-3949 3965 0
-90 -3949 3950 0
-3950 3966 0
-91 -3950 3951 0
-3951 3967 0
-92 -3951 3952 0
-3952 3968 0
-93 -3952 3953 0
-3953 3969 0
-94 -3953 3954 0
-3954 3970 0
-95 -3954 3955 0
-3955 3971 0
-96 -3955 3956 0
-3956 3972 0
-97 -3956 0
-82 3957 0
-3957 3973 0
-83 -3957 3958 0
-3958 3974 0
-84 -3958 3959 0
-3959 3975 0
-85 -3959 3960 0
-3960 3976 0
-86 -3960 3961 0
-3961 3977 0
-87 -3961 3962 0
-3962 3978 0
-88 -3962 3963 0
-3963 3979 0
-89 -3963 3964 0
-3964 3980 0
-90 -3964 3965 0
-3965 3981 0
-91 -3965 3966 0
-3966 3982 0
-92 -3966 3967 0
-3967 3983 0
-93 -3967 3968 0
-3968 3984 0
-94 -3968 3969 0
-3969 3985 0
-95 -3969 3970 0
-3970 3986 0
-96 -3970 3971 0
-3971 3987 0
-97 -3971 3972 0
-3972 3988 0
-98 -3972 0
-83 3973 0
-3973 3989 0
-84 -3973 3974 0
-3974 3990 0
-85 -3974 3975 0
-3975 3991 0
-86 -3975 3976 0
-3976 3992 0
-87 -3976 3977 0
-3977 3993 0
-88 -3977 3978 0
-3978 3994 0
-89 -3978 3979 0
-3979 3995 0
-90 -3979 3980 0
-3980 3996 0
-91 -3980 3981 0
-3981 3997 0
-92 -3981 3982 0
-3982 3998 0
-93 -3982 3983 0
-3983 3999 0
-94 -3983 3984 0
-3984 4000 0
-95 -3984 3985 0
-3985 4001 0
-96 -3985 3986 0
-3986 4002 0
-97 -3986 3987 0
-3987 4003 0
-98 -3987 3988 0
-3988 4004 0
-99 -3988 0
-84 3989 0
-3989 4005 0
-85 -3989 3990 0
-3990 4006 0
-86 -3990 3991 0
-3991 4007 0
-87 -3991 3992 0
-3992 4008 0
-88 -3992 3993 0
-3993 4009 0
-89 -3993 3994 0
-3994 4010 0
-90 -3994 3995 0
-3995 4011 0
-91 -3995 3996 0
-3996 4012 0
-92 -3996 3997 0
-3997 4013 0
-93 -3997 3998 0
-3998 4014 0
-94 -3998 3999 0
-3999 4015 0
-95 -3999 4000 0
-4000 4016 0
-96 -4000 4001 0
-4001 4017 0
-97 -4001 4002 0
-4002 4018 0
-98 -4002 4003 0
-4003 4019 0
-99 -4003 4004 0
-4004 4020 0
-100 -4004 0
-85 4005 0
-4005 4021 0
-86 -4005 4006 0
-4006 4022 0
-87 -4006 4007 0
-4007 4023 0
-88 -4007 4008 0
-4008 4024 0
-89 -4008 4009 0
-4009 4025 0
-90 -4009 4010 0
-4010 4026 0
-91 -4010 4011 0
-4011 4027 0
-92 -4011 4012 0
-4012 4028 0
-93 -4012 4013 0
-4013 4029 0
-94 -4013 4014 0
-4014 4030 0
-95 -4014 4015 0
-4015 4031 0
-96 -4015 4016 0
-4016 4032 0
-97 -4016 4017 0
-4017 4033 0
-98 -4017 4018 0
-4018 4034 0
-99 -4018 4019 0
-4019 4035 0
-100 -4019 4020 0
-4020 4036 0
-101 -4020 0
-86 4021 0
-4021 4037 0
-87 -4021 4022 0
-4022 4038 0
-88 -4022 4023 0
-4023 4039 0
-89 -4023 4024 0
-4024 4040 0
-90 -4024 4025 0
-4025 4041 0
-91 -4025 4026 0
-4026 4042 0
-92 -4026 4027 0
-4027 4043 0
-93 -4027 4028 0
-4028 4044 0
-94 -4028 4029 0
-4029 4045 0
-95 -4029 4030 0
-4030 4046 0
-96 -4030 4031 0
-4031 4047 0
-97 -4031 4032 0
-4032 4048 0
-98 -4032 4033 0
-4033 4049 0
-99 -4033 4034 0
-4034 4050 0
-100 -4034 4035 0
-4035 4051 0
-101 -4035 4036 0
-4036 4052 0
-102 -4036 0
-87 4037 0
-4037 4053 0
-88 -4037 4038 0
-4038 4054 0
-89 -4038 4039 0
-4039 4055 0
-90 -4039 4040 0
-4040 4056 0
-91 -4040 4041 0
-4041 4057 0
-92 -4041 4042 0
-4042 4058 0
-93 -4042 4043 0
-4043 4059 0
-94 -4043 4044 0
-4044 4060 0
-95 -4044 4045 0
-4045 4061 0
-96 -4045 4046 0
-4046 4062 0
-97 -4046 4047 0
-4047 4063 0
-98 -4047 4048 0
-4048 4064 0
-99 -4048 4049 0
-4049 4065 0
-100 -4049 4050 0
-4050 4066 0
-101 -4050 4051 0
-4051 4067 0
-102 -4051 4052 0
-4052 4068 0
-103 -4052 0
-88 4053 0
-4053 4069 0
-89 -4053 4054 0
-4054 4070 0
-90 -4054 4055 0
-4055 4071 0
-91 -4055 4056 0
-4056 4072 0
-92 -4056 4057 0
-4057 4073 0
-93 -4057 4058 0
-4058 4074 0
-94 -4058 4059 0
-4059 4075 0
-95 -4059 4060 0
-4060 4076 0
-96 -4060 4061 0
-4061 4077 0
-97 -4061 4062 0
-4062 4078 0
-98 -4062 4063 0
-4063 4079 0
-99 -4063 4064 0
-4064 4080 0
-100 -4064 4065 0
-4065 4081 0
-101 -4065 4066 0
-4066 4082 0
-102 -4066 4067 0
-4067 4083 0
-103 -4067 4068 0
-4068 4084 0
-104 -4068 0
-89 4069 0
-4069 4085 0
-90 -4069 4070 0
-4070 4086 0
-91 -4070 4071 0
-4071 4087 0
-92 -4071 4072 0
-4072 4088 0
-93 -4072 4073 0
-4073 4089 0
-94 -4073 4074 0
-4074 4090 0
-95 -4074 4075 0
-4075 4091 0
-96 -4075 4076 0
-4076 4092 0
-97 -4076 4077 0
-4077 4093 0
-98 -4077 4078 0
-4078 4094 0
-99 -4078 4079 0
-4079 4095 0
-100 -4079 4080 0
-4080 4096 0
-101 -4080 4081 0
-4081 4097 0
-102 -4081 4082 0
-4082 4098 0
-103 -4082 4083 0
-4083 4099 0
-104 -4083 4084 0
-4084 4100 0
-105 -4084 0
-90 4085 0
-4085 4101 0
-91 -4085 4086 0
-4086 4102 0
-92 -4086 4087 0
-4087 4103 0
-93 -4087 4088 0
-4088 4104 0
-94 -4088 4089 0
-4089 4105 0
-95 -4089 4090 0
-4090 4106 0
-96 -4090 4091 0
-4091 4107 0
-97 -4091 4092 0
-4092 4108 0
-98 -4092 4093 0
-4093 4109 0
-99 -4093 4094 0
-4094 4110 0
-100 -4094 4095 0
-4095 4111 0
-101 -4095 4096 0
-4096 4112 0
-102 -4096 4097 0
-4097 4113 0
-103 -4097 4098 0
-4098 4114 0
-104 -4098 4099 0
-4099 4115 0
-105 -4099 4100 0
-4100 4116 0
-106 -4100 0
-91 4101 0
-4101 4117 0
-92 -4101 4102 0
-4102 4118 0
-93 -4102 4103 0
-4103 4119 0
-94 -4103 4104 0
-4104 4120 0
-95 -4104 4105 0
-4105 4121 0
-96 -4105 4106 0
-4106 4122 0
-97 -4106 4107 0
-4107 4123 0
-98 -4107 4108 0
-4108 4124 0
-99 -4108 4109 0
-4109 4125 0
-100 -4109 4110 0
-4110 4126 0
-101 -4110 4111 0
-4111 4127 0
-102 -4111 4112 0
-4112 4128 0
-103 -4112 4113 0
-4113 4129 0
-104 -4113 4114 0
-4114 4130 0
-105 -4114 4115 0
-4115 4131 0
-106 -4115 4116 0
-4116 4132 0
-107 -4116 0
-92 4117 0
-4117 4133 0
-93 -4117 4118 0
-4118 4134 0
-94 -4118 4119 0
-4119 4135 0
-95 -4119 4120 0
-4120 4136 0
-96 -4120 4121 0
-4121 4137 0
-97 -4121 4122 0
-4122 4138 0
-98 -4122 4123 0
-4123 4139 0
-99 -4123 4124 0
-4124 4140 0
-100 -4124 4125 0
-4125 4141 0
-101 -4125 4126 0
-4126 4142 0
-102 -4126 4127 0
-4127 4143 0
-103 -4127 4128 0
-4128 4144 0
-104 -4128 4129 0
-4129 4145 0
-105 -4129 4130 0
-4130 4146 0
-106 -4130 4131 0
-4131 4147 0
-107 -4131 4132 0
-4132 4148 0
-108 -4132 0
-93 4133 0
-4133 4149 0
-94 -4133 4134 0
-4134 4150 0
-95 -4134 4135 0
-4135 4151 0
-96 -4135 4136 0
-4136 4152 0
-97 -4136 4137 0
-4137 4153 0
-98 -4137 4138 0
-4138 4154 0
-99 -4138 4139 0
-4139 4155 0
-100 -4139 4140 0
-4140 4156 0
-101 -4140 4141 0
-4141 4157 0
-102 -4141 4142 0
-4142 4158 0
-103 -4142 4143 0
-4143 4159 0
-104 -4143 4144 0
-4144 4160 0
-105 -4144 4145 0
-4145 4161 0
-106 -4145 4146 0
-4146 4162 0
-107 -4146 4147 0
-4147 4163 0
-108 -4147 4148 0
-4148 4164 0
-109 -4148 0
-94 4149 0
-4149 4165 0
-95 -4149 4150 0
-4150 4166 0
-96 -4150 4151 0
-4151 4167 0
-97 -4151 4152 0
-4152 4168 0
-98 -4152 4153 0
-4153 4169 0
-99 -4153 4154 0
-4154 4170 0
-100 -4154 4155 0
-4155 4171 0
-101 -4155 4156 0
-4156 4172 0
-102 -4156 4157 0
-4157 4173 0
-103 -4157 4158 0
-4158 4174 0
-104 -4158 4159 0
-4159 4175 0
-105 -4159 4160 0
-4160 4176 0
-106 -4160 4161 0
-4161 4177 0
-107 -4161 4162 0
-4162 4178 0
-108 -4162 4163 0
-4163 4179 0
-109 -4163 4164 0
-4164 4180 0
-110 -4164 0
-95 4165 0
-4165 4181 0
-96 -4165 4166 0
-4166 4182 0
-97 -4166 4167 0
-4167 4183 0
-98 -4167 4168 0
-4168 4184 0
-99 -4168 4169 0
-4169 4185 0
-100 -4169 4170 0
-4170 4186 0
-101 -4170 4171 0
-4171 4187 0
-102 -4171 4172 0
-4172 4188 0
-103 -4172 4173 0
-4173 4189 0
-104 -4173 4174 0
-4174 4190 0
-105 -4174 4175 0
-4175 4191 0
-106 -4175 4176 0
-4176 4192 0
-107 -4176 4177 0
-4177 4193 0
-108 -4177 4178 0
-4178 4194 0
-109 -4178 4179 0
-4179 4195 0
-110 -4179 4180 0
-4180 4196 0
-111 -4180 0
-96 4181 0
-4181 4197 0
-97 -4181 4182 0
-4182 4198 0
-98 -4182 4183 0
-4183 4199 0
-99 -4183 4184 0
-4184 4200 0
-100 -4184 4185 0
-4185 4201 0
-101 -4185 4186 0
-4186 4202 0
-102 -4186 4187 0
-4187 4203 0
-103 -4187 4188 0
-4188 4204 0
-104 -4188 4189 0
-4189 4205 0
-105 -4189 4190 0
-4190 4206 0
-106 -4190 4191 0
-4191 4207 0
-107 -4191 4192 0
-4192 4208 0
-108 -4192 4193 0
-4193 4209 0
-109 -4193 4194 0
-4194 4210 0
-110 -4194 4195 0
-4195 4211 0
-111 -4195 4196 0
-4196 4212 0
-112 -4196 0
-97 4197 0
-4197 4213 0
-98 -4197 4198 0
-4198 4214 0
-99 -4198 4199 0
-4199 4215 0
-100 -4199 4200 0
-4200 4216 0
-101 -4200 4201 0
-4201 4217 0
-102 -4201 4202 0
-4202 4218 0
-103 -4202 4203 0
-4203 4219 0
-104 -4203 4204 0
-4204 4220 0
-105 -4204 4205 0
-4205 4221 0
-106 -4205 4206 0
-4206 4222 0
-107 -4206 4207 0
-4207 4223 0
-108 -4207 4208 0
-4208 4224 0
-109 -4208 4209 0
-4209 4225 0
-110 -4209 4210 0
-4210 4226 0
-111 -4210 4211 0
-4211 4227 0
-112 -4211 4212 0
-4212 4228 0
-113 -4212 0
-98 4213 0
-4213 4229 0
-99 -4213 4214 0
-4214 4230 0
-100 -4214 4215 0
-4215 4231 0
-101 -4215 4216 0
-4216 4232 0
-102 -4216 4217 0
-4217 4233 0
-103 -4217 4218 0
-4218 4234 0
-104 -4218 4219 0
-4219 4235 0
-105 -4219 4220 0
-4220 4236 0
-106 -4220 4221 0
-4221 4237 0
-107 -4221 4222 0
-4222 4238 0
-108 -4222 4223 0
-4223 4239 0
-109 -4223 4224 0
-4224 4240 0
-110 -4224 4225 0
-4225 4241 0
-111 -4225 4226 0
-4226 4242 0
-112 -4226 4227 0
-4227 4243 0
-113 -4227 4228 0
-4228 4244 0
-114 -4228 0
-99 4229 0
-4229 4245 0
-100 -4229 4230 0
-4230 4246 0
-101 -4230 4231 0
-4231 4247 0
-102 -4231 4232 0
-4232 4248 0
-103 -4232 4233 0
-4233 4249 0
-104 -4233 4234 0
-4234 4250 0
-105 -4234 4235 0
-4235 4251 0
-106 -4235 4236 0
-4236 4252 0
-107 -4236 4237 0
-4237 4253 0
-108 -4237 4238 0
-4238 4254 0
-109 -4238 4239 0
-4239 4255 0
-110 -4239 4240 0
-4240 4256 0
-111 -4240 4241 0
-4241 4257 0
-112 -4241 4242 0
-4242 4258 0
-113 -4242 4243 0
-4243 4259 0
-114 -4243 4244 0
-4244 4260 0
-115 -4244 0
-100 4245 0
-4245 4261 0
-101 -4245 4246 0
-4246 4262 0
-102 -4246 4247 0
-4247 4263 0
-103 -4247 4248 0
-4248 4264 0
-104 -4248 4249 0
-4249 4265 0
-105 -4249 4250 0
-4250 4266 0
-106 -4250 4251 0
-4251 4267 0
-107 -4251 4252 0
-4252 4268 0
-108 -4252 4253 0
-4253 4269 0
-109 -4253 4254 0
-4254 4270 0
-110 -4254 4255 0
-4255 4271 0
-111 -4255 4256 0
-4256 4272 0
-112 -4256 4257 0
-4257 4273 0
-113 -4257 4258 0
-4258 4274 0
-114 -4258 4259 0
-4259 4275 0
-115 -4259 4260 0
-4260 4276 0
-116 -4260 0
-101 4261 0
-4261 4277 0
-102 -4261 4262 0
-4262 4278 0
-103 -4262 4263 0
-4263 4279 0
-104 -4263 4264 0
-4264 4280 0
-105 -4264 4265 0
-4265 4281 0
-106 -4265 4266 0
-4266 4282 0
-107 -4266 4267 0
-4267 4283 0
-108 -4267 4268 0
-4268 4284 0
-109 -4268 4269 0
-4269 4285 0
-110 -4269 4270 0
-4270 4286 0
-111 -4270 4271 0
-4271 4287 0
-112 -4271 4272 0
-4272 4288 0
-113 -4272 4273 0
-4273 4289 0
-114 -4273 4274 0
-4274 4290 0
-115 -4274 4275 0
-4275 4291 0
-116 -4275 4276 0
-4276 4292 0
-117 -4276 0
-102 4277 0
-4277 4293 0
-103 -4277 4278 0
-4278 4294 0
-104 -4278 4279 0
-4279 4295 0
-105 -4279 4280 0
-4280 4296 0
-106 -4280 4281 0
-4281 4297 0
-107 -4281 4282 0
-4282 4298 0
-108 -4282 4283 0
-4283 4299 0
-109 -4283 4284 0
-4284 4300 0
-110 -4284 4285 0
-4285 4301 0
-111 -4285 4286 0
-4286 4302 0
-112 -4286 4287 0
-4287 4303 0
-113 -4287 4288 0
-4288 4304 0
-114 -4288 4289 0
-4289 4305 0
-115 -4289 4290 0
-4290 4306 0
-116 -4290 4291 0
-4291 4307 0
-117 -4291 4292 0
-4292 4308 0
-118 -4292 0
-103 4293 0
-4293 4309 0
-104 -4293 4294 0
-4294 4310 0
-105 -4294 4295 0
-4295 4311 0
-106 -4295 4296 0
-4296 4312 0
-107 -4296 4297 0
-4297 4313 0
-108 -4297 4298 0
-4298 4314 0
-109 -4298 4299 0
-4299 4315 0
-110 -4299 4300 0
-4300 4316 0
-111 -4300 4301 0
-4301 4317 0
-112 -4301 4302 0
-4302 4318 0
-113 -4302 4303 0
-4303 4319 0
-114 -4303 4304 0
-4304 4320 0
-115 -4304 4305 0
-4305 4321 0
-116 -4305 4306 0
-4306 4322 0
-117 -4306 4307 0
-4307 4323 0
-118 -4307 4308 0
-4308 4324 0
-119 -4308 0
-104 4309 0
-4309 4325 0
-105 -4309 4310 0
-4310 4326 0
-106 -4310 4311 0
-4311 4327 0
-107 -4311 4312 0
-4312 4328 0
-108 -4312 4313 0
-4313 4329 0
-109 -4313 4314 0
-4314 4330 0
-110 -4314 4315 0
-4315 4331 0
-111 -4315 4316 0
-4316 4332 0
-112 -4316 4317 0
-4317 4333 0
-113 -4317 4318 0
-4318 4334 0
-114 -4318 4319 0
-4319 4335 0
-115 -4319 4320 0
-4320 4336 0
-116 -4320 4321 0
-4321 4337 0
-117 -4321 4322 0
-4322 4338 0
-118 -4322 4323 0
-4323 4339 0
-119 -4323 4324 0
-4324 4340 0
-120 -4324 0
-105 4325 0
-4325 4341 0
-106 -4325 4326 0
-4326 4342 0
-107 -4326 4327 0
-4327 4343 0
-108 -4327 4328 0
-4328 4344 0
-109 -4328 4329 0
-4329 4345 0
-110 -4329 4330 0
-4330 4346 0
-111 -4330 4331 0
-4331 4347 0
-112 -4331 4332 0
-4332 4348 0
-113 -4332 4333 0
-4333 4349 0
-114 -4333 4334 0
-4334 4350 0
-115 -4334 4335 0
-4335 4351 0
-116 -4335 4336 0
-4336 4352 0
-117 -4336 4337 0
-4337 4353 0
-118 -4337 4338 0
-4338 4354 0
-119 -4338 4339 0
-4339 4355 0
-120 -4339 4340 0
-4340 4356 0
-121 -4340 0
-106 4341 0
-4341 4357 0
-107 -4341 4342 0
-4342 4358 0
-108 -4342 4343 0
-4343 4359 0
-109 -4343 4344 0
-4344 4360 0
-110 -4344 4345 0
-4345 4361 0
-111 -4345 4346 0
-4346 4362 0
-112 -4346 4347 0
-4347 4363 0
-113 -4347 4348 0
-4348 4364 0
-114 -4348 4349 0
-4349 4365 0
-115 -4349 4350 0
-4350 4366 0
-116 -4350 4351 0
-4351 4367 0
-117 -4351 4352 0
-4352 4368 0
-118 -4352 4353 0
-4353 4369 0
-119 -4353 4354 0
-4354 4370 0
-120 -4354 4355 0
-4355 4371 0
-121 -4355 4356 0
-4356 4372 0
-122 -4356 0
-107 4357 0
-4357 4373 0
-108 -4357 4358 0
-4358 4374 0
-109 -4358 4359 0
-4359 4375 0
-110 -4359 4360 0
-4360 4376 0
-111 -4360 4361 0
-4361 4377 0
-112 -4361 4362 0
-4362 4378 0
-113 -4362 4363 0
-4363 4379 0
-114 -4363 4364 0
-4364 4380 0
-115 -4364 4365 0
-4365 4381 0
-116 -4365 4366 0
-4366 4382 0
-117 -4366 4367 0
-4367 4383 0
-118 -4367 4368 0
-4368 4384 0
-119 -4368 4369 0
-4369 4385 0
-120 -4369 4370 0
-4370 4386 0
-121 -4370 4371 0
-4371 4387 0
-122 -4371 4372 0
-4372 4388 0
-123 -4372 0
-108 4373 0
-4373 4389 0
-109 -4373 4374 0
-4374 4390 0
-110 -4374 4375 0
-4375 4391 0
-111 -4375 4376 0
-4376 4392 0
-112 -4376 4377 0
-4377 4393 0
-113 -4377 4378 0
-4378 4394 0
-114 -4378 4379 0
-4379 4395 0
-115 -4379 4380 0
-4380 4396 0
-116 -4380 4381 0
-4381 4397 0
-117 -4381 4382 0
-4382 4398 0
-118 -4382 4383 0
-4383 4399 0
-119 -4383 4384 0
-4384 4400 0
-120 -4384 4385 0
-4385 4401 0
-121 -4385 4386 0
-4386 4402 0
-122 -4386 4387 0
-4387 4403 0
-123 -4387 4388 0
-4388 4404 0
-124 -4388 0
-109 4389 0
-4389 4405 0
-110 -4389 4390 0
-4390 4406 0
-111 -4390 4391 0
-4391 4407 0
-112 -4391 4392 0
-4392 4408 0
-113 -4392 4393 0
-4393 4409 0
-114 -4393 4394 0
-4394 4410 0
-115 -4394 4395 0
-4395 4411 0
-116 -4395 4396 0
-4396 4412 0
-117 -4396 4397 0
-4397 4413 0
-118 -4397 4398 0
-4398 4414 0
-119 -4398 4399 0
-4399 4415 0
-120 -4399 4400 0
-4400 4416 0
-121 -4400 4401 0
-4401 4417 0
-122 -4401 4402 0
-4402 4418 0
-123 -4402 4403 0
-4403 4419 0
-124 -4403 4404 0
-4404 4420 0
-125 -4404 0
-110 4405 0
-4405 4421 0
-111 -4405 4406 0
-4406 4422 0
-112 -4406 4407 0
-4407 4423 0
-113 -4407 4408 0
-4408 4424 0
-114 -4408 4409 0
-4409 4425 0
-115 -4409 4410 0
-4410 4426 0
-116 -4410 4411 0
-4411 4427 0
-117 -4411 4412 0
-4412 4428 0
-118 -4412 4413 0
-4413 4429 0
-119 -4413 4414 0
-4414 4430 0
-120 -4414 4415 0
-4415 4431 0
-121 -4415 4416 0
-4416 4432 0
-122 -4416 4417 0
-4417 4433 0
-123 -4417 4418 0
-4418 4434 0
-124 -4418 4419 0
-4419 4435 0
-125 -4419 4420 0
-4420 4436 0
-126 -4420 0
-111 4421 0
-4421 4437 0
-112 -4421 4422 0
-4422 4438 0
-113 -4422 4423 0
-4423 4439 0
-114 -4423 4424 0
-4424 4440 0
-115 -4424 4425 0
-4425 4441 0
-116 -4425 4426 0
-4426 4442 0
-117 -4426 4427 0
-4427 4443 0
-118 -4427 4428 0
-4428 4444 0
-119 -4428 4429 0
-4429 4445 0
-120 -4429 4430 0
-4430 4446 0
-121 -4430 4431 0
-4431 4447 0
-122 -4431 4432 0
-4432 4448 0
-123 -4432 4433 0
-4433 4449 0
-124 -4433 4434 0
-4434 4450 0
-125 -4434 4435 0
-4435 4451 0
-126 -4435 4436 0
-4436 4452 0
-127 -4436 0
-112 4437 0
-4437 4453 0
-113 -4437 4438 0
-4438 4454 0
-114 -4438 4439 0
-4439 4455 0
-115 -4439 4440 0
-4440 4456 0
-116 -4440 4441 0
-4441 4457 0
-117 -4441 4442 0
-4442 4458 0
-118 -4442 4443 0
-4443 4459 0
-119 -4443 4444 0
-4444 4460 0
-120 -4444 4445 0
-4445 4461 0
-121 -4445 4446 0
-4446 4462 0
-122 -4446 4447 0
-4447 4463 0
-123 -4447 4448 0
-4448 4464 0
-124 -4448 4449 0
-4449 4465 0
-125 -4449 4450 0
-4450 4466 0
-126 -4450 4451 0
-4451 4467 0
-127 -4451 4452 0
-4452 4468 0
-128 -4452 0
-113 4453 0
-4453 4469 0
-114 -4453 4454 0
-4454 4470 0
-115 -4454 4455 0
-4455 4471 0
-116 -4455 4456 0
-4456 4472 0
-117 -4456 4457 0
-4457 4473 0
-118 -4457 4458 0
-4458 4474 0
-119 -4458 4459 0
-4459 4475 0
-120 -4459 4460 0
-4460 4476 0
-121 -4460 4461 0
-4461 4477 0
-122 -4461 4462 0
-4462 4478 0
-123 -4462 4463 0
-4463 4479 0
-124 -4463 4464 0
-4464 4480 0
-125 -4464 4465 0
-4465 4481 0
-126 -4465 4466 0
-4466 4482 0
-127 -4466 4467 0
-4467 4483 0
-128 -4467 4468 0
-4468 4484 0
-129 -4468 0
-114 4469 0
-4469 4485 0
-115 -4469 4470 0
-4470 4486 0
-116 -4470 4471 0
-4471 4487 0
-117 -4471 4472 0
-4472 4488 0
-118 -4472 4473 0
-4473 4489 0
-119 -4473 4474 0
-4474 4490 0
-120 -4474 4475 0
-4475 4491 0
-121 -4475 4476 0
-4476 4492 0
-122 -4476 4477 0
-4477 4493 0
-123 -4477 4478 0
-4478 4494 0
-124 -4478 4479 0
-4479 4495 0
-125 -4479 4480 0
-4480 4496 0
-126 -4480 4481 0
-4481 4497 0
-127 -4481 4482 0
-4482 4498 0
-128 -4482 4483 0
-4483 4499 0
-129 -4483 4484 0
-4484 4500 0
-130 -4484 0
-115 4485 0
-4485 4501 0
-116 -4485 4486 0
-4486 4502 0
-117 -4486 4487 0
-4487 4503 0
-118 -4487 4488 0
-4488 4504 0
-119 -4488 4489 0
-4489 4505 0
-120 -4489 4490 0
-4490 4506 0
-121 -4490 4491 0
-4491 4507 0
-122 -4491 4492 0
-4492 4508 0
-123 -4492 4493 0
-4493 4509 0
-124 -4493 4494 0
-4494 4510 0
-125 -4494 4495 0
-4495 4511 0
-126 -4495 4496 0
-4496 4512 0
-127 -4496 4497 0
-4497 4513 0
-128 -4497 4498 0
-4498 4514 0
-129 -4498 4499 0
-4499 4515 0
-130 -4499 4500 0
-4500 4516 0
-131 -4500 0
-116 4501 0
-4501 4517 0
-117 -4501 4502 0
-4502 4518 0
-118 -4502 4503 0
-4503 4519 0
-119 -4503 4504 0
-4504 4520 0
-120 -4504 4505 0
-4505 4521 0
-121 -4505 4506 0
-4506 4522 0
-122 -4506 4507 0
-4507 4523 0
-123 -4507 4508 0
-4508 4524 0
-124 -4508 4509 0
-4509 4525 0
-125 -4509 4510 0
-4510 4526 0
-126 -4510 4511 0
-4511 4527 0
-127 -4511 4512 0
-4512 4528 0
-128 -4512 4513 0
-4513 4529 0
-129 -4513 4514 0
-4514 4530 0
-130 -4514 4515 0
-4515 4531 0
-131 -4515 4516 0
-4516 4532 0
-132 -4516 0
-117 4517 0
-4517 4533 0
-118 -4517 4518 0
-4518 4534 0
-119 -4518 4519 0
-4519 4535 0
-120 -4519 4520 0
-4520 4536 0
-121 -4520 4521 0
-4521 4537 0
-122 -4521 4522 0
-4522 4538 0
-123 -4522 4523 0
-4523 4539 0
-124 -4523 4524 0
-4524 4540 0
-125 -4524 4525 0
-4525 4541 0
-126 -4525 4526 0
-4526 4542 0
-127 -4526 4527 0
-4527 4543 0
-128 -4527 4528 0
-4528 4544 0
-129 -4528 4529 0
-4529 4545 0
-130 -4529 4530 0
-4530 4546 0
-131 -4530 4531 0
-4531 4547 0
-132 -4531 4532 0
-4532 4548 0
-133 -4532 0
-118 4533 0
-4533 4549 0
-119 -4533 4534 0
-4534 4550 0
-120 -4534 4535 0
-4535 4551 0
-121 -4535 4536 0
-4536 4552 0
-122 -4536 4537 0
-4537 4553 0
-123 -4537 4538 0
-4538 4554 0
-124 -4538 4539 0
-4539 4555 0
-125 -4539 4540 0
-4540 4556 0
-126 -4540 4541 0
-4541 4557 0
-127 -4541 4542 0
-4542 4558 0
-128 -4542 4543 0
-4543 4559 0
-129 -4543 4544 0
-4544 4560 0
-130 -4544 4545 0
-4545 4561 0
-131 -4545 4546 0
-4546 4562 0
-132 -4546 4547 0
-4547 4563 0
-133 -4547 4548 0
-4548 4564 0
-134 -4548 0
-119 4549 0
-4549 4565 0
-120 -4549 4550 0
-4550 4566 0
-121 -4550 4551 0
-4551 4567 0
-122 -4551 4552 0
-4552 4568 0
-123 -4552 4553 0
-4553 4569 0
-124 -4553 4554 0
-4554 4570 0
-125 -4554 4555 0
-4555 4571 0
-126 -4555 4556 0
-4556 4572 0
-127 -4556 4557 0
-4557 4573 0
-128 -4557 4558 0
-4558 4574 0
-129 -4558 4559 0
-4559 4575 0
-130 -4559 4560 0
-4560 4576 0
-131 -4560 4561 0
-4561 4577 0
-132 -4561 4562 0
-4562 4578 0
-133 -4562 4563 0
-4563 4579 0
-134 -4563 4564 0
-4564 4580 0
-135 -4564 0
-120 4565 0
-4565 4581 0
-121 -4565 4566 0
-4566 4582 0
-122 -4566 4567 0
-4567 4583 0
-123 -4567 4568 0
-4568 4584 0
-124 -4568 4569 0
-4569 4585 0
-125 -4569 4570 0
-4570 4586 0
-126 -4570 4571 0
-4571 4587 0
-127 -4571 4572 0
-4572 4588 0
-128 -4572 4573 0
-4573 4589 0
-129 -4573 4574 0
-4574 4590 0
-130 -4574 4575 0
-4575 4591 0
-131 -4575 4576 0
-4576 4592 0
-132 -4576 4577 0
-4577 4593 0
-133 -4577 4578 0
-4578 4594 0
-134 -4578 4579 0
-4579 4595 0
-135 -4579 4580 0
-4580 4596 0
-136 -4580 0
-121 4581 0
-4581 4597 0
-122 -4581 4582 0
-4582 4598 0
-123 -4582 4583 0
-4583 4599 0
-124 -4583 4584 0
-4584 4600 0
-125 -4584 4585 0
-4585 4601 0
-126 -4585 4586 0
-4586 4602 0
-127 -4586 4587 0
-4587 4603 0
-128 -4587 4588 0
-4588 4604 0
-129 -4588 4589 0
-4589 4605 0
-130 -4589 4590 0
-4590 4606 0
-131 -4590 4591 0
-4591 4607 0
-132 -4591 4592 0
-4592 4608 0
-133 -4592 4593 0
-4593 4609 0
-134 -4593 4594 0
-4594 4610 0
-135 -4594 4595 0
-4595 4611 0
-136 -4595 4596 0
-4596 4612 0
-137 -4596 0
-122 4597 0
-4597 4613 0
-123 -4597 4598 0
-4598 4614 0
-124 -4598 4599 0
-4599 4615 0
-125 -4599 4600 0
-4600 4616 0
-126 -4600 4601 0
-4601 4617 0
-127 -4601 4602 0
-4602 4618 0
-128 -4602 4603 0
-4603 4619 0
-129 -4603 4604 0
-4604 4620 0
-130 -4604 4605 0
-4605 4621 0
-131 -4605 4606 0
-4606 4622 0
-132 -4606 4607 0
-4607 4623 0
-133 -4607 4608 0
-4608 4624 0
-134 -4608 4609 0
-4609 4625 0
-135 -4609 4610 0
-4610 4626 0
-136 -4610 4611 0
-4611 4627 0
-137 -4611 4612 0
-4612 4628 0
-138 -4612 0
-123 4613 0
-4613 4629 0
-124 -4613 4614 0
-4614 4630 0
-125 -4614 4615 0
-4615 4631 0
-126 -4615 4616 0
-4616 4632 0
-127 -4616 4617 0
-4617 4633 0
-128 -4617 4618 0
-4618 4634 0
-129 -4618 4619 0
-4619 4635 0
-130 -4619 4620 0
-4620 4636 0
-131 -4620 4621 0
-4621 4637 0
-132 -4621 4622 0
-4622 4638 0
-133 -4622 4623 0
-4623 4639 0
-134 -4623 4624 0
-4624 4640 0
-135 -4624 4625 0
-4625 4641 0
-136 -4625 4626 0
-4626 4642 0
-137 -4626 4627 0
-4627 4643 0
-138 -4627 4628 0
-4628 4644 0
-139 -4628 0
-124 4629 0
-4629 4645 0
-125 -4629 4630 0
-4630 4646 0
-126 -4630 4631 0
-4631 4647 0
-127 -4631 4632 0
-4632 4648 0
-128 -4632 4633 0
-4633 4649 0
-129 -4633 4634 0
-4634 4650 0
-130 -4634 4635 0
-4635 4651 0
-131 -4635 4636 0
-4636 4652 0
-132 -4636 4637 0
-4637 4653 0
-133 -4637 4638 0
-4638 4654 0
-134 -4638 4639 0
-4639 4655 0
-135 -4639 4640 0
-4640 4656 0
-136 -4640 4641 0
-4641 4657 0
-137 -4641 4642 0
-4642 4658 0
-138 -4642 4643 0
-4643 4659 0
-139 -4643 4644 0
-4644 4660 0
-140 -4644 0
-125 4645 0
-4645 4661 0
-126 -4645 4646 0
-4646 4662 0
-127 -4646 4647 0
-4647 4663 0
-128 -4647 4648 0
-4648 4664 0
-129 -4648 4649 0
-4649 4665 0
-130 -4649 4650 0
-4650 4666 0
-131 -4650 4651 0
-4651 4667 0
-132 -4651 4652 0
-4652 4668 0
-133 -4652 4653 0
-4653 4669 0
-134 -4653 4654 0
-4654 4670 0
-135 -4654 4655 0
-4655 4671 0
-136 -4655 4656 0
-4656 4672 0
-137 -4656 4657 0
-4657 4673 0
-138 -4657 4658 0
-4658 4674 0
-139 -4658 4659 0
-4659 4675 0
-140 -4659 4660 0
-4660 4676 0
-141 -4660 0
-126 4661 0
-4661 4677 0
-127 -4661 4662 0
-4662 4678 0
-128 -4662 4663 0
-4663 4679 0
-129 -4663 4664 0
-4664 4680 0
-130 -4664 4665 0
-4665 4681 0
-131 -4665 4666 0
-4666 4682 0
-132 -4666 4667 0
-4667 4683 0
-133 -4667 4668 0
-4668 4684 0
-134 -4668 4669 0
-4669 4685 0
-135 -4669 4670 0
-4670 4686 0
-136 -4670 4671 0
-4671 4687 0
-137 -4671 4672 0
-4672 4688 0
-138 -4672 4673 0
-4673 4689 0
-139 -4673 4674 0
-4674 4690 0
-140 -4674 4675 0
-4675 4691 0
-141 -4675 4676 0
-4676 4692 0
-142 -4676 0
-127 4677 0
-4677 4693 0
-128 -4677 4678 0
-4678 4694 0
-129 -4678 4679 0
-4679 4695 0
-130 -4679 4680 0
-4680 4696 0
-131 -4680 4681 0
-4681 4697 0
-132 -4681 4682 0
-4682 4698 0
-133 -4682 4683 0
-4683 4699 0
-134 -4683 4684 0
-4684 4700 0
-135 -4684 4685 0
-4685 4701 0
-136 -4685 4686 0
-4686 4702 0
-137 -4686 4687 0
-4687 4703 0
-138 -4687 4688 0
-4688 4704 0
-139 -4688 4689 0
-4689 4705 0
-140 -4689 4690 0
-4690 4706 0
-141 -4690 4691 0
-4691 4707 0
-142 -4691 4692 0
-4692 4708 0
-143 -4692 0
-128 4693 0
-4693 4709 0
-129 -4693 4694 0
-4694 4710 0
-130 -4694 4695 0
-4695 4711 0
-131 -4695 4696 0
-4696 4712 0
-132 -4696 4697 0
-4697 4713 0
-133 -4697 4698 0
-4698 4714 0
-134 -4698 4699 0
-4699 4715 0
-135 -4699 4700 0
-4700 4716 0
-136 -4700 4701 0
-4701 4717 0
-137 -4701 4702 0
-4702 4718 0
-138 -4702 4703 0
-4703 4719 0
-139 -4703 4704 0
-4704 4720 0
-140 -4704 4705 0
-4705 4721 0
-141 -4705 4706 0
-4706 4722 0
-142 -4706 4707 0
-4707 4723 0
-143 -4707 4708 0
-4708 4724 0
-144 -4708 0
-129 4709 0
-4709 4725 0
-130 -4709 4710 0
-4710 4726 0
-131 -4710 4711 0
-4711 4727 0
-132 -4711 4712 0
-4712 4728 0
-133 -4712 4713 0
-4713 4729 0
-134 -4713 4714 0
-4714 4730 0
-135 -4714 4715 0
-4715 4731 0
-136 -4715 4716 0
-4716 4732 0
-137 -4716 4717 0
-4717 4733 0
-138 -4717 4718 0
-4718 4734 0
-139 -4718 4719 0
-4719 4735 0
-140 -4719 4720 0
-4720 4736 0
-141 -4720 4721 0
-4721 4737 0
-142 -4721 4722 0
-4722 4738 0
-143 -4722 4723 0
-4723 4739 0
-144 -4723 4724 0
-4724 4740 0
-145 -4724 0
-130 4725 0
-4725 4741 0
-131 -4725 4726 0
-4726 4742 0
-132 -4726 4727 0
-4727 4743 0
-133 -4727 4728 0
-4728 4744 0
-134 -4728 4729 0
-4729 4745 0
-135 -4729 4730 0
-4730 4746 0
-136 -4730 4731 0
-4731 4747 0
-137 -4731 4732 0
-4732 4748 0
-138 -4732 4733 0
-4733 4749 0
-139 -4733 4734 0
-4734 4750 0
-140 -4734 4735 0
-4735 4751 0
-141 -4735 4736 0
-4736 4752 0
-142 -4736 4737 0
-4737 4753 0
-143 -4737 4738 0
-4738 4754 0
-144 -4738 4739 0
-4739 4755 0
-145 -4739 4740 0
-4740 4756 0
-146 -4740 0
-131 4741 0
-4741 4757 0
-132 -4741 4742 0
-4742 4758 0
-133 -4742 4743 0
-4743 4759 0
-134 -4743 4744 0
-4744 4760 0
-135 -4744 4745 0
-4745 4761 0
-136 -4745 4746 0
-4746 4762 0
-137 -4746 4747 0
-4747 4763 0
-138 -4747 4748 0
-4748 4764 0
-139 -4748 4749 0
-4749 4765 0
-140 -4749 4750 0
-4750 4766 0
-141 -4750 4751 0
-4751 4767 0
-142 -4751 4752 0
-4752 4768 0
-143 -4752 4753 0
-4753 4769 0
-144 -4753 4754 0
-4754 4770 0
-145 -4754 4755 0
-4755 4771 0
-146 -4755 4756 0
-4756 4772 0
-147 -4756 0
-132 4757 0
-4757 4773 0
-133 -4757 4758 0
-4758 4774 0
-134 -4758 4759 0
-4759 4775 0
-135 -4759 4760 0
-4760 4776 0
-136 -4760 4761 0
-4761 4777 0
-137 -4761 4762 0
-4762 4778 0
-138 -4762 4763 0
-4763 4779 0
-139 -4763 4764 0
-4764 4780 0
-140 -4764 4765 0
-4765 4781 0
-141 -4765 4766 0
-4766 4782 0
-142 -4766 4767 0
-4767 4783 0
-143 -4767 4768 0
-4768 4784 0
-144 -4768 4769 0
-4769 4785 0
-145 -4769 4770 0
-4770 4786 0
-146 -4770 4771 0
-4771 4787 0
-147 -4771 4772 0
-4772 4788 0
-148 -4772 0
-133 4773 0
-4773 4789 0
-134 -4773 4774 0
-4774 4790 0
-135 -4774 4775 0
-4775 4791 0
-136 -4775 4776 0
-4776 4792 0
-137 -4776 4777 0
-4777 4793 0
-138 -4777 4778 0
-4778 4794 0
-139 -4778 4779 0
-4779 4795 0
-140 -4779 4780 0
-4780 4796 0
-141 -4780 4781 0
-4781 4797 0
-142 -4781 4782 0
-4782 4798 0
-143 -4782 4783 0
-4783 4799 0
-144 -4783 4784 0
-4784 4800 0
-145 -4784 4785 0
-4785 4801 0
-146 -4785 4786 0
-4786 4802 0
-147 -4786 4787 0
-4787 4803 0
-148 -4787 4788 0
-4788 4804 0
-149 -4788 0
-134 4789 0
-4789 4805 0
-135 -4789 4790 0
-4790 4806 0
-136 -4790 4791 0
-4791 4807 0
-137 -4791 4792 0
-4792 4808 0
-138 -4792 4793 0
-4793 4809 0
-139 -4793 4794 0
-4794 4810 0
-140 -4794 4795 0
-4795 4811 0
-141 -4795 4796 0
-4796 4812 0
-142 -4796 4797 0
-4797 4813 0
-143 -4797 4798 0
-4798 4814 0
-144 -4798 4799 0
-4799 4815 0
-145 -4799 4800 0
-4800 4816 0
-146 -4800 4801 0
-4801 4817 0
-147 -4801 4802 0
-4802 4818 0
-148 -4802 4803 0
-4803 4819 0
-149 -4803 4804 0
-4804 4820 0
-150 -4804 0
-135 4805 0
-4805 4821 0
-136 -4805 4806 0
-4806 4822 0
-137 -4806 4807 0
-4807 4823 0
-138 -4807 4808 0
-4808 4824 0
-139 -4808 4809 0
-4809 4825 0
-140 -4809 4810 0
-4810 4826 0
-141 -4810 4811 0
-4811 4827 0
-142 -4811 4812 0
-4812 4828 0
-143 -4812 4813 0
-4813 4829 0
-144 -4813 4814 0
-4814 4830 0
-145 -4814 4815 0
-4815 4831 0
-146 -4815 4816 0
-4816 4832 0
-147 -4816 4817 0
-4817 4833 0
-148 -4817 4818 0
-4818 4834 0
-149 -4818 4819 0
-4819 4835 0
-150 -4819 4820 0
-4820 4836 0
-151 -4820 0
-136 4821 0
-4821 4837 0
-137 -4821 4822 0
-4822 4838 0
-138 -4822 4823 0
-4823 4839 0
-139 -4823 4824 0
-4824 4840 0
-140 -4824 4825 0
-4825 4841 0
-141 -4825 4826 0
-4826 4842 0
-142 -4826 4827 0
-4827 4843 0
-143 -4827 4828 0
-4828 4844 0
-144 -4828 4829 0
-4829 4845 0
-145 -4829 4830 0
-4830 4846 0
-146 -4830 4831 0
-4831 4847 0
-147 -4831 4832 0
-4832 4848 0
-148 -4832 4833 0
-4833 4849 0
-149 -4833 4834 0
-4834 4850 0
-150 -4834 4835 0
-4835 4851 0
-151 -4835 4836 0
-4836 4852 0
-152 -4836 0
-137 4837 0
-4837 4853 0
-138 -4837 4838 0
-4838 4854 0
-139 -4838 4839 0
-4839 4855 0
-140 -4839 4840 0
-4840 4856 0
-141 -4840 4841 0
-4841 4857 0
-142 -4841 4842 0
-4842 4858 0
-143 -4842 4843 0
-4843 4859 0
-144 -4843 4844 0
-4844 4860 0
-145 -4844 4845 0
-4845 4861 0
-146 -4845 4846 0
-4846 4862 0
-147 -4846 4847 0
-4847 4863 0
-148 -4847 4848 0
-4848 4864 0
-149 -4848 4849 0
-4849 4865 0
-150 -4849 4850 0
-4850 4866 0
-151 -4850 4851 0
-4851 4867 0
-152 -4851 4852 0
-4852 4868 0
-153 -4852 0
-138 4853 0
-4853 4869 0
-139 -4853 4854 0
-4854 4870 0
-140 -4854 4855 0
-4855 4871 0
-141 -4855 4856 0
-4856 4872 0
-142 -4856 4857 0
-4857 4873 0
-143 -4857 4858 0
-4858 4874 0
-144 -4858 4859 0
-4859 4875 0
-145 -4859 4860 0
-4860 4876 0
-146 -4860 4861 0
-4861 4877 0
-147 -4861 4862 0
-4862 4878 0
-148 -4862 4863 0
-4863 4879 0
-149 -4863 4864 0
-4864 4880 0
-150 -4864 4865 0
-4865 4881 0
-151 -4865 4866 0
-4866 4882 0
-152 -4866 4867 0
-4867 4883 0
-153 -4867 4868 0
-4868 4884 0
-154 -4868 0
-139 4869 0
-4869 4885 0
-140 -4869 4870 0
-4870 4886 0
-141 -4870 4871 0
-4871 4887 0
-142 -4871 4872 0
-4872 4888 0
-143 -4872 4873 0
-4873 4889 0
-144 -4873 4874 0
-4874 4890 0
-145 -4874 4875 0
-4875 4891 0
-146 -4875 4876 0
-4876 4892 0
-147 -4876 4877 0
-4877 4893 0
-148 -4877 4878 0
-4878 4894 0
-149 -4878 4879 0
-4879 4895 0
-150 -4879 4880 0
-4880 4896 0
-151 -4880 4881 0
-4881 4897 0
-152 -4881 4882 0
-4882 4898 0
-153 -4882 4883 0
-4883 4899 0
-154 -4883 4884 0
-4884 4900 0
-155 -4884 0
-140 4885 0
-4885 4901 0
-141 -4885 4886 0
-4886 4902 0
-142 -4886 4887 0
-4887 4903 0
-143 -4887 4888 0
-4888 4904 0
-144 -4888 4889 0
-4889 4905 0
-145 -4889 4890 0
-4890 4906 0
-146 -4890 4891 0
-4891 4907 0
-147 -4891 4892 0
-4892 4908 0
-148 -4892 4893 0
-4893 4909 0
-149 -4893 4894 0
-4894 4910 0
-150 -4894 4895 0
-4895 4911 0
-151 -4895 4896 0
-4896 4912 0
-152 -4896 4897 0
-4897 4913 0
-153 -4897 4898 0
-4898 4914 0
-154 -4898 4899 0
-4899 4915 0
-155 -4899 4900 0
-4900 4916 0
-156 -4900 0
-141 4901 0
-4901 4917 0
-142 -4901 4902 0
-4902 4918 0
-143 -4902 4903 0
-4903 4919 0
-144 -4903 4904 0
-4904 4920 0
-145 -4904 4905 0
-4905 4921 0
-146 -4905 4906 0
-4906 4922 0
-147 -4906 4907 0
-4907 4923 0
-148 -4907 4908 0
-4908 4924 0
-149 -4908 4909 0
-4909 4925 0
-150 -4909 4910 0
-4910 4926 0
-151 -4910 4911 0
-4911 4927 0
-152 -4911 4912 0
-4912 4928 0
-153 -4912 4913 0
-4913 4929 0
-154 -4913 4914 0
-4914 4930 0
-155 -4914 4915 0
-4915 4931 0
-156 -4915 4916 0
-4916 4932 0
-157 -4916 0
-142 4917 0
-4917 4933 0
-143 -4917 4918 0
-4918 4934 0
-144 -4918 4919 0
-4919 4935 0
-145 -4919 4920 0
-4920 4936 0
-146 -4920 4921 0
-4921 4937 0
-147 -4921 4922 0
-4922 4938 0
-148 -4922 4923 0
-4923 4939 0
-149 -4923 4924 0
-4924 4940 0
-150 -4924 4925 0
-4925 4941 0
-151 -4925 4926 0
-4926 4942 0
-152 -4926 4927 0
-4927 4943 0
-153 -4927 4928 0
-4928 4944 0
-154 -4928 4929 0
-4929 4945 0
-155 -4929 4930 0
-4930 4946 0
-156 -4930 4931 0
-4931 4947 0
-157 -4931 4932 0
-4932 4948 0
-158 -4932 0
-143 4933 0
-4933 4949 0
-144 -4933 4934 0
-4934 4950 0
-145 -4934 4935 0
-4935 4951 0
-146 -4935 4936 0
-4936 4952 0
-147 -4936 4937 0
-4937 4953 0
-148 -4937 4938 0
-4938 4954 0
-149 -4938 4939 0
-4939 4955 0
-150 -4939 4940 0
-4940 4956 0
-151 -4940 4941 0
-4941 4957 0
-152 -4941 4942 0
-4942 4958 0
-153 -4942 4943 0
-4943 4959 0
-154 -4943 4944 0
-4944 4960 0
-155 -4944 4945 0
-4945 4961 0
-156 -4945 4946 0
-4946 4962 0
-157 -4946 4947 0
-4947 4963 0
-158 -4947 4948 0
-4948 4964 0
-159 -4948 0
-144 4949 0
-4949 4965 0
-145 -4949 4950 0
-4950 4966 0
-146 -4950 4951 0
-4951 4967 0
-147 -4951 4952 0
-4952 4968 0
-148 -4952 4953 0
-4953 4969 0
-149 -4953 4954 0
-4954 4970 0
-150 -4954 4955 0
-4955 4971 0
-151 -4955 4956 0
-4956 4972 0
-152 -4956 4957 0
-4957 4973 0
-153 -4957 4958 0
-4958 4974 0
-154 -4958 4959 0
-4959 4975 0
-155 -4959 4960 0
-4960 4976 0
-156 -4960 4961 0
-4961 4977 0
-157 -4961 4962 0
-4962 4978 0
-158 -4962 4963 0
-4963 4979 0
-159 -4963 4964 0
-4964 4980 0
-160 -4964 0
-145 4965 0
-4965 4981 0
-146 -4965 4966 0
-4966 4982 0
-147 -4966 4967 0
-4967 4983 0
-148 -4967 4968 0
-4968 4984 0
-149 -4968 4969 0
-4969 4985 0
-150 -4969 4970 0
-4970 4986 0
-151 -4970 4971 0
-4971 4987 0
-152 -4971 4972 0
-4972 4988 0
-153 -4972 4973 0
-4973 4989 0
-154 -4973 4974 0
-4974 4990 0
-155 -4974 4975 0
-4975 4991 0
-156 -4975 4976 0
-4976 4992 0
-157 -4976 4977 0
-4977 4993 0
-158 -4977 4978 0
-4978 4994 0
-159 -4978 4979 0
-4979 4995 0
-160 -4979 4980 0
-4980 4996 0
-161 -4980 0
-146 4981 0
-147 -4981 4982 0
-148 -4982 4983 0
-149 -4983 4984 0
-150 -4984 4985 0
-151 -4985 4986 0
-152 -4986 4987 0
-153 -4987 4988 0
-154 -4988 4989 0
-155 -4989 4990 0
-156 -4990 4991 0
-157 -4991 4992 0
-158 -4992 4993 0
-159 -4993 4994 0
-160 -4994 4995 0
-161 -4995 4996 0
-162 -4996 0
-163 4997 0
-4997 4998 0
-164 -4997 4999 0
-4999 5000 0
-165 -4999 5001 0
-5001 5002 0
-166 -5001 5003 0
-5003 5004 0
-167 -5003 5005 0
-5005 5006 0
-168 -5005 5007 0
-5007 5008 0
-169 -5007 5009 0
-5009 5010 0
-170 -5009 5011 0
-5011 5012 0
-171 -5011 5013 0
-5013 5014 0
-172 -5013 0
-164 4998 0
-4998 5015 0
-165 -4998 5000 0
-5000 5016 0
-166 -5000 5002 0
-5002 5017 0
-167 -5002 5004 0
-5004 5018 0
-168 -5004 5006 0
-5006 5019 0
-169 -5006 5008 0
-5008 5020 0
-170 -5008 5010 0
-5010 5021 0
-171 -5010 5012 0
-5012 5022 0
-172 -5012 5014 0
-5014 5023 0
-173 -5014 0
-165 5015 0
-5015 5024 0
-166 -5015 5016 0
-5016 5025 0
-167 -5016 5017 0
-5017 5026 0
-168 -5017 5018 0
-5018 5027 0
-169 -5018 5019 0
-5019 5028 0
-170 -5019 5020 0
-5020 5029 0
-171 -5020 5021 0
-5021 5030 0
-172 -5021 5022 0
-5022 5031 0
-173 -5022 5023 0
-5023 5032 0
-174 -5023 0
-166 5024 0
-5024 5033 0
-167 -5024 5025 0
-5025 5034 0
-168 -5025 5026 0
-5026 5035 0
-169 -5026 5027 0
-5027 5036 0
-170 -5027 5028 0
-5028 5037 0
-171 -5028 5029 0
-5029 5038 0
-172 -5029 5030 0
-5030 5039 0
-173 -5030 5031 0
-5031 5040 0
-174 -5031 5032 0
-5032 5041 0
-175 -5032 0
-167 5033 0
-5033 5042 0
-168 -5033 5034 0
-5034 5043 0
-169 -5034 5035 0
-5035 5044 0
-170 -5035 5036 0
-5036 5045 0
-171 -5036 5037 0
-5037 5046 0
-172 -5037 5038 0
-5038 5047 0
-173 -5038 5039 0
-5039 5048 0
-174 -5039 5040 0
-5040 5049 0
-175 -5040 5041 0
-5041 5050 0
-176 -5041 0
-168 5042 0
-5042 5051 0
-169 -5042 5043 0
-5043 5052 0
-170 -5043 5044 0
-5044 5053 0
-171 -5044 5045 0
-5045 5054 0
-172 -5045 5046 0
-5046 5055 0
-173 -5046 5047 0
-5047 5056 0
-174 -5047 5048 0
-5048 5057 0
-175 -5048 5049 0
-5049 5058 0
-176 -5049 5050 0
-5050 5059 0
-177 -5050 0
-169 5051 0
-5051 5060 0
-170 -5051 5052 0
-5052 5061 0
-171 -5052 5053 0
-5053 5062 0
-172 -5053 5054 0
-5054 5063 0
-173 -5054 5055 0
-5055 5064 0
-174 -5055 5056 0
-5056 5065 0
-175 -5056 5057 0
-5057 5066 0
-176 -5057 5058 0
-5058 5067 0
-177 -5058 5059 0
-5059 5068 0
-178 -5059 0
-170 5060 0
-5060 5069 0
-171 -5060 5061 0
-5061 5070 0
-172 -5061 5062 0
-5062 5071 0
-173 -5062 5063 0
-5063 5072 0
-174 -5063 5064 0
-5064 5073 0
-175 -5064 5065 0
-5065 5074 0
-176 -5065 5066 0
-5066 5075 0
-177 -5066 5067 0
-5067 5076 0
-178 -5067 5068 0
-5068 5077 0
-179 -5068 0
-171 5069 0
-5069 5078 0
-172 -5069 5070 0
-5070 5079 0
-173 -5070 5071 0
-5071 5080 0
-174 -5071 5072 0
-5072 5081 0
-175 -5072 5073 0
-5073 5082 0
-176 -5073 5074 0
-5074 5083 0
-177 -5074 5075 0
-5075 5084 0
-178 -5075 5076 0
-5076 5085 0
-179 -5076 5077 0
-5077 5086 0
-180 -5077 0
-172 5078 0
-5078 5087 0
-173 -5078 5079 0
-5079 5088 0
-174 -5079 5080 0
-5080 5089 0
-175 -5080 5081 0
-5081 5090 0
-176 -5081 5082 0
-5082 5091 0
-177 -5082 5083 0
-5083 5092 0
-178 -5083 5084 0
-5084 5093 0
-179 -5084 5085 0
-5085 5094 0
-180 -5085 5086 0
-5086 5095 0
-181 -5086 0
-173 5087 0
-5087 5096 0
-174 -5087 5088 0
-5088 5097 0
-175 -5088 5089 0
-5089 5098 0
-176 -5089 5090 0
-5090 5099 0
-177 -5090 5091 0
-5091 5100 0
-178 -5091 5092 0
-5092 5101 0
-179 -5092 5093 0
-5093 5102 0
-180 -5093 5094 0
-5094 5103 0
-181 -5094 5095 0
-5095 5104 0
-182 -5095 0
-174 5096 0
-5096 5105 0
-175 -5096 5097 0
-5097 5106 0
-176 -5097 5098 0
-5098 5107 0
-177 -5098 5099 0
-5099 5108 0
-178 -5099 5100 0
-5100 5109 0
-179 -5100 5101 0
-5101 5110 0
-180 -5101 5102 0
-5102 5111 0
-181 -5102 5103 0
-5103 5112 0
-182 -5103 5104 0
-5104 5113 0
-183 -5104 0
-175 5105 0
-5105 5114 0
-176 -5105 5106 0
-5106 5115 0
-177 -5106 5107 0
-5107 5116 0
-178 -5107 5108 0
-5108 5117 0
-179 -5108 5109 0
-5109 5118 0
-180 -5109 5110 0
-5110 5119 0
-181 -5110 5111 0
-5111 5120 0
-182 -5111 5112 0
-5112 5121 0
-183 -5112 5113 0
-5113 5122 0
-184 -5113 0
-176 5114 0
-5114 5123 0
-177 -5114 5115 0
-5115 5124 0
-178 -5115 5116 0
-5116 5125 0
-179 -5116 5117 0
-5117 5126 0
-180 -5117 5118 0
-5118 5127 0
-181 -5118 5119 0
-5119 5128 0
-182 -5119 5120 0
-5120 5129 0
-183 -5120 5121 0
-5121 5130 0
-184 -5121 5122 0
-5122 5131 0
-185 -5122 0
-177 5123 0
-5123 5132 0
-178 -5123 5124 0
-5124 5133 0
-179 -5124 5125 0
-5125 5134 0
-180 -5125 5126 0
-5126 5135 0
-181 -5126 5127 0
-5127 5136 0
-182 -5127 5128 0
-5128 5137 0
-183 -5128 5129 0
-5129 5138 0
-184 -5129 5130 0
-5130 5139 0
-185 -5130 5131 0
-5131 5140 0
-186 -5131 0
-178 5132 0
-5132 5141 0
-179 -5132 5133 0
-5133 5142 0
-180 -5133 5134 0
-5134 5143 0
-181 -5134 5135 0
-5135 5144 0
-182 -5135 5136 0
-5136 5145 0
-183 -5136 5137 0
-5137 5146 0
-184 -5137 5138 0
-5138 5147 0
-185 -5138 5139 0
-5139 5148 0
-186 -5139 5140 0
-5140 5149 0
-187 -5140 0
-179 5141 0
-5141 5150 0
-180 -5141 5142 0
-5142 5151 0
-181 -5142 5143 0
-5143 5152 0
-182 -5143 5144 0
-5144 5153 0
-183 -5144 5145 0
-5145 5154 0
-184 -5145 5146 0
-5146 5155 0
-185 -5146 5147 0
-5147 5156 0
-186 -5147 5148 0
-5148 5157 0
-187 -5148 5149 0
-5149 5158 0
-188 -5149 0
-180 5150 0
-5150 5159 0
-181 -5150 5151 0
-5151 5160 0
-182 -5151 5152 0
-5152 5161 0
-183 -5152 5153 0
-5153 5162 0
-184 -5153 5154 0
-5154 5163 0
-185 -5154 5155 0
-5155 5164 0
-186 -5155 5156 0
-5156 5165 0
-187 -5156 5157 0
-5157 5166 0
-188 -5157 5158 0
-5158 5167 0
-189 -5158 0
-181 5159 0
-5159 5168 0
-182 -5159 5160 0
-5160 5169 0
-183 -5160 5161 0
-5161 5170 0
-184 -5161 5162 0
-5162 5171 0
-185 -5162 5163 0
-5163 5172 0
-186 -5163 5164 0
-5164 5173 0
-187 -5164 5165 0
-5165 5174 0
-188 -5165 5166 0
-5166 5175 0
-189 -5166 5167 0
-5167 5176 0
-190 -5167 0
-182 5168 0
-5168 5177 0
-183 -5168 5169 0
-5169 5178 0
-184 -5169 5170 0
-5170 5179 0
-185 -5170 5171 0
-5171 5180 0
-186 -5171 5172 0
-5172 5181 0
-187 -5172 5173 0
-5173 5182 0
-188 -5173 5174 0
-5174 5183 0
-189 -5174 5175 0
-5175 5184 0
-190 -5175 5176 0
-5176 5185 0
-191 -5176 0
-183 5177 0
-5177 5186 0
-184 -5177 5178 0
-5178 5187 0
-185 -5178 5179 0
-5179 5188 0
-186 -5179 5180 0
-5180 5189 0
-187 -5180 5181 0
-5181 5190 0
-188 -5181 5182 0
-5182 5191 0
-189 -5182 5183 0
-5183 5192 0
-190 -5183 5184 0
-5184 5193 0
-191 -5184 5185 0
-5185 5194 0
-192 -5185 0
-184 5186 0
-5186 5195 0
-185 -5186 5187 0
-5187 5196 0
-186 -5187 5188 0
-5188 5197 0
-187 -5188 5189 0
-5189 5198 0
-188 -5189 5190 0
-5190 5199 0
-189 -5190 5191 0
-5191 5200 0
-190 -5191 5192 0
-5192 5201 0
-191 -5192 5193 0
-5193 5202 0
-192 -5193 5194 0
-5194 5203 0
-193 -5194 0
-185 5195 0
-5195 5204 0
-186 -5195 5196 0
-5196 5205 0
-187 -5196 5197 0
-5197 5206 0
-188 -5197 5198 0
-5198 5207 0
-189 -5198 5199 0
-5199 5208 0
-190 -5199 5200 0
-5200 5209 0
-191 -5200 5201 0
-5201 5210 0
-192 -5201 5202 0
-5202 5211 0
-193 -5202 5203 0
-5203 5212 0
-194 -5203 0
-186 5204 0
-5204 5213 0
-187 -5204 5205 0
-5205 5214 0
-188 -5205 5206 0
-5206 5215 0
-189 -5206 5207 0
-5207 5216 0
-190 -5207 5208 0
-5208 5217 0
-191 -5208 5209 0
-5209 5218 0
-192 -5209 5210 0
-5210 5219 0
-193 -5210 5211 0
-5211 5220 0
-194 -5211 5212 0
-5212 5221 0
-195 -5212 0
-187 5213 0
-5213 5222 0
-188 -5213 5214 0
-5214 5223 0
-189 -5214 5215 0
-5215 5224 0
-190 -5215 5216 0
-5216 5225 0
-191 -5216 5217 0
-5217 5226 0
-192 -5217 5218 0
-5218 5227 0
-193 -5218 5219 0
-5219 5228 0
-194 -5219 5220 0
-5220 5229 0
-195 -5220 5221 0
-5221 5230 0
-196 -5221 0
-188 5222 0
-5222 5231 0
-189 -5222 5223 0
-5223 5232 0
-190 -5223 5224 0
-5224 5233 0
-191 -5224 5225 0
-5225 5234 0
-192 -5225 5226 0
-5226 5235 0
-193 -5226 5227 0
-5227 5236 0
-194 -5227 5228 0
-5228 5237 0
-195 -5228 5229 0
-5229 5238 0
-196 -5229 5230 0
-5230 5239 0
-197 -5230 0
-189 5231 0
-5231 5240 0
-190 -5231 5232 0
-5232 5241 0
-191 -5232 5233 0
-5233 5242 0
-192 -5233 5234 0
-5234 5243 0
-193 -5234 5235 0
-5235 5244 0
-194 -5235 5236 0
-5236 5245 0
-195 -5236 5237 0
-5237 5246 0
-196 -5237 5238 0
-5238 5247 0
-197 -5238 5239 0
-5239 5248 0
-198 -5239 0
-190 5240 0
-5240 5249 0
-191 -5240 5241 0
-5241 5250 0
-192 -5241 5242 0
-5242 5251 0
-193 -5242 5243 0
-5243 5252 0
-194 -5243 5244 0
-5244 5253 0
-195 -5244 5245 0
-5245 5254 0
-196 -5245 5246 0
-5246 5255 0
-197 -5246 5247 0
-5247 5256 0
-198 -5247 5248 0
-5248 5257 0
-199 -5248 0
-191 5249 0
-5249 5258 0
-192 -5249 5250 0
-5250 5259 0
-193 -5250 5251 0
-5251 5260 0
-194 -5251 5252 0
-5252 5261 0
-195 -5252 5253 0
-5253 5262 0
-196 -5253 5254 0
-5254 5263 0
-197 -5254 5255 0
-5255 5264 0
-198 -5255 5256 0
-5256 5265 0
-199 -5256 5257 0
-5257 5266 0
-200 -5257 0
-192 5258 0
-5258 5267 0
-193 -5258 5259 0
-5259 5268 0
-194 -5259 5260 0
-5260 5269 0
-195 -5260 5261 0
-5261 5270 0
-196 -5261 5262 0
-5262 5271 0
-197 -5262 5263 0
-5263 5272 0
-198 -5263 5264 0
-5264 5273 0
-199 -5264 5265 0
-5265 5274 0
-200 -5265 5266 0
-5266 5275 0
-201 -5266 0
-193 5267 0
-5267 5276 0
-194 -5267 5268 0
-5268 5277 0
-195 -5268 5269 0
-5269 5278 0
-196 -5269 5270 0
-5270 5279 0
-197 -5270 5271 0
-5271 5280 0
-198 -5271 5272 0
-5272 5281 0
-199 -5272 5273 0
-5273 5282 0
-200 -5273 5274 0
-5274 5283 0
-201 -5274 5275 0
-5275 5284 0
-202 -5275 0
-194 5276 0
-5276 5285 0
-195 -5276 5277 0
-5277 5286 0
-196 -5277 5278 0
-5278 5287 0
-197 -5278 5279 0
-5279 5288 0
-198 -5279 5280 0
-5280 5289 0
-199 -5280 5281 0
-5281 5290 0
-200 -5281 5282 0
-5282 5291 0
-201 -5282 5283 0
-5283 5292 0
-202 -5283 5284 0
-5284 5293 0
-203 -5284 0
-195 5285 0
-5285 5294 0
-196 -5285 5286 0
-5286 5295 0
-197 -5286 5287 0
-5287 5296 0
-198 -5287 5288 0
-5288 5297 0
-199 -5288 5289 0
-5289 5298 0
-200 -5289 5290 0
-5290 5299 0
-201 -5290 5291 0
-5291 5300 0
-202 -5291 5292 0
-5292 5301 0
-203 -5292 5293 0
-5293 5302 0
-204 -5293 0
-196 5294 0
-5294 5303 0
-197 -5294 5295 0
-5295 5304 0
-198 -5295 5296 0
-5296 5305 0
-199 -5296 5297 0
-5297 5306 0
-200 -5297 5298 0
-5298 5307 0
-201 -5298 5299 0
-5299 5308 0
-202 -5299 5300 0
-5300 5309 0
-203 -5300 5301 0
-5301 5310 0
-204 -5301 5302 0
-5302 5311 0
-205 -5302 0
-197 5303 0
-5303 5312 0
-198 -5303 5304 0
-5304 5313 0
-199 -5304 5305 0
-5305 5314 0
-200 -5305 5306 0
-5306 5315 0
-201 -5306 5307 0
-5307 5316 0
-202 -5307 5308 0
-5308 5317 0
-203 -5308 5309 0
-5309 5318 0
-204 -5309 5310 0
-5310 5319 0
-205 -5310 5311 0
-5311 5320 0
-206 -5311 0
-198 5312 0
-5312 5321 0
-199 -5312 5313 0
-5313 5322 0
-200 -5313 5314 0
-5314 5323 0
-201 -5314 5315 0
-5315 5324 0
-202 -5315 5316 0
-5316 5325 0
-203 -5316 5317 0
-5317 5326 0
-204 -5317 5318 0
-5318 5327 0
-205 -5318 5319 0
-5319 5328 0
-206 -5319 5320 0
-5320 5329 0
-207 -5320 0
-199 5321 0
-5321 5330 0
-200 -5321 5322 0
-5322 5331 0
-201 -5322 5323 0
-5323 5332 0
-202 -5323 5324 0
-5324 5333 0
-203 -5324 5325 0
-5325 5334 0
-204 -5325 5326 0
-5326 5335 0
-205 -5326 5327 0
-5327 5336 0
-206 -5327 5328 0
-5328 5337 0
-207 -5328 5329 0
-5329 5338 0
-208 -5329 0
-200 5330 0
-5330 5339 0
-201 -5330 5331 0
-5331 5340 0
-202 -5331 5332 0
-5332 5341 0
-203 -5332 5333 0
-5333 5342 0
-204 -5333 5334 0
-5334 5343 0
-205 -5334 5335 0
-5335 5344 0
-206 -5335 5336 0
-5336 5345 0
-207 -5336 5337 0
-5337 5346 0
-208 -5337 5338 0
-5338 5347 0
-209 -5338 0
-201 5339 0
-5339 5348 0
-202 -5339 5340 0
-5340 5349 0
-203 -5340 5341 0
-5341 5350 0
-204 -5341 5342 0
-5342 5351 0
-205 -5342 5343 0
-5343 5352 0
-206 -5343 5344 0
-5344 5353 0
-207 -5344 5345 0
-5345 5354 0
-208 -5345 5346 0
-5346 5355 0
-209 -5346 5347 0
-5347 5356 0
-210 -5347 0
-202 5348 0
-5348 5357 0
-203 -5348 5349 0
-5349 5358 0
-204 -5349 5350 0
-5350 5359 0
-205 -5350 5351 0
-5351 5360 0
-206 -5351 5352 0
-5352 5361 0
-207 -5352 5353 0
-5353 5362 0
-208 -5353 5354 0
-5354 5363 0
-209 -5354 5355 0
-5355 5364 0
-210 -5355 5356 0
-5356 5365 0
-211 -5356 0
-203 5357 0
-5357 5366 0
-204 -5357 5358 0
-5358 5367 0
-205 -5358 5359 0
-5359 5368 0
-206 -5359 5360 0
-5360 5369 0
-207 -5360 5361 0
-5361 5370 0
-208 -5361 5362 0
-5362 5371 0
-209 -5362 5363 0
-5363 5372 0
-210 -5363 5364 0
-5364 5373 0
-211 -5364 5365 0
-5365 5374 0
-212 -5365 0
-204 5366 0
-5366 5375 0
-205 -5366 5367 0
-5367 5376 0
-206 -5367 5368 0
-5368 5377 0
-207 -5368 5369 0
-5369 5378 0
-208 -5369 5370 0
-5370 5379 0
-209 -5370 5371 0
-5371 5380 0
-210 -5371 5372 0
-5372 5381 0
-211 -5372 5373 0
-5373 5382 0
-212 -5373 5374 0
-5374 5383 0
-213 -5374 0
-205 5375 0
-5375 5384 0
-206 -5375 5376 0
-5376 5385 0
-207 -5376 5377 0
-5377 5386 0
-208 -5377 5378 0
-5378 5387 0
-209 -5378 5379 0
-5379 5388 0
-210 -5379 5380 0
-5380 5389 0
-211 -5380 5381 0
-5381 5390 0
-212 -5381 5382 0
-5382 5391 0
-213 -5382 5383 0
-5383 5392 0
-214 -5383 0
-206 5384 0
-5384 5393 0
-207 -5384 5385 0
-5385 5394 0
-208 -5385 5386 0
-5386 5395 0
-209 -5386 5387 0
-5387 5396 0
-210 -5387 5388 0
-5388 5397 0
-211 -5388 5389 0
-5389 5398 0
-212 -5389 5390 0
-5390 5399 0
-213 -5390 5391 0
-5391 5400 0
-214 -5391 5392 0
-5392 5401 0
-215 -5392 0
-207 5393 0
-5393 5402 0
-208 -5393 5394 0
-5394 5403 0
-209 -5394 5395 0
-5395 5404 0
-210 -5395 5396 0
-5396 5405 0
-211 -5396 5397 0
-5397 5406 0
-212 -5397 5398 0
-5398 5407 0
-213 -5398 5399 0
-5399 5408 0
-214 -5399 5400 0
-5400 5409 0
-215 -5400 5401 0
-5401 5410 0
-216 -5401 0
-208 5402 0
-5402 5411 0
-209 -5402 5403 0
-5403 5412 0
-210 -5403 5404 0
-5404 5413 0
-211 -5404 5405 0
-5405 5414 0
-212 -5405 5406 0
-5406 5415 0
-213 -5406 5407 0
-5407 5416 0
-214 -5407 5408 0
-5408 5417 0
-215 -5408 5409 0
-5409 5418 0
-216 -5409 5410 0
-5410 5419 0
-217 -5410 0
-209 5411 0
-5411 5420 0
-210 -5411 5412 0
-5412 5421 0
-211 -5412 5413 0
-5413 5422 0
-212 -5413 5414 0
-5414 5423 0
-213 -5414 5415 0
-5415 5424 0
-214 -5415 5416 0
-5416 5425 0
-215 -5416 5417 0
-5417 5426 0
-216 -5417 5418 0
-5418 5427 0
-217 -5418 5419 0
-5419 5428 0
-218 -5419 0
-210 5420 0
-5420 5429 0
-211 -5420 5421 0
-5421 5430 0
-212 -5421 5422 0
-5422 5431 0
-213 -5422 5423 0
-5423 5432 0
-214 -5423 5424 0
-5424 5433 0
-215 -5424 5425 0
-5425 5434 0
-216 -5425 5426 0
-5426 5435 0
-217 -5426 5427 0
-5427 5436 0
-218 -5427 5428 0
-5428 5437 0
-219 -5428 0
-211 5429 0
-5429 5438 0
-212 -5429 5430 0
-5430 5439 0
-213 -5430 5431 0
-5431 5440 0
-214 -5431 5432 0
-5432 5441 0
-215 -5432 5433 0
-5433 5442 0
-216 -5433 5434 0
-5434 5443 0
-217 -5434 5435 0
-5435 5444 0
-218 -5435 5436 0
-5436 5445 0
-219 -5436 5437 0
-5437 5446 0
-220 -5437 0
-212 5438 0
-5438 5447 0
-213 -5438 5439 0
-5439 5448 0
-214 -5439 5440 0
-5440 5449 0
-215 -5440 5441 0
-5441 5450 0
-216 -5441 5442 0
-5442 5451 0
-217 -5442 5443 0
-5443 5452 0
-218 -5443 5444 0
-5444 5453 0
-219 -5444 5445 0
-5445 5454 0
-220 -5445 5446 0
-5446 5455 0
-221 -5446 0
-213 5447 0
-5447 5456 0
-214 -5447 5448 0
-5448 5457 0
-215 -5448 5449 0
-5449 5458 0
-216 -5449 5450 0
-5450 5459 0
-217 -5450 5451 0
-5451 5460 0
-218 -5451 5452 0
-5452 5461 0
-219 -5452 5453 0
-5453 5462 0
-220 -5453 5454 0
-5454 5463 0
-221 -5454 5455 0
-5455 5464 0
-222 -5455 0
-214 5456 0
-5456 5465 0
-215 -5456 5457 0
-5457 5466 0
-216 -5457 5458 0
-5458 5467 0
-217 -5458 5459 0
-5459 5468 0
-218 -5459 5460 0
-5460 5469 0
-219 -5460 5461 0
-5461 5470 0
-220 -5461 5462 0
-5462 5471 0
-221 -5462 5463 0
-5463 5472 0
-222 -5463 5464 0
-5464 5473 0
-223 -5464 0
-215 5465 0
-5465 5474 0
-216 -5465 5466 0
-5466 5475 0
-217 -5466 5467 0
-5467 5476 0
-218 -5467 5468 0
-5468 5477 0
-219 -5468 5469 0
-5469 5478 0
-220 -5469 5470 0
-5470 5479 0
-221 -5470 5471 0
-5471 5480 0
-222 -5471 5472 0
-5472 5481 0
-223 -5472 5473 0
-5473 5482 0
-224 -5473 0
-216 5474 0
-5474 5483 0
-217 -5474 5475 0
-5475 5484 0
-218 -5475 5476 0
-5476 5485 0
-219 -5476 5477 0
-5477 5486 0
-220 -5477 5478 0
-5478 5487 0
-221 -5478 5479 0
-5479 5488 0
-222 -5479 5480 0
-5480 5489 0
-223 -5480 5481 0
-5481 5490 0
-224 -5481 5482 0
-5482 5491 0
-225 -5482 0
-217 5483 0
-5483 5492 0
-218 -5483 5484 0
-5484 5493 0
-219 -5484 5485 0
-5485 5494 0
-220 -5485 5486 0
-5486 5495 0
-221 -5486 5487 0
-5487 5496 0
-222 -5487 5488 0
-5488 5497 0
-223 -5488 5489 0
-5489 5498 0
-224 -5489 5490 0
-5490 5499 0
-225 -5490 5491 0
-5491 5500 0
-226 -5491 0
-218 5492 0
-5492 5501 0
-219 -5492 5493 0
-5493 5502 0
-220 -5493 5494 0
-5494 5503 0
-221 -5494 5495 0
-5495 5504 0
-222 -5495 5496 0
-5496 5505 0
-223 -5496 5497 0
-5497 5506 0
-224 -5497 5498 0
-5498 5507 0
-225 -5498 5499 0
-5499 5508 0
-226 -5499 5500 0
-5500 5509 0
-227 -5500 0
-219 5501 0
-5501 5510 0
-220 -5501 5502 0
-5502 5511 0
-221 -5502 5503 0
-5503 5512 0
-222 -5503 5504 0
-5504 5513 0
-223 -5504 5505 0
-5505 5514 0
-224 -5505 5506 0
-5506 5515 0
-225 -5506 5507 0
-5507 5516 0
-226 -5507 5508 0
-5508 5517 0
-227 -5508 5509 0
-5509 5518 0
-228 -5509 0
-220 5510 0
-5510 5519 0
-221 -5510 5511 0
-5511 5520 0
-222 -5511 5512 0
-5512 5521 0
-223 -5512 5513 0
-5513 5522 0
-224 -5513 5514 0
-5514 5523 0
-225 -5514 5515 0
-5515 5524 0
-226 -5515 5516 0
-5516 5525 0
-227 -5516 5517 0
-5517 5526 0
-228 -5517 5518 0
-5518 5527 0
-229 -5518 0
-221 5519 0
-5519 5528 0
-222 -5519 5520 0
-5520 5529 0
-223 -5520 5521 0
-5521 5530 0
-224 -5521 5522 0
-5522 5531 0
-225 -5522 5523 0
-5523 5532 0
-226 -5523 5524 0
-5524 5533 0
-227 -5524 5525 0
-5525 5534 0
-228 -5525 5526 0
-5526 5535 0
-229 -5526 5527 0
-5527 5536 0
-230 -5527 0
-222 5528 0
-5528 5537 0
-223 -5528 5529 0
-5529 5538 0
-224 -5529 5530 0
-5530 5539 0
-225 -5530 5531 0
-5531 5540 0
-226 -5531 5532 0
-5532 5541 0
-227 -5532 5533 0
-5533 5542 0
-228 -5533 5534 0
-5534 5543 0
-229 -5534 5535 0
-5535 5544 0
-230 -5535 5536 0
-5536 5545 0
-231 -5536 0
-223 5537 0
-5537 5546 0
-224 -5537 5538 0
-5538 5547 0
-225 -5538 5539 0
-5539 5548 0
-226 -5539 5540 0
-5540 5549 0
-227 -5540 5541 0
-5541 5550 0
-228 -5541 5542 0
-5542 5551 0
-229 -5542 5543 0
-5543 5552 0
-230 -5543 5544 0
-5544 5553 0
-231 -5544 5545 0
-5545 5554 0
-232 -5545 0
-224 5546 0
-5546 5555 0
-225 -5546 5547 0
-5547 5556 0
-226 -5547 5548 0
-5548 5557 0
-227 -5548 5549 0
-5549 5558 0
-228 -5549 5550 0
-5550 5559 0
-229 -5550 5551 0
-5551 5560 0
-230 -5551 5552 0
-5552 5561 0
-231 -5552 5553 0
-5553 5562 0
-232 -5553 5554 0
-5554 5563 0
-233 -5554 0
-225 5555 0
-5555 5564 0
-226 -5555 5556 0
-5556 5565 0
-227 -5556 5557 0
-5557 5566 0
-228 -5557 5558 0
-5558 5567 0
-229 -5558 5559 0
-5559 5568 0
-230 -5559 5560 0
-5560 5569 0
-231 -5560 5561 0
-5561 5570 0
-232 -5561 5562 0
-5562 5571 0
-233 -5562 5563 0
-5563 5572 0
-234 -5563 0
-226 5564 0
-5564 5573 0
-227 -5564 5565 0
-5565 5574 0
-228 -5565 5566 0
-5566 5575 0
-229 -5566 5567 0
-5567 5576 0
-230 -5567 5568 0
-5568 5577 0
-231 -5568 5569 0
-5569 5578 0
-232 -5569 5570 0
-5570 5579 0
-233 -5570 5571 0
-5571 5580 0
-234 -5571 5572 0
-5572 5581 0
-235 -5572 0
-227 5573 0
-5573 5582 0
-228 -5573 5574 0
-5574 5583 0
-229 -5574 5575 0
-5575 5584 0
-230 -5575 5576 0
-5576 5585 0
-231 -5576 5577 0
-5577 5586 0
-232 -5577 5578 0
-5578 5587 0
-233 -5578 5579 0
-5579 5588 0
-234 -5579 5580 0
-5580 5589 0
-235 -5580 5581 0
-5581 5590 0
-236 -5581 0
-228 5582 0
-5582 5591 0
-229 -5582 5583 0
-5583 5592 0
-230 -5583 5584 0
-5584 5593 0
-231 -5584 5585 0
-5585 5594 0
-232 -5585 5586 0
-5586 5595 0
-233 -5586 5587 0
-5587 5596 0
-234 -5587 5588 0
-5588 5597 0
-235 -5588 5589 0
-5589 5598 0
-236 -5589 5590 0
-5590 5599 0
-237 -5590 0
-229 5591 0
-5591 5600 0
-230 -5591 5592 0
-5592 5601 0
-231 -5592 5593 0
-5593 5602 0
-232 -5593 5594 0
-5594 5603 0
-233 -5594 5595 0
-5595 5604 0
-234 -5595 5596 0
-5596 5605 0
-235 -5596 5597 0
-5597 5606 0
-236 -5597 5598 0
-5598 5607 0
-237 -5598 5599 0
-5599 5608 0
-238 -5599 0
-230 5600 0
-5600 5609 0
-231 -5600 5601 0
-5601 5610 0
-232 -5601 5602 0
-5602 5611 0
-233 -5602 5603 0
-5603 5612 0
-234 -5603 5604 0
-5604 5613 0
-235 -5604 5605 0
-5605 5614 0
-236 -5605 5606 0
-5606 5615 0
-237 -5606 5607 0
-5607 5616 0
-238 -5607 5608 0
-5608 5617 0
-239 -5608 0
-231 5609 0
-5609 5618 0
-232 -5609 5610 0
-5610 5619 0
-233 -5610 5611 0
-5611 5620 0
-234 -5611 5612 0
-5612 5621 0
-235 -5612 5613 0
-5613 5622 0
-236 -5613 5614 0
-5614 5623 0
-237 -5614 5615 0
-5615 5624 0
-238 -5615 5616 0
-5616 5625 0
-239 -5616 5617 0
-5617 5626 0
-240 -5617 0
-232 5618 0
-5618 5627 0
-233 -5618 5619 0
-5619 5628 0
-234 -5619 5620 0
-5620 5629 0
-235 -5620 5621 0
-5621 5630 0
-236 -5621 5622 0
-5622 5631 0
-237 -5622 5623 0
-5623 5632 0
-238 -5623 5624 0
-5624 5633 0
-239 -5624 5625 0
-5625 5634 0
-240 -5625 5626 0
-5626 5635 0
-241 -5626 0
-233 5627 0
-5627 5636 0
-234 -5627 5628 0
-5628 5637 0
-235 -5628 5629 0
-5629 5638 0
-236 -5629 5630 0
-5630 5639 0
-237 -5630 5631 0
-5631 5640 0
-238 -5631 5632 0
-5632 5641 0
-239 -5632 5633 0
-5633 5642 0
-240 -5633 5634 0
-5634 5643 0
-241 -5634 5635 0
-5635 5644 0
-242 -5635 0
-234 5636 0
-5636 5645 0
-235 -5636 5637 0
-5637 5646 0
-236 -5637 5638 0
-5638 5647 0
-237 -5638 5639 0
-5639 5648 0
-238 -5639 5640 0
-5640 5649 0
-239 -5640 5641 0
-5641 5650 0
-240 -5641 5642 0
-5642 5651 0
-241 -5642 5643 0
-5643 5652 0
-242 -5643 5644 0
-5644 5653 0
-243 -5644 0
-235 5645 0
-5645 5654 0
-236 -5645 5646 0
-5646 5655 0
-237 -5646 5647 0
-5647 5656 0
-238 -5647 5648 0
-5648 5657 0
-239 -5648 5649 0
-5649 5658 0
-240 -5649 5650 0
-5650 5659 0
-241 -5650 5651 0
-5651 5660 0
-242 -5651 5652 0
-5652 5661 0
-243 -5652 5653 0
-5653 5662 0
-244 -5653 0
-236 5654 0
-5654 5663 0
-237 -5654 5655 0
-5655 5664 0
-238 -5655 5656 0
-5656 5665 0
-239 -5656 5657 0
-5657 5666 0
-240 -5657 5658 0
-5658 5667 0
-241 -5658 5659 0
-5659 5668 0
-242 -5659 5660 0
-5660 5669 0
-243 -5660 5661 0
-5661 5670 0
-244 -5661 5662 0
-5662 5671 0
-245 -5662 0
-237 5663 0
-5663 5672 0
-238 -5663 5664 0
-5664 5673 0
-239 -5664 5665 0
-5665 5674 0
-240 -5665 5666 0
-5666 5675 0
-241 -5666 5667 0
-5667 5676 0
-242 -5667 5668 0
-5668 5677 0
-243 -5668 5669 0
-5669 5678 0
-244 -5669 5670 0
-5670 5679 0
-245 -5670 5671 0
-5671 5680 0
-246 -5671 0
-238 5672 0
-5672 5681 0
-239 -5672 5673 0
-5673 5682 0
-240 -5673 5674 0
-5674 5683 0
-241 -5674 5675 0
-5675 5684 0
-242 -5675 5676 0
-5676 5685 0
-243 -5676 5677 0
-5677 5686 0
-244 -5677 5678 0
-5678 5687 0
-245 -5678 5679 0
-5679 5688 0
-246 -5679 5680 0
-5680 5689 0
-247 -5680 0
-239 5681 0
-5681 5690 0
-240 -5681 5682 0
-5682 5691 0
-241 -5682 5683 0
-5683 5692 0
-242 -5683 5684 0
-5684 5693 0
-243 -5684 5685 0
-5685 5694 0
-244 -5685 5686 0
-5686 5695 0
-245 -5686 5687 0
-5687 5696 0
-246 -5687 5688 0
-5688 5697 0
-247 -5688 5689 0
-5689 5698 0
-248 -5689 0
-240 5690 0
-5690 5699 0
-241 -5690 5691 0
-5691 5700 0
-242 -5691 5692 0
-5692 5701 0
-243 -5692 5693 0
-5693 5702 0
-244 -5693 5694 0
-5694 5703 0
-245 -5694 5695 0
-5695 5704 0
-246 -5695 5696 0
-5696 5705 0
-247 -5696 5697 0
-5697 5706 0
-248 -5697 5698 0
-5698 5707 0
-249 -5698 0
-241 5699 0
-5699 5708 0
-242 -5699 5700 0
-5700 5709 0
-243 -5700 5701 0
-5701 5710 0
-244 -5701 5702 0
-5702 5711 0
-245 -5702 5703 0
-5703 5712 0
-246 -5703 5704 0
-5704 5713 0
-247 -5704 5705 0
-5705 5714 0
-248 -5705 5706 0
-5706 5715 0
-249 -5706 5707 0
-5707 5716 0
-250 -5707 0
-242 5708 0
-5708 5717 0
-243 -5708 5709 0
-5709 5718 0
-244 -5709 5710 0
-5710 5719 0
-245 -5710 5711 0
-5711 5720 0
-246 -5711 5712 0
-5712 5721 0
-247 -5712 5713 0
-5713 5722 0
-248 -5713 5714 0
-5714 5723 0
-249 -5714 5715 0
-5715 5724 0
-250 -5715 5716 0
-5716 5725 0
-251 -5716 0
-243 5717 0
-5717 5726 0
-244 -5717 5718 0
-5718 5727 0
-245 -5718 5719 0
-5719 5728 0
-246 -5719 5720 0
-5720 5729 0
-247 -5720 5721 0
-5721 5730 0
-248 -5721 5722 0
-5722 5731 0
-249 -5722 5723 0
-5723 5732 0
-250 -5723 5724 0
-5724 5733 0
-251 -5724 5725 0
-5725 5734 0
-252 -5725 0
-244 5726 0
-5726 5735 0
-245 -5726 5727 0
-5727 5736 0
-246 -5727 5728 0
-5728 5737 0
-247 -5728 5729 0
-5729 5738 0
-248 -5729 5730 0
-5730 5739 0
-249 -5730 5731 0
-5731 5740 0
-250 -5731 5732 0
-5732 5741 0
-251 -5732 5733 0
-5733 5742 0
-252 -5733 5734 0
-5734 5743 0
-253 -5734 0
-245 5735 0
-5735 5744 0
-246 -5735 5736 0
-5736 5745 0
-247 -5736 5737 0
-5737 5746 0
-248 -5737 5738 0
-5738 5747 0
-249 -5738 5739 0
-5739 5748 0
-250 -5739 5740 0
-5740 5749 0
-251 -5740 5741 0
-5741 5750 0
-252 -5741 5742 0
-5742 5751 0
-253 -5742 5743 0
-5743 5752 0
-254 -5743 0
-246 5744 0
-5744 5753 0
-247 -5744 5745 0
-5745 5754 0
-248 -5745 5746 0
-5746 5755 0
-249 -5746 5747 0
-5747 5756 0
-250 -5747 5748 0
-5748 5757 0
-251 -5748 5749 0
-5749 5758 0
-252 -5749 5750 0
-5750 5759 0
-253 -5750 5751 0
-5751 5760 0
-254 -5751 5752 0
-5752 5761 0
-255 -5752 0
-247 5753 0
-5753 5762 0
-248 -5753 5754 0
-5754 5763 0
-249 -5754 5755 0
-5755 5764 0
-250 -5755 5756 0
-5756 5765 0
-251 -5756 5757 0
-5757 5766 0
-252 -5757 5758 0
-5758 5767 0
-253 -5758 5759 0
-5759 5768 0
-254 -5759 5760 0
-5760 5769 0
-255 -5760 5761 0
-5761 5770 0
-256 -5761 0
-248 5762 0
-5762 5771 0
-249 -5762 5763 0
-5763 5772 0
-250 -5763 5764 0
-5764 5773 0
-251 -5764 5765 0
-5765 5774 0
-252 -5765 5766 0
-5766 5775 0
-253 -5766 5767 0
-5767 5776 0
-254 -5767 5768 0
-5768 5777 0
-255 -5768 5769 0
-5769 5778 0
-256 -5769 5770 0
-5770 5779 0
-257 -5770 0
-249 5771 0
-5771 5780 0
-250 -5771 5772 0
-5772 5781 0
-251 -5772 5773 0
-5773 5782 0
-252 -5773 5774 0
-5774 5783 0
-253 -5774 5775 0
-5775 5784 0
-254 -5775 5776 0
-5776 5785 0
-255 -5776 5777 0
-5777 5786 0
-256 -5777 5778 0
-5778 5787 0
-257 -5778 5779 0
-5779 5788 0
-258 -5779 0
-250 5780 0
-5780 5789 0
-251 -5780 5781 0
-5781 5790 0
-252 -5781 5782 0
-5782 5791 0
-253 -5782 5783 0
-5783 5792 0
-254 -5783 5784 0
-5784 5793 0
-255 -5784 5785 0
-5785 5794 0
-256 -5785 5786 0
-5786 5795 0
-257 -5786 5787 0
-5787 5796 0
-258 -5787 5788 0
-5788 5797 0
-259 -5788 0
-251 5789 0
-5789 5798 0
-252 -5789 5790 0
-5790 5799 0
-253 -5790 5791 0
-5791 5800 0
-254 -5791 5792 0
-5792 5801 0
-255 -5792 5793 0
-5793 5802 0
-256 -5793 5794 0
-5794 5803 0
-257 -5794 5795 0
-5795 5804 0
-258 -5795 5796 0
-5796 5805 0
-259 -5796 5797 0
-5797 5806 0
-260 -5797 0
-252 5798 0
-5798 5807 0
-253 -5798 5799 0
-5799 5808 0
-254 -5799 5800 0
-5800 5809 0
-255 -5800 5801 0
-5801 5810 0
-256 -5801 5802 0
-5802 5811 0
-257 -5802 5803 0
-5803 5812 0
-258 -5803 5804 0
-5804 5813 0
-259 -5804 5805 0
-5805 5814 0
-260 -5805 5806 0
-5806 5815 0
-261 -5806 0
-253 5807 0
-5807 5816 0
-254 -5807 5808 0
-5808 5817 0
-255 -5808 5809 0
-5809 5818 0
-256 -5809 5810 0
-5810 5819 0
-257 -5810 5811 0
-5811 5820 0
-258 -5811 5812 0
-5812 5821 0
-259 -5812 5813 0
-5813 5822 0
-260 -5813 5814 0
-5814 5823 0
-261 -5814 5815 0
-5815 5824 0
-262 -5815 0
-254 5816 0
-5816 5825 0
-255 -5816 5817 0
-5817 5826 0
-256 -5817 5818 0
-5818 5827 0
-257 -5818 5819 0
-5819 5828 0
-258 -5819 5820 0
-5820 5829 0
-259 -5820 5821 0
-5821 5830 0
-260 -5821 5822 0
-5822 5831 0
-261 -5822 5823 0
-5823 5832 0
-262 -5823 5824 0
-5824 5833 0
-263 -5824 0
-255 5825 0
-5825 5834 0
-256 -5825 5826 0
-5826 5835 0
-257 -5826 5827 0
-5827 5836 0
-258 -5827 5828 0
-5828 5837 0
-259 -5828 5829 0
-5829 5838 0
-260 -5829 5830 0
-5830 5839 0
-261 -5830 5831 0
-5831 5840 0
-262 -5831 5832 0
-5832 5841 0
-263 -5832 5833 0
-5833 5842 0
-264 -5833 0
-256 5834 0
-5834 5843 0
-257 -5834 5835 0
-5835 5844 0
-258 -5835 5836 0
-5836 5845 0
-259 -5836 5837 0
-5837 5846 0
-260 -5837 5838 0
-5838 5847 0
-261 -5838 5839 0
-5839 5848 0
-262 -5839 5840 0
-5840 5849 0
-263 -5840 5841 0
-5841 5850 0
-264 -5841 5842 0
-5842 5851 0
-265 -5842 0
-257 5843 0
-5843 5852 0
-258 -5843 5844 0
-5844 5853 0
-259 -5844 5845 0
-5845 5854 0
-260 -5845 5846 0
-5846 5855 0
-261 -5846 5847 0
-5847 5856 0
-262 -5847 5848 0
-5848 5857 0
-263 -5848 5849 0
-5849 5858 0
-264 -5849 5850 0
-5850 5859 0
-265 -5850 5851 0
-5851 5860 0
-266 -5851 0
-258 5852 0
-5852 5861 0
-259 -5852 5853 0
-5853 5862 0
-260 -5853 5854 0
-5854 5863 0
-261 -5854 5855 0
-5855 5864 0
-262 -5855 5856 0
-5856 5865 0
-263 -5856 5857 0
-5857 5866 0
-264 -5857 5858 0
-5858 5867 0
-265 -5858 5859 0
-5859 5868 0
-266 -5859 5860 0
-5860 5869 0
-267 -5860 0
-259 5861 0
-5861 5870 0
-260 -5861 5862 0
-5862 5871 0
-261 -5862 5863 0
-5863 5872 0
-262 -5863 5864 0
-5864 5873 0
-263 -5864 5865 0
-5865 5874 0
-264 -5865 5866 0
-5866 5875 0
-265 -5866 5867 0
-5867 5876 0
-266 -5867 5868 0
-5868 5877 0
-267 -5868 5869 0
-5869 5878 0
-268 -5869 0
-260 5870 0
-5870 5879 0
-261 -5870 5871 0
-5871 5880 0
-262 -5871 5872 0
-5872 5881 0
-263 -5872 5873 0
-5873 5882 0
-264 -5873 5874 0
-5874 5883 0
-265 -5874 5875 0
-5875 5884 0
-266 -5875 5876 0
-5876 5885 0
-267 -5876 5877 0
-5877 5886 0
-268 -5877 5878 0
-5878 5887 0
-269 -5878 0
-261 5879 0
-5879 5888 0
-262 -5879 5880 0
-5880 5889 0
-263 -5880 5881 0
-5881 5890 0
-264 -5881 5882 0
-5882 5891 0
-265 -5882 5883 0
-5883 5892 0
-266 -5883 5884 0
-5884 5893 0
-267 -5884 5885 0
-5885 5894 0
-268 -5885 5886 0
-5886 5895 0
-269 -5886 5887 0
-5887 5896 0
-270 -5887 0
-262 5888 0
-5888 5897 0
-263 -5888 5889 0
-5889 5898 0
-264 -5889 5890 0
-5890 5899 0
-265 -5890 5891 0
-5891 5900 0
-266 -5891 5892 0
-5892 5901 0
-267 -5892 5893 0
-5893 5902 0
-268 -5893 5894 0
-5894 5903 0
-269 -5894 5895 0
-5895 5904 0
-270 -5895 5896 0
-5896 5905 0
-271 -5896 0
-263 5897 0
-5897 5906 0
-264 -5897 5898 0
-5898 5907 0
-265 -5898 5899 0
-5899 5908 0
-266 -5899 5900 0
-5900 5909 0
-267 -5900 5901 0
-5901 5910 0
-268 -5901 5902 0
-5902 5911 0
-269 -5902 5903 0
-5903 5912 0
-270 -5903 5904 0
-5904 5913 0
-271 -5904 5905 0
-5905 5914 0
-272 -5905 0
-264 5906 0
-5906 5915 0
-265 -5906 5907 0
-5907 5916 0
-266 -5907 5908 0
-5908 5917 0
-267 -5908 5909 0
-5909 5918 0
-268 -5909 5910 0
-5910 5919 0
-269 -5910 5911 0
-5911 5920 0
-270 -5911 5912 0
-5912 5921 0
-271 -5912 5913 0
-5913 5922 0
-272 -5913 5914 0
-5914 5923 0
-273 -5914 0
-265 5915 0
-5915 5924 0
-266 -5915 5916 0
-5916 5925 0
-267 -5916 5917 0
-5917 5926 0
-268 -5917 5918 0
-5918 5927 0
-269 -5918 5919 0
-5919 5928 0
-270 -5919 5920 0
-5920 5929 0
-271 -5920 5921 0
-5921 5930 0
-272 -5921 5922 0
-5922 5931 0
-273 -5922 5923 0
-5923 5932 0
-274 -5923 0
-266 5924 0
-5924 5933 0
-267 -5924 5925 0
-5925 5934 0
-268 -5925 5926 0
-5926 5935 0
-269 -5926 5927 0
-5927 5936 0
-270 -5927 5928 0
-5928 5937 0
-271 -5928 5929 0
-5929 5938 0
-272 -5929 5930 0
-5930 5939 0
-273 -5930 5931 0
-5931 5940 0
-274 -5931 5932 0
-5932 5941 0
-275 -5932 0
-267 5933 0
-5933 5942 0
-268 -5933 5934 0
-5934 5943 0
-269 -5934 5935 0
-5935 5944 0
-270 -5935 5936 0
-5936 5945 0
-271 -5936 5937 0
-5937 5946 0
-272 -5937 5938 0
-5938 5947 0
-273 -5938 5939 0
-5939 5948 0
-274 -5939 5940 0
-5940 5949 0
-275 -5940 5941 0
-5941 5950 0
-276 -5941 0
-268 5942 0
-5942 5951 0
-269 -5942 5943 0
-5943 5952 0
-270 -5943 5944 0
-5944 5953 0
-271 -5944 5945 0
-5945 5954 0
-272 -5945 5946 0
-5946 5955 0
-273 -5946 5947 0
-5947 5956 0
-274 -5947 5948 0
-5948 5957 0
-275 -5948 5949 0
-5949 5958 0
-276 -5949 5950 0
-5950 5959 0
-277 -5950 0
-269 5951 0
-5951 5960 0
-270 -5951 5952 0
-5952 5961 0
-271 -5952 5953 0
-5953 5962 0
-272 -5953 5954 0
-5954 5963 0
-273 -5954 5955 0
-5955 5964 0
-274 -5955 5956 0
-5956 5965 0
-275 -5956 5957 0
-5957 5966 0
-276 -5957 5958 0
-5958 5967 0
-277 -5958 5959 0
-5959 5968 0
-278 -5959 0
-270 5960 0
-5960 5969 0
-271 -5960 5961 0
-5961 5970 0
-272 -5961 5962 0
-5962 5971 0
-273 -5962 5963 0
-5963 5972 0
-274 -5963 5964 0
-5964 5973 0
-275 -5964 5965 0
-5965 5974 0
-276 -5965 5966 0
-5966 5975 0
-277 -5966 5967 0
-5967 5976 0
-278 -5967 5968 0
-5968 5977 0
-279 -5968 0
-271 5969 0
-5969 5978 0
-272 -5969 5970 0
-5970 5979 0
-273 -5970 5971 0
-5971 5980 0
-274 -5971 5972 0
-5972 5981 0
-275 -5972 5973 0
-5973 5982 0
-276 -5973 5974 0
-5974 5983 0
-277 -5974 5975 0
-5975 5984 0
-278 -5975 5976 0
-5976 5985 0
-279 -5976 5977 0
-5977 5986 0
-280 -5977 0
-272 5978 0
-5978 5987 0
-273 -5978 5979 0
-5979 5988 0
-274 -5979 5980 0
-5980 5989 0
-275 -5980 5981 0
-5981 5990 0
-276 -5981 5982 0
-5982 5991 0
-277 -5982 5983 0
-5983 5992 0
-278 -5983 5984 0
-5984 5993 0
-279 -5984 5985 0
-5985 5994 0
-280 -5985 5986 0
-5986 5995 0
-281 -5986 0
-273 5987 0
-5987 5996 0
-274 -5987 5988 0
-5988 5997 0
-275 -5988 5989 0
-5989 5998 0
-276 -5989 5990 0
-5990 5999 0
-277 -5990 5991 0
-5991 6000 0
-278 -5991 5992 0
-5992 6001 0
-279 -5992 5993 0
-5993 6002 0
-280 -5993 5994 0
-5994 6003 0
-281 -5994 5995 0
-5995 6004 0
-282 -5995 0
-274 5996 0
-5996 6005 0
-275 -5996 5997 0
-5997 6006 0
-276 -5997 5998 0
-5998 6007 0
-277 -5998 5999 0
-5999 6008 0
-278 -5999 6000 0
-6000 6009 0
-279 -6000 6001 0
-6001 6010 0
-280 -6001 6002 0
-6002 6011 0
-281 -6002 6003 0
-6003 6012 0
-282 -6003 6004 0
-6004 6013 0
-283 -6004 0
-275 6005 0
-6005 6014 0
-276 -6005 6006 0
-6006 6015 0
-277 -6006 6007 0
-6007 6016 0
-278 -6007 6008 0
-6008 6017 0
-279 -6008 6009 0
-6009 6018 0
-280 -6009 6010 0
-6010 6019 0
-281 -6010 6011 0
-6011 6020 0
-282 -6011 6012 0
-6012 6021 0
-283 -6012 6013 0
-6013 6022 0
-284 -6013 0
-276 6014 0
-6014 6023 0
-277 -6014 6015 0
-6015 6024 0
-278 -6015 6016 0
-6016 6025 0
-279 -6016 6017 0
-6017 6026 0
-280 -6017 6018 0
-6018 6027 0
-281 -6018 6019 0
-6019 6028 0
-282 -6019 6020 0
-6020 6029 0
-283 -6020 6021 0
-6021 6030 0
-284 -6021 6022 0
-6022 6031 0
-285 -6022 0
-277 6023 0
-6023 6032 0
-278 -6023 6024 0
-6024 6033 0
-279 -6024 6025 0
-6025 6034 0
-280 -6025 6026 0
-6026 6035 0
-281 -6026 6027 0
-6027 6036 0
-282 -6027 6028 0
-6028 6037 0
-283 -6028 6029 0
-6029 6038 0
-284 -6029 6030 0
-6030 6039 0
-285 -6030 6031 0
-6031 6040 0
-286 -6031 0
-278 6032 0
-6032 6041 0
-279 -6032 6033 0
-6033 6042 0
-280 -6033 6034 0
-6034 6043 0
-281 -6034 6035 0
-6035 6044 0
-282 -6035 6036 0
-6036 6045 0
-283 -6036 6037 0
-6037 6046 0
-284 -6037 6038 0
-6038 6047 0
-285 -6038 6039 0
-6039 6048 0
-286 -6039 6040 0
-6040 6049 0
-287 -6040 0
-279 6041 0
-6041 6050 0
-280 -6041 6042 0
-6042 6051 0
-281 -6042 6043 0
-6043 6052 0
-282 -6043 6044 0
-6044 6053 0
-283 -6044 6045 0
-6045 6054 0
-284 -6045 6046 0
-6046 6055 0
-285 -6046 6047 0
-6047 6056 0
-286 -6047 6048 0
-6048 6057 0
-287 -6048 6049 0
-6049 6058 0
-288 -6049 0
-280 6050 0
-6050 6059 0
-281 -6050 6051 0
-6051 6060 0
-282 -6051 6052 0
-6052 6061 0
-283 -6052 6053 0
-6053 6062 0
-284 -6053 6054 0
-6054 6063 0
-285 -6054 6055 0
-6055 6064 0
-286 -6055 6056 0
-6056 6065 0
-287 -6056 6057 0
-6057 6066 0
-288 -6057 6058 0
-6058 6067 0
-289 -6058 0
-281 6059 0
-6059 6068 0
-282 -6059 6060 0
-6060 6069 0
-283 -6060 6061 0
-6061 6070 0
-284 -6061 6062 0
-6062 6071 0
-285 -6062 6063 0
-6063 6072 0
-286 -6063 6064 0
-6064 6073 0
-287 -6064 6065 0
-6065 6074 0
-288 -6065 6066 0
-6066 6075 0
-289 -6066 6067 0
-6067 6076 0
-290 -6067 0
-282 6068 0
-6068 6077 0
-283 -6068 6069 0
-6069 6078 0
-284 -6069 6070 0
-6070 6079 0
-285 -6070 6071 0
-6071 6080 0
-286 -6071 6072 0
-6072 6081 0
-287 -6072 6073 0
-6073 6082 0
-288 -6073 6074 0
-6074 6083 0
-289 -6074 6075 0
-6075 6084 0
-290 -6075 6076 0
-6076 6085 0
-291 -6076 0
-283 6077 0
-6077 6086 0
-284 -6077 6078 0
-6078 6087 0
-285 -6078 6079 0
-6079 6088 0
-286 -6079 6080 0
-6080 6089 0
-287 -6080 6081 0
-6081 6090 0
-288 -6081 6082 0
-6082 6091 0
-289 -6082 6083 0
-6083 6092 0
-290 -6083 6084 0
-6084 6093 0
-291 -6084 6085 0
-6085 6094 0
-292 -6085 0
-284 6086 0
-6086 6095 0
-285 -6086 6087 0
-6087 6096 0
-286 -6087 6088 0
-6088 6097 0
-287 -6088 6089 0
-6089 6098 0
-288 -6089 6090 0
-6090 6099 0
-289 -6090 6091 0
-6091 6100 0
-290 -6091 6092 0
-6092 6101 0
-291 -6092 6093 0
-6093 6102 0
-292 -6093 6094 0
-6094 6103 0
-293 -6094 0
-285 6095 0
-6095 6104 0
-286 -6095 6096 0
-6096 6105 0
-287 -6096 6097 0
-6097 6106 0
-288 -6097 6098 0
-6098 6107 0
-289 -6098 6099 0
-6099 6108 0
-290 -6099 6100 0
-6100 6109 0
-291 -6100 6101 0
-6101 6110 0
-292 -6101 6102 0
-6102 6111 0
-293 -6102 6103 0
-6103 6112 0
-294 -6103 0
-286 6104 0
-6104 6113 0
-287 -6104 6105 0
-6105 6114 0
-288 -6105 6106 0
-6106 6115 0
-289 -6106 6107 0
-6107 6116 0
-290 -6107 6108 0
-6108 6117 0
-291 -6108 6109 0
-6109 6118 0
-292 -6109 6110 0
-6110 6119 0
-293 -6110 6111 0
-6111 6120 0
-294 -6111 6112 0
-6112 6121 0
-295 -6112 0
-287 6113 0
-6113 6122 0
-288 -6113 6114 0
-6114 6123 0
-289 -6114 6115 0
-6115 6124 0
-290 -6115 6116 0
-6116 6125 0
-291 -6116 6117 0
-6117 6126 0
-292 -6117 6118 0
-6118 6127 0
-293 -6118 6119 0
-6119 6128 0
-294 -6119 6120 0
-6120 6129 0
-295 -6120 6121 0
-6121 6130 0
-296 -6121 0
-288 6122 0
-6122 6131 0
-289 -6122 6123 0
-6123 6132 0
-290 -6123 6124 0
-6124 6133 0
-291 -6124 6125 0
-6125 6134 0
-292 -6125 6126 0
-6126 6135 0
-293 -6126 6127 0
-6127 6136 0
-294 -6127 6128 0
-6128 6137 0
-295 -6128 6129 0
-6129 6138 0
-296 -6129 6130 0
-6130 6139 0
-297 -6130 0
-289 6131 0
-6131 6140 0
-290 -6131 6132 0
-6132 6141 0
-291 -6132 6133 0
-6133 6142 0
-292 -6133 6134 0
-6134 6143 0
-293 -6134 6135 0
-6135 6144 0
-294 -6135 6136 0
-6136 6145 0
-295 -6136 6137 0
-6137 6146 0
-296 -6137 6138 0
-6138 6147 0
-297 -6138 6139 0
-6139 6148 0
-298 -6139 0
-290 6140 0
-6140 6149 0
-291 -6140 6141 0
-6141 6150 0
-292 -6141 6142 0
-6142 6151 0
-293 -6142 6143 0
-6143 6152 0
-294 -6143 6144 0
-6144 6153 0
-295 -6144 6145 0
-6145 6154 0
-296 -6145 6146 0
-6146 6155 0
-297 -6146 6147 0
-6147 6156 0
-298 -6147 6148 0
-6148 6157 0
-299 -6148 0
-291 6149 0
-6149 6158 0
-292 -6149 6150 0
-6150 6159 0
-293 -6150 6151 0
-6151 6160 0
-294 -6151 6152 0
-6152 6161 0
-295 -6152 6153 0
-6153 6162 0
-296 -6153 6154 0
-6154 6163 0
-297 -6154 6155 0
-6155 6164 0
-298 -6155 6156 0
-6156 6165 0
-299 -6156 6157 0
-6157 6166 0
-300 -6157 0
-292 6158 0
-6158 6167 0
-293 -6158 6159 0
-6159 6168 0
-294 -6159 6160 0
-6160 6169 0
-295 -6160 6161 0
-6161 6170 0
-296 -6161 6162 0
-6162 6171 0
-297 -6162 6163 0
-6163 6172 0
-298 -6163 6164 0
-6164 6173 0
-299 -6164 6165 0
-6165 6174 0
-300 -6165 6166 0
-6166 6175 0
-301 -6166 0
-293 6167 0
-6167 6176 0
-294 -6167 6168 0
-6168 6177 0
-295 -6168 6169 0
-6169 6178 0
-296 -6169 6170 0
-6170 6179 0
-297 -6170 6171 0
-6171 6180 0
-298 -6171 6172 0
-6172 6181 0
-299 -6172 6173 0
-6173 6182 0
-300 -6173 6174 0
-6174 6183 0
-301 -6174 6175 0
-6175 6184 0
-302 -6175 0
-294 6176 0
-6176 6185 0
-295 -6176 6177 0
-6177 6186 0
-296 -6177 6178 0
-6178 6187 0
-297 -6178 6179 0
-6179 6188 0
-298 -6179 6180 0
-6180 6189 0
-299 -6180 6181 0
-6181 6190 0
-300 -6181 6182 0
-6182 6191 0
-301 -6182 6183 0
-6183 6192 0
-302 -6183 6184 0
-6184 6193 0
-303 -6184 0
-295 6185 0
-6185 6194 0
-296 -6185 6186 0
-6186 6195 0
-297 -6186 6187 0
-6187 6196 0
-298 -6187 6188 0
-6188 6197 0
-299 -6188 6189 0
-6189 6198 0
-300 -6189 6190 0
-6190 6199 0
-301 -6190 6191 0
-6191 6200 0
-302 -6191 6192 0
-6192 6201 0
-303 -6192 6193 0
-6193 6202 0
-304 -6193 0
-296 6194 0
-6194 6203 0
-297 -6194 6195 0
-6195 6204 0
-298 -6195 6196 0
-6196 6205 0
-299 -6196 6197 0
-6197 6206 0
-300 -6197 6198 0
-6198 6207 0
-301 -6198 6199 0
-6199 6208 0
-302 -6199 6200 0
-6200 6209 0
-303 -6200 6201 0
-6201 6210 0
-304 -6201 6202 0
-6202 6211 0
-305 -6202 0
-297 6203 0
-6203 6212 0
-298 -6203 6204 0
-6204 6213 0
-299 -6204 6205 0
-6205 6214 0
-300 -6205 6206 0
-6206 6215 0
-301 -6206 6207 0
-6207 6216 0
-302 -6207 6208 0
-6208 6217 0
-303 -6208 6209 0
-6209 6218 0
-304 -6209 6210 0
-6210 6219 0
-305 -6210 6211 0
-6211 6220 0
-306 -6211 0
-298 6212 0
-6212 6221 0
-299 -6212 6213 0
-6213 6222 0
-300 -6213 6214 0
-6214 6223 0
-301 -6214 6215 0
-6215 6224 0
-302 -6215 6216 0
-6216 6225 0
-303 -6216 6217 0
-6217 6226 0
-304 -6217 6218 0
-6218 6227 0
-305 -6218 6219 0
-6219 6228 0
-306 -6219 6220 0
-6220 6229 0
-307 -6220 0
-299 6221 0
-6221 6230 0
-300 -6221 6222 0
-6222 6231 0
-301 -6222 6223 0
-6223 6232 0
-302 -6223 6224 0
-6224 6233 0
-303 -6224 6225 0
-6225 6234 0
-304 -6225 6226 0
-6226 6235 0
-305 -6226 6227 0
-6227 6236 0
-306 -6227 6228 0
-6228 6237 0
-307 -6228 6229 0
-6229 6238 0
-308 -6229 0
-300 6230 0
-6230 6239 0
-301 -6230 6231 0
-6231 6240 0
-302 -6231 6232 0
-6232 6241 0
-303 -6232 6233 0
-6233 6242 0
-304 -6233 6234 0
-6234 6243 0
-305 -6234 6235 0
-6235 6244 0
-306 -6235 6236 0
-6236 6245 0
-307 -6236 6237 0
-6237 6246 0
-308 -6237 6238 0
-6238 6247 0
-309 -6238 0
-301 6239 0
-6239 6248 0
-302 -6239 6240 0
-6240 6249 0
-303 -6240 6241 0
-6241 6250 0
-304 -6241 6242 0
-6242 6251 0
-305 -6242 6243 0
-6243 6252 0
-306 -6243 6244 0
-6244 6253 0
-307 -6244 6245 0
-6245 6254 0
-308 -6245 6246 0
-6246 6255 0
-309 -6246 6247 0
-6247 6256 0
-310 -6247 0
-302 6248 0
-6248 6257 0
-303 -6248 6249 0
-6249 6258 0
-304 -6249 6250 0
-6250 6259 0
-305 -6250 6251 0
-6251 6260 0
-306 -6251 6252 0
-6252 6261 0
-307 -6252 6253 0
-6253 6262 0
-308 -6253 6254 0
-6254 6263 0
-309 -6254 6255 0
-6255 6264 0
-310 -6255 6256 0
-6256 6265 0
-311 -6256 0
-303 6257 0
-6257 6266 0
-304 -6257 6258 0
-6258 6267 0
-305 -6258 6259 0
-6259 6268 0
-306 -6259 6260 0
-6260 6269 0
-307 -6260 6261 0
-6261 6270 0
-308 -6261 6262 0
-6262 6271 0
-309 -6262 6263 0
-6263 6272 0
-310 -6263 6264 0
-6264 6273 0
-311 -6264 6265 0
-6265 6274 0
-312 -6265 0
-304 6266 0
-6266 6275 0
-305 -6266 6267 0
-6267 6276 0
-306 -6267 6268 0
-6268 6277 0
-307 -6268 6269 0
-6269 6278 0
-308 -6269 6270 0
-6270 6279 0
-309 -6270 6271 0
-6271 6280 0
-310 -6271 6272 0
-6272 6281 0
-311 -6272 6273 0
-6273 6282 0
-312 -6273 6274 0
-6274 6283 0
-313 -6274 0
-305 6275 0
-6275 6284 0
-306 -6275 6276 0
-6276 6285 0
-307 -6276 6277 0
-6277 6286 0
-308 -6277 6278 0
-6278 6287 0
-309 -6278 6279 0
-6279 6288 0
-310 -6279 6280 0
-6280 6289 0
-311 -6280 6281 0
-6281 6290 0
-312 -6281 6282 0
-6282 6291 0
-313 -6282 6283 0
-6283 6292 0
-314 -6283 0
-306 6284 0
-6284 6293 0
-307 -6284 6285 0
-6285 6294 0
-308 -6285 6286 0
-6286 6295 0
-309 -6286 6287 0
-6287 6296 0
-310 -6287 6288 0
-6288 6297 0
-311 -6288 6289 0
-6289 6298 0
-312 -6289 6290 0
-6290 6299 0
-313 -6290 6291 0
-6291 6300 0
-314 -6291 6292 0
-6292 6301 0
-315 -6292 0
-307 6293 0
-6293 6302 0
-308 -6293 6294 0
-6294 6303 0
-309 -6294 6295 0
-6295 6304 0
-310 -6295 6296 0
-6296 6305 0
-311 -6296 6297 0
-6297 6306 0
-312 -6297 6298 0
-6298 6307 0
-313 -6298 6299 0
-6299 6308 0
-314 -6299 6300 0
-6300 6309 0
-315 -6300 6301 0
-6301 6310 0
-316 -6301 0
-308 6302 0
-6302 6311 0
-309 -6302 6303 0
-6303 6312 0
-310 -6303 6304 0
-6304 6313 0
-311 -6304 6305 0
-6305 6314 0
-312 -6305 6306 0
-6306 6315 0
-313 -6306 6307 0
-6307 6316 0
-314 -6307 6308 0
-6308 6317 0
-315 -6308 6309 0
-6309 6318 0
-316 -6309 6310 0
-6310 6319 0
-317 -6310 0
-309 6311 0
-6311 6320 0
-310 -6311 6312 0
-6312 6321 0
-311 -6312 6313 0
-6313 6322 0
-312 -6313 6314 0
-6314 6323 0
-313 -6314 6315 0
-6315 6324 0
-314 -6315 6316 0
-6316 6325 0
-315 -6316 6317 0
-6317 6326 0
-316 -6317 6318 0
-6318 6327 0
-317 -6318 6319 0
-6319 6328 0
-318 -6319 0
-310 6320 0
-6320 6329 0
-311 -6320 6321 0
-6321 6330 0
-312 -6321 6322 0
-6322 6331 0
-313 -6322 6323 0
-6323 6332 0
-314 -6323 6324 0
-6324 6333 0
-315 -6324 6325 0
-6325 6334 0
-316 -6325 6326 0
-6326 6335 0
-317 -6326 6327 0
-6327 6336 0
-318 -6327 6328 0
-6328 6337 0
-319 -6328 0
-311 6329 0
-6329 6338 0
-312 -6329 6330 0
-6330 6339 0
-313 -6330 6331 0
-6331 6340 0
-314 -6331 6332 0
-6332 6341 0
-315 -6332 6333 0
-6333 6342 0
-316 -6333 6334 0
-6334 6343 0
-317 -6334 6335 0
-6335 6344 0
-318 -6335 6336 0
-6336 6345 0
-319 -6336 6337 0
-6337 6346 0
-320 -6337 0
-312 6338 0
-6338 6347 0
-313 -6338 6339 0
-6339 6348 0
-314 -6339 6340 0
-6340 6349 0
-315 -6340 6341 0
-6341 6350 0
-316 -6341 6342 0
-6342 6351 0
-317 -6342 6343 0
-6343 6352 0
-318 -6343 6344 0
-6344 6353 0
-319 -6344 6345 0
-6345 6354 0
-320 -6345 6346 0
-6346 6355 0
-321 -6346 0
-313 6347 0
-6347 6356 0
-314 -6347 6348 0
-6348 6357 0
-315 -6348 6349 0
-6349 6358 0
-316 -6349 6350 0
-6350 6359 0
-317 -6350 6351 0
-6351 6360 0
-318 -6351 6352 0
-6352 6361 0
-319 -6352 6353 0
-6353 6362 0
-320 -6353 6354 0
-6354 6363 0
-321 -6354 6355 0
-6355 6364 0
-322 -6355 0
-314 6356 0
-6356 6365 0
-315 -6356 6357 0
-6357 6366 0
-316 -6357 6358 0
-6358 6367 0
-317 -6358 6359 0
-6359 6368 0
-318 -6359 6360 0
-6360 6369 0
-319 -6360 6361 0
-6361 6370 0
-320 -6361 6362 0
-6362 6371 0
-321 -6362 6363 0
-6363 6372 0
-322 -6363 6364 0
-6364 6373 0
-323 -6364 0
-315 6365 0
-316 -6365 6366 0
-317 -6366 6367 0
-318 -6367 6368 0
-319 -6368 6369 0
-320 -6369 6370 0
-321 -6370 6371 0
-322 -6371 6372 0
-323 -6372 6373 0
-324 -6373 0
1 82 0
