p cnf 3019 6189
-85 -1 0
-85 2 42 43 0
-2 1 85 0
-42 1 85 0
-43 1 85 0
-86 -2 0
-86 1 3 44 0
-1 2 86 0
-3 2 86 0
-44 2 86 0
-87 -3 0
-87 2 4 45 0
-2 3 87 0
-4 3 87 0
-45 3 87 0
-88 -4 0
-88 3 5 46 0
-3 4 88 0
-5 4 88 0
-46 4 88 0
-89 -5 0
-89 4 6 47 0
-4 5 89 0
-6 5 89 0
-47 5 89 0
-90 -6 0
-90 5 7 48 0
-5 6 90 0
-7 6 90 0
-48 6 90 0
-91 -7 0
-91 6 8 49 0
-6 7 91 0
-8 7 91 0
-49 7 91 0
-92 -8 0
-92 7 9 50 0
-7 8 92 0
-9 8 92 0
-50 8 92 0
-93 -9 0
-93 8 10 51 0
-8 9 93 0
-10 9 93 0
-51 9 93 0
-94 -10 0
-94 9 11 52 0
-9 10 94 0
-11 10 94 0
-52 10 94 0
-95 -11 0
-95 10 12 53 0
-10 11 95 0
-12 11 95 0
-53 11 95 0
-96 -12 0
-96 11 13 54 0
-11 12 96 0
-13 12 96 0
-54 12 96 0
-97 -13 0
-97 12 14 55 0
-12 13 97 0
-14 13 97 0
-55 13 97 0
-98 -14 0
-98 13 15 56 0
-13 14 98 0
-15 14 98 0
-56 14 98 0
-99 -15 0
-99 14 16 57 0
-14 15 99 0
-16 15 99 0
-57 15 99 0
-100 -16 0
-100 15 17 58 0
-15 16 100 0
-17 16 100 0
-58 16 100 0
-101 -17 0
-101 16 18 59 0
-16 17 101 0
-18 17 101 0
-59 17 101 0
-102 -18 0
-102 17 19 60 0
-17 18 102 0
-19 18 102 0
-60 18 102 0
-103 -19 0
-103 18 20 61 0
-18 19 103 0
-20 19 103 0
-61 19 103 0
-104 -20 0
-104 19 21 62 0
-19 20 104 0
-21 20 104 0
-62 20 104 0
-105 -21 0
-105 20 22 63 0
-20 21 105 0
-22 21 105 0
-63 21 105 0
-106 -22 0
-106 21 23 64 0
-21 22 106 0
-23 22 106 0
-64 22 106 0
-107 -23 0
-107 22 24 65 0
-22 23 107 0
-24 23 107 0
-65 23 107 0
-108 -24 0
-108 23 25 66 0
-23 24 108 0
-25 24 108 0
-66 24 108 0
-109 -25 0
-109 24 26 67 0
-24 25 109 0
-26 25 109 0
-67 25 109 0
-110 -26 0
-110 25 27 68 0
-25 26 110 0
-27 26 110 0
-68 26 110 0
-111 -27 0
-111 26 28 69 0
-26 27 111 0
-28 27 111 0
-69 27 111 0
-112 -28 0
-112 27 29 70 0
-27 28 112 0
-29 28 112 0
-70 28 112 0
-113 -29 0
-113 28 30 71 0
-28 29 113 0
-30 29 113 0
-71 29 113 0
-114 -30 0
-114 29 31 72 0
-29 30 114 0
-31 30 114 0
-72 30 114 0
-115 -31 0
-115 30 32 73 0
-30 31 115 0
-32 31 115 0
-73 31 115 0
-116 -32 0
-116 31 33 74 0
-31 32 116 0
-33 32 116 0
-74 32 116 0
-117 -33 0
-117 32 34 75 0
-32 33 117 0
-34 33 117 0
-75 33 117 0
-118 -34 0
-118 33 35 76 0
-33 34 118 0
-35 34 118 0
-76 34 118 0
-119 -35 0
-119 34 36 77 0
-34 35 119 0
-36 35 119 0
-77 35 119 0
-120 -36 0
-120 35 37 78 0
-35 36 120 0
-37 36 120 0
-78 36 120 0
-121 -37 0
-121 36 38 79 0
-36 37 121 0
-38 37 121 0
-79 37 121 0
-122 -38 0
-122 37 39 80 0
-37 38 122 0
-39 38 122 0
-80 38 122 0
-123 -39 0
-123 38 40 81 0
-38 39 123 0
-40 39 123 0
-81 39 123 0
-124 -40 0
-124 39 41 82 0
-39 40 124 0
-41 40 124 0
-82 40 124 0
-125 -41 0
-125 40 42 83 0
-40 41 125 0
-42 41 125 0
-83 41 125 0
-126 -42 0
-126 1 41 84 0
-1 42 126 0
-41 42 126 0
-84 42 126 0
-127 -43 0
-127 1 47 81 0
-1 43 127 0
-47 43 127 0
-81 43 127 0
-128 -44 0
-128 2 48 82 0
-2 44 128 0
-48 44 128 0
-82 44 128 0
-129 -45 0
-129 3 49 83 0
-3 45 129 0
-49 45 129 0
-83 45 129 0
-130 -46 0
-130 4 50 84 0
-4 46 130 0
-50 46 130 0
-84 46 130 0
-131 -47 0
-131 5 43 51 0
-5 47 131 0
-43 47 131 0
-51 47 131 0
-132 -48 0
-132 6 44 52 0
-6 48 132 0
-44 48 132 0
-52 48 132 0
-133 -49 0
-133 7 45 53 0
-7 49 133 0
-45 49 133 0
-53 49 133 0
-134 -50 0
-134 8 46 54 0
-8 50 134 0
-46 50 134 0
-54 50 134 0
-135 -51 0
-135 9 47 55 0
-9 51 135 0
-47 51 135 0
-55 51 135 0
-136 -52 0
-136 10 48 56 0
-10 52 136 0
-48 52 136 0
-56 52 136 0
-137 -53 0
-137 11 49 57 0
-11 53 137 0
-49 53 137 0
-57 53 137 0
-138 -54 0
-138 12 50 58 0
-12 54 138 0
-50 54 138 0
-58 54 138 0
-139 -55 0
-139 13 51 59 0
-13 55 139 0
-51 55 139 0
-59 55 139 0
-140 -56 0
-140 14 52 60 0
-14 56 140 0
-52 56 140 0
-60 56 140 0
-141 -57 0
-141 15 53 61 0
-15 57 141 0
-53 57 141 0
-61 57 141 0
-142 -58 0
-142 16 54 62 0
-16 58 142 0
-54 58 142 0
-62 58 142 0
-143 -59 0
-143 17 55 63 0
-17 59 143 0
-55 59 143 0
-63 59 143 0
-144 -60 0
-144 18 56 64 0
-18 60 144 0
-56 60 144 0
-64 60 144 0
-145 -61 0
-145 19 57 65 0
-19 61 145 0
-57 61 145 0
-65 61 145 0
-146 -62 0
-146 20 58 66 0
-20 62 146 0
-58 62 146 0
-66 62 146 0
-147 -63 0
-147 21 59 67 0
-21 63 147 0
-59 63 147 0
-67 63 147 0
-148 -64 0
-148 22 60 68 0
-22 64 148 0
-60 64 148 0
-68 64 148 0
-149 -65 0
-149 23 61 69 0
-23 65 149 0
-61 65 149 0
-69 65 149 0
-150 -66 0
-150 24 62 70 0
-24 66 150 0
-62 66 150 0
-70 66 150 0
-151 -67 0
-151 25 63 71 0
-25 67 151 0
-63 67 151 0
-71 67 151 0
-152 -68 0
-152 26 64 72 0
-26 68 152 0
-64 68 152 0
-72 68 152 0
-153 -69 0
-153 27 65 73 0
-27 69 153 0
-65 69 153 0
-73 69 153 0
-154 -70 0
-154 28 66 74 0
-28 70 154 0
-66 70 154 0
-74 70 154 0
-155 -71 0
-155 29 67 75 0
-29 71 155 0
-67 71 155 0
-75 71 155 0
-156 -72 0
-156 30 68 76 0
-30 72 156 0
-68 72 156 0
-76 72 156 0
-157 -73 0
-157 31 69 77 0
-31 73 157 0
-69 73 157 0
-77 73 157 0
-158 -74 0
-158 32 70 78 0
-32 74 158 0
-70 74 158 0
-78 74 158 0
-159 -75 0
-159 33 71 79 0
-33 75 159 0
-71 75 159 0
-79 75 159 0
-160 -76 0
-160 34 72 80 0
-34 76 160 0
-72 76 160 0
-80 76 160 0
-161 -77 0
-161 35 73 81 0
-35 77 161 0
-73 77 161 0
-81 77 161 0
-162 -78 0
-162 36 74 82 0
-36 78 162 0
-74 78 162 0
-82 78 162 0
-163 -79 0
-163 37 75 83 0
-37 79 163 0
-75 79 163 0
-83 79 163 0
-164 -80 0
-164 38 76 84 0
-38 80 164 0
-76 80 164 0
-84 80 164 0
-165 -81 0
-165 39 43 77 0
-39 81 165 0
-43 81 165 0
-77 81 165 0
-166 -82 0
-166 40 44 78 0
-40 82 166 0
-44 82 166 0
-78 82 166 0
-167 -83 0
-167 41 45 79 0
-41 83 167 0
-45 83 167 0
-79 83 167 0
-168 -84 0
-168 42 46 80 0
-42 84 168 0
-46 84 168 0
-80 84 168 0
1 169 0
-169 170 0
2 -169 171 0
-171 172 0
3 -171 173 0
-173 174 0
4 -173 175 0
-175 176 0
5 -175 177 0
-177 178 0
6 -177 179 0
-179 180 0
7 -179 181 0
-181 182 0
8 -181 183 0
-183 184 0
9 -183 185 0
-185 186 0
10 -185 187 0
-187 188 0
11 -187 189 0
-189 190 0
12 -189 191 0
-191 192 0
13 -191 193 0
-193 194 0
14 -193 195 0
-195 196 0
15 -195 197 0
-197 198 0
16 -197 199 0
-199 200 0
17 -199 201 0
-201 202 0
18 -201 203 0
-203 204 0
19 -203 205 0
-205 206 0
20 -205 207 0
-207 208 0
21 -207 209 0
-209 210 0
22 -209 211 0
-211 212 0
23 -211 213 0
-213 214 0
24 -213 215 0
-215 216 0
25 -215 217 0
-217 218 0
26 -217 219 0
-219 220 0
27 -219 221 0
-221 222 0
28 -221 223 0
-223 224 0
29 -223 225 0
-225 226 0
30 -225 227 0
-227 228 0
31 -227 229 0
-229 230 0
32 -229 231 0
-231 232 0
33 -231 233 0
-233 234 0
34 -233 235 0
-235 236 0
35 -235 237 0
-237 238 0
36 -237 239 0
-239 240 0
37 -239 241 0
-241 242 0
38 -241 243 0
-243 244 0
39 -243 245 0
-245 246 0
40 -245 247 0
-247 248 0
41 -247 249 0
-249 250 0
42 -249 251 0
-251 252 0
43 -251 253 0
-253 254 0
44 -253 255 0
-255 256 0
45 -255 257 0
-257 258 0
46 -257 259 0
-259 260 0
47 -259 261 0
-261 262 0
48 -261 263 0
-263 264 0
49 -263 265 0
-265 266 0
50 -265 267 0
-267 268 0
51 -267 269 0
-269 270 0
52 -269 271 0
-271 272 0
53 -271 273 0
-273 274 0
54 -273 275 0
-275 276 0
55 -275 277 0
-277 278 0
56 -277 279 0
-279 280 0
57 -279 281 0
-281 282 0
58 -281 283 0
-283 284 0
59 -283 285 0
-285 286 0
60 -285 287 0
-287 288 0
61 -287 289 0
-289 290 0
62 -289 291 0
-291 292 0
63 -291 293 0
-293 294 0
64 -293 295 0
-295 296 0
65 -295 297 0
-297 298 0
66 -297 299 0
-299 300 0
67 -299 301 0
-301 302 0
68 -301 303 0
-303 304 0
69 -303 0
2 170 0
-170 305 0
3 -170 172 0
-172 306 0
4 -172 174 0
-174 307 0
5 -174 176 0
-176 308 0
6 -176 178 0
-178 309 0
7 -178 180 0
-180 310 0
8 -180 182 0
-182 311 0
9 -182 184 0
-184 312 0
10 -184 186 0
-186 313 0
11 -186 188 0
-188 314 0
12 -188 190 0
-190 315 0
13 -190 192 0
-192 316 0
14 -192 194 0
-194 317 0
15 -194 196 0
-196 318 0
16 -196 198 0
-198 319 0
17 -198 200 0
-200 320 0
18 -200 202 0
-202 321 0
19 -202 204 0
-204 322 0
20 -204 206 0
-206 323 0
21 -206 208 0
-208 324 0
22 -208 210 0
-210 325 0
23 -210 212 0
-212 326 0
24 -212 214 0
-214 327 0
25 -214 216 0
-216 328 0
26 -216 218 0
-218 329 0
27 -218 220 0
-220 330 0
28 -220 222 0
-222 331 0
29 -222 224 0
-224 332 0
30 -224 226 0
-226 333 0
31 -226 228 0
-228 334 0
32 -228 230 0
-230 335 0
33 -230 232 0
-232 336 0
34 -232 234 0
-234 337 0
35 -234 236 0
-236 338 0
36 -236 238 0
-238 339 0
37 -238 240 0
-240 340 0
38 -240 242 0
-242 341 0
39 -242 244 0
-244 342 0
40 -244 246 0
-246 343 0
41 -246 248 0
-248 344 0
42 -248 250 0
-250 345 0
43 -250 252 0
-252 346 0
44 -252 254 0
-254 347 0
45 -254 256 0
-256 348 0
46 -256 258 0
-258 349 0
47 -258 260 0
-260 350 0
48 -260 262 0
-262 351 0
49 -262 264 0
-264 352 0
50 -264 266 0
-266 353 0
51 -266 268 0
-268 354 0
52 -268 270 0
-270 355 0
53 -270 272 0
-272 356 0
54 -272 274 0
-274 357 0
55 -274 276 0
-276 358 0
56 -276 278 0
-278 359 0
57 -278 280 0
-280 360 0
58 -280 282 0
-282 361 0
59 -282 284 0
-284 362 0
60 -284 286 0
-286 363 0
61 -286 288 0
-288 364 0
62 -288 290 0
-290 365 0
63 -290 292 0
-292 366 0
64 -292 294 0
-294 367 0
65 -294 296 0
-296 368 0
66 -296 298 0
-298 369 0
67 -298 300 0
-300 370 0
68 -300 302 0
-302 371 0
69 -302 304 0
-304 372 0
70 -304 0
3 305 0
-305 373 0
4 -305 306 0
-306 374 0
5 -306 307 0
-307 375 0
6 -307 308 0
-308 376 0
7 -308 309 0
-309 377 0
8 -309 310 0
-310 378 0
9 -310 311 0
-311 379 0
10 -311 312 0
-312 380 0
11 -312 313 0
-313 381 0
12 -313 314 0
-314 382 0
13 -314 315 0
-315 383 0
14 -315 316 0
-316 384 0
15 -316 317 0
-317 385 0
16 -317 318 0
-318 386 0
17 -318 319 0
-319 387 0
18 -319 320 0
-320 388 0
19 -320 321 0
-321 389 0
20 -321 322 0
-322 390 0
21 -322 323 0
-323 391 0
22 -323 324 0
-324 392 0
23 -324 325 0
-325 393 0
24 -325 326 0
-326 394 0
25 -326 327 0
-327 395 0
26 -327 328 0
-328 396 0
27 -328 329 0
-329 397 0
28 -329 330 0
-330 398 0
29 -330 331 0
-331 399 0
30 -331 332 0
-332 400 0
31 -332 333 0
-333 401 0
32 -333 334 0
-334 402 0
33 -334 335 0
-335 403 0
34 -335 336 0
-336 404 0
35 -336 337 0
-337 405 0
36 -337 338 0
-338 406 0
37 -338 339 0
-339 407 0
38 -339 340 0
-340 408 0
39 -340 341 0
-341 409 0
40 -341 342 0
-342 410 0
41 -342 343 0
-343 411 0
42 -343 344 0
-344 412 0
43 -344 345 0
-345 413 0
44 -345 346 0
-346 414 0
45 -346 347 0
-347 415 0
46 -347 348 0
-348 416 0
47 -348 349 0
-349 417 0
48 -349 350 0
-350 418 0
49 -350 351 0
-351 419 0
50 -351 352 0
-352 420 0
51 -352 353 0
-353 421 0
52 -353 354 0
-354 422 0
53 -354 355 0
-355 423 0
54 -355 356 0
-356 424 0
55 -356 357 0
-357 425 0
56 -357 358 0
-358 426 0
57 -358 359 0
-359 427 0
58 -359 360 0
-360 428 0
59 -360 361 0
-361 429 0
60 -361 362 0
-362 430 0
61 -362 363 0
-363 431 0
62 -363 364 0
-364 432 0
63 -364 365 0
-365 433 0
64 -365 366 0
-366 434 0
65 -366 367 0
-367 435 0
66 -367 368 0
-368 436 0
67 -368 369 0
-369 437 0
68 -369 370 0
-370 438 0
69 -370 371 0
-371 439 0
70 -371 372 0
-372 440 0
71 -372 0
4 373 0
-373 441 0
5 -373 374 0
-374 442 0
6 -374 375 0
-375 443 0
7 -375 376 0
-376 444 0
8 -376 377 0
-377 445 0
9 -377 378 0
-378 446 0
10 -378 379 0
-379 447 0
11 -379 380 0
-380 448 0
12 -380 381 0
-381 449 0
13 -381 382 0
-382 450 0
14 -382 383 0
-383 451 0
15 -383 384 0
-384 452 0
16 -384 385 0
-385 453 0
17 -385 386 0
-386 454 0
18 -386 387 0
-387 455 0
19 -387 388 0
-388 456 0
20 -388 389 0
-389 457 0
21 -389 390 0
-390 458 0
22 -390 391 0
-391 459 0
23 -391 392 0
-392 460 0
24 -392 393 0
-393 461 0
25 -393 394 0
-394 462 0
26 -394 395 0
-395 463 0
27 -395 396 0
-396 464 0
28 -396 397 0
-397 465 0
29 -397 398 0
-398 466 0
30 -398 399 0
-399 467 0
31 -399 400 0
-400 468 0
32 -400 401 0
-401 469 0
33 -401 402 0
-402 470 0
34 -402 403 0
-403 471 0
35 -403 404 0
-404 472 0
36 -404 405 0
-405 473 0
37 -405 406 0
-406 474 0
38 -406 407 0
-407 475 0
39 -407 408 0
-408 476 0
40 -408 409 0
-409 477 0
41 -409 410 0
-410 478 0
42 -410 411 0
-411 479 0
43 -411 412 0
-412 480 0
44 -412 413 0
-413 481 0
45 -413 414 0
-414 482 0
46 -414 415 0
-415 483 0
47 -415 416 0
-416 484 0
48 -416 417 0
-417 485 0
49 -417 418 0
-418 486 0
50 -418 419 0
-419 487 0
51 -419 420 0
-420 488 0
52 -420 421 0
-421 489 0
53 -421 422 0
-422 490 0
54 -422 423 0
-423 491 0
55 -423 424 0
-424 492 0
56 -424 425 0
-425 493 0
57 -425 426 0
-426 494 0
58 -426 427 0
-427 495 0
59 -427 428 0
-428 496 0
60 -428 429 0
-429 497 0
61 -429 430 0
-430 498 0
62 -430 431 0
-431 499 0
63 -431 432 0
-432 500 0
64 -432 433 0
-433 501 0
65 -433 434 0
-434 502 0
66 -434 435 0
-435 503 0
67 -435 436 0
-436 504 0
68 -436 437 0
-437 505 0
69 -437 438 0
-438 506 0
70 -438 439 0
-439 507 0
71 -439 440 0
-440 508 0
72 -440 0
5 441 0
-441 509 0
6 -441 442 0
-442 510 0
7 -442 443 0
-443 511 0
8 -443 444 0
-444 512 0
9 -444 445 0
-445 513 0
10 -445 446 0
-446 514 0
11 -446 447 0
-447 515 0
12 -447 448 0
-448 516 0
13 -448 449 0
-449 517 0
14 -449 450 0
-450 518 0
15 -450 451 0
-451 519 0
16 -451 452 0
-452 520 0
17 -452 453 0
-453 521 0
18 -453 454 0
-454 522 0
19 -454 455 0
-455 523 0
20 -455 456 0
-456 524 0
21 -456 457 0
-457 525 0
22 -457 458 0
-458 526 0
23 -458 459 0
-459 527 0
24 -459 460 0
-460 528 0
25 -460 461 0
-461 529 0
26 -461 462 0
-462 530 0
27 -462 463 0
-463 531 0
28 -463 464 0
-464 532 0
29 -464 465 0
-465 533 0
30 -465 466 0
-466 534 0
31 -466 467 0
-467 535 0
32 -467 468 0
-468 536 0
33 -468 469 0
-469 537 0
34 -469 470 0
-470 538 0
35 -470 471 0
-471 539 0
36 -471 472 0
-472 540 0
37 -472 473 0
-473 541 0
38 -473 474 0
-474 542 0
39 -474 475 0
-475 543 0
40 -475 476 0
-476 544 0
41 -476 477 0
-477 545 0
42 -477 478 0
-478 546 0
43 -478 479 0
-479 547 0
44 -479 480 0
-480 548 0
45 -480 481 0
-481 549 0
46 -481 482 0
-482 550 0
47 -482 483 0
-483 551 0
48 -483 484 0
-484 552 0
49 -484 485 0
-485 553 0
50 -485 486 0
-486 554 0
51 -486 487 0
-487 555 0
52 -487 488 0
-488 556 0
53 -488 489 0
-489 557 0
54 -489 490 0
-490 558 0
55 -490 491 0
-491 559 0
56 -491 492 0
-492 560 0
57 -492 493 0
-493 561 0
58 -493 494 0
-494 562 0
59 -494 495 0
-495 563 0
60 -495 496 0
-496 564 0
61 -496 497 0
-497 565 0
62 -497 498 0
-498 566 0
63 -498 499 0
-499 567 0
64 -499 500 0
-500 568 0
65 -500 501 0
-501 569 0
66 -501 502 0
-502 570 0
67 -502 503 0
-503 571 0
68 -503 504 0
-504 572 0
69 -504 505 0
-505 573 0
70 -505 506 0
-506 574 0
71 -506 507 0
-507 575 0
72 -507 508 0
-508 576 0
73 -508 0
6 509 0
-509 577 0
7 -509 510 0
-510 578 0
8 -510 511 0
-511 579 0
9 -511 512 0
-512 580 0
10 -512 513 0
-513 581 0
11 -513 514 0
-514 582 0
12 -514 515 0
-515 583 0
13 -515 516 0
-516 584 0
14 -516 517 0
-517 585 0
15 -517 518 0
-518 586 0
16 -518 519 0
-519 587 0
17 -519 520 0
-520 588 0
18 -520 521 0
-521 589 0
19 -521 522 0
-522 590 0
20 -522 523 0
-523 591 0
21 -523 524 0
-524 592 0
22 -524 525 0
-525 593 0
23 -525 526 0
-526 594 0
24 -526 527 0
-527 595 0
25 -527 528 0
-528 596 0
26 -528 529 0
-529 597 0
27 -529 530 0
-530 598 0
28 -530 531 0
-531 599 0
29 -531 532 0
-532 600 0
30 -532 533 0
-533 601 0
31 -533 534 0
-534 602 0
32 -534 535 0
-535 603 0
33 -535 536 0
-536 604 0
34 -536 537 0
-537 605 0
35 -537 538 0
-538 606 0
36 -538 539 0
-539 607 0
37 -539 540 0
-540 608 0
38 -540 541 0
-541 609 0
39 -541 542 0
-542 610 0
40 -542 543 0
-543 611 0
41 -543 544 0
-544 612 0
42 -544 545 0
-545 613 0
43 -545 546 0
-546 614 0
44 -546 547 0
-547 615 0
45 -547 548 0
-548 616 0
46 -548 549 0
-549 617 0
47 -549 550 0
-550 618 0
48 -550 551 0
-551 619 0
49 -551 552 0
-552 620 0
50 -552 553 0
-553 621 0
51 -553 554 0
-554 622 0
52 -554 555 0
-555 623 0
53 -555 556 0
-556 624 0
54 -556 557 0
-557 625 0
55 -557 558 0
-558 626 0
56 -558 559 0
-559 627 0
57 -559 560 0
-560 628 0
58 -560 561 0
-561 629 0
59 -561 562 0
-562 630 0
60 -562 563 0
-563 631 0
61 -563 564 0
-564 632 0
62 -564 565 0
-565 633 0
63 -565 566 0
-566 634 0
64 -566 567 0
-567 635 0
65 -567 568 0
-568 636 0
66 -568 569 0
-569 637 0
67 -569 570 0
-570 638 0
68 -570 571 0
-571 639 0
69 -571 572 0
-572 640 0
70 -572 573 0
-573 641 0
71 -573 574 0
-574 642 0
72 -574 575 0
-575 643 0
73 -575 576 0
-576 644 0
74 -576 0
7 577 0
-577 645 0
8 -577 578 0
-578 646 0
9 -578 579 0
-579 647 0
10 -579 580 0
-580 648 0
11 -580 581 0
-581 649 0
12 -581 582 0
-582 650 0
13 -582 583 0
-583 651 0
14 -583 584 0
-584 652 0
15 -584 585 0
-585 653 0
16 -585 586 0
-586 654 0
17 -586 587 0
-587 655 0
18 -587 588 0
-588 656 0
19 -588 589 0
-589 657 0
20 -589 590 0
-590 658 0
21 -590 591 0
-591 659 0
22 -591 592 0
-592 660 0
23 -592 593 0
-593 661 0
24 -593 594 0
-594 662 0
25 -594 595 0
-595 663 0
26 -595 596 0
-596 664 0
27 -596 597 0
-597 665 0
28 -597 598 0
-598 666 0
29 -598 599 0
-599 667 0
30 -599 600 0
-600 668 0
31 -600 601 0
-601 669 0
32 -601 602 0
-602 670 0
33 -602 603 0
-603 671 0
34 -603 604 0
-604 672 0
35 -604 605 0
-605 673 0
36 -605 606 0
-606 674 0
37 -606 607 0
-607 675 0
38 -607 608 0
-608 676 0
39 -608 609 0
-609 677 0
40 -609 610 0
-610 678 0
41 -610 611 0
-611 679 0
42 -611 612 0
-612 680 0
43 -612 613 0
-613 681 0
44 -613 614 0
-614 682 0
45 -614 615 0
-615 683 0
46 -615 616 0
-616 684 0
47 -616 617 0
-617 685 0
48 -617 618 0
-618 686 0
49 -618 619 0
-619 687 0
50 -619 620 0
-620 688 0
51 -620 621 0
-621 689 0
52 -621 622 0
-622 690 0
53 -622 623 0
-623 691 0
54 -623 624 0
-624 692 0
55 -624 625 0
-625 693 0
56 -625 626 0
-626 694 0
57 -626 627 0
-627 695 0
58 -627 628 0
-628 696 0
59 -628 629 0
-629 697 0
60 -629 630 0
-630 698 0
61 -630 631 0
-631 699 0
62 -631 632 0
-632 700 0
63 -632 633 0
-633 701 0
64 -633 634 0
-634 702 0
65 -634 635 0
-635 703 0
66 -635 636 0
-636 704 0
67 -636 637 0
-637 705 0
68 -637 638 0
-638 706 0
69 -638 639 0
-639 707 0
70 -639 640 0
-640 708 0
71 -640 641 0
-641 709 0
72 -641 642 0
-642 710 0
73 -642 643 0
-643 711 0
74 -643 644 0
-644 712 0
75 -644 0
8 645 0
-645 713 0
9 -645 646 0
-646 714 0
10 -646 647 0
-647 715 0
11 -647 648 0
-648 716 0
12 -648 649 0
-649 717 0
13 -649 650 0
-650 718 0
14 -650 651 0
-651 719 0
15 -651 652 0
-652 720 0
16 -652 653 0
-653 721 0
17 -653 654 0
-654 722 0
18 -654 655 0
-655 723 0
19 -655 656 0
-656 724 0
20 -656 657 0
-657 725 0
21 -657 658 0
-658 726 0
22 -658 659 0
-659 727 0
23 -659 660 0
-660 728 0
24 -660 661 0
-661 729 0
25 -661 662 0
-662 730 0
26 -662 663 0
-663 731 0
27 -663 664 0
-664 732 0
28 -664 665 0
-665 733 0
29 -665 666 0
-666 734 0
30 -666 667 0
-667 735 0
31 -667 668 0
-668 736 0
32 -668 669 0
-669 737 0
33 -669 670 0
-670 738 0
34 -670 671 0
-671 739 0
35 -671 672 0
-672 740 0
36 -672 673 0
-673 741 0
37 -673 674 0
-674 742 0
38 -674 675 0
-675 743 0
39 -675 676 0
-676 744 0
40 -676 677 0
-677 745 0
41 -677 678 0
-678 746 0
42 -678 679 0
-679 747 0
43 -679 680 0
-680 748 0
44 -680 681 0
-681 749 0
45 -681 682 0
-682 750 0
46 -682 683 0
-683 751 0
47 -683 684 0
-684 752 0
48 -684 685 0
-685 753 0
49 -685 686 0
-686 754 0
50 -686 687 0
-687 755 0
51 -687 688 0
-688 756 0
52 -688 689 0
-689 757 0
53 -689 690 0
-690 758 0
54 -690 691 0
-691 759 0
55 -691 692 0
-692 760 0
56 -692 693 0
-693 761 0
57 -693 694 0
-694 762 0
58 -694 695 0
-695 763 0
59 -695 696 0
-696 764 0
60 -696 697 0
-697 765 0
61 -697 698 0
-698 766 0
62 -698 699 0
-699 767 0
63 -699 700 0
-700 768 0
64 -700 701 0
-701 769 0
65 -701 702 0
-702 770 0
66 -702 703 0
-703 771 0
67 -703 704 0
-704 772 0
68 -704 705 0
-705 773 0
69 -705 706 0
-706 774 0
70 -706 707 0
-707 775 0
71 -707 708 0
-708 776 0
72 -708 709 0
-709 777 0
73 -709 710 0
-710 778 0
74 -710 711 0
-711 779 0
75 -711 712 0
-712 780 0
76 -712 0
9 713 0
-713 781 0
10 -713 714 0
-714 782 0
11 -714 715 0
-715 783 0
12 -715 716 0
-716 784 0
13 -716 717 0
-717 785 0
14 -717 718 0
-718 786 0
15 -718 719 0
-719 787 0
16 -719 720 0
-720 788 0
17 -720 721 0
-721 789 0
18 -721 722 0
-722 790 0
19 -722 723 0
-723 791 0
20 -723 724 0
-724 792 0
21 -724 725 0
-725 793 0
22 -725 726 0
-726 794 0
23 -726 727 0
-727 795 0
24 -727 728 0
-728 796 0
25 -728 729 0
-729 797 0
26 -729 730 0
-730 798 0
27 -730 731 0
-731 799 0
28 -731 732 0
-732 800 0
29 -732 733 0
-733 801 0
30 -733 734 0
-734 802 0
31 -734 735 0
-735 803 0
32 -735 736 0
-736 804 0
33 -736 737 0
-737 805 0
34 -737 738 0
-738 806 0
35 -738 739 0
-739 807 0
36 -739 740 0
-740 808 0
37 -740 741 0
-741 809 0
38 -741 742 0
-742 810 0
39 -742 743 0
-743 811 0
40 -743 744 0
-744 812 0
41 -744 745 0
-745 813 0
42 -745 746 0
-746 814 0
43 -746 747 0
-747 815 0
44 -747 748 0
-748 816 0
45 -748 749 0
-749 817 0
46 -749 750 0
-750 818 0
47 -750 751 0
-751 819 0
48 -751 752 0
-752 820 0
49 -752 753 0
-753 821 0
50 -753 754 0
-754 822 0
51 -754 755 0
-755 823 0
52 -755 756 0
-756 824 0
53 -756 757 0
-757 825 0
54 -757 758 0
-758 826 0
55 -758 759 0
-759 827 0
56 -759 760 0
-760 828 0
57 -760 761 0
-761 829 0
58 -761 762 0
-762 830 0
59 -762 763 0
-763 831 0
60 -763 764 0
-764 832 0
61 -764 765 0
-765 833 0
62 -765 766 0
-766 834 0
63 -766 767 0
-767 835 0
64 -767 768 0
-768 836 0
65 -768 769 0
-769 837 0
66 -769 770 0
-770 838 0
67 -770 771 0
-771 839 0
68 -771 772 0
-772 840 0
69 -772 773 0
-773 841 0
70 -773 774 0
-774 842 0
71 -774 775 0
-775 843 0
72 -775 776 0
-776 844 0
73 -776 777 0
-777 845 0
74 -777 778 0
-778 846 0
75 -778 779 0
-779 847 0
76 -779 780 0
-780 848 0
77 -780 0
10 781 0
-781 849 0
11 -781 782 0
-782 850 0
12 -782 783 0
-783 851 0
13 -783 784 0
-784 852 0
14 -784 785 0
-785 853 0
15 -785 786 0
-786 854 0
16 -786 787 0
-787 855 0
17 -787 788 0
-788 856 0
18 -788 789 0
-789 857 0
19 -789 790 0
-790 858 0
20 -790 791 0
-791 859 0
21 -791 792 0
-792 860 0
22 -792 793 0
-793 861 0
23 -793 794 0
-794 862 0
24 -794 795 0
-795 863 0
25 -795 796 0
-796 864 0
26 -796 797 0
-797 865 0
27 -797 798 0
-798 866 0
28 -798 799 0
-799 867 0
29 -799 800 0
-800 868 0
30 -800 801 0
-801 869 0
31 -801 802 0
-802 870 0
32 -802 803 0
-803 871 0
33 -803 804 0
-804 872 0
34 -804 805 0
-805 873 0
35 -805 806 0
-806 874 0
36 -806 807 0
-807 875 0
37 -807 808 0
-808 876 0
38 -808 809 0
-809 877 0
39 -809 810 0
-810 878 0
40 -810 811 0
-811 879 0
41 -811 812 0
-812 880 0
42 -812 813 0
-813 881 0
43 -813 814 0
-814 882 0
44 -814 815 0
-815 883 0
45 -815 816 0
-816 884 0
46 -816 817 0
-817 885 0
47 -817 818 0
-818 886 0
48 -818 819 0
-819 887 0
49 -819 820 0
-820 888 0
50 -820 821 0
-821 889 0
51 -821 822 0
-822 890 0
52 -822 823 0
-823 891 0
53 -823 824 0
-824 892 0
54 -824 825 0
-825 893 0
55 -825 826 0
-826 894 0
56 -826 827 0
-827 895 0
57 -827 828 0
-828 896 0
58 -828 829 0
-829 897 0
59 -829 830 0
-830 898 0
60 -830 831 0
-831 899 0
61 -831 832 0
-832 900 0
62 -832 833 0
-833 901 0
63 -833 834 0
-834 902 0
64 -834 835 0
-835 903 0
65 -835 836 0
-836 904 0
66 -836 837 0
-837 905 0
67 -837 838 0
-838 906 0
68 -838 839 0
-839 907 0
69 -839 840 0
-840 908 0
70 -840 841 0
-841 909 0
71 -841 842 0
-842 910 0
72 -842 843 0
-843 911 0
73 -843 844 0
-844 912 0
74 -844 845 0
-845 913 0
75 -845 846 0
-846 914 0
76 -846 847 0
-847 915 0
77 -847 848 0
-848 916 0
78 -848 0
11 849 0
-849 917 0
12 -849 850 0
-850 918 0
13 -850 851 0
-851 919 0
14 -851 852 0
-852 920 0
15 -852 853 0
-853 921 0
16 -853 854 0
-854 922 0
17 -854 855 0
-855 923 0
18 -855 856 0
-856 924 0
19 -856 857 0
-857 925 0
20 -857 858 0
-858 926 0
21 -858 859 0
-859 927 0
22 -859 860 0
-860 928 0
23 -860 861 0
-861 929 0
24 -861 862 0
-862 930 0
25 -862 863 0
-863 931 0
26 -863 864 0
-864 932 0
27 -864 865 0
-865 933 0
28 -865 866 0
-866 934 0
29 -866 867 0
-867 935 0
30 -867 868 0
-868 936 0
31 -868 869 0
-869 937 0
32 -869 870 0
-870 938 0
33 -870 871 0
-871 939 0
34 -871 872 0
-872 940 0
35 -872 873 0
-873 941 0
36 -873 874 0
-874 942 0
37 -874 875 0
-875 943 0
38 -875 876 0
-876 944 0
39 -876 877 0
-877 945 0
40 -877 878 0
-878 946 0
41 -878 879 0
-879 947 0
42 -879 880 0
-880 948 0
43 -880 881 0
-881 949 0
44 -881 882 0
-882 950 0
45 -882 883 0
-883 951 0
46 -883 884 0
-884 952 0
47 -884 885 0
-885 953 0
48 -885 886 0
-886 954 0
49 -886 887 0
-887 955 0
50 -887 888 0
-888 956 0
51 -888 889 0
-889 957 0
52 -889 890 0
-890 958 0
53 -890 891 0
-891 959 0
54 -891 892 0
-892 960 0
55 -892 893 0
-893 961 0
56 -893 894 0
-894 962 0
57 -894 895 0
-895 963 0
58 -895 896 0
-896 964 0
59 -896 897 0
-897 965 0
60 -897 898 0
-898 966 0
61 -898 899 0
-899 967 0
62 -899 900 0
-900 968 0
63 -900 901 0
-901 969 0
64 -901 902 0
-902 970 0
65 -902 903 0
-903 971 0
66 -903 904 0
-904 972 0
67 -904 905 0
-905 973 0
68 -905 906 0
-906 974 0
69 -906 907 0
-907 975 0
70 -907 908 0
-908 976 0
71 -908 909 0
-909 977 0
72 -909 910 0
-910 978 0
73 -910 911 0
-911 979 0
74 -911 912 0
-912 980 0
75 -912 913 0
-913 981 0
76 -913 914 0
-914 982 0
77 -914 915 0
-915 983 0
78 -915 916 0
-916 984 0
79 -916 0
12 917 0
-917 985 0
13 -917 918 0
-918 986 0
14 -918 919 0
-919 987 0
15 -919 920 0
-920 988 0
16 -920 921 0
-921 989 0
17 -921 922 0
-922 990 0
18 -922 923 0
-923 991 0
19 -923 924 0
-924 992 0
20 -924 925 0
-925 993 0
21 -925 926 0
-926 994 0
22 -926 927 0
-927 995 0
23 -927 928 0
-928 996 0
24 -928 929 0
-929 997 0
25 -929 930 0
-930 998 0
26 -930 931 0
-931 999 0
27 -931 932 0
-932 1000 0
28 -932 933 0
-933 1001 0
29 -933 934 0
-934 1002 0
30 -934 935 0
-935 1003 0
31 -935 936 0
-936 1004 0
32 -936 937 0
-937 1005 0
33 -937 938 0
-938 1006 0
34 -938 939 0
-939 1007 0
35 -939 940 0
-940 1008 0
36 -940 941 0
-941 1009 0
37 -941 942 0
-942 1010 0
38 -942 943 0
-943 1011 0
39 -943 944 0
-944 1012 0
40 -944 945 0
-945 1013 0
41 -945 946 0
-946 1014 0
42 -946 947 0
-947 1015 0
43 -947 948 0
-948 1016 0
44 -948 949 0
-949 1017 0
45 -949 950 0
-950 1018 0
46 -950 951 0
-951 1019 0
47 -951 952 0
-952 1020 0
48 -952 953 0
-953 1021 0
49 -953 954 0
-954 1022 0
50 -954 955 0
-955 1023 0
51 -955 956 0
-956 1024 0
52 -956 957 0
-957 1025 0
53 -957 958 0
-958 1026 0
54 -958 959 0
-959 1027 0
55 -959 960 0
-960 1028 0
56 -960 961 0
-961 1029 0
57 -961 962 0
-962 1030 0
58 -962 963 0
-963 1031 0
59 -963 964 0
-964 1032 0
60 -964 965 0
-965 1033 0
61 -965 966 0
-966 1034 0
62 -966 967 0
-967 1035 0
63 -967 968 0
-968 1036 0
64 -968 969 0
-969 1037 0
65 -969 970 0
-970 1038 0
66 -970 971 0
-971 1039 0
67 -971 972 0
-972 1040 0
68 -972 973 0
-973 1041 0
69 -973 974 0
-974 1042 0
70 -974 975 0
-975 1043 0
71 -975 976 0
-976 1044 0
72 -976 977 0
-977 1045 0
73 -977 978 0
-978 1046 0
74 -978 979 0
-979 1047 0
75 -979 980 0
-980 1048 0
76 -980 981 0
-981 1049 0
77 -981 982 0
-982 1050 0
78 -982 983 0
-983 1051 0
79 -983 984 0
-984 1052 0
80 -984 0
13 985 0
-985 1053 0
14 -985 986 0
-986 1054 0
15 -986 987 0
-987 1055 0
16 -987 988 0
-988 1056 0
17 -988 989 0
-989 1057 0
18 -989 990 0
-990 1058 0
19 -990 991 0
-991 1059 0
20 -991 992 0
-992 1060 0
21 -992 993 0
-993 1061 0
22 -993 994 0
-994 1062 0
23 -994 995 0
-995 1063 0
24 -995 996 0
-996 1064 0
25 -996 997 0
-997 1065 0
26 -997 998 0
-998 1066 0
27 -998 999 0
-999 1067 0
28 -999 1000 0
-1000 1068 0
29 -1000 1001 0
-1001 1069 0
30 -1001 1002 0
-1002 1070 0
31 -1002 1003 0
-1003 1071 0
32 -1003 1004 0
-1004 1072 0
33 -1004 1005 0
-1005 1073 0
34 -1005 1006 0
-1006 1074 0
35 -1006 1007 0
-1007 1075 0
36 -1007 1008 0
-1008 1076 0
37 -1008 1009 0
-1009 1077 0
38 -1009 1010 0
-1010 1078 0
39 -1010 1011 0
-1011 1079 0
40 -1011 1012 0
-1012 1080 0
41 -1012 1013 0
-1013 1081 0
42 -1013 1014 0
-1014 1082 0
43 -1014 1015 0
-1015 1083 0
44 -1015 1016 0
-1016 1084 0
45 -1016 1017 0
-1017 1085 0
46 -1017 1018 0
-1018 1086 0
47 -1018 1019 0
-1019 1087 0
48 -1019 1020 0
-1020 1088 0
49 -1020 1021 0
-1021 1089 0
50 -1021 1022 0
-1022 1090 0
51 -1022 1023 0
-1023 1091 0
52 -1023 1024 0
-1024 1092 0
53 -1024 1025 0
-1025 1093 0
54 -1025 1026 0
-1026 1094 0
55 -1026 1027 0
-1027 1095 0
56 -1027 1028 0
-1028 1096 0
57 -1028 1029 0
-1029 1097 0
58 -1029 1030 0
-1030 1098 0
59 -1030 1031 0
-1031 1099 0
60 -1031 1032 0
-1032 1100 0
61 -1032 1033 0
-1033 1101 0
62 -1033 1034 0
-1034 1102 0
63 -1034 1035 0
-1035 1103 0
64 -1035 1036 0
-1036 1104 0
65 -1036 1037 0
-1037 1105 0
66 -1037 1038 0
-1038 1106 0
67 -1038 1039 0
-1039 1107 0
68 -1039 1040 0
-1040 1108 0
69 -1040 1041 0
-1041 1109 0
70 -1041 1042 0
-1042 1110 0
71 -1042 1043 0
-1043 1111 0
72 -1043 1044 0
-1044 1112 0
73 -1044 1045 0
-1045 1113 0
74 -1045 1046 0
-1046 1114 0
75 -1046 1047 0
-1047 1115 0
76 -1047 1048 0
-1048 1116 0
77 -1048 1049 0
-1049 1117 0
78 -1049 1050 0
-1050 1118 0
79 -1050 1051 0
-1051 1119 0
80 -1051 1052 0
-1052 1120 0
81 -1052 0
14 1053 0
-1053 1121 0
15 -1053 1054 0
-1054 1122 0
16 -1054 1055 0
-1055 1123 0
17 -1055 1056 0
-1056 1124 0
18 -1056 1057 0
-1057 1125 0
19 -1057 1058 0
-1058 1126 0
20 -1058 1059 0
-1059 1127 0
21 -1059 1060 0
-1060 1128 0
22 -1060 1061 0
-1061 1129 0
23 -1061 1062 0
-1062 1130 0
24 -1062 1063 0
-1063 1131 0
25 -1063 1064 0
-1064 1132 0
26 -1064 1065 0
-1065 1133 0
27 -1065 1066 0
-1066 1134 0
28 -1066 1067 0
-1067 1135 0
29 -1067 1068 0
-1068 1136 0
30 -1068 1069 0
-1069 1137 0
31 -1069 1070 0
-1070 1138 0
32 -1070 1071 0
-1071 1139 0
33 -1071 1072 0
-1072 1140 0
34 -1072 1073 0
-1073 1141 0
35 -1073 1074 0
-1074 1142 0
36 -1074 1075 0
-1075 1143 0
37 -1075 1076 0
-1076 1144 0
38 -1076 1077 0
-1077 1145 0
39 -1077 1078 0
-1078 1146 0
40 -1078 1079 0
-1079 1147 0
41 -1079 1080 0
-1080 1148 0
42 -1080 1081 0
-1081 1149 0
43 -1081 1082 0
-1082 1150 0
44 -1082 1083 0
-1083 1151 0
45 -1083 1084 0
-1084 1152 0
46 -1084 1085 0
-1085 1153 0
47 -1085 1086 0
-1086 1154 0
48 -1086 1087 0
-1087 1155 0
49 -1087 1088 0
-1088 1156 0
50 -1088 1089 0
-1089 1157 0
51 -1089 1090 0
-1090 1158 0
52 -1090 1091 0
-1091 1159 0
53 -1091 1092 0
-1092 1160 0
54 -1092 1093 0
-1093 1161 0
55 -1093 1094 0
-1094 1162 0
56 -1094 1095 0
-1095 1163 0
57 -1095 1096 0
-1096 1164 0
58 -1096 1097 0
-1097 1165 0
59 -1097 1098 0
-1098 1166 0
60 -1098 1099 0
-1099 1167 0
61 -1099 1100 0
-1100 1168 0
62 -1100 1101 0
-1101 1169 0
63 -1101 1102 0
-1102 1170 0
64 -1102 1103 0
-1103 1171 0
65 -1103 1104 0
-1104 1172 0
66 -1104 1105 0
-1105 1173 0
67 -1105 1106 0
-1106 1174 0
68 -1106 1107 0
-1107 1175 0
69 -1107 1108 0
-1108 1176 0
70 -1108 1109 0
-1109 1177 0
71 -1109 1110 0
-1110 1178 0
72 -1110 1111 0
-1111 1179 0
73 -1111 1112 0
-1112 1180 0
74 -1112 1113 0
-1113 1181 0
75 -1113 1114 0
-1114 1182 0
76 -1114 1115 0
-1115 1183 0
77 -1115 1116 0
-1116 1184 0
78 -1116 1117 0
-1117 1185 0
79 -1117 1118 0
-1118 1186 0
80 -1118 1119 0
-1119 1187 0
81 -1119 1120 0
-1120 1188 0
82 -1120 0
15 1121 0
-1121 1189 0
16 -1121 1122 0
-1122 1190 0
17 -1122 1123 0
-1123 1191 0
18 -1123 1124 0
-1124 1192 0
19 -1124 1125 0
-1125 1193 0
20 -1125 1126 0
-1126 1194 0
21 -1126 1127 0
-1127 1195 0
22 -1127 1128 0
-1128 1196 0
23 -1128 1129 0
-1129 1197 0
24 -1129 1130 0
-1130 1198 0
25 -1130 1131 0
-1131 1199 0
26 -1131 1132 0
-1132 1200 0
27 -1132 1133 0
-1133 1201 0
28 -1133 1134 0
-1134 1202 0
29 -1134 1135 0
-1135 1203 0
30 -1135 1136 0
-1136 1204 0
31 -1136 1137 0
-1137 1205 0
32 -1137 1138 0
-1138 1206 0
33 -1138 1139 0
-1139 1207 0
34 -1139 1140 0
-1140 1208 0
35 -1140 1141 0
-1141 1209 0
36 -1141 1142 0
-1142 1210 0
37 -1142 1143 0
-1143 1211 0
38 -1143 1144 0
-1144 1212 0
39 -1144 1145 0
-1145 1213 0
40 -1145 1146 0
-1146 1214 0
41 -1146 1147 0
-1147 1215 0
42 -1147 1148 0
-1148 1216 0
43 -1148 1149 0
-1149 1217 0
44 -1149 1150 0
-1150 1218 0
45 -1150 1151 0
-1151 1219 0
46 -1151 1152 0
-1152 1220 0
47 -1152 1153 0
-1153 1221 0
48 -1153 1154 0
-1154 1222 0
49 -1154 1155 0
-1155 1223 0
50 -1155 1156 0
-1156 1224 0
51 -1156 1157 0
-1157 1225 0
52 -1157 1158 0
-1158 1226 0
53 -1158 1159 0
-1159 1227 0
54 -1159 1160 0
-1160 1228 0
55 -1160 1161 0
-1161 1229 0
56 -1161 1162 0
-1162 1230 0
57 -1162 1163 0
-1163 1231 0
58 -1163 1164 0
-1164 1232 0
59 -1164 1165 0
-1165 1233 0
60 -1165 1166 0
-1166 1234 0
61 -1166 1167 0
-1167 1235 0
62 -1167 1168 0
-1168 1236 0
63 -1168 1169 0
-1169 1237 0
64 -1169 1170 0
-1170 1238 0
65 -1170 1171 0
-1171 1239 0
66 -1171 1172 0
-1172 1240 0
67 -1172 1173 0
-1173 1241 0
68 -1173 1174 0
-1174 1242 0
69 -1174 1175 0
-1175 1243 0
70 -1175 1176 0
-1176 1244 0
71 -1176 1177 0
-1177 1245 0
72 -1177 1178 0
-1178 1246 0
73 -1178 1179 0
-1179 1247 0
74 -1179 1180 0
-1180 1248 0
75 -1180 1181 0
-1181 1249 0
76 -1181 1182 0
-1182 1250 0
77 -1182 1183 0
-1183 1251 0
78 -1183 1184 0
-1184 1252 0
79 -1184 1185 0
-1185 1253 0
80 -1185 1186 0
-1186 1254 0
81 -1186 1187 0
-1187 1255 0
82 -1187 1188 0
-1188 1256 0
83 -1188 0
16 1189 0
17 -1189 1190 0
18 -1190 1191 0
19 -1191 1192 0
20 -1192 1193 0
21 -1193 1194 0
22 -1194 1195 0
23 -1195 1196 0
24 -1196 1197 0
25 -1197 1198 0
26 -1198 1199 0
27 -1199 1200 0
28 -1200 1201 0
29 -1201 1202 0
30 -1202 1203 0
31 -1203 1204 0
32 -1204 1205 0
33 -1205 1206 0
34 -1206 1207 0
35 -1207 1208 0
36 -1208 1209 0
37 -1209 1210 0
38 -1210 1211 0
39 -1211 1212 0
40 -1212 1213 0
41 -1213 1214 0
42 -1214 1215 0
43 -1215 1216 0
44 -1216 1217 0
45 -1217 1218 0
46 -1218 1219 0
47 -1219 1220 0
48 -1220 1221 0
49 -1221 1222 0
50 -1222 1223 0
51 -1223 1224 0
52 -1224 1225 0
53 -1225 1226 0
54 -1226 1227 0
55 -1227 1228 0
56 -1228 1229 0
57 -1229 1230 0
58 -1230 1231 0
59 -1231 1232 0
60 -1232 1233 0
61 -1233 1234 0
62 -1234 1235 0
63 -1235 1236 0
64 -1236 1237 0
65 -1237 1238 0
66 -1238 1239 0
67 -1239 1240 0
68 -1240 1241 0
69 -1241 1242 0
70 -1242 1243 0
71 -1243 1244 0
72 -1244 1245 0
73 -1245 1246 0
74 -1246 1247 0
75 -1247 1248 0
76 -1248 1249 0
77 -1249 1250 0
78 -1250 1251 0
79 -1251 1252 0
80 -1252 1253 0
81 -1253 1254 0
82 -1254 1255 0
83 -1255 1256 0
84 -1256 0
-1 1257 0
-1257 1258 0
-2 -1257 1259 0
-1259 1260 0
-3 -1259 1261 0
-1261 1262 0
-4 -1261 1263 0
-1263 1264 0
-5 -1263 1265 0
-1265 1266 0
-6 -1265 1267 0
-1267 1268 0
-7 -1267 1269 0
-1269 1270 0
-8 -1269 1271 0
-1271 1272 0
-9 -1271 1273 0
-1273 1274 0
-10 -1273 1275 0
-1275 1276 0
-11 -1275 1277 0
-1277 1278 0
-12 -1277 1279 0
-1279 1280 0
-13 -1279 1281 0
-1281 1282 0
-14 -1281 1283 0
-1283 1284 0
-15 -1283 1285 0
-1285 1286 0
-16 -1285 1287 0
-1287 1288 0
-17 -1287 0
-2 1258 0
-1258 1289 0
-3 -1258 1260 0
-1260 1290 0
-4 -1260 1262 0
-1262 1291 0
-5 -1262 1264 0
-1264 1292 0
-6 -1264 1266 0
-1266 1293 0
-7 -1266 1268 0
-1268 1294 0
-8 -1268 1270 0
-1270 1295 0
-9 -1270 1272 0
-1272 1296 0
-10 -1272 1274 0
-1274 1297 0
-11 -1274 1276 0
-1276 1298 0
-12 -1276 1278 0
-1278 1299 0
-13 -1278 1280 0
-1280 1300 0
-14 -1280 1282 0
-1282 1301 0
-15 -1282 1284 0
-1284 1302 0
-16 -1284 1286 0
-1286 1303 0
-17 -1286 1288 0
-1288 1304 0
-18 -1288 0
-3 1289 0
-1289 1305 0
-4 -1289 1290 0
-1290 1306 0
-5 -1290 1291 0
-1291 1307 0
-6 -1291 1292 0
-1292 1308 0
-7 -1292 1293 0
-1293 1309 0
-8 -1293 1294 0
-1294 1310 0
-9 -1294 1295 0
-1295 1311 0
-10 -1295 1296 0
-1296 1312 0
-11 -1296 1297 0
-1297 1313 0
-12 -1297 1298 0
-1298 1314 0
-13 -1298 1299 0
-1299 1315 0
-14 -1299 1300 0
-1300 1316 0
-15 -1300 1301 0
-1301 1317 0
-16 -1301 1302 0
-1302 1318 0
-17 -1302 1303 0
-1303 1319 0
-18 -1303 1304 0
-1304 1320 0
-19 -1304 0
-4 1305 0
-1305 1321 0
-5 -1305 1306 0
-1306 1322 0
-6 -1306 1307 0
-1307 1323 0
-7 -1307 1308 0
-1308 1324 0
-8 -1308 1309 0
-1309 1325 0
-9 -1309 1310 0
-1310 1326 0
-10 -1310 1311 0
-1311 1327 0
-11 -1311 1312 0
-1312 1328 0
-12 -1312 1313 0
-1313 1329 0
-13 -1313 1314 0
-1314 1330 0
-14 -1314 1315 0
-1315 1331 0
-15 -1315 1316 0
-1316 1332 0
-16 -1316 1317 0
-1317 1333 0
-17 -1317 1318 0
-1318 1334 0
-18 -1318 1319 0
-1319 1335 0
-19 -1319 1320 0
-1320 1336 0
-20 -1320 0
-5 1321 0
-1321 1337 0
-6 -1321 1322 0
-1322 1338 0
-7 -1322 1323 0
-1323 1339 0
-8 -1323 1324 0
-1324 1340 0
-9 -1324 1325 0
-1325 1341 0
-10 -1325 1326 0
-1326 1342 0
-11 -1326 1327 0
-1327 1343 0
-12 -1327 1328 0
-1328 1344 0
-13 -1328 1329 0
-1329 1345 0
-14 -1329 1330 0
-1330 1346 0
-15 -1330 1331 0
-1331 1347 0
-16 -1331 1332 0
-1332 1348 0
-17 -1332 1333 0
-1333 1349 0
-18 -1333 1334 0
-1334 1350 0
-19 -1334 1335 0
-1335 1351 0
-20 -1335 1336 0
-1336 1352 0
-21 -1336 0
-6 1337 0
-1337 1353 0
-7 -1337 1338 0
-1338 1354 0
-8 -1338 1339 0
-1339 1355 0
-9 -1339 1340 0
-1340 1356 0
-10 -1340 1341 0
-1341 1357 0
-11 -1341 1342 0
-1342 1358 0
-12 -1342 1343 0
-1343 1359 0
-13 -1343 1344 0
-1344 1360 0
-14 -1344 1345 0
-1345 1361 0
-15 -1345 1346 0
-1346 1362 0
-16 -1346 1347 0
-1347 1363 0
-17 -1347 1348 0
-1348 1364 0
-18 -1348 1349 0
-1349 1365 0
-19 -1349 1350 0
-1350 1366 0
-20 -1350 1351 0
-1351 1367 0
-21 -1351 1352 0
-1352 1368 0
-22 -1352 0
-7 1353 0
-1353 1369 0
-8 -1353 1354 0
-1354 1370 0
-9 -1354 1355 0
-1355 1371 0
-10 -1355 1356 0
-1356 1372 0
-11 -1356 1357 0
-1357 1373 0
-12 -1357 1358 0
-1358 1374 0
-13 -1358 1359 0
-1359 1375 0
-14 -1359 1360 0
-1360 1376 0
-15 -1360 1361 0
-1361 1377 0
-16 -1361 1362 0
-1362 1378 0
-17 -1362 1363 0
-1363 1379 0
-18 -1363 1364 0
-1364 1380 0
-19 -1364 1365 0
-1365 1381 0
-20 -1365 1366 0
-1366 1382 0
-21 -1366 1367 0
-1367 1383 0
-22 -1367 1368 0
-1368 1384 0
-23 -1368 0
-8 1369 0
-1369 1385 0
-9 -1369 1370 0
-1370 1386 0
-10 -1370 1371 0
-1371 1387 0
-11 -1371 1372 0
-1372 1388 0
-12 -1372 1373 0
-1373 1389 0
-13 -1373 1374 0
-1374 1390 0
-14 -1374 1375 0
-1375 1391 0
-15 -1375 1376 0
-1376 1392 0
-16 -1376 1377 0
-1377 1393 0
-17 -1377 1378 0
-1378 1394 0
-18 -1378 1379 0
-1379 1395 0
-19 -1379 1380 0
-1380 1396 0
-20 -1380 1381 0
-1381 1397 0
-21 -1381 1382 0
-1382 1398 0
-22 -1382 1383 0
-1383 1399 0
-23 -1383 1384 0
-1384 1400 0
-24 -1384 0
-9 1385 0
-1385 1401 0
-10 -1385 1386 0
-1386 1402 0
-11 -1386 1387 0
-1387 1403 0
-12 -1387 1388 0
-1388 1404 0
-13 -1388 1389 0
-1389 1405 0
-14 -1389 1390 0
-1390 1406 0
-15 -1390 1391 0
-1391 1407 0
-16 -1391 1392 0
-1392 1408 0
-17 -1392 1393 0
-1393 1409 0
-18 -1393 1394 0
-1394 1410 0
-19 -1394 1395 0
-1395 1411 0
-20 -1395 1396 0
-1396 1412 0
-21 -1396 1397 0
-1397 1413 0
-22 -1397 1398 0
-1398 1414 0
-23 -1398 1399 0
-1399 1415 0
-24 -1399 1400 0
-1400 1416 0
-25 -1400 0
-10 1401 0
-1401 1417 0
-11 -1401 1402 0
-1402 1418 0
-12 -1402 1403 0
-1403 1419 0
-13 -1403 1404 0
-1404 1420 0
-14 -1404 1405 0
-1405 1421 0
-15 -1405 1406 0
-1406 1422 0
-16 -1406 1407 0
-1407 1423 0
-17 -1407 1408 0
-1408 1424 0
-18 -1408 1409 0
-1409 1425 0
-19 -1409 1410 0
-1410 1426 0
-20 -1410 1411 0
-1411 1427 0
-21 -1411 1412 0
-1412 1428 0
-22 -1412 1413 0
-1413 1429 0
-23 -1413 1414 0
-1414 1430 0
-24 -1414 1415 0
-1415 1431 0
-25 -1415 1416 0
-1416 1432 0
-26 -1416 0
-11 1417 0
-1417 1433 0
-12 -1417 1418 0
-1418 1434 0
-13 -1418 1419 0
-1419 1435 0
-14 -1419 1420 0
-1420 1436 0
-15 -1420 1421 0
-1421 1437 0
-16 -1421 1422 0
-1422 1438 0
-17 -1422 1423 0
-1423 1439 0
-18 -1423 1424 0
-1424 1440 0
-19 -1424 1425 0
-1425 1441 0
-20 -1425 1426 0
-1426 1442 0
-21 -1426 1427 0
-1427 1443 0
-22 -1427 1428 0
-1428 1444 0
-23 -1428 1429 0
-1429 1445 0
-24 -1429 1430 0
-1430 1446 0
-25 -1430 1431 0
-1431 1447 0
-26 -1431 1432 0
-1432 1448 0
-27 -1432 0
-12 1433 0
-1433 1449 0
-13 -1433 1434 0
-1434 1450 0
-14 -1434 1435 0
-1435 1451 0
-15 -1435 1436 0
-1436 1452 0
-16 -1436 1437 0
-1437 1453 0
-17 -1437 1438 0
-1438 1454 0
-18 -1438 1439 0
-1439 1455 0
-19 -1439 1440 0
-1440 1456 0
-20 -1440 1441 0
-1441 1457 0
-21 -1441 1442 0
-1442 1458 0
-22 -1442 1443 0
-1443 1459 0
-23 -1443 1444 0
-1444 1460 0
-24 -1444 1445 0
-1445 1461 0
-25 -1445 1446 0
-1446 1462 0
-26 -1446 1447 0
-1447 1463 0
-27 -1447 1448 0
-1448 1464 0
-28 -1448 0
-13 1449 0
-1449 1465 0
-14 -1449 1450 0
-1450 1466 0
-15 -1450 1451 0
-1451 1467 0
-16 -1451 1452 0
-1452 1468 0
-17 -1452 1453 0
-1453 1469 0
-18 -1453 1454 0
-1454 1470 0
-19 -1454 1455 0
-1455 1471 0
-20 -1455 1456 0
-1456 1472 0
-21 -1456 1457 0
-1457 1473 0
-22 -1457 1458 0
-1458 1474 0
-23 -1458 1459 0
-1459 1475 0
-24 -1459 1460 0
-1460 1476 0
-25 -1460 1461 0
-1461 1477 0
-26 -1461 1462 0
-1462 1478 0
-27 -1462 1463 0
-1463 1479 0
-28 -1463 1464 0
-1464 1480 0
-29 -1464 0
-14 1465 0
-1465 1481 0
-15 -1465 1466 0
-1466 1482 0
-16 -1466 1467 0
-1467 1483 0
-17 -1467 1468 0
-1468 1484 0
-18 -1468 1469 0
-1469 1485 0
-19 -1469 1470 0
-1470 1486 0
-20 -1470 1471 0
-1471 1487 0
-21 -1471 1472 0
-1472 1488 0
-22 -1472 1473 0
-1473 1489 0
-23 -1473 1474 0
-1474 1490 0
-24 -1474 1475 0
-1475 1491 0
-25 -1475 1476 0
-1476 1492 0
-26 -1476 1477 0
-1477 1493 0
-27 -1477 1478 0
-1478 1494 0
-28 -1478 1479 0
-1479 1495 0
-29 -1479 1480 0
-1480 1496 0
-30 -1480 0
-15 1481 0
-1481 1497 0
-16 -1481 1482 0
-1482 1498 0
-17 -1482 1483 0
-1483 1499 0
-18 -1483 1484 0
-1484 1500 0
-19 -1484 1485 0
-1485 1501 0
-20 -1485 1486 0
-1486 1502 0
-21 -1486 1487 0
-1487 1503 0
-22 -1487 1488 0
-1488 1504 0
-23 -1488 1489 0
-1489 1505 0
-24 -1489 1490 0
-1490 1506 0
-25 -1490 1491 0
-1491 1507 0
-26 -1491 1492 0
-1492 1508 0
-27 -1492 1493 0
-1493 1509 0
-28 -1493 1494 0
-1494 1510 0
-29 -1494 1495 0
-1495 1511 0
-30 -1495 1496 0
-1496 1512 0
-31 -1496 0
-16 1497 0
-1497 1513 0
-17 -1497 1498 0
-1498 1514 0
-18 -1498 1499 0
-1499 1515 0
-19 -1499 1500 0
-1500 1516 0
-20 -1500 1501 0
-1501 1517 0
-21 -1501 1502 0
-1502 1518 0
-22 -1502 1503 0
-1503 1519 0
-23 -1503 1504 0
-1504 1520 0
-24 -1504 1505 0
-1505 1521 0
-25 -1505 1506 0
-1506 1522 0
-26 -1506 1507 0
-1507 1523 0
-27 -1507 1508 0
-1508 1524 0
-28 -1508 1509 0
-1509 1525 0
-29 -1509 1510 0
-1510 1526 0
-30 -1510 1511 0
-1511 1527 0
-31 -1511 1512 0
-1512 1528 0
-32 -1512 0
-17 1513 0
-1513 1529 0
-18 -1513 1514 0
-1514 1530 0
-19 -1514 1515 0
-1515 1531 0
-20 -1515 1516 0
-1516 1532 0
-21 -1516 1517 0
-1517 1533 0
-22 -1517 1518 0
-1518 1534 0
-23 -1518 1519 0
-1519 1535 0
-24 -1519 1520 0
-1520 1536 0
-25 -1520 1521 0
-1521 1537 0
-26 -1521 1522 0
-1522 1538 0
-27 -1522 1523 0
-1523 1539 0
-28 -1523 1524 0
-1524 1540 0
-29 -1524 1525 0
-1525 1541 0
-30 -1525 1526 0
-1526 1542 0
-31 -1526 1527 0
-1527 1543 0
-32 -1527 1528 0
-1528 1544 0
-33 -1528 0
-18 1529 0
-1529 1545 0
-19 -1529 1530 0
-1530 1546 0
-20 -1530 1531 0
-1531 1547 0
-21 -1531 1532 0
-1532 1548 0
-22 -1532 1533 0
-1533 1549 0
-23 -1533 1534 0
-1534 1550 0
-24 -1534 1535 0
-1535 1551 0
-25 -1535 1536 0
-1536 1552 0
-26 -1536 1537 0
-1537 1553 0
-27 -1537 1538 0
-1538 1554 0
-28 -1538 1539 0
-1539 1555 0
-29 -1539 1540 0
-1540 1556 0
-30 -1540 1541 0
-1541 1557 0
-31 -1541 1542 0
-1542 1558 0
-32 -1542 1543 0
-1543 1559 0
-33 -1543 1544 0
-1544 1560 0
-34 -1544 0
-19 1545 0
-1545 1561 0
-20 -1545 1546 0
-1546 1562 0
-21 -1546 1547 0
-1547 1563 0
-22 -1547 1548 0
-1548 1564 0
-23 -1548 1549 0
-1549 1565 0
-24 -1549 1550 0
-1550 1566 0
-25 -1550 1551 0
-1551 1567 0
-26 -1551 1552 0
-1552 1568 0
-27 -1552 1553 0
-1553 1569 0
-28 -1553 1554 0
-1554 1570 0
-29 -1554 1555 0
-1555 1571 0
-30 -1555 1556 0
-1556 1572 0
-31 -1556 1557 0
-1557 1573 0
-32 -1557 1558 0
-1558 1574 0
-33 -1558 1559 0
-1559 1575 0
-34 -1559 1560 0
-1560 1576 0
-35 -1560 0
-20 1561 0
-1561 1577 0
-21 -1561 1562 0
-1562 1578 0
-22 -1562 1563 0
-1563 1579 0
-23 -1563 1564 0
-1564 1580 0
-24 -1564 1565 0
-1565 1581 0
-25 -1565 1566 0
-1566 1582 0
-26 -1566 1567 0
-1567 1583 0
-27 -1567 1568 0
-1568 1584 0
-28 -1568 1569 0
-1569 1585 0
-29 -1569 1570 0
-1570 1586 0
-30 -1570 1571 0
-1571 1587 0
-31 -1571 1572 0
-1572 1588 0
-32 -1572 1573 0
-1573 1589 0
-33 -1573 1574 0
-1574 1590 0
-34 -1574 1575 0
-1575 1591 0
-35 -1575 1576 0
-1576 1592 0
-36 -1576 0
-21 1577 0
-1577 1593 0
-22 -1577 1578 0
-1578 1594 0
-23 -1578 1579 0
-1579 1595 0
-24 -1579 1580 0
-1580 1596 0
-25 -1580 1581 0
-1581 1597 0
-26 -1581 1582 0
-1582 1598 0
-27 -1582 1583 0
-1583 1599 0
-28 -1583 1584 0
-1584 1600 0
-29 -1584 1585 0
-1585 1601 0
-30 -1585 1586 0
-1586 1602 0
-31 -1586 1587 0
-1587 1603 0
-32 -1587 1588 0
-1588 1604 0
-33 -1588 1589 0
-1589 1605 0
-34 -1589 1590 0
-1590 1606 0
-35 -1590 1591 0
-1591 1607 0
-36 -1591 1592 0
-1592 1608 0
-37 -1592 0
-22 1593 0
-1593 1609 0
-23 -1593 1594 0
-1594 1610 0
-24 -1594 1595 0
-1595 1611 0
-25 -1595 1596 0
-1596 1612 0
-26 -1596 1597 0
-1597 1613 0
-27 -1597 1598 0
-1598 1614 0
-28 -1598 1599 0
-1599 1615 0
-29 -1599 1600 0
-1600 1616 0
-30 -1600 1601 0
-1601 1617 0
-31 -1601 1602 0
-1602 1618 0
-32 -1602 1603 0
-1603 1619 0
-33 -1603 1604 0
-1604 1620 0
-34 -1604 1605 0
-1605 1621 0
-35 -1605 1606 0
-1606 1622 0
-36 -1606 1607 0
-1607 1623 0
-37 -1607 1608 0
-1608 1624 0
-38 -1608 0
-23 1609 0
-1609 1625 0
-24 -1609 1610 0
-1610 1626 0
-25 -1610 1611 0
-1611 1627 0
-26 -1611 1612 0
-1612 1628 0
-27 -1612 1613 0
-1613 1629 0
-28 -1613 1614 0
-1614 1630 0
-29 -1614 1615 0
-1615 1631 0
-30 -1615 1616 0
-1616 1632 0
-31 -1616 1617 0
-1617 1633 0
-32 -1617 1618 0
-1618 1634 0
-33 -1618 1619 0
-1619 1635 0
-34 -1619 1620 0
-1620 1636 0
-35 -1620 1621 0
-1621 1637 0
-36 -1621 1622 0
-1622 1638 0
-37 -1622 1623 0
-1623 1639 0
-38 -1623 1624 0
-1624 1640 0
-39 -1624 0
-24 1625 0
-1625 1641 0
-25 -1625 1626 0
-1626 1642 0
-26 -1626 1627 0
-1627 1643 0
-27 -1627 1628 0
-1628 1644 0
-28 -1628 1629 0
-1629 1645 0
-29 -1629 1630 0
-1630 1646 0
-30 -1630 1631 0
-1631 1647 0
-31 -1631 1632 0
-1632 1648 0
-32 -1632 1633 0
-1633 1649 0
-33 -1633 1634 0
-1634 1650 0
-34 -1634 1635 0
-1635 1651 0
-35 -1635 1636 0
-1636 1652 0
-36 -1636 1637 0
-1637 1653 0
-37 -1637 1638 0
-1638 1654 0
-38 -1638 1639 0
-1639 1655 0
-39 -1639 1640 0
-1640 1656 0
-40 -1640 0
-25 1641 0
-1641 1657 0
-26 -1641 1642 0
-1642 1658 0
-27 -1642 1643 0
-1643 1659 0
-28 -1643 1644 0
-1644 1660 0
-29 -1644 1645 0
-1645 1661 0
-30 -1645 1646 0
-1646 1662 0
-31 -1646 1647 0
-1647 1663 0
-32 -1647 1648 0
-1648 1664 0
-33 -1648 1649 0
-1649 1665 0
-34 -1649 1650 0
-1650 1666 0
-35 -1650 1651 0
-1651 1667 0
-36 -1651 1652 0
-1652 1668 0
-37 -1652 1653 0
-1653 1669 0
-38 -1653 1654 0
-1654 1670 0
-39 -1654 1655 0
-1655 1671 0
-40 -1655 1656 0
-1656 1672 0
-41 -1656 0
-26 1657 0
-1657 1673 0
-27 -1657 1658 0
-1658 1674 0
-28 -1658 1659 0
-1659 1675 0
-29 -1659 1660 0
-1660 1676 0
-30 -1660 1661 0
-1661 1677 0
-31 -1661 1662 0
-1662 1678 0
-32 -1662 1663 0
-1663 1679 0
-33 -1663 1664 0
-1664 1680 0
-34 -1664 1665 0
-1665 1681 0
-35 -1665 1666 0
-1666 1682 0
-36 -1666 1667 0
-1667 1683 0
-37 -1667 1668 0
-1668 1684 0
-38 -1668 1669 0
-1669 1685 0
-39 -1669 1670 0
-1670 1686 0
-40 -1670 1671 0
-1671 1687 0
-41 -1671 1672 0
-1672 1688 0
-42 -1672 0
-27 1673 0
-1673 1689 0
-28 -1673 1674 0
-1674 1690 0
-29 -1674 1675 0
-1675 1691 0
-30 -1675 1676 0
-1676 1692 0
-31 -1676 1677 0
-1677 1693 0
-32 -1677 1678 0
-1678 1694 0
-33 -1678 1679 0
-1679 1695 0
-34 -1679 1680 0
-1680 1696 0
-35 -1680 1681 0
-1681 1697 0
-36 -1681 1682 0
-1682 1698 0
-37 -1682 1683 0
-1683 1699 0
-38 -1683 1684 0
-1684 1700 0
-39 -1684 1685 0
-1685 1701 0
-40 -1685 1686 0
-1686 1702 0
-41 -1686 1687 0
-1687 1703 0
-42 -1687 1688 0
-1688 1704 0
-43 -1688 0
-28 1689 0
-1689 1705 0
-29 -1689 1690 0
-1690 1706 0
-30 -1690 1691 0
-1691 1707 0
-31 -1691 1692 0
-1692 1708 0
-32 -1692 1693 0
-1693 1709 0
-33 -1693 1694 0
-1694 1710 0
-34 -1694 1695 0
-1695 1711 0
-35 -1695 1696 0
-1696 1712 0
-36 -1696 1697 0
-1697 1713 0
-37 -1697 1698 0
-1698 1714 0
-38 -1698 1699 0
-1699 1715 0
-39 -1699 1700 0
-1700 1716 0
-40 -1700 1701 0
-1701 1717 0
-41 -1701 1702 0
-1702 1718 0
-42 -1702 1703 0
-1703 1719 0
-43 -1703 1704 0
-1704 1720 0
-44 -1704 0
-29 1705 0
-1705 1721 0
-30 -1705 1706 0
-1706 1722 0
-31 -1706 1707 0
-1707 1723 0
-32 -1707 1708 0
-1708 1724 0
-33 -1708 1709 0
-1709 1725 0
-34 -1709 1710 0
-1710 1726 0
-35 -1710 1711 0
-1711 1727 0
-36 -1711 1712 0
-1712 1728 0
-37 -1712 1713 0
-1713 1729 0
-38 -1713 1714 0
-1714 1730 0
-39 -1714 1715 0
-1715 1731 0
-40 -1715 1716 0
-1716 1732 0
-41 -1716 1717 0
-1717 1733 0
-42 -1717 1718 0
-1718 1734 0
-43 -1718 1719 0
-1719 1735 0
-44 -1719 1720 0
-1720 1736 0
-45 -1720 0
-30 1721 0
-1721 1737 0
-31 -1721 1722 0
-1722 1738 0
-32 -1722 1723 0
-1723 1739 0
-33 -1723 1724 0
-1724 1740 0
-34 -1724 1725 0
-1725 1741 0
-35 -1725 1726 0
-1726 1742 0
-36 -1726 1727 0
-1727 1743 0
-37 -1727 1728 0
-1728 1744 0
-38 -1728 1729 0
-1729 1745 0
-39 -1729 1730 0
-1730 1746 0
-40 -1730 1731 0
-1731 1747 0
-41 -1731 1732 0
-1732 1748 0
-42 -1732 1733 0
-1733 1749 0
-43 -1733 1734 0
-1734 1750 0
-44 -1734 1735 0
-1735 1751 0
-45 -1735 1736 0
-1736 1752 0
-46 -1736 0
-31 1737 0
-1737 1753 0
-32 -1737 1738 0
-1738 1754 0
-33 -1738 1739 0
-1739 1755 0
-34 -1739 1740 0
-1740 1756 0
-35 -1740 1741 0
-1741 1757 0
-36 -1741 1742 0
-1742 1758 0
-37 -1742 1743 0
-1743 1759 0
-38 -1743 1744 0
-1744 1760 0
-39 -1744 1745 0
-1745 1761 0
-40 -1745 1746 0
-1746 1762 0
-41 -1746 1747 0
-1747 1763 0
-42 -1747 1748 0
-1748 1764 0
-43 -1748 1749 0
-1749 1765 0
-44 -1749 1750 0
-1750 1766 0
-45 -1750 1751 0
-1751 1767 0
-46 -1751 1752 0
-1752 1768 0
-47 -1752 0
-32 1753 0
-1753 1769 0
-33 -1753 1754 0
-1754 1770 0
-34 -1754 1755 0
-1755 1771 0
-35 -1755 1756 0
-1756 1772 0
-36 -1756 1757 0
-1757 1773 0
-37 -1757 1758 0
-1758 1774 0
-38 -1758 1759 0
-1759 1775 0
-39 -1759 1760 0
-1760 1776 0
-40 -1760 1761 0
-1761 1777 0
-41 -1761 1762 0
-1762 1778 0
-42 -1762 1763 0
-1763 1779 0
-43 -1763 1764 0
-1764 1780 0
-44 -1764 1765 0
-1765 1781 0
-45 -1765 1766 0
-1766 1782 0
-46 -1766 1767 0
-1767 1783 0
-47 -1767 1768 0
-1768 1784 0
-48 -1768 0
-33 1769 0
-1769 1785 0
-34 -1769 1770 0
-1770 1786 0
-35 -1770 1771 0
-1771 1787 0
-36 -1771 1772 0
-1772 1788 0
-37 -1772 1773 0
-1773 1789 0
-38 -1773 1774 0
-1774 1790 0
-39 -1774 1775 0
-1775 1791 0
-40 -1775 1776 0
-1776 1792 0
-41 -1776 1777 0
-1777 1793 0
-42 -1777 1778 0
-1778 1794 0
-43 -1778 1779 0
-1779 1795 0
-44 -1779 1780 0
-1780 1796 0
-45 -1780 1781 0
-1781 1797 0
-46 -1781 1782 0
-1782 1798 0
-47 -1782 1783 0
-1783 1799 0
-48 -1783 1784 0
-1784 1800 0
-49 -1784 0
-34 1785 0
-1785 1801 0
-35 -1785 1786 0
-1786 1802 0
-36 -1786 1787 0
-1787 1803 0
-37 -1787 1788 0
-1788 1804 0
-38 -1788 1789 0
-1789 1805 0
-39 -1789 1790 0
-1790 1806 0
-40 -1790 1791 0
-1791 1807 0
-41 -1791 1792 0
-1792 1808 0
-42 -1792 1793 0
-1793 1809 0
-43 -1793 1794 0
-1794 1810 0
-44 -1794 1795 0
-1795 1811 0
-45 -1795 1796 0
-1796 1812 0
-46 -1796 1797 0
-1797 1813 0
-47 -1797 1798 0
-1798 1814 0
-48 -1798 1799 0
-1799 1815 0
-49 -1799 1800 0
-1800 1816 0
-50 -1800 0
-35 1801 0
-1801 1817 0
-36 -1801 1802 0
-1802 1818 0
-37 -1802 1803 0
-1803 1819 0
-38 -1803 1804 0
-1804 1820 0
-39 -1804 1805 0
-1805 1821 0
-40 -1805 1806 0
-1806 1822 0
-41 -1806 1807 0
-1807 1823 0
-42 -1807 1808 0
-1808 1824 0
-43 -1808 1809 0
-1809 1825 0
-44 -1809 1810 0
-1810 1826 0
-45 -1810 1811 0
-1811 1827 0
-46 -1811 1812 0
-1812 1828 0
-47 -1812 1813 0
-1813 1829 0
-48 -1813 1814 0
-1814 1830 0
-49 -1814 1815 0
-1815 1831 0
-50 -1815 1816 0
-1816 1832 0
-51 -1816 0
-36 1817 0
-1817 1833 0
-37 -1817 1818 0
-1818 1834 0
-38 -1818 1819 0
-1819 1835 0
-39 -1819 1820 0
-1820 1836 0
-40 -1820 1821 0
-1821 1837 0
-41 -1821 1822 0
-1822 1838 0
-42 -1822 1823 0
-1823 1839 0
-43 -1823 1824 0
-1824 1840 0
-44 -1824 1825 0
-1825 1841 0
-45 -1825 1826 0
-1826 1842 0
-46 -1826 1827 0
-1827 1843 0
-47 -1827 1828 0
-1828 1844 0
-48 -1828 1829 0
-1829 1845 0
-49 -1829 1830 0
-1830 1846 0
-50 -1830 1831 0
-1831 1847 0
-51 -1831 1832 0
-1832 1848 0
-52 -1832 0
-37 1833 0
-1833 1849 0
-38 -1833 1834 0
-1834 1850 0
-39 -1834 1835 0
-1835 1851 0
-40 -1835 1836 0
-1836 1852 0
-41 -1836 1837 0
-1837 1853 0
-42 -1837 1838 0
-1838 1854 0
-43 -1838 1839 0
-1839 1855 0
-44 -1839 1840 0
-1840 1856 0
-45 -1840 1841 0
-1841 1857 0
-46 -1841 1842 0
-1842 1858 0
-47 -1842 1843 0
-1843 1859 0
-48 -1843 1844 0
-1844 1860 0
-49 -1844 1845 0
-1845 1861 0
-50 -1845 1846 0
-1846 1862 0
-51 -1846 1847 0
-1847 1863 0
-52 -1847 1848 0
-1848 1864 0
-53 -1848 0
-38 1849 0
-1849 1865 0
-39 -1849 1850 0
-1850 1866 0
-40 -1850 1851 0
-1851 1867 0
-41 -1851 1852 0
-1852 1868 0
-42 -1852 1853 0
-1853 1869 0
-43 -1853 1854 0
-1854 1870 0
-44 -1854 1855 0
-1855 1871 0
-45 -1855 1856 0
-1856 1872 0
-46 -1856 1857 0
-1857 1873 0
-47 -1857 1858 0
-1858 1874 0
-48 -1858 1859 0
-1859 1875 0
-49 -1859 1860 0
-1860 1876 0
-50 -1860 1861 0
-1861 1877 0
-51 -1861 1862 0
-1862 1878 0
-52 -1862 1863 0
-1863 1879 0
-53 -1863 1864 0
-1864 1880 0
-54 -1864 0
-39 1865 0
-1865 1881 0
-40 -1865 1866 0
-1866 1882 0
-41 -1866 1867 0
-1867 1883 0
-42 -1867 1868 0
-1868 1884 0
-43 -1868 1869 0
-1869 1885 0
-44 -1869 1870 0
-1870 1886 0
-45 -1870 1871 0
-1871 1887 0
-46 -1871 1872 0
-1872 1888 0
-47 -1872 1873 0
-1873 1889 0
-48 -1873 1874 0
-1874 1890 0
-49 -1874 1875 0
-1875 1891 0
-50 -1875 1876 0
-1876 1892 0
-51 -1876 1877 0
-1877 1893 0
-52 -1877 1878 0
-1878 1894 0
-53 -1878 1879 0
-1879 1895 0
-54 -1879 1880 0
-1880 1896 0
-55 -1880 0
-40 1881 0
-1881 1897 0
-41 -1881 1882 0
-1882 1898 0
-42 -1882 1883 0
-1883 1899 0
-43 -1883 1884 0
-1884 1900 0
-44 -1884 1885 0
-1885 1901 0
-45 -1885 1886 0
-1886 1902 0
-46 -1886 1887 0
-1887 1903 0
-47 -1887 1888 0
-1888 1904 0
-48 -1888 1889 0
-1889 1905 0
-49 -1889 1890 0
-1890 1906 0
-50 -1890 1891 0
-1891 1907 0
-51 -1891 1892 0
-1892 1908 0
-52 -1892 1893 0
-1893 1909 0
-53 -1893 1894 0
-1894 1910 0
-54 -1894 1895 0
-1895 1911 0
-55 -1895 1896 0
-1896 1912 0
-56 -1896 0
-41 1897 0
-1897 1913 0
-42 -1897 1898 0
-1898 1914 0
-43 -1898 1899 0
-1899 1915 0
-44 -1899 1900 0
-1900 1916 0
-45 -1900 1901 0
-1901 1917 0
-46 -1901 1902 0
-1902 1918 0
-47 -1902 1903 0
-1903 1919 0
-48 -1903 1904 0
-1904 1920 0
-49 -1904 1905 0
-1905 1921 0
-50 -1905 1906 0
-1906 1922 0
-51 -1906 1907 0
-1907 1923 0
-52 -1907 1908 0
-1908 1924 0
-53 -1908 1909 0
-1909 1925 0
-54 -1909 1910 0
-1910 1926 0
-55 -1910 1911 0
-1911 1927 0
-56 -1911 1912 0
-1912 1928 0
-57 -1912 0
-42 1913 0
-1913 1929 0
-43 -1913 1914 0
-1914 1930 0
-44 -1914 1915 0
-1915 1931 0
-45 -1915 1916 0
-1916 1932 0
-46 -1916 1917 0
-1917 1933 0
-47 -1917 1918 0
-1918 1934 0
-48 -1918 1919 0
-1919 1935 0
-49 -1919 1920 0
-1920 1936 0
-50 -1920 1921 0
-1921 1937 0
-51 -1921 1922 0
-1922 1938 0
-52 -1922 1923 0
-1923 1939 0
-53 -1923 1924 0
-1924 1940 0
-54 -1924 1925 0
-1925 1941 0
-55 -1925 1926 0
-1926 1942 0
-56 -1926 1927 0
-1927 1943 0
-57 -1927 1928 0
-1928 1944 0
-58 -1928 0
-43 1929 0
-1929 1945 0
-44 -1929 1930 0
-1930 1946 0
-45 -1930 1931 0
-1931 1947 0
-46 -1931 1932 0
-1932 1948 0
-47 -1932 1933 0
-1933 1949 0
-48 -1933 1934 0
-1934 1950 0
-49 -1934 1935 0
-1935 1951 0
-50 -1935 1936 0
-1936 1952 0
-51 -1936 1937 0
-1937 1953 0
-52 -1937 1938 0
-1938 1954 0
-53 -1938 1939 0
-1939 1955 0
-54 -1939 1940 0
-1940 1956 0
-55 -1940 1941 0
-1941 1957 0
-56 -1941 1942 0
-1942 1958 0
-57 -1942 1943 0
-1943 1959 0
-58 -1943 1944 0
-1944 1960 0
-59 -1944 0
-44 1945 0
-1945 1961 0
-45 -1945 1946 0
-1946 1962 0
-46 -1946 1947 0
-1947 1963 0
-47 -1947 1948 0
-1948 1964 0
-48 -1948 1949 0
-1949 1965 0
-49 -1949 1950 0
-1950 1966 0
-50 -1950 1951 0
-1951 1967 0
-51 -1951 1952 0
-1952 1968 0
-52 -1952 1953 0
-1953 1969 0
-53 -1953 1954 0
-1954 1970 0
-54 -1954 1955 0
-1955 1971 0
-55 -1955 1956 0
-1956 1972 0
-56 -1956 1957 0
-1957 1973 0
-57 -1957 1958 0
-1958 1974 0
-58 -1958 1959 0
-1959 1975 0
-59 -1959 1960 0
-1960 1976 0
-60 -1960 0
-45 1961 0
-1961 1977 0
-46 -1961 1962 0
-1962 1978 0
-47 -1962 1963 0
-1963 1979 0
-48 -1963 1964 0
-1964 1980 0
-49 -1964 1965 0
-1965 1981 0
-50 -1965 1966 0
-1966 1982 0
-51 -1966 1967 0
-1967 1983 0
-52 -1967 1968 0
-1968 1984 0
-53 -1968 1969 0
-1969 1985 0
-54 -1969 1970 0
-1970 1986 0
-55 -1970 1971 0
-1971 1987 0
-56 -1971 1972 0
-1972 1988 0
-57 -1972 1973 0
-1973 1989 0
-58 -1973 1974 0
-1974 1990 0
-59 -1974 1975 0
-1975 1991 0
-60 -1975 1976 0
-1976 1992 0
-61 -1976 0
-46 1977 0
-1977 1993 0
-47 -1977 1978 0
-1978 1994 0
-48 -1978 1979 0
-1979 1995 0
-49 -1979 1980 0
-1980 1996 0
-50 -1980 1981 0
-1981 1997 0
-51 -1981 1982 0
-1982 1998 0
-52 -1982 1983 0
-1983 1999 0
-53 -1983 1984 0
-1984 2000 0
-54 -1984 1985 0
-1985 2001 0
-55 -1985 1986 0
-1986 2002 0
-56 -1986 1987 0
-1987 2003 0
-57 -1987 1988 0
-1988 2004 0
-58 -1988 1989 0
-1989 2005 0
-59 -1989 1990 0
-1990 2006 0
-60 -1990 1991 0
-1991 2007 0
-61 -1991 1992 0
-1992 2008 0
-62 -1992 0
-47 1993 0
-1993 2009 0
-48 -1993 1994 0
-1994 2010 0
-49 -1994 1995 0
-1995 2011 0
-50 -1995 1996 0
-1996 2012 0
-51 -1996 1997 0
-1997 2013 0
-52 -1997 1998 0
-1998 2014 0
-53 -1998 1999 0
-1999 2015 0
-54 -1999 2000 0
-2000 2016 0
-55 -2000 2001 0
-2001 2017 0
-56 -2001 2002 0
-2002 2018 0
-57 -2002 2003 0
-2003 2019 0
-58 -2003 2004 0
-2004 2020 0
-59 -2004 2005 0
-2005 2021 0
-60 -2005 2006 0
-2006 2022 0
-61 -2006 2007 0
-2007 2023 0
-62 -2007 2008 0
-2008 2024 0
-63 -2008 0
-48 2009 0
-2009 2025 0
-49 -2009 2010 0
-2010 2026 0
-50 -2010 2011 0
-2011 2027 0
-51 -2011 2012 0
-2012 2028 0
-52 -2012 2013 0
-2013 2029 0
-53 -2013 2014 0
-2014 2030 0
-54 -2014 2015 0
-2015 2031 0
-55 -2015 2016 0
-2016 2032 0
-56 -2016 2017 0
-2017 2033 0
-57 -2017 2018 0
-2018 2034 0
-58 -2018 2019 0
-2019 2035 0
-59 -2019 2020 0
-2020 2036 0
-60 -2020 2021 0
-2021 2037 0
-61 -2021 2022 0
-2022 2038 0
-62 -2022 2023 0
-2023 2039 0
-63 -2023 2024 0
-2024 2040 0
-64 -2024 0
-49 2025 0
-2025 2041 0
-50 -2025 2026 0
-2026 2042 0
-51 -2026 2027 0
-2027 2043 0
-52 -2027 2028 0
-2028 2044 0
-53 -2028 2029 0
-2029 2045 0
-54 -2029 2030 0
-2030 2046 0
-55 -2030 2031 0
-2031 2047 0
-56 -2031 2032 0
-2032 2048 0
-57 -2032 2033 0
-2033 2049 0
-58 -2033 2034 0
-2034 2050 0
-59 -2034 2035 0
-2035 2051 0
-60 -2035 2036 0
-2036 2052 0
-61 -2036 2037 0
-2037 2053 0
-62 -2037 2038 0
-2038 2054 0
-63 -2038 2039 0
-2039 2055 0
-64 -2039 2040 0
-2040 2056 0
-65 -2040 0
-50 2041 0
-2041 2057 0
-51 -2041 2042 0
-2042 2058 0
-52 -2042 2043 0
-2043 2059 0
-53 -2043 2044 0
-2044 2060 0
-54 -2044 2045 0
-2045 2061 0
-55 -2045 2046 0
-2046 2062 0
-56 -2046 2047 0
-2047 2063 0
-57 -2047 2048 0
-2048 2064 0
-58 -2048 2049 0
-2049 2065 0
-59 -2049 2050 0
-2050 2066 0
-60 -2050 2051 0
-2051 2067 0
-61 -2051 2052 0
-2052 2068 0
-62 -2052 2053 0
-2053 2069 0
-63 -2053 2054 0
-2054 2070 0
-64 -2054 2055 0
-2055 2071 0
-65 -2055 2056 0
-2056 2072 0
-66 -2056 0
-51 2057 0
-2057 2073 0
-52 -2057 2058 0
-2058 2074 0
-53 -2058 2059 0
-2059 2075 0
-54 -2059 2060 0
-2060 2076 0
-55 -2060 2061 0
-2061 2077 0
-56 -2061 2062 0
-2062 2078 0
-57 -2062 2063 0
-2063 2079 0
-58 -2063 2064 0
-2064 2080 0
-59 -2064 2065 0
-2065 2081 0
-60 -2065 2066 0
-2066 2082 0
-61 -2066 2067 0
-2067 2083 0
-62 -2067 2068 0
-2068 2084 0
-63 -2068 2069 0
-2069 2085 0
-64 -2069 2070 0
-2070 2086 0
-65 -2070 2071 0
-2071 2087 0
-66 -2071 2072 0
-2072 2088 0
-67 -2072 0
-52 2073 0
-2073 2089 0
-53 -2073 2074 0
-2074 2090 0
-54 -2074 2075 0
-2075 2091 0
-55 -2075 2076 0
-2076 2092 0
-56 -2076 2077 0
-2077 2093 0
-57 -2077 2078 0
-2078 2094 0
-58 -2078 2079 0
-2079 2095 0
-59 -2079 2080 0
-2080 2096 0
-60 -2080 2081 0
-2081 2097 0
-61 -2081 2082 0
-2082 2098 0
-62 -2082 2083 0
-2083 2099 0
-63 -2083 2084 0
-2084 2100 0
-64 -2084 2085 0
-2085 2101 0
-65 -2085 2086 0
-2086 2102 0
-66 -2086 2087 0
-2087 2103 0
-67 -2087 2088 0
-2088 2104 0
-68 -2088 0
-53 2089 0
-2089 2105 0
-54 -2089 2090 0
-2090 2106 0
-55 -2090 2091 0
-2091 2107 0
-56 -2091 2092 0
-2092 2108 0
-57 -2092 2093 0
-2093 2109 0
-58 -2093 2094 0
-2094 2110 0
-59 -2094 2095 0
-2095 2111 0
-60 -2095 2096 0
-2096 2112 0
-61 -2096 2097 0
-2097 2113 0
-62 -2097 2098 0
-2098 2114 0
-63 -2098 2099 0
-2099 2115 0
-64 -2099 2100 0
-2100 2116 0
-65 -2100 2101 0
-2101 2117 0
-66 -2101 2102 0
-2102 2118 0
-67 -2102 2103 0
-2103 2119 0
-68 -2103 2104 0
-2104 2120 0
-69 -2104 0
-54 2105 0
-2105 2121 0
-55 -2105 2106 0
-2106 2122 0
-56 -2106 2107 0
-2107 2123 0
-57 -2107 2108 0
-2108 2124 0
-58 -2108 2109 0
-2109 2125 0
-59 -2109 2110 0
-2110 2126 0
-60 -2110 2111 0
-2111 2127 0
-61 -2111 2112 0
-2112 2128 0
-62 -2112 2113 0
-2113 2129 0
-63 -2113 2114 0
-2114 2130 0
-64 -2114 2115 0
-2115 2131 0
-65 -2115 2116 0
-2116 2132 0
-66 -2116 2117 0
-2117 2133 0
-67 -2117 2118 0
-2118 2134 0
-68 -2118 2119 0
-2119 2135 0
-69 -2119 2120 0
-2120 2136 0
-70 -2120 0
-55 2121 0
-2121 2137 0
-56 -2121 2122 0
-2122 2138 0
-57 -2122 2123 0
-2123 2139 0
-58 -2123 2124 0
-2124 2140 0
-59 -2124 2125 0
-2125 2141 0
-60 -2125 2126 0
-2126 2142 0
-61 -2126 2127 0
-2127 2143 0
-62 -2127 2128 0
-2128 2144 0
-63 -2128 2129 0
-2129 2145 0
-64 -2129 2130 0
-2130 2146 0
-65 -2130 2131 0
-2131 2147 0
-66 -2131 2132 0
-2132 2148 0
-67 -2132 2133 0
-2133 2149 0
-68 -2133 2134 0
-2134 2150 0
-69 -2134 2135 0
-2135 2151 0
-70 -2135 2136 0
-2136 2152 0
-71 -2136 0
-56 2137 0
-2137 2153 0
-57 -2137 2138 0
-2138 2154 0
-58 -2138 2139 0
-2139 2155 0
-59 -2139 2140 0
-2140 2156 0
-60 -2140 2141 0
-2141 2157 0
-61 -2141 2142 0
-2142 2158 0
-62 -2142 2143 0
-2143 2159 0
-63 -2143 2144 0
-2144 2160 0
-64 -2144 2145 0
-2145 2161 0
-65 -2145 2146 0
-2146 2162 0
-66 -2146 2147 0
-2147 2163 0
-67 -2147 2148 0
-2148 2164 0
-68 -2148 2149 0
-2149 2165 0
-69 -2149 2150 0
-2150 2166 0
-70 -2150 2151 0
-2151 2167 0
-71 -2151 2152 0
-2152 2168 0
-72 -2152 0
-57 2153 0
-2153 2169 0
-58 -2153 2154 0
-2154 2170 0
-59 -2154 2155 0
-2155 2171 0
-60 -2155 2156 0
-2156 2172 0
-61 -2156 2157 0
-2157 2173 0
-62 -2157 2158 0
-2158 2174 0
-63 -2158 2159 0
-2159 2175 0
-64 -2159 2160 0
-2160 2176 0
-65 -2160 2161 0
-2161 2177 0
-66 -2161 2162 0
-2162 2178 0
-67 -2162 2163 0
-2163 2179 0
-68 -2163 2164 0
-2164 2180 0
-69 -2164 2165 0
-2165 2181 0
-70 -2165 2166 0
-2166 2182 0
-71 -2166 2167 0
-2167 2183 0
-72 -2167 2168 0
-2168 2184 0
-73 -2168 0
-58 2169 0
-2169 2185 0
-59 -2169 2170 0
-2170 2186 0
-60 -2170 2171 0
-2171 2187 0
-61 -2171 2172 0
-2172 2188 0
-62 -2172 2173 0
-2173 2189 0
-63 -2173 2174 0
-2174 2190 0
-64 -2174 2175 0
-2175 2191 0
-65 -2175 2176 0
-2176 2192 0
-66 -2176 2177 0
-2177 2193 0
-67 -2177 2178 0
-2178 2194 0
-68 -2178 2179 0
-2179 2195 0
-69 -2179 2180 0
-2180 2196 0
-70 -2180 2181 0
-2181 2197 0
-71 -2181 2182 0
-2182 2198 0
-72 -2182 2183 0
-2183 2199 0
-73 -2183 2184 0
-2184 2200 0
-74 -2184 0
-59 2185 0
-2185 2201 0
-60 -2185 2186 0
-2186 2202 0
-61 -2186 2187 0
-2187 2203 0
-62 -2187 2188 0
-2188 2204 0
-63 -2188 2189 0
-2189 2205 0
-64 -2189 2190 0
-2190 2206 0
-65 -2190 2191 0
-2191 2207 0
-66 -2191 2192 0
-2192 2208 0
-67 -2192 2193 0
-2193 2209 0
-68 -2193 2194 0
-2194 2210 0
-69 -2194 2195 0
-2195 2211 0
-70 -2195 2196 0
-2196 2212 0
-71 -2196 2197 0
-2197 2213 0
-72 -2197 2198 0
-2198 2214 0
-73 -2198 2199 0
-2199 2215 0
-74 -2199 2200 0
-2200 2216 0
-75 -2200 0
-60 2201 0
-2201 2217 0
-61 -2201 2202 0
-2202 2218 0
-62 -2202 2203 0
-2203 2219 0
-63 -2203 2204 0
-2204 2220 0
-64 -2204 2205 0
-2205 2221 0
-65 -2205 2206 0
-2206 2222 0
-66 -2206 2207 0
-2207 2223 0
-67 -2207 2208 0
-2208 2224 0
-68 -2208 2209 0
-2209 2225 0
-69 -2209 2210 0
-2210 2226 0
-70 -2210 2211 0
-2211 2227 0
-71 -2211 2212 0
-2212 2228 0
-72 -2212 2213 0
-2213 2229 0
-73 -2213 2214 0
-2214 2230 0
-74 -2214 2215 0
-2215 2231 0
-75 -2215 2216 0
-2216 2232 0
-76 -2216 0
-61 2217 0
-2217 2233 0
-62 -2217 2218 0
-2218 2234 0
-63 -2218 2219 0
-2219 2235 0
-64 -2219 2220 0
-2220 2236 0
-65 -2220 2221 0
-2221 2237 0
-66 -2221 2222 0
-2222 2238 0
-67 -2222 2223 0
-2223 2239 0
-68 -2223 2224 0
-2224 2240 0
-69 -2224 2225 0
-2225 2241 0
-70 -2225 2226 0
-2226 2242 0
-71 -2226 2227 0
-2227 2243 0
-72 -2227 2228 0
-2228 2244 0
-73 -2228 2229 0
-2229 2245 0
-74 -2229 2230 0
-2230 2246 0
-75 -2230 2231 0
-2231 2247 0
-76 -2231 2232 0
-2232 2248 0
-77 -2232 0
-62 2233 0
-2233 2249 0
-63 -2233 2234 0
-2234 2250 0
-64 -2234 2235 0
-2235 2251 0
-65 -2235 2236 0
-2236 2252 0
-66 -2236 2237 0
-2237 2253 0
-67 -2237 2238 0
-2238 2254 0
-68 -2238 2239 0
-2239 2255 0
-69 -2239 2240 0
-2240 2256 0
-70 -2240 2241 0
-2241 2257 0
-71 -2241 2242 0
-2242 2258 0
-72 -2242 2243 0
-2243 2259 0
-73 -2243 2244 0
-2244 2260 0
-74 -2244 2245 0
-2245 2261 0
-75 -2245 2246 0
-2246 2262 0
-76 -2246 2247 0
-2247 2263 0
-77 -2247 2248 0
-2248 2264 0
-78 -2248 0
-63 2249 0
-2249 2265 0
-64 -2249 2250 0
-2250 2266 0
-65 -2250 2251 0
-2251 2267 0
-66 -2251 2252 0
-2252 2268 0
-67 -2252 2253 0
-2253 2269 0
-68 -2253 2254 0
-2254 2270 0
-69 -2254 2255 0
-2255 2271 0
-70 -2255 2256 0
-2256 2272 0
-71 -2256 2257 0
-2257 2273 0
-72 -2257 2258 0
-2258 2274 0
-73 -2258 2259 0
-2259 2275 0
-74 -2259 2260 0
-2260 2276 0
-75 -2260 2261 0
-2261 2277 0
-76 -2261 2262 0
-2262 2278 0
-77 -2262 2263 0
-2263 2279 0
-78 -2263 2264 0
-2264 2280 0
-79 -2264 0
-64 2265 0
-2265 2281 0
-65 -2265 2266 0
-2266 2282 0
-66 -2266 2267 0
-2267 2283 0
-67 -2267 2268 0
-2268 2284 0
-68 -2268 2269 0
-2269 2285 0
-69 -2269 2270 0
-2270 2286 0
-70 -2270 2271 0
-2271 2287 0
-71 -2271 2272 0
-2272 2288 0
-72 -2272 2273 0
-2273 2289 0
-73 -2273 2274 0
-2274 2290 0
-74 -2274 2275 0
-2275 2291 0
-75 -2275 2276 0
-2276 2292 0
-76 -2276 2277 0
-2277 2293 0
-77 -2277 2278 0
-2278 2294 0
-78 -2278 2279 0
-2279 2295 0
-79 -2279 2280 0
-2280 2296 0
-80 -2280 0
-65 2281 0
-2281 2297 0
-66 -2281 2282 0
-2282 2298 0
-67 -2282 2283 0
-2283 2299 0
-68 -2283 2284 0
-2284 2300 0
-69 -2284 2285 0
-2285 2301 0
-70 -2285 2286 0
-2286 2302 0
-71 -2286 2287 0
-2287 2303 0
-72 -2287 2288 0
-2288 2304 0
-73 -2288 2289 0
-2289 2305 0
-74 -2289 2290 0
-2290 2306 0
-75 -2290 2291 0
-2291 2307 0
-76 -2291 2292 0
-2292 2308 0
-77 -2292 2293 0
-2293 2309 0
-78 -2293 2294 0
-2294 2310 0
-79 -2294 2295 0
-2295 2311 0
-80 -2295 2296 0
-2296 2312 0
-81 -2296 0
-66 2297 0
-2297 2313 0
-67 -2297 2298 0
-2298 2314 0
-68 -2298 2299 0
-2299 2315 0
-69 -2299 2300 0
-2300 2316 0
-70 -2300 2301 0
-2301 2317 0
-71 -2301 2302 0
-2302 2318 0
-72 -2302 2303 0
-2303 2319 0
-73 -2303 2304 0
-2304 2320 0
-74 -2304 2305 0
-2305 2321 0
-75 -2305 2306 0
-2306 2322 0
-76 -2306 2307 0
-2307 2323 0
-77 -2307 2308 0
-2308 2324 0
-78 -2308 2309 0
-2309 2325 0
-79 -2309 2310 0
-2310 2326 0
-80 -2310 2311 0
-2311 2327 0
-81 -2311 2312 0
-2312 2328 0
-82 -2312 0
-67 2313 0
-2313 2329 0
-68 -2313 2314 0
-2314 2330 0
-69 -2314 2315 0
-2315 2331 0
-70 -2315 2316 0
-2316 2332 0
-71 -2316 2317 0
-2317 2333 0
-72 -2317 2318 0
-2318 2334 0
-73 -2318 2319 0
-2319 2335 0
-74 -2319 2320 0
-2320 2336 0
-75 -2320 2321 0
-2321 2337 0
-76 -2321 2322 0
-2322 2338 0
-77 -2322 2323 0
-2323 2339 0
-78 -2323 2324 0
-2324 2340 0
-79 -2324 2325 0
-2325 2341 0
-80 -2325 2326 0
-2326 2342 0
-81 -2326 2327 0
-2327 2343 0
-82 -2327 2328 0
-2328 2344 0
-83 -2328 0
-68 2329 0
-69 -2329 2330 0
-70 -2330 2331 0
-71 -2331 2332 0
-72 -2332 2333 0
-73 -2333 2334 0
-74 -2334 2335 0
-75 -2335 2336 0
-76 -2336 2337 0
-77 -2337 2338 0
-78 -2338 2339 0
-79 -2339 2340 0
-80 -2340 2341 0
-81 -2341 2342 0
-82 -2342 2343 0
-83 -2343 2344 0
-84 -2344 0
-85 2345 0
-2345 2346 0
-86 -2345 2347 0
-2347 2348 0
-87 -2347 2349 0
-2349 2350 0
-88 -2349 2351 0
-2351 2352 0
-89 -2351 2353 0
-2353 2354 0
-90 -2353 2355 0
-2355 2356 0
-91 -2355 2357 0
-2357 2358 0
-92 -2357 2359 0
-2359 2360 0
-93 -2359 2361 0
-2361 2362 0
-94 -2361 0
-86 2346 0
-2346 2363 0
-87 -2346 2348 0
-2348 2364 0
-88 -2348 2350 0
-2350 2365 0
-89 -2350 2352 0
-2352 2366 0
-90 -2352 2354 0
-2354 2367 0
-91 -2354 2356 0
-2356 2368 0
-92 -2356 2358 0
-2358 2369 0
-93 -2358 2360 0
-2360 2370 0
-94 -2360 2362 0
-2362 2371 0
-95 -2362 0
-87 2363 0
-2363 2372 0
-88 -2363 2364 0
-2364 2373 0
-89 -2364 2365 0
-2365 2374 0
-90 -2365 2366 0
-2366 2375 0
-91 -2366 2367 0
-2367 2376 0
-92 -2367 2368 0
-2368 2377 0
-93 -2368 2369 0
-2369 2378 0
-94 -2369 2370 0
-2370 2379 0
-95 -2370 2371 0
-2371 2380 0
-96 -2371 0
-88 2372 0
-2372 2381 0
-89 -2372 2373 0
-2373 2382 0
-90 -2373 2374 0
-2374 2383 0
-91 -2374 2375 0
-2375 2384 0
-92 -2375 2376 0
-2376 2385 0
-93 -2376 2377 0
-2377 2386 0
-94 -2377 2378 0
-2378 2387 0
-95 -2378 2379 0
-2379 2388 0
-96 -2379 2380 0
-2380 2389 0
-97 -2380 0
-89 2381 0
-2381 2390 0
-90 -2381 2382 0
-2382 2391 0
-91 -2382 2383 0
-2383 2392 0
-92 -2383 2384 0
-2384 2393 0
-93 -2384 2385 0
-2385 2394 0
-94 -2385 2386 0
-2386 2395 0
-95 -2386 2387 0
-2387 2396 0
-96 -2387 2388 0
-2388 2397 0
-97 -2388 2389 0
-2389 2398 0
-98 -2389 0
-90 2390 0
-2390 2399 0
-91 -2390 2391 0
-2391 2400 0
-92 -2391 2392 0
-2392 2401 0
-93 -2392 2393 0
-2393 2402 0
-94 -2393 2394 0
-2394 2403 0
-95 -2394 2395 0
-2395 2404 0
-96 -2395 2396 0
-2396 2405 0
-97 -2396 2397 0
-2397 2406 0
-98 -2397 2398 0
-2398 2407 0
-99 -2398 0
-91 2399 0
-2399 2408 0
-92 -2399 2400 0
-2400 2409 0
-93 -2400 2401 0
-2401 2410 0
-94 -2401 2402 0
-2402 2411 0
-95 -2402 2403 0
-2403 2412 0
-96 -2403 2404 0
-2404 2413 0
-97 -2404 2405 0
-2405 2414 0
-98 -2405 2406 0
-2406 2415 0
-99 -2406 2407 0
-2407 2416 0
-100 -2407 0
-92 2408 0
-2408 2417 0
-93 -2408 2409 0
-2409 2418 0
-94 -2409 2410 0
-2410 2419 0
-95 -2410 2411 0
-2411 2420 0
-96 -2411 2412 0
-2412 2421 0
-97 -2412 2413 0
-2413 2422 0
-98 -2413 2414 0
-2414 2423 0
-99 -2414 2415 0
-2415 2424 0
-100 -2415 2416 0
-2416 2425 0
-101 -2416 0
-93 2417 0
-2417 2426 0
-94 -2417 2418 0
-2418 2427 0
-95 -2418 2419 0
-2419 2428 0
-96 -2419 2420 0
-2420 2429 0
-97 -2420 2421 0
-2421 2430 0
-98 -2421 2422 0
-2422 2431 0
-99 -2422 2423 0
-2423 2432 0
-100 -2423 2424 0
-2424 2433 0
-101 -2424 2425 0
-2425 2434 0
-102 -2425 0
-94 2426 0
-2426 2435 0
-95 -2426 2427 0
-2427 2436 0
-96 -2427 2428 0
-2428 2437 0
-97 -2428 2429 0
-2429 2438 0
-98 -2429 2430 0
-2430 2439 0
-99 -2430 2431 0
-2431 2440 0
-100 -2431 2432 0
-2432 2441 0
-101 -2432 2433 0
-2433 2442 0
-102 -2433 2434 0
-2434 2443 0
-103 -2434 0
-95 2435 0
-2435 2444 0
-96 -2435 2436 0
-2436 2445 0
-97 -2436 2437 0
-2437 2446 0
-98 -2437 2438 0
-2438 2447 0
-99 -2438 2439 0
-2439 2448 0
-100 -2439 2440 0
-2440 2449 0
-101 -2440 2441 0
-2441 2450 0
-102 -2441 2442 0
-2442 2451 0
-103 -2442 2443 0
-2443 2452 0
-104 -2443 0
-96 2444 0
-2444 2453 0
-97 -2444 2445 0
-2445 2454 0
-98 -2445 2446 0
-2446 2455 0
-99 -2446 2447 0
-2447 2456 0
-100 -2447 2448 0
-2448 2457 0
-101 -2448 2449 0
-2449 2458 0
-102 -2449 2450 0
-2450 2459 0
-103 -2450 2451 0
-2451 2460 0
-104 -2451 2452 0
-2452 2461 0
-105 -2452 0
-97 2453 0
-2453 2462 0
-98 -2453 2454 0
-2454 2463 0
-99 -2454 2455 0
-2455 2464 0
-100 -2455 2456 0
-2456 2465 0
-101 -2456 2457 0
-2457 2466 0
-102 -2457 2458 0
-2458 2467 0
-103 -2458 2459 0
-2459 2468 0
-104 -2459 2460 0
-2460 2469 0
-105 -2460 2461 0
-2461 2470 0
-106 -2461 0
-98 2462 0
-2462 2471 0
-99 -2462 2463 0
-2463 2472 0
-100 -2463 2464 0
-2464 2473 0
-101 -2464 2465 0
-2465 2474 0
-102 -2465 2466 0
-2466 2475 0
-103 -2466 2467 0
-2467 2476 0
-104 -2467 2468 0
-2468 2477 0
-105 -2468 2469 0
-2469 2478 0
-106 -2469 2470 0
-2470 2479 0
-107 -2470 0
-99 2471 0
-2471 2480 0
-100 -2471 2472 0
-2472 2481 0
-101 -2472 2473 0
-2473 2482 0
-102 -2473 2474 0
-2474 2483 0
-103 -2474 2475 0
-2475 2484 0
-104 -2475 2476 0
-2476 2485 0
-105 -2476 2477 0
-2477 2486 0
-106 -2477 2478 0
-2478 2487 0
-107 -2478 2479 0
-2479 2488 0
-108 -2479 0
-100 2480 0
-2480 2489 0
-101 -2480 2481 0
-2481 2490 0
-102 -2481 2482 0
-2482 2491 0
-103 -2482 2483 0
-2483 2492 0
-104 -2483 2484 0
-2484 2493 0
-105 -2484 2485 0
-2485 2494 0
-106 -2485 2486 0
-2486 2495 0
-107 -2486 2487 0
-2487 2496 0
-108 -2487 2488 0
-2488 2497 0
-109 -2488 0
-101 2489 0
-2489 2498 0
-102 -2489 2490 0
-2490 2499 0
-103 -2490 2491 0
-2491 2500 0
-104 -2491 2492 0
-2492 2501 0
-105 -2492 2493 0
-2493 2502 0
-106 -2493 2494 0
-2494 2503 0
-107 -2494 2495 0
-2495 2504 0
-108 -2495 2496 0
-2496 2505 0
-109 -2496 2497 0
-2497 2506 0
-110 -2497 0
-102 2498 0
-2498 2507 0
-103 -2498 2499 0
-2499 2508 0
-104 -2499 2500 0
-2500 2509 0
-105 -2500 2501 0
-2501 2510 0
-106 -2501 2502 0
-2502 2511 0
-107 -2502 2503 0
-2503 2512 0
-108 -2503 2504 0
-2504 2513 0
-109 -2504 2505 0
-2505 2514 0
-110 -2505 2506 0
-2506 2515 0
-111 -2506 0
-103 2507 0
-2507 2516 0
-104 -2507 2508 0
-2508 2517 0
-105 -2508 2509 0
-2509 2518 0
-106 -2509 2510 0
-2510 2519 0
-107 -2510 2511 0
-2511 2520 0
-108 -2511 2512 0
-2512 2521 0
-109 -2512 2513 0
-2513 2522 0
-110 -2513 2514 0
-2514 2523 0
-111 -2514 2515 0
-2515 2524 0
-112 -2515 0
-104 2516 0
-2516 2525 0
-105 -2516 2517 0
-2517 2526 0
-106 -2517 2518 0
-2518 2527 0
-107 -2518 2519 0
-2519 2528 0
-108 -2519 2520 0
-2520 2529 0
-109 -2520 2521 0
-2521 2530 0
-110 -2521 2522 0
-2522 2531 0
-111 -2522 2523 0
-2523 2532 0
-112 -2523 2524 0
-2524 2533 0
-113 -2524 0
-105 2525 0
-2525 2534 0
-106 -2525 2526 0
-2526 2535 0
-107 -2526 2527 0
-2527 2536 0
-108 -2527 2528 0
-2528 2537 0
-109 -2528 2529 0
-2529 2538 0
-110 -2529 2530 0
-2530 2539 0
-111 -2530 2531 0
-2531 2540 0
-112 -2531 2532 0
-2532 2541 0
-113 -2532 2533 0
-2533 2542 0
-114 -2533 0
-106 2534 0
-2534 2543 0
-107 -2534 2535 0
-2535 2544 0
-108 -2535 2536 0
-2536 2545 0
-109 -2536 2537 0
-2537 2546 0
-110 -2537 2538 0
-2538 2547 0
-111 -2538 2539 0
-2539 2548 0
-112 -2539 2540 0
-2540 2549 0
-113 -2540 2541 0
-2541 2550 0
-114 -2541 2542 0
-2542 2551 0
-115 -2542 0
-107 2543 0
-2543 2552 0
-108 -2543 2544 0
-2544 2553 0
-109 -2544 2545 0
-2545 2554 0
-110 -2545 2546 0
-2546 2555 0
-111 -2546 2547 0
-2547 2556 0
-112 -2547 2548 0
-2548 2557 0
-113 -2548 2549 0
-2549 2558 0
-114 -2549 2550 0
-2550 2559 0
-115 -2550 2551 0
-2551 2560 0
-116 -2551 0
-108 2552 0
-2552 2561 0
-109 -2552 2553 0
-2553 2562 0
-110 -2553 2554 0
-2554 2563 0
-111 -2554 2555 0
-2555 2564 0
-112 -2555 2556 0
-2556 2565 0
-113 -2556 2557 0
-2557 2566 0
-114 -2557 2558 0
-2558 2567 0
-115 -2558 2559 0
-2559 2568 0
-116 -2559 2560 0
-2560 2569 0
-117 -2560 0
-109 2561 0
-2561 2570 0
-110 -2561 2562 0
-2562 2571 0
-111 -2562 2563 0
-2563 2572 0
-112 -2563 2564 0
-2564 2573 0
-113 -2564 2565 0
-2565 2574 0
-114 -2565 2566 0
-2566 2575 0
-115 -2566 2567 0
-2567 2576 0
-116 -2567 2568 0
-2568 2577 0
-117 -2568 2569 0
-2569 2578 0
-118 -2569 0
-110 2570 0
-2570 2579 0
-111 -2570 2571 0
-2571 2580 0
-112 -2571 2572 0
-2572 2581 0
-113 -2572 2573 0
-2573 2582 0
-114 -2573 2574 0
-2574 2583 0
-115 -2574 2575 0
-2575 2584 0
-116 -2575 2576 0
-2576 2585 0
-117 -2576 2577 0
-2577 2586 0
-118 -2577 2578 0
-2578 2587 0
-119 -2578 0
-111 2579 0
-2579 2588 0
-112 -2579 2580 0
-2580 2589 0
-113 -2580 2581 0
-2581 2590 0
-114 -2581 2582 0
-2582 2591 0
-115 -2582 2583 0
-2583 2592 0
-116 -2583 2584 0
-2584 2593 0
-117 -2584 2585 0
-2585 2594 0
-118 -2585 2586 0
-2586 2595 0
-119 -2586 2587 0
-2587 2596 0
-120 -2587 0
-112 2588 0
-2588 2597 0
-113 -2588 2589 0
-2589 2598 0
-114 -2589 2590 0
-2590 2599 0
-115 -2590 2591 0
-2591 2600 0
-116 -2591 2592 0
-2592 2601 0
-117 -2592 2593 0
-2593 2602 0
-118 -2593 2594 0
-2594 2603 0
-119 -2594 2595 0
-2595 2604 0
-120 -2595 2596 0
-2596 2605 0
-121 -2596 0
-113 2597 0
-2597 2606 0
-114 -2597 2598 0
-2598 2607 0
-115 -2598 2599 0
-2599 2608 0
-116 -2599 2600 0
-2600 2609 0
-117 -2600 2601 0
-2601 2610 0
-118 -2601 2602 0
-2602 2611 0
-119 -2602 2603 0
-2603 2612 0
-120 -2603 2604 0
-2604 2613 0
-121 -2604 2605 0
-2605 2614 0
-122 -2605 0
-114 2606 0
-2606 2615 0
-115 -2606 2607 0
-2607 2616 0
-116 -2607 2608 0
-2608 2617 0
-117 -2608 2609 0
-2609 2618 0
-118 -2609 2610 0
-2610 2619 0
-119 -2610 2611 0
-2611 2620 0
-120 -2611 2612 0
-2612 2621 0
-121 -2612 2613 0
-2613 2622 0
-122 -2613 2614 0
-2614 2623 0
-123 -2614 0
-115 2615 0
-2615 2624 0
-116 -2615 2616 0
-2616 2625 0
-117 -2616 2617 0
-2617 2626 0
-118 -2617 2618 0
-2618 2627 0
-119 -2618 2619 0
-2619 2628 0
-120 -2619 2620 0
-2620 2629 0
-121 -2620 2621 0
-2621 2630 0
-122 -2621 2622 0
-2622 2631 0
-123 -2622 2623 0
-2623 2632 0
-124 -2623 0
-116 2624 0
-2624 2633 0
-117 -2624 2625 0
-2625 2634 0
-118 -2625 2626 0
-2626 2635 0
-119 -2626 2627 0
-2627 2636 0
-120 -2627 2628 0
-2628 2637 0
-121 -2628 2629 0
-2629 2638 0
-122 -2629 2630 0
-2630 2639 0
-123 -2630 2631 0
-2631 2640 0
-124 -2631 2632 0
-2632 2641 0
-125 -2632 0
-117 2633 0
-2633 2642 0
-118 -2633 2634 0
-2634 2643 0
-119 -2634 2635 0
-2635 2644 0
-120 -2635 2636 0
-2636 2645 0
-121 -2636 2637 0
-2637 2646 0
-122 -2637 2638 0
-2638 2647 0
-123 -2638 2639 0
-2639 2648 0
-124 -2639 2640 0
-2640 2649 0
-125 -2640 2641 0
-2641 2650 0
-126 -2641 0
-118 2642 0
-2642 2651 0
-119 -2642 2643 0
-2643 2652 0
-120 -2643 2644 0
-2644 2653 0
-121 -2644 2645 0
-2645 2654 0
-122 -2645 2646 0
-2646 2655 0
-123 -2646 2647 0
-2647 2656 0
-124 -2647 2648 0
-2648 2657 0
-125 -2648 2649 0
-2649 2658 0
-126 -2649 2650 0
-2650 2659 0
-127 -2650 0
-119 2651 0
-2651 2660 0
-120 -2651 2652 0
-2652 2661 0
-121 -2652 2653 0
-2653 2662 0
-122 -2653 2654 0
-2654 2663 0
-123 -2654 2655 0
-2655 2664 0
-124 -2655 2656 0
-2656 2665 0
-125 -2656 2657 0
-2657 2666 0
-126 -2657 2658 0
-2658 2667 0
-127 -2658 2659 0
-2659 2668 0
-128 -2659 0
-120 2660 0
-2660 2669 0
-121 -2660 2661 0
-2661 2670 0
-122 -2661 2662 0
-2662 2671 0
-123 -2662 2663 0
-2663 2672 0
-124 -2663 2664 0
-2664 2673 0
-125 -2664 2665 0
-2665 2674 0
-126 -2665 2666 0
-2666 2675 0
-127 -2666 2667 0
-2667 2676 0
-128 -2667 2668 0
-2668 2677 0
-129 -2668 0
-121 2669 0
-2669 2678 0
-122 -2669 2670 0
-2670 2679 0
-123 -2670 2671 0
-2671 2680 0
-124 -2671 2672 0
-2672 2681 0
-125 -2672 2673 0
-2673 2682 0
-126 -2673 2674 0
-2674 2683 0
-127 -2674 2675 0
-2675 2684 0
-128 -2675 2676 0
-2676 2685 0
-129 -2676 2677 0
-2677 2686 0
-130 -2677 0
-122 2678 0
-2678 2687 0
-123 -2678 2679 0
-2679 2688 0
-124 -2679 2680 0
-2680 2689 0
-125 -2680 2681 0
-2681 2690 0
-126 -2681 2682 0
-2682 2691 0
-127 -2682 2683 0
-2683 2692 0
-128 -2683 2684 0
-2684 2693 0
-129 -2684 2685 0
-2685 2694 0
-130 -2685 2686 0
-2686 2695 0
-131 -2686 0
-123 2687 0
-2687 2696 0
-124 -2687 2688 0
-2688 2697 0
-125 -2688 2689 0
-2689 2698 0
-126 -2689 2690 0
-2690 2699 0
-127 -2690 2691 0
-2691 2700 0
-128 -2691 2692 0
-2692 2701 0
-129 -2692 2693 0
-2693 2702 0
-130 -2693 2694 0
-2694 2703 0
-131 -2694 2695 0
-2695 2704 0
-132 -2695 0
-124 2696 0
-2696 2705 0
-125 -2696 2697 0
-2697 2706 0
-126 -2697 2698 0
-2698 2707 0
-127 -2698 2699 0
-2699 2708 0
-128 -2699 2700 0
-2700 2709 0
-129 -2700 2701 0
-2701 2710 0
-130 -2701 2702 0
-2702 2711 0
-131 -2702 2703 0
-2703 2712 0
-132 -2703 2704 0
-2704 2713 0
-133 -2704 0
-125 2705 0
-2705 2714 0
-126 -2705 2706 0
-2706 2715 0
-127 -2706 2707 0
-2707 2716 0
-128 -2707 2708 0
-2708 2717 0
-129 -2708 2709 0
-2709 2718 0
-130 -2709 2710 0
-2710 2719 0
-131 -2710 2711 0
-2711 2720 0
-132 -2711 2712 0
-2712 2721 0
-133 -2712 2713 0
-2713 2722 0
-134 -2713 0
-126 2714 0
-2714 2723 0
-127 -2714 2715 0
-2715 2724 0
-128 -2715 2716 0
-2716 2725 0
-129 -2716 2717 0
-2717 2726 0
-130 -2717 2718 0
-2718 2727 0
-131 -2718 2719 0
-2719 2728 0
-132 -2719 2720 0
-2720 2729 0
-133 -2720 2721 0
-2721 2730 0
-134 -2721 2722 0
-2722 2731 0
-135 -2722 0
-127 2723 0
-2723 2732 0
-128 -2723 2724 0
-2724 2733 0
-129 -2724 2725 0
-2725 2734 0
-130 -2725 2726 0
-2726 2735 0
-131 -2726 2727 0
-2727 2736 0
-132 -2727 2728 0
-2728 2737 0
-133 -2728 2729 0
-2729 2738 0
-134 -2729 2730 0
-2730 2739 0
-135 -2730 2731 0
-2731 2740 0
-136 -2731 0
-128 2732 0
-2732 2741 0
-129 -2732 2733 0
-2733 2742 0
-130 -2733 2734 0
-2734 2743 0
-131 -2734 2735 0
-2735 2744 0
-132 -2735 2736 0
-2736 2745 0
-133 -2736 2737 0
-2737 2746 0
-134 -2737 2738 0
-2738 2747 0
-135 -2738 2739 0
-2739 2748 0
-136 -2739 2740 0
-2740 2749 0
-137 -2740 0
-129 2741 0
-2741 2750 0
-130 -2741 2742 0
-2742 2751 0
-131 -2742 2743 0
-2743 2752 0
-132 -2743 2744 0
-2744 2753 0
-133 -2744 2745 0
-2745 2754 0
-134 -2745 2746 0
-2746 2755 0
-135 -2746 2747 0
-2747 2756 0
-136 -2747 2748 0
-2748 2757 0
-137 -2748 2749 0
-2749 2758 0
-138 -2749 0
-130 2750 0
-2750 2759 0
-131 -2750 2751 0
-2751 2760 0
-132 -2751 2752 0
-2752 2761 0
-133 -2752 2753 0
-2753 2762 0
-134 -2753 2754 0
-2754 2763 0
-135 -2754 2755 0
-2755 2764 0
-136 -2755 2756 0
-2756 2765 0
-137 -2756 2757 0
-2757 2766 0
-138 -2757 2758 0
-2758 2767 0
-139 -2758 0
-131 2759 0
-2759 2768 0
-132 -2759 2760 0
-2760 2769 0
-133 -2760 2761 0
-2761 2770 0
-134 -2761 2762 0
-2762 2771 0
-135 -2762 2763 0
-2763 2772 0
-136 -2763 2764 0
-2764 2773 0
-137 -2764 2765 0
-2765 2774 0
-138 -2765 2766 0
-2766 2775 0
-139 -2766 2767 0
-2767 2776 0
-140 -2767 0
-132 2768 0
-2768 2777 0
-133 -2768 2769 0
-2769 2778 0
-134 -2769 2770 0
-2770 2779 0
-135 -2770 2771 0
-2771 2780 0
-136 -2771 2772 0
-2772 2781 0
-137 -2772 2773 0
-2773 2782 0
-138 -2773 2774 0
-2774 2783 0
-139 -2774 2775 0
-2775 2784 0
-140 -2775 2776 0
-2776 2785 0
-141 -2776 0
-133 2777 0
-2777 2786 0
-134 -2777 2778 0
-2778 2787 0
-135 -2778 2779 0
-2779 2788 0
-136 -2779 2780 0
-2780 2789 0
-137 -2780 2781 0
-2781 2790 0
-138 -2781 2782 0
-2782 2791 0
-139 -2782 2783 0
-2783 2792 0
-140 -2783 2784 0
-2784 2793 0
-141 -2784 2785 0
-2785 2794 0
-142 -2785 0
-134 2786 0
-2786 2795 0
-135 -2786 2787 0
-2787 2796 0
-136 -2787 2788 0
-2788 2797 0
-137 -2788 2789 0
-2789 2798 0
-138 -2789 2790 0
-2790 2799 0
-139 -2790 2791 0
-2791 2800 0
-140 -2791 2792 0
-2792 2801 0
-141 -2792 2793 0
-2793 2802 0
-142 -2793 2794 0
-2794 2803 0
-143 -2794 0
-135 2795 0
-2795 2804 0
-136 -2795 2796 0
-2796 2805 0
-137 -2796 2797 0
-2797 2806 0
-138 -2797 2798 0
-2798 2807 0
-139 -2798 2799 0
-2799 2808 0
-140 -2799 2800 0
-2800 2809 0
-141 -2800 2801 0
-2801 2810 0
-142 -2801 2802 0
-2802 2811 0
-143 -2802 2803 0
-2803 2812 0
-144 -2803 0
-136 2804 0
-2804 2813 0
-137 -2804 2805 0
-2805 2814 0
-138 -2805 2806 0
-2806 2815 0
-139 -2806 2807 0
-2807 2816 0
-140 -2807 2808 0
-2808 2817 0
-141 -2808 2809 0
-2809 2818 0
-142 -2809 2810 0
-2810 2819 0
-143 -2810 2811 0
-2811 2820 0
-144 -2811 2812 0
-2812 2821 0
-145 -2812 0
-137 2813 0
-2813 2822 0
-138 -2813 2814 0
-2814 2823 0
-139 -2814 2815 0
-2815 2824 0
-140 -2815 2816 0
-2816 2825 0
-141 -2816 2817 0
-2817 2826 0
-142 -2817 2818 0
-2818 2827 0
-143 -2818 2819 0
-2819 2828 0
-144 -2819 2820 0
-2820 2829 0
-145 -2820 2821 0
-2821 2830 0
-146 -2821 0
-138 2822 0
-2822 2831 0
-139 -2822 2823 0
-2823 2832 0
-140 -2823 2824 0
-2824 2833 0
-141 -2824 2825 0
-2825 2834 0
-142 -2825 2826 0
-2826 2835 0
-143 -2826 2827 0
-2827 2836 0
-144 -2827 2828 0
-2828 2837 0
-145 -2828 2829 0
-2829 2838 0
-146 -2829 2830 0
-2830 2839 0
-147 -2830 0
-139 2831 0
-2831 2840 0
-140 -2831 2832 0
-2832 2841 0
-141 -2832 2833 0
-2833 2842 0
-142 -2833 2834 0
-2834 2843 0
-143 -2834 2835 0
-2835 2844 0
-144 -2835 2836 0
-2836 2845 0
-145 -2836 2837 0
-2837 2846 0
-146 -2837 2838 0
-2838 2847 0
-147 -2838 2839 0
-2839 2848 0
-148 -2839 0
-140 2840 0
-2840 2849 0
-141 -2840 2841 0
-2841 2850 0
-142 -2841 2842 0
-2842 2851 0
-143 -2842 2843 0
-2843 2852 0
-144 -2843 2844 0
-2844 2853 0
-145 -2844 2845 0
-2845 2854 0
-146 -2845 2846 0
-2846 2855 0
-147 -2846 2847 0
-2847 2856 0
-148 -2847 2848 0
-2848 2857 0
-149 -2848 0
-141 2849 0
-2849 2858 0
-142 -2849 2850 0
-2850 2859 0
-143 -2850 2851 0
-2851 2860 0
-144 -2851 2852 0
-2852 2861 0
-145 -2852 2853 0
-2853 2862 0
-146 -2853 2854 0
-2854 2863 0
-147 -2854 2855 0
-2855 2864 0
-148 -2855 2856 0
-2856 2865 0
-149 -2856 2857 0
-2857 2866 0
-150 -2857 0
-142 2858 0
-2858 2867 0
-143 -2858 2859 0
-2859 2868 0
-144 -2859 2860 0
-2860 2869 0
-145 -2860 2861 0
-2861 2870 0
-146 -2861 2862 0
-2862 2871 0
-147 -2862 2863 0
-2863 2872 0
-148 -2863 2864 0
-2864 2873 0
-149 -2864 2865 0
-2865 2874 0
-150 -2865 2866 0
-2866 2875 0
-151 -2866 0
-143 2867 0
-2867 2876 0
-144 -2867 2868 0
-2868 2877 0
-145 -2868 2869 0
-2869 2878 0
-146 -2869 2870 0
-2870 2879 0
-147 -2870 2871 0
-2871 2880 0
-148 -2871 2872 0
-2872 2881 0
-149 -2872 2873 0
-2873 2882 0
-150 -2873 2874 0
-2874 2883 0
-151 -2874 2875 0
-2875 2884 0
-152 -2875 0
-144 2876 0
-2876 2885 0
-145 -2876 2877 0
-2877 2886 0
-146 -2877 2878 0
-2878 2887 0
-147 -2878 2879 0
-2879 2888 0
-148 -2879 2880 0
-2880 2889 0
-149 -2880 2881 0
-2881 2890 0
-150 -2881 2882 0
-2882 2891 0
-151 -2882 2883 0
-2883 2892 0
-152 -2883 2884 0
-2884 2893 0
-153 -2884 0
-145 2885 0
-2885 2894 0
-146 -2885 2886 0
-2886 2895 0
-147 -2886 2887 0
-2887 2896 0
-148 -2887 2888 0
-2888 2897 0
-149 -2888 2889 0
-2889 2898 0
-150 -2889 2890 0
-2890 2899 0
-151 -2890 2891 0
-2891 2900 0
-152 -2891 2892 0
-2892 2901 0
-153 -2892 2893 0
-2893 2902 0
-154 -2893 0
-146 2894 0
-2894 2903 0
-147 -2894 2895 0
-2895 2904 0
-148 -2895 2896 0
-2896 2905 0
-149 -2896 2897 0
-2897 2906 0
-150 -2897 2898 0
-2898 2907 0
-151 -2898 2899 0
-2899 2908 0
-152 -2899 2900 0
-2900 2909 0
-153 -2900 2901 0
-2901 2910 0
-154 -2901 2902 0
-2902 2911 0
-155 -2902 0
-147 2903 0
-2903 2912 0
-148 -2903 2904 0
-2904 2913 0
-149 -2904 2905 0
-2905 2914 0
-150 -2905 2906 0
-2906 2915 0
-151 -2906 2907 0
-2907 2916 0
-152 -2907 2908 0
-2908 2917 0
-153 -2908 2909 0
-2909 2918 0
-154 -2909 2910 0
-2910 2919 0
-155 -2910 2911 0
-2911 2920 0
-156 -2911 0
-148 2912 0
-2912 2921 0
-149 -2912 2913 0
-2913 2922 0
-150 -2913 2914 0
-2914 2923 0
-151 -2914 2915 0
-2915 2924 0
-152 -2915 2916 0
-2916 2925 0
-153 -2916 2917 0
-2917 2926 0
-154 -2917 2918 0
-2918 2927 0
-155 -2918 2919 0
-2919 2928 0
-156 -2919 2920 0
-2920 2929 0
-157 -2920 0
-149 2921 0
-2921 2930 0
-150 -2921 2922 0
-2922 2931 0
-151 -2922 2923 0
-2923 2932 0
-152 -2923 2924 0
-2924 2933 0
-153 -2924 2925 0
-2925 2934 0
-154 -2925 2926 0
-2926 2935 0
-155 -2926 2927 0
-2927 2936 0
-156 -2927 2928 0
-2928 2937 0
-157 -2928 2929 0
-2929 2938 0
-158 -2929 0
-150 2930 0
-2930 2939 0
-151 -2930 2931 0
-2931 2940 0
-152 -2931 2932 0
-2932 2941 0
-153 -2932 2933 0
-2933 2942 0
-154 -2933 2934 0
-2934 2943 0
-155 -2934 2935 0
-2935 2944 0
-156 -2935 2936 0
-2936 2945 0
-157 -2936 2937 0
-2937 2946 0
-158 -2937 2938 0
-2938 2947 0
-159 -2938 0
-151 2939 0
-2939 2948 0
-152 -2939 2940 0
-2940 2949 0
-153 -2940 2941 0
-2941 2950 0
-154 -2941 2942 0
-2942 2951 0
-155 -2942 2943 0
-2943 2952 0
-156 -2943 2944 0
-2944 2953 0
-157 -2944 2945 0
-2945 2954 0
-158 -2945 2946 0
-2946 2955 0
-159 -2946 2947 0
-2947 2956 0
-160 -2947 0
-152 2948 0
-2948 2957 0
-153 -2948 2949 0
-2949 2958 0
-154 -2949 2950 0
-2950 2959 0
-155 -2950 2951 0
-2951 2960 0
-156 -2951 2952 0
-2952 2961 0
-157 -2952 2953 0
-2953 2962 0
-158 -2953 2954 0
-2954 2963 0
-159 -2954 2955 0
-2955 2964 0
-160 -2955 2956 0
-2956 2965 0
-161 -2956 0
-153 2957 0
-2957 2966 0
-154 -2957 2958 0
-2958 2967 0
-155 -2958 2959 0
-2959 2968 0
-156 -2959 2960 0
-2960 2969 0
-157 -2960 2961 0
-2961 2970 0
-158 -2961 2962 0
-2962 2971 0
-159 -2962 2963 0
-2963 2972 0
-160 -2963 2964 0
-2964 2973 0
-161 -2964 2965 0
-2965 2974 0
-162 -2965 0
-154 2966 0
-2966 2975 0
-155 -2966 2967 0
-2967 2976 0
-156 -2967 2968 0
-2968 2977 0
-157 -2968 2969 0
-2969 2978 0
-158 -2969 2970 0
-2970 2979 0
-159 -2970 2971 0
-2971 2980 0
-160 -2971 2972 0
-2972 2981 0
-161 -2972 2973 0
-2973 2982 0
-162 -2973 2974 0
-2974 2983 0
-163 -2974 0
-155 2975 0
-2975 2984 0
-156 -2975 2976 0
-2976 2985 0
-157 -2976 2977 0
-2977 2986 0
-158 -2977 2978 0
-2978 2987 0
-159 -2978 2979 0
-2979 2988 0
-160 -2979 2980 0
-2980 2989 0
-161 -2980 2981 0
-2981 2990 0
-162 -2981 2982 0
-2982 2991 0
-163 -2982 2983 0
-2983 2992 0
-164 -2983 0
-156 2984 0
-2984 2993 0
-157 -2984 2985 0
-2985 2994 0
-158 -2985 2986 0
-2986 2995 0
-159 -2986 2987 0
-2987 2996 0
-160 -2987 2988 0
-2988 2997 0
-161 -2988 2989 0
-2989 2998 0
-162 -2989 2990 0
-2990 2999 0
-163 -2990 2991 0
-2991 3000 0
-164 -2991 2992 0
-2992 3001 0
-165 -2992 0
-157 2993 0
-2993 3002 0
-158 -2993 2994 0
-2994 3003 0
-159 -2994 2995 0
-2995 3004 0
-160 -2995 2996 0
-2996 3005 0
-161 -2996 2997 0
-2997 3006 0
-162 -2997 2998 0
-2998 3007 0
-163 -2998 2999 0
-2999 3008 0
-164 -2999 3000 0
-3000 3009 0
-165 -3000 3001 0
-3001 3010 0
-166 -3001 0
-158 3002 0
-3002 3011 0
-159 -3002 3003 0
-3003 3012 0
-160 -3003 3004 0
-3004 3013 0
-161 -3004 3005 0
-3005 3014 0
-162 -3005 3006 0
-3006 3015 0
-163 -3006 3007 0
-3007 3016 0
-164 -3007 3008 0
-3008 3017 0
-165 -3008 3009 0
-3009 3018 0
-166 -3009 3010 0
-3010 3019 0
-167 -3010 0
-159 3011 0
-160 -3011 3012 0
-161 -3012 3013 0
-162 -3013 3014 0
-163 -3014 3015 0
-164 -3015 3016 0
-165 -3016 3017 0
-166 -3017 3018 0
-167 -3018 3019 0
-168 -3019 0
1 43 0
