p cnf 3363 6893
-93 -1 0
-93 2 46 47 0
-2 1 93 0
-46 1 93 0
-47 1 93 0
-94 -2 0
-94 1 3 48 0
-1 2 94 0
-3 2 94 0
-48 2 94 0
-95 -3 0
-95 2 4 49 0
-2 3 95 0
-4 3 95 0
-49 3 95 0
-96 -4 0
-96 3 5 50 0
-3 4 96 0
-5 4 96 0
-50 4 96 0
-97 -5 0
-97 4 6 51 0
-4 5 97 0
-6 5 97 0
-51 5 97 0
-98 -6 0
-98 5 7 52 0
-5 6 98 0
-7 6 98 0
-52 6 98 0
-99 -7 0
-99 6 8 53 0
-6 7 99 0
-8 7 99 0
-53 7 99 0
-100 -8 0
-100 7 9 54 0
-7 8 100 0
-9 8 100 0
-54 8 100 0
-101 -9 0
-101 8 10 55 0
-8 9 101 0
-10 9 101 0
-55 9 101 0
-102 -10 0
-102 9 11 56 0
-9 10 102 0
-11 10 102 0
-56 10 102 0
-103 -11 0
-103 10 12 57 0
-10 11 103 0
-12 11 103 0
-57 11 103 0
-104 -12 0
-104 11 13 58 0
-11 12 104 0
-13 12 104 0
-58 12 104 0
-105 -13 0
-105 12 14 59 0
-12 13 105 0
-14 13 105 0
-59 13 105 0
-106 -14 0
-106 13 15 60 0
-13 14 106 0
-15 14 106 0
-60 14 106 0
-107 -15 0
-107 14 16 61 0
-14 15 107 0
-16 15 107 0
-61 15 107 0
-108 -16 0
-108 15 17 62 0
-15 16 108 0
-17 16 108 0
-62 16 108 0
-109 -17 0
-109 16 18 63 0
-16 17 109 0
-18 17 109 0
-63 17 109 0
-110 -18 0
-110 17 19 64 0
-17 18 110 0
-19 18 110 0
-64 18 110 0
-111 -19 0
-111 18 20 65 0
-18 19 111 0
-20 19 111 0
-65 19 111 0
-112 -20 0
-112 19 21 66 0
-19 20 112 0
-21 20 112 0
-66 20 112 0
-113 -21 0
-113 20 22 67 0
-20 21 113 0
-22 21 113 0
-67 21 113 0
-114 -22 0
-114 21 23 68 0
-21 22 114 0
-23 22 114 0
-68 22 114 0
-115 -23 0
-115 22 24 69 0
-22 23 115 0
-24 23 115 0
-69 23 115 0
-116 -24 0
-116 23 25 70 0
-23 24 116 0
-25 24 116 0
-70 24 116 0
-117 -25 0
-117 24 26 71 0
-24 25 117 0
-26 25 117 0
-71 25 117 0
-118 -26 0
-118 25 27 72 0
-25 26 118 0
-27 26 118 0
-72 26 118 0
-119 -27 0
-119 26 28 73 0
-26 27 119 0
-28 27 119 0
-73 27 119 0
-120 -28 0
-120 27 29 74 0
-27 28 120 0
-29 28 120 0
-74 28 120 0
-121 -29 0
-121 28 30 75 0
-28 29 121 0
-30 29 121 0
-75 29 121 0
-122 -30 0
-122 29 31 76 0
-29 30 122 0
-31 30 122 0
-76 30 122 0
-123 -31 0
-123 30 32 77 0
-30 31 123 0
-32 31 123 0
-77 31 123 0
-124 -32 0
-124 31 33 78 0
-31 32 124 0
-33 32 124 0
-78 32 124 0
-125 -33 0
-125 32 34 79 0
-32 33 125 0
-34 33 125 0
-79 33 125 0
-126 -34 0
-126 33 35 80 0
-33 34 126 0
-35 34 126 0
-80 34 126 0
-127 -35 0
-127 34 36 81 0
-34 35 127 0
-36 35 127 0
-81 35 127 0
-128 -36 0
-128 35 37 82 0
-35 36 128 0
-37 36 128 0
-82 36 128 0
-129 -37 0
-129 36 38 83 0
-36 37 129 0
-38 37 129 0
-83 37 129 0
-130 -38 0
-130 37 39 84 0
-37 38 130 0
-39 38 130 0
-84 38 130 0
-131 -39 0
-131 38 40 85 0
-38 39 131 0
-40 39 131 0
-85 39 131 0
-132 -40 0
-132 39 41 86 0
-39 40 132 0
-41 40 132 0
-86 40 132 0
-133 -41 0
-133 40 42 87 0
-40 41 133 0
-42 41 133 0
-87 41 133 0
-134 -42 0
-134 41 43 88 0
-41 42 134 0
-43 42 134 0
-88 42 134 0
-135 -43 0
-135 42 44 89 0
-42 43 135 0
-44 43 135 0
-89 43 135 0
-136 -44 0
-136 43 45 90 0
-43 44 136 0
-45 44 136 0
-90 44 136 0
-137 -45 0
-137 44 46 91 0
-44 45 137 0
-46 45 137 0
-91 45 137 0
-138 -46 0
-138 1 45 92 0
-1 46 138 0
-45 46 138 0
-92 46 138 0
-139 -47 0
-139 1 51 89 0
-1 47 139 0
-51 47 139 0
-89 47 139 0
-140 -48 0
-140 2 52 90 0
-2 48 140 0
-52 48 140 0
-90 48 140 0
-141 -49 0
-141 3 53 91 0
-3 49 141 0
-53 49 141 0
-91 49 141 0
-142 -50 0
-142 4 54 92 0
-4 50 142 0
-54 50 142 0
-92 50 142 0
-143 -51 0
-143 5 47 55 0
-5 51 143 0
-47 51 143 0
-55 51 143 0
-144 -52 0
-144 6 48 56 0
-6 52 144 0
-48 52 144 0
-56 52 144 0
-145 -53 0
-145 7 49 57 0
-7 53 145 0
-49 53 145 0
-57 53 145 0
-146 -54 0
-146 8 50 58 0
-8 54 146 0
-50 54 146 0
-58 54 146 0
-147 -55 0
-147 9 51 59 0
-9 55 147 0
-51 55 147 0
-59 55 147 0
-148 -56 0
-148 10 52 60 0
-10 56 148 0
-52 56 148 0
-60 56 148 0
-149 -57 0
-149 11 53 61 0
-11 57 149 0
-53 57 149 0
-61 57 149 0
-150 -58 0
-150 12 54 62 0
-12 58 150 0
-54 58 150 0
-62 58 150 0
-151 -59 0
-151 13 55 63 0
-13 59 151 0
-55 59 151 0
-63 59 151 0
-152 -60 0
-152 14 56 64 0
-14 60 152 0
-56 60 152 0
-64 60 152 0
-153 -61 0
-153 15 57 65 0
-15 61 153 0
-57 61 153 0
-65 61 153 0
-154 -62 0
-154 16 58 66 0
-16 62 154 0
-58 62 154 0
-66 62 154 0
-155 -63 0
-155 17 59 67 0
-17 63 155 0
-59 63 155 0
-67 63 155 0
-156 -64 0
-156 18 60 68 0
-18 64 156 0
-60 64 156 0
-68 64 156 0
-157 -65 0
-157 19 61 69 0
-19 65 157 0
-61 65 157 0
-69 65 157 0
-158 -66 0
-158 20 62 70 0
-20 66 158 0
-62 66 158 0
-70 66 158 0
-159 -67 0
-159 21 63 71 0
-21 67 159 0
-63 67 159 0
-71 67 159 0
-160 -68 0
-160 22 64 72 0
-22 68 160 0
-64 68 160 0
-72 68 160 0
-161 -69 0
-161 23 65 73 0
-23 69 161 0
-65 69 161 0
-73 69 161 0
-162 -70 0
-162 24 66 74 0
-24 70 162 0
-66 70 162 0
-74 70 162 0
-163 -71 0
-163 25 67 75 0
-25 71 163 0
-67 71 163 0
-75 71 163 0
-164 -72 0
-164 26 68 76 0
-26 72 164 0
-68 72 164 0
-76 72 164 0
-165 -73 0
-165 27 69 77 0
-27 73 165 0
-69 73 165 0
-77 73 165 0
-166 -74 0
-166 28 70 78 0
-28 74 166 0
-70 74 166 0
-78 74 166 0
-167 -75 0
-167 29 71 79 0
-29 75 167 0
-71 75 167 0
-79 75 167 0
-168 -76 0
-168 30 72 80 0
-30 76 168 0
-72 76 168 0
-80 76 168 0
-169 -77 0
-169 31 73 81 0
-31 77 169 0
-73 77 169 0
-81 77 169 0
-170 -78 0
-170 32 74 82 0
-32 78 170 0
-74 78 170 0
-82 78 170 0
-171 -79 0
-171 33 75 83 0
-33 79 171 0
-75 79 171 0
-83 79 171 0
-172 -80 0
-172 34 76 84 0
-34 80 172 0
-76 80 172 0
-84 80 172 0
-173 -81 0
-173 35 77 85 0
-35 81 173 0
-77 81 173 0
-85 81 173 0
-174 -82 0
-174 36 78 86 0
-36 82 174 0
-78 82 174 0
-86 82 174 0
-175 -83 0
-175 37 79 87 0
-37 83 175 0
-79 83 175 0
-87 83 175 0
-176 -84 0
-176 38 80 88 0
-38 84 176 0
-80 84 176 0
-88 84 176 0
-177 -85 0
-177 39 81 89 0
-39 85 177 0
-81 85 177 0
-89 85 177 0
-178 -86 0
-178 40 82 90 0
-40 86 178 0
-82 86 178 0
-90 86 178 0
-179 -87 0
-179 41 83 91 0
-41 87 179 0
-83 87 179 0
-91 87 179 0
-180 -88 0
-180 42 84 92 0
-42 88 180 0
-84 88 180 0
-92 88 180 0
-181 -89 0
-181 43 47 85 0
-43 89 181 0
-47 89 181 0
-85 89 181 0
-182 -90 0
-182 44 48 86 0
-44 90 182 0
-48 90 182 0
-86 90 182 0
-183 -91 0
-183 45 49 87 0
-45 91 183 0
-49 91 183 0
-87 91 183 0
-184 -92 0
-184 46 50 88 0
-46 92 184 0
-50 92 184 0
-88 92 184 0
1 185 0
-185 186 0
2 -185 187 0
-187 188 0
3 -187 189 0
-189 190 0
4 -189 191 0
-191 192 0
5 -191 193 0
-193 194 0
6 -193 195 0
-195 196 0
7 -195 197 0
-197 198 0
8 -197 199 0
-199 200 0
9 -199 201 0
-201 202 0
10 -201 203 0
-203 204 0
11 -203 205 0
-205 206 0
12 -205 207 0
-207 208 0
13 -207 209 0
-209 210 0
14 -209 211 0
-211 212 0
15 -211 213 0
-213 214 0
16 -213 215 0
-215 216 0
17 -215 217 0
-217 218 0
18 -217 219 0
-219 220 0
19 -219 221 0
-221 222 0
20 -221 223 0
-223 224 0
21 -223 225 0
-225 226 0
22 -225 227 0
-227 228 0
23 -227 229 0
-229 230 0
24 -229 231 0
-231 232 0
25 -231 233 0
-233 234 0
26 -233 235 0
-235 236 0
27 -235 237 0
-237 238 0
28 -237 239 0
-239 240 0
29 -239 241 0
-241 242 0
30 -241 243 0
-243 244 0
31 -243 245 0
-245 246 0
32 -245 247 0
-247 248 0
33 -247 249 0
-249 250 0
34 -249 251 0
-251 252 0
35 -251 253 0
-253 254 0
36 -253 255 0
-255 256 0
37 -255 257 0
-257 258 0
38 -257 259 0
-259 260 0
39 -259 261 0
-261 262 0
40 -261 263 0
-263 264 0
41 -263 265 0
-265 266 0
42 -265 267 0
-267 268 0
43 -267 269 0
-269 270 0
44 -269 271 0
-271 272 0
45 -271 273 0
-273 274 0
46 -273 275 0
-275 276 0
47 -275 277 0
-277 278 0
48 -277 279 0
-279 280 0
49 -279 281 0
-281 282 0
50 -281 283 0
-283 284 0
51 -283 285 0
-285 286 0
52 -285 287 0
-287 288 0
53 -287 289 0
-289 290 0
54 -289 291 0
-291 292 0
55 -291 293 0
-293 294 0
56 -293 295 0
-295 296 0
57 -295 297 0
-297 298 0
58 -297 299 0
-299 300 0
59 -299 301 0
-301 302 0
60 -301 303 0
-303 304 0
61 -303 305 0
-305 306 0
62 -305 307 0
-307 308 0
63 -307 309 0
-309 310 0
64 -309 311 0
-311 312 0
65 -311 313 0
-313 314 0
66 -313 315 0
-315 316 0
67 -315 317 0
-317 318 0
68 -317 319 0
-319 320 0
69 -319 321 0
-321 322 0
70 -321 323 0
-323 324 0
71 -323 325 0
-325 326 0
72 -325 327 0
-327 328 0
73 -327 329 0
-329 330 0
74 -329 331 0
-331 332 0
75 -331 333 0
-333 334 0
76 -333 335 0
-335 336 0
77 -335 0
2 186 0
-186 337 0
3 -186 188 0
-188 338 0
4 -188 190 0
-190 339 0
5 -190 192 0
-192 340 0
6 -192 194 0
-194 341 0
7 -194 196 0
-196 342 0
8 -196 198 0
-198 343 0
9 -198 200 0
-200 344 0
10 -200 202 0
-202 345 0
11 -202 204 0
-204 346 0
12 -204 206 0
-206 347 0
13 -206 208 0
-208 348 0
14 -208 210 0
-210 349 0
15 -210 212 0
-212 350 0
16 -212 214 0
-214 351 0
17 -214 216 0
-216 352 0
18 -216 218 0
-218 353 0
19 -218 220 0
-220 354 0
20 -220 222 0
-222 355 0
21 -222 224 0
-224 356 0
22 -224 226 0
-226 357 0
23 -226 228 0
-228 358 0
24 -228 230 0
-230 359 0
25 -230 232 0
-232 360 0
26 -232 234 0
-234 361 0
27 -234 236 0
-236 362 0
28 -236 238 0
-238 363 0
29 -238 240 0
-240 364 0
30 -240 242 0
-242 365 0
31 -242 244 0
-244 366 0
32 -244 246 0
-246 367 0
33 -246 248 0
-248 368 0
34 -248 250 0
-250 369 0
35 -250 252 0
-252 370 0
36 -252 254 0
-254 371 0
37 -254 256 0
-256 372 0
38 -256 258 0
-258 373 0
39 -258 260 0
-260 374 0
40 -260 262 0
-262 375 0
41 -262 264 0
-264 376 0
42 -264 266 0
-266 377 0
43 -266 268 0
-268 378 0
44 -268 270 0
-270 379 0
45 -270 272 0
-272 380 0
46 -272 274 0
-274 381 0
47 -274 276 0
-276 382 0
48 -276 278 0
-278 383 0
49 -278 280 0
-280 384 0
50 -280 282 0
-282 385 0
51 -282 284 0
-284 386 0
52 -284 286 0
-286 387 0
53 -286 288 0
-288 388 0
54 -288 290 0
-290 389 0
55 -290 292 0
-292 390 0
56 -292 294 0
-294 391 0
57 -294 296 0
-296 392 0
58 -296 298 0
-298 393 0
59 -298 300 0
-300 394 0
60 -300 302 0
-302 395 0
61 -302 304 0
-304 396 0
62 -304 306 0
-306 397 0
63 -306 308 0
-308 398 0
64 -308 310 0
-310 399 0
65 -310 312 0
-312 400 0
66 -312 314 0
-314 401 0
67 -314 316 0
-316 402 0
68 -316 318 0
-318 403 0
69 -318 320 0
-320 404 0
70 -320 322 0
-322 405 0
71 -322 324 0
-324 406 0
72 -324 326 0
-326 407 0
73 -326 328 0
-328 408 0
74 -328 330 0
-330 409 0
75 -330 332 0
-332 410 0
76 -332 334 0
-334 411 0
77 -334 336 0
-336 412 0
78 -336 0
3 337 0
-337 413 0
4 -337 338 0
-338 414 0
5 -338 339 0
-339 415 0
6 -339 340 0
-340 416 0
7 -340 341 0
-341 417 0
8 -341 342 0
-342 418 0
9 -342 343 0
-343 419 0
10 -343 344 0
-344 420 0
11 -344 345 0
-345 421 0
12 -345 346 0
-346 422 0
13 -346 347 0
-347 423 0
14 -347 348 0
-348 424 0
15 -348 349 0
-349 425 0
16 -349 350 0
-350 426 0
17 -350 351 0
-351 427 0
18 -351 352 0
-352 428 0
19 -352 353 0
-353 429 0
20 -353 354 0
-354 430 0
21 -354 355 0
-355 431 0
22 -355 356 0
-356 432 0
23 -356 357 0
-357 433 0
24 -357 358 0
-358 434 0
25 -358 359 0
-359 435 0
26 -359 360 0
-360 436 0
27 -360 361 0
-361 437 0
28 -361 362 0
-362 438 0
29 -362 363 0
-363 439 0
30 -363 364 0
-364 440 0
31 -364 365 0
-365 441 0
32 -365 366 0
-366 442 0
33 -366 367 0
-367 443 0
34 -367 368 0
-368 444 0
35 -368 369 0
-369 445 0
36 -369 370 0
-370 446 0
37 -370 371 0
-371 447 0
38 -371 372 0
-372 448 0
39 -372 373 0
-373 449 0
40 -373 374 0
-374 450 0
41 -374 375 0
-375 451 0
42 -375 376 0
-376 452 0
43 -376 377 0
-377 453 0
44 -377 378 0
-378 454 0
45 -378 379 0
-379 455 0
46 -379 380 0
-380 456 0
47 -380 381 0
-381 457 0
48 -381 382 0
-382 458 0
49 -382 383 0
-383 459 0
50 -383 384 0
-384 460 0
51 -384 385 0
-385 461 0
52 -385 386 0
-386 462 0
53 -386 387 0
-387 463 0
54 -387 388 0
-388 464 0
55 -388 389 0
-389 465 0
56 -389 390 0
-390 466 0
57 -390 391 0
-391 467 0
58 -391 392 0
-392 468 0
59 -392 393 0
-393 469 0
60 -393 394 0
-394 470 0
61 -394 395 0
-395 471 0
62 -395 396 0
-396 472 0
63 -396 397 0
-397 473 0
64 -397 398 0
-398 474 0
65 -398 399 0
-399 475 0
66 -399 400 0
-400 476 0
67 -400 401 0
-401 477 0
68 -401 402 0
-402 478 0
69 -402 403 0
-403 479 0
70 -403 404 0
-404 480 0
71 -404 405 0
-405 481 0
72 -405 406 0
-406 482 0
73 -406 407 0
-407 483 0
74 -407 408 0
-408 484 0
75 -408 409 0
-409 485 0
76 -409 410 0
-410 486 0
77 -410 411 0
-411 487 0
78 -411 412 0
-412 488 0
79 -412 0
4 413 0
-413 489 0
5 -413 414 0
-414 490 0
6 -414 415 0
-415 491 0
7 -415 416 0
-416 492 0
8 -416 417 0
-417 493 0
9 -417 418 0
-418 494 0
10 -418 419 0
-419 495 0
11 -419 420 0
-420 496 0
12 -420 421 0
-421 497 0
13 -421 422 0
-422 498 0
14 -422 423 0
-423 499 0
15 -423 424 0
-424 500 0
16 -424 425 0
-425 501 0
17 -425 426 0
-426 502 0
18 -426 427 0
-427 503 0
19 -427 428 0
-428 504 0
20 -428 429 0
-429 505 0
21 -429 430 0
-430 506 0
22 -430 431 0
-431 507 0
23 -431 432 0
-432 508 0
24 -432 433 0
-433 509 0
25 -433 434 0
-434 510 0
26 -434 435 0
-435 511 0
27 -435 436 0
-436 512 0
28 -436 437 0
-437 513 0
29 -437 438 0
-438 514 0
30 -438 439 0
-439 515 0
31 -439 440 0
-440 516 0
32 -440 441 0
-441 517 0
33 -441 442 0
-442 518 0
34 -442 443 0
-443 519 0
35 -443 444 0
-444 520 0
36 -444 445 0
-445 521 0
37 -445 446 0
-446 522 0
38 -446 447 0
-447 523 0
39 -447 448 0
-448 524 0
40 -448 449 0
-449 525 0
41 -449 450 0
-450 526 0
42 -450 451 0
-451 527 0
43 -451 452 0
-452 528 0
44 -452 453 0
-453 529 0
45 -453 454 0
-454 530 0
46 -454 455 0
-455 531 0
47 -455 456 0
-456 532 0
48 -456 457 0
-457 533 0
49 -457 458 0
-458 534 0
50 -458 459 0
-459 535 0
51 -459 460 0
-460 536 0
52 -460 461 0
-461 537 0
53 -461 462 0
-462 538 0
54 -462 463 0
-463 539 0
55 -463 464 0
-464 540 0
56 -464 465 0
-465 541 0
57 -465 466 0
-466 542 0
58 -466 467 0
-467 543 0
59 -467 468 0
-468 544 0
60 -468 469 0
-469 545 0
61 -469 470 0
-470 546 0
62 -470 471 0
-471 547 0
63 -471 472 0
-472 548 0
64 -472 473 0
-473 549 0
65 -473 474 0
-474 550 0
66 -474 475 0
-475 551 0
67 -475 476 0
-476 552 0
68 -476 477 0
-477 553 0
69 -477 478 0
-478 554 0
70 -478 479 0
-479 555 0
71 -479 480 0
-480 556 0
72 -480 481 0
-481 557 0
73 -481 482 0
-482 558 0
74 -482 483 0
-483 559 0
75 -483 484 0
-484 560 0
76 -484 485 0
-485 561 0
77 -485 486 0
-486 562 0
78 -486 487 0
-487 563 0
79 -487 488 0
-488 564 0
80 -488 0
5 489 0
-489 565 0
6 -489 490 0
-490 566 0
7 -490 491 0
-491 567 0
8 -491 492 0
-492 568 0
9 -492 493 0
-493 569 0
10 -493 494 0
-494 570 0
11 -494 495 0
-495 571 0
12 -495 496 0
-496 572 0
13 -496 497 0
-497 573 0
14 -497 498 0
-498 574 0
15 -498 499 0
-499 575 0
16 -499 500 0
-500 576 0
17 -500 501 0
-501 577 0
18 -501 502 0
-502 578 0
19 -502 503 0
-503 579 0
20 -503 504 0
-504 580 0
21 -504 505 0
-505 581 0
22 -505 506 0
-506 582 0
23 -506 507 0
-507 583 0
24 -507 508 0
-508 584 0
25 -508 509 0
-509 585 0
26 -509 510 0
-510 586 0
27 -510 511 0
-511 587 0
28 -511 512 0
-512 588 0
29 -512 513 0
-513 589 0
30 -513 514 0
-514 590 0
31 -514 515 0
-515 591 0
32 -515 516 0
-516 592 0
33 -516 517 0
-517 593 0
34 -517 518 0
-518 594 0
35 -518 519 0
-519 595 0
36 -519 520 0
-520 596 0
37 -520 521 0
-521 597 0
38 -521 522 0
-522 598 0
39 -522 523 0
-523 599 0
40 -523 524 0
-524 600 0
41 -524 525 0
-525 601 0
42 -525 526 0
-526 602 0
43 -526 527 0
-527 603 0
44 -527 528 0
-528 604 0
45 -528 529 0
-529 605 0
46 -529 530 0
-530 606 0
47 -530 531 0
-531 607 0
48 -531 532 0
-532 608 0
49 -532 533 0
-533 609 0
50 -533 534 0
-534 610 0
51 -534 535 0
-535 611 0
52 -535 536 0
-536 612 0
53 -536 537 0
-537 613 0
54 -537 538 0
-538 614 0
55 -538 539 0
-539 615 0
56 -539 540 0
-540 616 0
57 -540 541 0
-541 617 0
58 -541 542 0
-542 618 0
59 -542 543 0
-543 619 0
60 -543 544 0
-544 620 0
61 -544 545 0
-545 621 0
62 -545 546 0
-546 622 0
63 -546 547 0
-547 623 0
64 -547 548 0
-548 624 0
65 -548 549 0
-549 625 0
66 -549 550 0
-550 626 0
67 -550 551 0
-551 627 0
68 -551 552 0
-552 628 0
69 -552 553 0
-553 629 0
70 -553 554 0
-554 630 0
71 -554 555 0
-555 631 0
72 -555 556 0
-556 632 0
73 -556 557 0
-557 633 0
74 -557 558 0
-558 634 0
75 -558 559 0
-559 635 0
76 -559 560 0
-560 636 0
77 -560 561 0
-561 637 0
78 -561 562 0
-562 638 0
79 -562 563 0
-563 639 0
80 -563 564 0
-564 640 0
81 -564 0
6 565 0
-565 641 0
7 -565 566 0
-566 642 0
8 -566 567 0
-567 643 0
9 -567 568 0
-568 644 0
10 -568 569 0
-569 645 0
11 -569 570 0
-570 646 0
12 -570 571 0
-571 647 0
13 -571 572 0
-572 648 0
14 -572 573 0
-573 649 0
15 -573 574 0
-574 650 0
16 -574 575 0
-575 651 0
17 -575 576 0
-576 652 0
18 -576 577 0
-577 653 0
19 -577 578 0
-578 654 0
20 -578 579 0
-579 655 0
21 -579 580 0
-580 656 0
22 -580 581 0
-581 657 0
23 -581 582 0
-582 658 0
24 -582 583 0
-583 659 0
25 -583 584 0
-584 660 0
26 -584 585 0
-585 661 0
27 -585 586 0
-586 662 0
28 -586 587 0
-587 663 0
29 -587 588 0
-588 664 0
30 -588 589 0
-589 665 0
31 -589 590 0
-590 666 0
32 -590 591 0
-591 667 0
33 -591 592 0
-592 668 0
34 -592 593 0
-593 669 0
35 -593 594 0
-594 670 0
36 -594 595 0
-595 671 0
37 -595 596 0
-596 672 0
38 -596 597 0
-597 673 0
39 -597 598 0
-598 674 0
40 -598 599 0
-599 675 0
41 -599 600 0
-600 676 0
42 -600 601 0
-601 677 0
43 -601 602 0
-602 678 0
44 -602 603 0
-603 679 0
45 -603 604 0
-604 680 0
46 -604 605 0
-605 681 0
47 -605 606 0
-606 682 0
48 -606 607 0
-607 683 0
49 -607 608 0
-608 684 0
50 -608 609 0
-609 685 0
51 -609 610 0
-610 686 0
52 -610 611 0
-611 687 0
53 -611 612 0
-612 688 0
54 -612 613 0
-613 689 0
55 -613 614 0
-614 690 0
56 -614 615 0
-615 691 0
57 -615 616 0
-616 692 0
58 -616 617 0
-617 693 0
59 -617 618 0
-618 694 0
60 -618 619 0
-619 695 0
61 -619 620 0
-620 696 0
62 -620 621 0
-621 697 0
63 -621 622 0
-622 698 0
64 -622 623 0
-623 699 0
65 -623 624 0
-624 700 0
66 -624 625 0
-625 701 0
67 -625 626 0
-626 702 0
68 -626 627 0
-627 703 0
69 -627 628 0
-628 704 0
70 -628 629 0
-629 705 0
71 -629 630 0
-630 706 0
72 -630 631 0
-631 707 0
73 -631 632 0
-632 708 0
74 -632 633 0
-633 709 0
75 -633 634 0
-634 710 0
76 -634 635 0
-635 711 0
77 -635 636 0
-636 712 0
78 -636 637 0
-637 713 0
79 -637 638 0
-638 714 0
80 -638 639 0
-639 715 0
81 -639 640 0
-640 716 0
82 -640 0
7 641 0
-641 717 0
8 -641 642 0
-642 718 0
9 -642 643 0
-643 719 0
10 -643 644 0
-644 720 0
11 -644 645 0
-645 721 0
12 -645 646 0
-646 722 0
13 -646 647 0
-647 723 0
14 -647 648 0
-648 724 0
15 -648 649 0
-649 725 0
16 -649 650 0
-650 726 0
17 -650 651 0
-651 727 0
18 -651 652 0
-652 728 0
19 -652 653 0
-653 729 0
20 -653 654 0
-654 730 0
21 -654 655 0
-655 731 0
22 -655 656 0
-656 732 0
23 -656 657 0
-657 733 0
24 -657 658 0
-658 734 0
25 -658 659 0
-659 735 0
26 -659 660 0
-660 736 0
27 -660 661 0
-661 737 0
28 -661 662 0
-662 738 0
29 -662 663 0
-663 739 0
30 -663 664 0
-664 740 0
31 -664 665 0
-665 741 0
32 -665 666 0
-666 742 0
33 -666 667 0
-667 743 0
34 -667 668 0
-668 744 0
35 -668 669 0
-669 745 0
36 -669 670 0
-670 746 0
37 -670 671 0
-671 747 0
38 -671 672 0
-672 748 0
39 -672 673 0
-673 749 0
40 -673 674 0
-674 750 0
41 -674 675 0
-675 751 0
42 -675 676 0
-676 752 0
43 -676 677 0
-677 753 0
44 -677 678 0
-678 754 0
45 -678 679 0
-679 755 0
46 -679 680 0
-680 756 0
47 -680 681 0
-681 757 0
48 -681 682 0
-682 758 0
49 -682 683 0
-683 759 0
50 -683 684 0
-684 760 0
51 -684 685 0
-685 761 0
52 -685 686 0
-686 762 0
53 -686 687 0
-687 763 0
54 -687 688 0
-688 764 0
55 -688 689 0
-689 765 0
56 -689 690 0
-690 766 0
57 -690 691 0
-691 767 0
58 -691 692 0
-692 768 0
59 -692 693 0
-693 769 0
60 -693 694 0
-694 770 0
61 -694 695 0
-695 771 0
62 -695 696 0
-696 772 0
63 -696 697 0
-697 773 0
64 -697 698 0
-698 774 0
65 -698 699 0
-699 775 0
66 -699 700 0
-700 776 0
67 -700 701 0
-701 777 0
68 -701 702 0
-702 778 0
69 -702 703 0
-703 779 0
70 -703 704 0
-704 780 0
71 -704 705 0
-705 781 0
72 -705 706 0
-706 782 0
73 -706 707 0
-707 783 0
74 -707 708 0
-708 784 0
75 -708 709 0
-709 785 0
76 -709 710 0
-710 786 0
77 -710 711 0
-711 787 0
78 -711 712 0
-712 788 0
79 -712 713 0
-713 789 0
80 -713 714 0
-714 790 0
81 -714 715 0
-715 791 0
82 -715 716 0
-716 792 0
83 -716 0
8 717 0
-717 793 0
9 -717 718 0
-718 794 0
10 -718 719 0
-719 795 0
11 -719 720 0
-720 796 0
12 -720 721 0
-721 797 0
13 -721 722 0
-722 798 0
14 -722 723 0
-723 799 0
15 -723 724 0
-724 800 0
16 -724 725 0
-725 801 0
17 -725 726 0
-726 802 0
18 -726 727 0
-727 803 0
19 -727 728 0
-728 804 0
20 -728 729 0
-729 805 0
21 -729 730 0
-730 806 0
22 -730 731 0
-731 807 0
23 -731 732 0
-732 808 0
24 -732 733 0
-733 809 0
25 -733 734 0
-734 810 0
26 -734 735 0
-735 811 0
27 -735 736 0
-736 812 0
28 -736 737 0
-737 813 0
29 -737 738 0
-738 814 0
30 -738 739 0
-739 815 0
31 -739 740 0
-740 816 0
32 -740 741 0
-741 817 0
33 -741 742 0
-742 818 0
34 -742 743 0
-743 819 0
35 -743 744 0
-744 820 0
36 -744 745 0
-745 821 0
37 -745 746 0
-746 822 0
38 -746 747 0
-747 823 0
39 -747 748 0
-748 824 0
40 -748 749 0
-749 825 0
41 -749 750 0
-750 826 0
42 -750 751 0
-751 827 0
43 -751 752 0
-752 828 0
44 -752 753 0
-753 829 0
45 -753 754 0
-754 830 0
46 -754 755 0
-755 831 0
47 -755 756 0
-756 832 0
48 -756 757 0
-757 833 0
49 -757 758 0
-758 834 0
50 -758 759 0
-759 835 0
51 -759 760 0
-760 836 0
52 -760 761 0
-761 837 0
53 -761 762 0
-762 838 0
54 -762 763 0
-763 839 0
55 -763 764 0
-764 840 0
56 -764 765 0
-765 841 0
57 -765 766 0
-766 842 0
58 -766 767 0
-767 843 0
59 -767 768 0
-768 844 0
60 -768 769 0
-769 845 0
61 -769 770 0
-770 846 0
62 -770 771 0
-771 847 0
63 -771 772 0
-772 848 0
64 -772 773 0
-773 849 0
65 -773 774 0
-774 850 0
66 -774 775 0
-775 851 0
67 -775 776 0
-776 852 0
68 -776 777 0
-777 853 0
69 -777 778 0
-778 854 0
70 -778 779 0
-779 855 0
71 -779 780 0
-780 856 0
72 -780 781 0
-781 857 0
73 -781 782 0
-782 858 0
74 -782 783 0
-783 859 0
75 -783 784 0
-784 860 0
76 -784 785 0
-785 861 0
77 -785 786 0
-786 862 0
78 -786 787 0
-787 863 0
79 -787 788 0
-788 864 0
80 -788 789 0
-789 865 0
81 -789 790 0
-790 866 0
82 -790 791 0
-791 867 0
83 -791 792 0
-792 868 0
84 -792 0
9 793 0
-793 869 0
10 -793 794 0
-794 870 0
11 -794 795 0
-795 871 0
12 -795 796 0
-796 872 0
13 -796 797 0
-797 873 0
14 -797 798 0
-798 874 0
15 -798 799 0
-799 875 0
16 -799 800 0
-800 876 0
17 -800 801 0
-801 877 0
18 -801 802 0
-802 878 0
19 -802 803 0
-803 879 0
20 -803 804 0
-804 880 0
21 -804 805 0
-805 881 0
22 -805 806 0
-806 882 0
23 -806 807 0
-807 883 0
24 -807 808 0
-808 884 0
25 -808 809 0
-809 885 0
26 -809 810 0
-810 886 0
27 -810 811 0
-811 887 0
28 -811 812 0
-812 888 0
29 -812 813 0
-813 889 0
30 -813 814 0
-814 890 0
31 -814 815 0
-815 891 0
32 -815 816 0
-816 892 0
33 -816 817 0
-817 893 0
34 -817 818 0
-818 894 0
35 -818 819 0
-819 895 0
36 -819 820 0
-820 896 0
37 -820 821 0
-821 897 0
38 -821 822 0
-822 898 0
39 -822 823 0
-823 899 0
40 -823 824 0
-824 900 0
41 -824 825 0
-825 901 0
42 -825 826 0
-826 902 0
43 -826 827 0
-827 903 0
44 -827 828 0
-828 904 0
45 -828 829 0
-829 905 0
46 -829 830 0
-830 906 0
47 -830 831 0
-831 907 0
48 -831 832 0
-832 908 0
49 -832 833 0
-833 909 0
50 -833 834 0
-834 910 0
51 -834 835 0
-835 911 0
52 -835 836 0
-836 912 0
53 -836 837 0
-837 913 0
54 -837 838 0
-838 914 0
55 -838 839 0
-839 915 0
56 -839 840 0
-840 916 0
57 -840 841 0
-841 917 0
58 -841 842 0
-842 918 0
59 -842 843 0
-843 919 0
60 -843 844 0
-844 920 0
61 -844 845 0
-845 921 0
62 -845 846 0
-846 922 0
63 -846 847 0
-847 923 0
64 -847 848 0
-848 924 0
65 -848 849 0
-849 925 0
66 -849 850 0
-850 926 0
67 -850 851 0
-851 927 0
68 -851 852 0
-852 928 0
69 -852 853 0
-853 929 0
70 -853 854 0
-854 930 0
71 -854 855 0
-855 931 0
72 -855 856 0
-856 932 0
73 -856 857 0
-857 933 0
74 -857 858 0
-858 934 0
75 -858 859 0
-859 935 0
76 -859 860 0
-860 936 0
77 -860 861 0
-861 937 0
78 -861 862 0
-862 938 0
79 -862 863 0
-863 939 0
80 -863 864 0
-864 940 0
81 -864 865 0
-865 941 0
82 -865 866 0
-866 942 0
83 -866 867 0
-867 943 0
84 -867 868 0
-868 944 0
85 -868 0
10 869 0
-869 945 0
11 -869 870 0
-870 946 0
12 -870 871 0
-871 947 0
13 -871 872 0
-872 948 0
14 -872 873 0
-873 949 0
15 -873 874 0
-874 950 0
16 -874 875 0
-875 951 0
17 -875 876 0
-876 952 0
18 -876 877 0
-877 953 0
19 -877 878 0
-878 954 0
20 -878 879 0
-879 955 0
21 -879 880 0
-880 956 0
22 -880 881 0
-881 957 0
23 -881 882 0
-882 958 0
24 -882 883 0
-883 959 0
25 -883 884 0
-884 960 0
26 -884 885 0
-885 961 0
27 -885 886 0
-886 962 0
28 -886 887 0
-887 963 0
29 -887 888 0
-888 964 0
30 -888 889 0
-889 965 0
31 -889 890 0
-890 966 0
32 -890 891 0
-891 967 0
33 -891 892 0
-892 968 0
34 -892 893 0
-893 969 0
35 -893 894 0
-894 970 0
36 -894 895 0
-895 971 0
37 -895 896 0
-896 972 0
38 -896 897 0
-897 973 0
39 -897 898 0
-898 974 0
40 -898 899 0
-899 975 0
41 -899 900 0
-900 976 0
42 -900 901 0
-901 977 0
43 -901 902 0
-902 978 0
44 -902 903 0
-903 979 0
45 -903 904 0
-904 980 0
46 -904 905 0
-905 981 0
47 -905 906 0
-906 982 0
48 -906 907 0
-907 983 0
49 -907 908 0
-908 984 0
50 -908 909 0
-909 985 0
51 -909 910 0
-910 986 0
52 -910 911 0
-911 987 0
53 -911 912 0
-912 988 0
54 -912 913 0
-913 989 0
55 -913 914 0
-914 990 0
56 -914 915 0
-915 991 0
57 -915 916 0
-916 992 0
58 -916 917 0
-917 993 0
59 -917 918 0
-918 994 0
60 -918 919 0
-919 995 0
61 -919 920 0
-920 996 0
62 -920 921 0
-921 997 0
63 -921 922 0
-922 998 0
64 -922 923 0
-923 999 0
65 -923 924 0
-924 1000 0
66 -924 925 0
-925 1001 0
67 -925 926 0
-926 1002 0
68 -926 927 0
-927 1003 0
69 -927 928 0
-928 1004 0
70 -928 929 0
-929 1005 0
71 -929 930 0
-930 1006 0
72 -930 931 0
-931 1007 0
73 -931 932 0
-932 1008 0
74 -932 933 0
-933 1009 0
75 -933 934 0
-934 1010 0
76 -934 935 0
-935 1011 0
77 -935 936 0
-936 1012 0
78 -936 937 0
-937 1013 0
79 -937 938 0
-938 1014 0
80 -938 939 0
-939 1015 0
81 -939 940 0
-940 1016 0
82 -940 941 0
-941 1017 0
83 -941 942 0
-942 1018 0
84 -942 943 0
-943 1019 0
85 -943 944 0
-944 1020 0
86 -944 0
11 945 0
-945 1021 0
12 -945 946 0
-946 1022 0
13 -946 947 0
-947 1023 0
14 -947 948 0
-948 1024 0
15 -948 949 0
-949 1025 0
16 -949 950 0
-950 1026 0
17 -950 951 0
-951 1027 0
18 -951 952 0
-952 1028 0
19 -952 953 0
-953 1029 0
20 -953 954 0
-954 1030 0
21 -954 955 0
-955 1031 0
22 -955 956 0
-956 1032 0
23 -956 957 0
-957 1033 0
24 -957 958 0
-958 1034 0
25 -958 959 0
-959 1035 0
26 -959 960 0
-960 1036 0
27 -960 961 0
-961 1037 0
28 -961 962 0
-962 1038 0
29 -962 963 0
-963 1039 0
30 -963 964 0
-964 1040 0
31 -964 965 0
-965 1041 0
32 -965 966 0
-966 1042 0
33 -966 967 0
-967 1043 0
34 -967 968 0
-968 1044 0
35 -968 969 0
-969 1045 0
36 -969 970 0
-970 1046 0
37 -970 971 0
-971 1047 0
38 -971 972 0
-972 1048 0
39 -972 973 0
-973 1049 0
40 -973 974 0
-974 1050 0
41 -974 975 0
-975 1051 0
42 -975 976 0
-976 1052 0
43 -976 977 0
-977 1053 0
44 -977 978 0
-978 1054 0
45 -978 979 0
-979 1055 0
46 -979 980 0
-980 1056 0
47 -980 981 0
-981 1057 0
48 -981 982 0
-982 1058 0
49 -982 983 0
-983 1059 0
50 -983 984 0
-984 1060 0
51 -984 985 0
-985 1061 0
52 -985 986 0
-986 1062 0
53 -986 987 0
-987 1063 0
54 -987 988 0
-988 1064 0
55 -988 989 0
-989 1065 0
56 -989 990 0
-990 1066 0
57 -990 991 0
-991 1067 0
58 -991 992 0
-992 1068 0
59 -992 993 0
-993 1069 0
60 -993 994 0
-994 1070 0
61 -994 995 0
-995 1071 0
62 -995 996 0
-996 1072 0
63 -996 997 0
-997 1073 0
64 -997 998 0
-998 1074 0
65 -998 999 0
-999 1075 0
66 -999 1000 0
-1000 1076 0
67 -1000 1001 0
-1001 1077 0
68 -1001 1002 0
-1002 1078 0
69 -1002 1003 0
-1003 1079 0
70 -1003 1004 0
-1004 1080 0
71 -1004 1005 0
-1005 1081 0
72 -1005 1006 0
-1006 1082 0
73 -1006 1007 0
-1007 1083 0
74 -1007 1008 0
-1008 1084 0
75 -1008 1009 0
-1009 1085 0
76 -1009 1010 0
-1010 1086 0
77 -1010 1011 0
-1011 1087 0
78 -1011 1012 0
-1012 1088 0
79 -1012 1013 0
-1013 1089 0
80 -1013 1014 0
-1014 1090 0
81 -1014 1015 0
-1015 1091 0
82 -1015 1016 0
-1016 1092 0
83 -1016 1017 0
-1017 1093 0
84 -1017 1018 0
-1018 1094 0
85 -1018 1019 0
-1019 1095 0
86 -1019 1020 0
-1020 1096 0
87 -1020 0
12 1021 0
-1021 1097 0
13 -1021 1022 0
-1022 1098 0
14 -1022 1023 0
-1023 1099 0
15 -1023 1024 0
-1024 1100 0
16 -1024 1025 0
-1025 1101 0
17 -1025 1026 0
-1026 1102 0
18 -1026 1027 0
-1027 1103 0
19 -1027 1028 0
-1028 1104 0
20 -1028 1029 0
-1029 1105 0
21 -1029 1030 0
-1030 1106 0
22 -1030 1031 0
-1031 1107 0
23 -1031 1032 0
-1032 1108 0
24 -1032 1033 0
-1033 1109 0
25 -1033 1034 0
-1034 1110 0
26 -1034 1035 0
-1035 1111 0
27 -1035 1036 0
-1036 1112 0
28 -1036 1037 0
-1037 1113 0
29 -1037 1038 0
-1038 1114 0
30 -1038 1039 0
-1039 1115 0
31 -1039 1040 0
-1040 1116 0
32 -1040 1041 0
-1041 1117 0
33 -1041 1042 0
-1042 1118 0
34 -1042 1043 0
-1043 1119 0
35 -1043 1044 0
-1044 1120 0
36 -1044 1045 0
-1045 1121 0
37 -1045 1046 0
-1046 1122 0
38 -1046 1047 0
-1047 1123 0
39 -1047 1048 0
-1048 1124 0
40 -1048 1049 0
-1049 1125 0
41 -1049 1050 0
-1050 1126 0
42 -1050 1051 0
-1051 1127 0
43 -1051 1052 0
-1052 1128 0
44 -1052 1053 0
-1053 1129 0
45 -1053 1054 0
-1054 1130 0
46 -1054 1055 0
-1055 1131 0
47 -1055 1056 0
-1056 1132 0
48 -1056 1057 0
-1057 1133 0
49 -1057 1058 0
-1058 1134 0
50 -1058 1059 0
-1059 1135 0
51 -1059 1060 0
-1060 1136 0
52 -1060 1061 0
-1061 1137 0
53 -1061 1062 0
-1062 1138 0
54 -1062 1063 0
-1063 1139 0
55 -1063 1064 0
-1064 1140 0
56 -1064 1065 0
-1065 1141 0
57 -1065 1066 0
-1066 1142 0
58 -1066 1067 0
-1067 1143 0
59 -1067 1068 0
-1068 1144 0
60 -1068 1069 0
-1069 1145 0
61 -1069 1070 0
-1070 1146 0
62 -1070 1071 0
-1071 1147 0
63 -1071 1072 0
-1072 1148 0
64 -1072 1073 0
-1073 1149 0
65 -1073 1074 0
-1074 1150 0
66 -1074 1075 0
-1075 1151 0
67 -1075 1076 0
-1076 1152 0
68 -1076 1077 0
-1077 1153 0
69 -1077 1078 0
-1078 1154 0
70 -1078 1079 0
-1079 1155 0
71 -1079 1080 0
-1080 1156 0
72 -1080 1081 0
-1081 1157 0
73 -1081 1082 0
-1082 1158 0
74 -1082 1083 0
-1083 1159 0
75 -1083 1084 0
-1084 1160 0
76 -1084 1085 0
-1085 1161 0
77 -1085 1086 0
-1086 1162 0
78 -1086 1087 0
-1087 1163 0
79 -1087 1088 0
-1088 1164 0
80 -1088 1089 0
-1089 1165 0
81 -1089 1090 0
-1090 1166 0
82 -1090 1091 0
-1091 1167 0
83 -1091 1092 0
-1092 1168 0
84 -1092 1093 0
-1093 1169 0
85 -1093 1094 0
-1094 1170 0
86 -1094 1095 0
-1095 1171 0
87 -1095 1096 0
-1096 1172 0
88 -1096 0
13 1097 0
-1097 1173 0
14 -1097 1098 0
-1098 1174 0
15 -1098 1099 0
-1099 1175 0
16 -1099 1100 0
-1100 1176 0
17 -1100 1101 0
-1101 1177 0
18 -1101 1102 0
-1102 1178 0
19 -1102 1103 0
-1103 1179 0
20 -1103 1104 0
-1104 1180 0
21 -1104 1105 0
-1105 1181 0
22 -1105 1106 0
-1106 1182 0
23 -1106 1107 0
-1107 1183 0
24 -1107 1108 0
-1108 1184 0
25 -1108 1109 0
-1109 1185 0
26 -1109 1110 0
-1110 1186 0
27 -1110 1111 0
-1111 1187 0
28 -1111 1112 0
-1112 1188 0
29 -1112 1113 0
-1113 1189 0
30 -1113 1114 0
-1114 1190 0
31 -1114 1115 0
-1115 1191 0
32 -1115 1116 0
-1116 1192 0
33 -1116 1117 0
-1117 1193 0
34 -1117 1118 0
-1118 1194 0
35 -1118 1119 0
-1119 1195 0
36 -1119 1120 0
-1120 1196 0
37 -1120 1121 0
-1121 1197 0
38 -1121 1122 0
-1122 1198 0
39 -1122 1123 0
-1123 1199 0
40 -1123 1124 0
-1124 1200 0
41 -1124 1125 0
-1125 1201 0
42 -1125 1126 0
-1126 1202 0
43 -1126 1127 0
-1127 1203 0
44 -1127 1128 0
-1128 1204 0
45 -1128 1129 0
-1129 1205 0
46 -1129 1130 0
-1130 1206 0
47 -1130 1131 0
-1131 1207 0
48 -1131 1132 0
-1132 1208 0
49 -1132 1133 0
-1133 1209 0
50 -1133 1134 0
-1134 1210 0
51 -1134 1135 0
-1135 1211 0
52 -1135 1136 0
-1136 1212 0
53 -1136 1137 0
-1137 1213 0
54 -1137 1138 0
-1138 1214 0
55 -1138 1139 0
-1139 1215 0
56 -1139 1140 0
-1140 1216 0
57 -1140 1141 0
-1141 1217 0
58 -1141 1142 0
-1142 1218 0
59 -1142 1143 0
-1143 1219 0
60 -1143 1144 0
-1144 1220 0
61 -1144 1145 0
-1145 1221 0
62 -1145 1146 0
-1146 1222 0
63 -1146 1147 0
-1147 1223 0
64 -1147 1148 0
-1148 1224 0
65 -1148 1149 0
-1149 1225 0
66 -1149 1150 0
-1150 1226 0
67 -1150 1151 0
-1151 1227 0
68 -1151 1152 0
-1152 1228 0
69 -1152 1153 0
-1153 1229 0
70 -1153 1154 0
-1154 1230 0
71 -1154 1155 0
-1155 1231 0
72 -1155 1156 0
-1156 1232 0
73 -1156 1157 0
-1157 1233 0
74 -1157 1158 0
-1158 1234 0
75 -1158 1159 0
-1159 1235 0
76 -1159 1160 0
-1160 1236 0
77 -1160 1161 0
-1161 1237 0
78 -1161 1162 0
-1162 1238 0
79 -1162 1163 0
-1163 1239 0
80 -1163 1164 0
-1164 1240 0
81 -1164 1165 0
-1165 1241 0
82 -1165 1166 0
-1166 1242 0
83 -1166 1167 0
-1167 1243 0
84 -1167 1168 0
-1168 1244 0
85 -1168 1169 0
-1169 1245 0
86 -1169 1170 0
-1170 1246 0
87 -1170 1171 0
-1171 1247 0
88 -1171 1172 0
-1172 1248 0
89 -1172 0
14 1173 0
-1173 1249 0
15 -1173 1174 0
-1174 1250 0
16 -1174 1175 0
-1175 1251 0
17 -1175 1176 0
-1176 1252 0
18 -1176 1177 0
-1177 1253 0
19 -1177 1178 0
-1178 1254 0
20 -1178 1179 0
-1179 1255 0
21 -1179 1180 0
-1180 1256 0
22 -1180 1181 0
-1181 1257 0
23 -1181 1182 0
-1182 1258 0
24 -1182 1183 0
-1183 1259 0
25 -1183 1184 0
-1184 1260 0
26 -1184 1185 0
-1185 1261 0
27 -1185 1186 0
-1186 1262 0
28 -1186 1187 0
-1187 1263 0
29 -1187 1188 0
-1188 1264 0
30 -1188 1189 0
-1189 1265 0
31 -1189 1190 0
-1190 1266 0
32 -1190 1191 0
-1191 1267 0
33 -1191 1192 0
-1192 1268 0
34 -1192 1193 0
-1193 1269 0
35 -1193 1194 0
-1194 1270 0
36 -1194 1195 0
-1195 1271 0
37 -1195 1196 0
-1196 1272 0
38 -1196 1197 0
-1197 1273 0
39 -1197 1198 0
-1198 1274 0
40 -1198 1199 0
-1199 1275 0
41 -1199 1200 0
-1200 1276 0
42 -1200 1201 0
-1201 1277 0
43 -1201 1202 0
-1202 1278 0
44 -1202 1203 0
-1203 1279 0
45 -1203 1204 0
-1204 1280 0
46 -1204 1205 0
-1205 1281 0
47 -1205 1206 0
-1206 1282 0
48 -1206 1207 0
-1207 1283 0
49 -1207 1208 0
-1208 1284 0
50 -1208 1209 0
-1209 1285 0
51 -1209 1210 0
-1210 1286 0
52 -1210 1211 0
-1211 1287 0
53 -1211 1212 0
-1212 1288 0
54 -1212 1213 0
-1213 1289 0
55 -1213 1214 0
-1214 1290 0
56 -1214 1215 0
-1215 1291 0
57 -1215 1216 0
-1216 1292 0
58 -1216 1217 0
-1217 1293 0
59 -1217 1218 0
-1218 1294 0
60 -1218 1219 0
-1219 1295 0
61 -1219 1220 0
-1220 1296 0
62 -1220 1221 0
-1221 1297 0
63 -1221 1222 0
-1222 1298 0
64 -1222 1223 0
-1223 1299 0
65 -1223 1224 0
-1224 1300 0
66 -1224 1225 0
-1225 1301 0
67 -1225 1226 0
-1226 1302 0
68 -1226 1227 0
-1227 1303 0
69 -1227 1228 0
-1228 1304 0
70 -1228 1229 0
-1229 1305 0
71 -1229 1230 0
-1230 1306 0
72 -1230 1231 0
-1231 1307 0
73 -1231 1232 0
-1232 1308 0
74 -1232 1233 0
-1233 1309 0
75 -1233 1234 0
-1234 1310 0
76 -1234 1235 0
-1235 1311 0
77 -1235 1236 0
-1236 1312 0
78 -1236 1237 0
-1237 1313 0
79 -1237 1238 0
-1238 1314 0
80 -1238 1239 0
-1239 1315 0
81 -1239 1240 0
-1240 1316 0
82 -1240 1241 0
-1241 1317 0
83 -1241 1242 0
-1242 1318 0
84 -1242 1243 0
-1243 1319 0
85 -1243 1244 0
-1244 1320 0
86 -1244 1245 0
-1245 1321 0
87 -1245 1246 0
-1246 1322 0
88 -1246 1247 0
-1247 1323 0
89 -1247 1248 0
-1248 1324 0
90 -1248 0
15 1249 0
-1249 1325 0
16 -1249 1250 0
-1250 1326 0
17 -1250 1251 0
-1251 1327 0
18 -1251 1252 0
-1252 1328 0
19 -1252 1253 0
-1253 1329 0
20 -1253 1254 0
-1254 1330 0
21 -1254 1255 0
-1255 1331 0
22 -1255 1256 0
-1256 1332 0
23 -1256 1257 0
-1257 1333 0
24 -1257 1258 0
-1258 1334 0
25 -1258 1259 0
-1259 1335 0
26 -1259 1260 0
-1260 1336 0
27 -1260 1261 0
-1261 1337 0
28 -1261 1262 0
-1262 1338 0
29 -1262 1263 0
-1263 1339 0
30 -1263 1264 0
-1264 1340 0
31 -1264 1265 0
-1265 1341 0
32 -1265 1266 0
-1266 1342 0
33 -1266 1267 0
-1267 1343 0
34 -1267 1268 0
-1268 1344 0
35 -1268 1269 0
-1269 1345 0
36 -1269 1270 0
-1270 1346 0
37 -1270 1271 0
-1271 1347 0
38 -1271 1272 0
-1272 1348 0
39 -1272 1273 0
-1273 1349 0
40 -1273 1274 0
-1274 1350 0
41 -1274 1275 0
-1275 1351 0
42 -1275 1276 0
-1276 1352 0
43 -1276 1277 0
-1277 1353 0
44 -1277 1278 0
-1278 1354 0
45 -1278 1279 0
-1279 1355 0
46 -1279 1280 0
-1280 1356 0
47 -1280 1281 0
-1281 1357 0
48 -1281 1282 0
-1282 1358 0
49 -1282 1283 0
-1283 1359 0
50 -1283 1284 0
-1284 1360 0
51 -1284 1285 0
-1285 1361 0
52 -1285 1286 0
-1286 1362 0
53 -1286 1287 0
-1287 1363 0
54 -1287 1288 0
-1288 1364 0
55 -1288 1289 0
-1289 1365 0
56 -1289 1290 0
-1290 1366 0
57 -1290 1291 0
-1291 1367 0
58 -1291 1292 0
-1292 1368 0
59 -1292 1293 0
-1293 1369 0
60 -1293 1294 0
-1294 1370 0
61 -1294 1295 0
-1295 1371 0
62 -1295 1296 0
-1296 1372 0
63 -1296 1297 0
-1297 1373 0
64 -1297 1298 0
-1298 1374 0
65 -1298 1299 0
-1299 1375 0
66 -1299 1300 0
-1300 1376 0
67 -1300 1301 0
-1301 1377 0
68 -1301 1302 0
-1302 1378 0
69 -1302 1303 0
-1303 1379 0
70 -1303 1304 0
-1304 1380 0
71 -1304 1305 0
-1305 1381 0
72 -1305 1306 0
-1306 1382 0
73 -1306 1307 0
-1307 1383 0
74 -1307 1308 0
-1308 1384 0
75 -1308 1309 0
-1309 1385 0
76 -1309 1310 0
-1310 1386 0
77 -1310 1311 0
-1311 1387 0
78 -1311 1312 0
-1312 1388 0
79 -1312 1313 0
-1313 1389 0
80 -1313 1314 0
-1314 1390 0
81 -1314 1315 0
-1315 1391 0
82 -1315 1316 0
-1316 1392 0
83 -1316 1317 0
-1317 1393 0
84 -1317 1318 0
-1318 1394 0
85 -1318 1319 0
-1319 1395 0
86 -1319 1320 0
-1320 1396 0
87 -1320 1321 0
-1321 1397 0
88 -1321 1322 0
-1322 1398 0
89 -1322 1323 0
-1323 1399 0
90 -1323 1324 0
-1324 1400 0
91 -1324 0
16 1325 0
17 -1325 1326 0
18 -1326 1327 0
19 -1327 1328 0
20 -1328 1329 0
21 -1329 1330 0
22 -1330 1331 0
23 -1331 1332 0
24 -1332 1333 0
25 -1333 1334 0
26 -1334 1335 0
27 -1335 1336 0
28 -1336 1337 0
29 -1337 1338 0
30 -1338 1339 0
31 -1339 1340 0
32 -1340 1341 0
33 -1341 1342 0
34 -1342 1343 0
35 -1343 1344 0
36 -1344 1345 0
37 -1345 1346 0
38 -1346 1347 0
39 -1347 1348 0
40 -1348 1349 0
41 -1349 1350 0
42 -1350 1351 0
43 -1351 1352 0
44 -1352 1353 0
45 -1353 1354 0
46 -1354 1355 0
47 -1355 1356 0
48 -1356 1357 0
49 -1357 1358 0
50 -1358 1359 0
51 -1359 1360 0
52 -1360 1361 0
53 -1361 1362 0
54 -1362 1363 0
55 -1363 1364 0
56 -1364 1365 0
57 -1365 1366 0
58 -1366 1367 0
59 -1367 1368 0
60 -1368 1369 0
61 -1369 1370 0
62 -1370 1371 0
63 -1371 1372 0
64 -1372 1373 0
65 -1373 1374 0
66 -1374 1375 0
67 -1375 1376 0
68 -1376 1377 0
69 -1377 1378 0
70 -1378 1379 0
71 -1379 1380 0
72 -1380 1381 0
73 -1381 1382 0
74 -1382 1383 0
75 -1383 1384 0
76 -1384 1385 0
77 -1385 1386 0
78 -1386 1387 0
79 -1387 1388 0
80 -1388 1389 0
81 -1389 1390 0
82 -1390 1391 0
83 -1391 1392 0
84 -1392 1393 0
85 -1393 1394 0
86 -1394 1395 0
87 -1395 1396 0
88 -1396 1397 0
89 -1397 1398 0
90 -1398 1399 0
91 -1399 1400 0
92 -1400 0
-1 1401 0
-1401 1402 0
-2 -1401 1403 0
-1403 1404 0
-3 -1403 1405 0
-1405 1406 0
-4 -1405 1407 0
-1407 1408 0
-5 -1407 1409 0
-1409 1410 0
-6 -1409 1411 0
-1411 1412 0
-7 -1411 1413 0
-1413 1414 0
-8 -1413 1415 0
-1415 1416 0
-9 -1415 1417 0
-1417 1418 0
-10 -1417 1419 0
-1419 1420 0
-11 -1419 1421 0
-1421 1422 0
-12 -1421 1423 0
-1423 1424 0
-13 -1423 1425 0
-1425 1426 0
-14 -1425 1427 0
-1427 1428 0
-15 -1427 1429 0
-1429 1430 0
-16 -1429 1431 0
-1431 1432 0
-17 -1431 0
-2 1402 0
-1402 1433 0
-3 -1402 1404 0
-1404 1434 0
-4 -1404 1406 0
-1406 1435 0
-5 -1406 1408 0
-1408 1436 0
-6 -1408 1410 0
-1410 1437 0
-7 -1410 1412 0
-1412 1438 0
-8 -1412 1414 0
-1414 1439 0
-9 -1414 1416 0
-1416 1440 0
-10 -1416 1418 0
-1418 1441 0
-11 -1418 1420 0
-1420 1442 0
-12 -1420 1422 0
-1422 1443 0
-13 -1422 1424 0
-1424 1444 0
-14 -1424 1426 0
-1426 1445 0
-15 -1426 1428 0
-1428 1446 0
-16 -1428 1430 0
-1430 1447 0
-17 -1430 1432 0
-1432 1448 0
-18 -1432 0
-3 1433 0
-1433 1449 0
-4 -1433 1434 0
-1434 1450 0
-5 -1434 1435 0
-1435 1451 0
-6 -1435 1436 0
-1436 1452 0
-7 -1436 1437 0
-1437 1453 0
-8 -1437 1438 0
-1438 1454 0
-9 -1438 1439 0
-1439 1455 0
-10 -1439 1440 0
-1440 1456 0
-11 -1440 1441 0
-1441 1457 0
-12 -1441 1442 0
-1442 1458 0
-13 -1442 1443 0
-1443 1459 0
-14 -1443 1444 0
-1444 1460 0
-15 -1444 1445 0
-1445 1461 0
-16 -1445 1446 0
-1446 1462 0
-17 -1446 1447 0
-1447 1463 0
-18 -1447 1448 0
-1448 1464 0
-19 -1448 0
-4 1449 0
-1449 1465 0
-5 -1449 1450 0
-1450 1466 0
-6 -1450 1451 0
-1451 1467 0
-7 -1451 1452 0
-1452 1468 0
-8 -1452 1453 0
-1453 1469 0
-9 -1453 1454 0
-1454 1470 0
-10 -1454 1455 0
-1455 1471 0
-11 -1455 1456 0
-1456 1472 0
-12 -1456 1457 0
-1457 1473 0
-13 -1457 1458 0
-1458 1474 0
-14 -1458 1459 0
-1459 1475 0
-15 -1459 1460 0
-1460 1476 0
-16 -1460 1461 0
-1461 1477 0
-17 -1461 1462 0
-1462 1478 0
-18 -1462 1463 0
-1463 1479 0
-19 -1463 1464 0
-1464 1480 0
-20 -1464 0
-5 1465 0
-1465 1481 0
-6 -1465 1466 0
-1466 1482 0
-7 -1466 1467 0
-1467 1483 0
-8 -1467 1468 0
-1468 1484 0
-9 -1468 1469 0
-1469 1485 0
-10 -1469 1470 0
-1470 1486 0
-11 -1470 1471 0
-1471 1487 0
-12 -1471 1472 0
-1472 1488 0
-13 -1472 1473 0
-1473 1489 0
-14 -1473 1474 0
-1474 1490 0
-15 -1474 1475 0
-1475 1491 0
-16 -1475 1476 0
-1476 1492 0
-17 -1476 1477 0
-1477 1493 0
-18 -1477 1478 0
-1478 1494 0
-19 -1478 1479 0
-1479 1495 0
-20 -1479 1480 0
-1480 1496 0
-21 -1480 0
-6 1481 0
-1481 1497 0
-7 -1481 1482 0
-1482 1498 0
-8 -1482 1483 0
-1483 1499 0
-9 -1483 1484 0
-1484 1500 0
-10 -1484 1485 0
-1485 1501 0
-11 -1485 1486 0
-1486 1502 0
-12 -1486 1487 0
-1487 1503 0
-13 -1487 1488 0
-1488 1504 0
-14 -1488 1489 0
-1489 1505 0
-15 -1489 1490 0
-1490 1506 0
-16 -1490 1491 0
-1491 1507 0
-17 -1491 1492 0
-1492 1508 0
-18 -1492 1493 0
-1493 1509 0
-19 -1493 1494 0
-1494 1510 0
-20 -1494 1495 0
-1495 1511 0
-21 -1495 1496 0
-1496 1512 0
-22 -1496 0
-7 1497 0
-1497 1513 0
-8 -1497 1498 0
-1498 1514 0
-9 -1498 1499 0
-1499 1515 0
-10 -1499 1500 0
-1500 1516 0
-11 -1500 1501 0
-1501 1517 0
-12 -1501 1502 0
-1502 1518 0
-13 -1502 1503 0
-1503 1519 0
-14 -1503 1504 0
-1504 1520 0
-15 -1504 1505 0
-1505 1521 0
-16 -1505 1506 0
-1506 1522 0
-17 -1506 1507 0
-1507 1523 0
-18 -1507 1508 0
-1508 1524 0
-19 -1508 1509 0
-1509 1525 0
-20 -1509 1510 0
-1510 1526 0
-21 -1510 1511 0
-1511 1527 0
-22 -1511 1512 0
-1512 1528 0
-23 -1512 0
-8 1513 0
-1513 1529 0
-9 -1513 1514 0
-1514 1530 0
-10 -1514 1515 0
-1515 1531 0
-11 -1515 1516 0
-1516 1532 0
-12 -1516 1517 0
-1517 1533 0
-13 -1517 1518 0
-1518 1534 0
-14 -1518 1519 0
-1519 1535 0
-15 -1519 1520 0
-1520 1536 0
-16 -1520 1521 0
-1521 1537 0
-17 -1521 1522 0
-1522 1538 0
-18 -1522 1523 0
-1523 1539 0
-19 -1523 1524 0
-1524 1540 0
-20 -1524 1525 0
-1525 1541 0
-21 -1525 1526 0
-1526 1542 0
-22 -1526 1527 0
-1527 1543 0
-23 -1527 1528 0
-1528 1544 0
-24 -1528 0
-9 1529 0
-1529 1545 0
-10 -1529 1530 0
-1530 1546 0
-11 -1530 1531 0
-1531 1547 0
-12 -1531 1532 0
-1532 1548 0
-13 -1532 1533 0
-1533 1549 0
-14 -1533 1534 0
-1534 1550 0
-15 -1534 1535 0
-1535 1551 0
-16 -1535 1536 0
-1536 1552 0
-17 -1536 1537 0
-1537 1553 0
-18 -1537 1538 0
-1538 1554 0
-19 -1538 1539 0
-1539 1555 0
-20 -1539 1540 0
-1540 1556 0
-21 -1540 1541 0
-1541 1557 0
-22 -1541 1542 0
-1542 1558 0
-23 -1542 1543 0
-1543 1559 0
-24 -1543 1544 0
-1544 1560 0
-25 -1544 0
-10 1545 0
-1545 1561 0
-11 -1545 1546 0
-1546 1562 0
-12 -1546 1547 0
-1547 1563 0
-13 -1547 1548 0
-1548 1564 0
-14 -1548 1549 0
-1549 1565 0
-15 -1549 1550 0
-1550 1566 0
-16 -1550 1551 0
-1551 1567 0
-17 -1551 1552 0
-1552 1568 0
-18 -1552 1553 0
-1553 1569 0
-19 -1553 1554 0
-1554 1570 0
-20 -1554 1555 0
-1555 1571 0
-21 -1555 1556 0
-1556 1572 0
-22 -1556 1557 0
-1557 1573 0
-23 -1557 1558 0
-1558 1574 0
-24 -1558 1559 0
-1559 1575 0
-25 -1559 1560 0
-1560 1576 0
-26 -1560 0
-11 1561 0
-1561 1577 0
-12 -1561 1562 0
-1562 1578 0
-13 -1562 1563 0
-1563 1579 0
-14 -1563 1564 0
-1564 1580 0
-15 -1564 1565 0
-1565 1581 0
-16 -1565 1566 0
-1566 1582 0
-17 -1566 1567 0
-1567 1583 0
-18 -1567 1568 0
-1568 1584 0
-19 -1568 1569 0
-1569 1585 0
-20 -1569 1570 0
-1570 1586 0
-21 -1570 1571 0
-1571 1587 0
-22 -1571 1572 0
-1572 1588 0
-23 -1572 1573 0
-1573 1589 0
-24 -1573 1574 0
-1574 1590 0
-25 -1574 1575 0
-1575 1591 0
-26 -1575 1576 0
-1576 1592 0
-27 -1576 0
-12 1577 0
-1577 1593 0
-13 -1577 1578 0
-1578 1594 0
-14 -1578 1579 0
-1579 1595 0
-15 -1579 1580 0
-1580 1596 0
-16 -1580 1581 0
-1581 1597 0
-17 -1581 1582 0
-1582 1598 0
-18 -1582 1583 0
-1583 1599 0
-19 -1583 1584 0
-1584 1600 0
-20 -1584 1585 0
-1585 1601 0
-21 -1585 1586 0
-1586 1602 0
-22 -1586 1587 0
-1587 1603 0
-23 -1587 1588 0
-1588 1604 0
-24 -1588 1589 0
-1589 1605 0
-25 -1589 1590 0
-1590 1606 0
-26 -1590 1591 0
-1591 1607 0
-27 -1591 1592 0
-1592 1608 0
-28 -1592 0
-13 1593 0
-1593 1609 0
-14 -1593 1594 0
-1594 1610 0
-15 -1594 1595 0
-1595 1611 0
-16 -1595 1596 0
-1596 1612 0
-17 -1596 1597 0
-1597 1613 0
-18 -1597 1598 0
-1598 1614 0
-19 -1598 1599 0
-1599 1615 0
-20 -1599 1600 0
-1600 1616 0
-21 -1600 1601 0
-1601 1617 0
-22 -1601 1602 0
-1602 1618 0
-23 -1602 1603 0
-1603 1619 0
-24 -1603 1604 0
-1604 1620 0
-25 -1604 1605 0
-1605 1621 0
-26 -1605 1606 0
-1606 1622 0
-27 -1606 1607 0
-1607 1623 0
-28 -1607 1608 0
-1608 1624 0
-29 -1608 0
-14 1609 0
-1609 1625 0
-15 -1609 1610 0
-1610 1626 0
-16 -1610 1611 0
-1611 1627 0
-17 -1611 1612 0
-1612 1628 0
-18 -1612 1613 0
-1613 1629 0
-19 -1613 1614 0
-1614 1630 0
-20 -1614 1615 0
-1615 1631 0
-21 -1615 1616 0
-1616 1632 0
-22 -1616 1617 0
-1617 1633 0
-23 -1617 1618 0
-1618 1634 0
-24 -1618 1619 0
-1619 1635 0
-25 -1619 1620 0
-1620 1636 0
-26 -1620 1621 0
-1621 1637 0
-27 -1621 1622 0
-1622 1638 0
-28 -1622 1623 0
-1623 1639 0
-29 -1623 1624 0
-1624 1640 0
-30 -1624 0
-15 1625 0
-1625 1641 0
-16 -1625 1626 0
-1626 1642 0
-17 -1626 1627 0
-1627 1643 0
-18 -1627 1628 0
-1628 1644 0
-19 -1628 1629 0
-1629 1645 0
-20 -1629 1630 0
-1630 1646 0
-21 -1630 1631 0
-1631 1647 0
-22 -1631 1632 0
-1632 1648 0
-23 -1632 1633 0
-1633 1649 0
-24 -1633 1634 0
-1634 1650 0
-25 -1634 1635 0
-1635 1651 0
-26 -1635 1636 0
-1636 1652 0
-27 -1636 1637 0
-1637 1653 0
-28 -1637 1638 0
-1638 1654 0
-29 -1638 1639 0
-1639 1655 0
-30 -1639 1640 0
-1640 1656 0
-31 -1640 0
-16 1641 0
-1641 1657 0
-17 -1641 1642 0
-1642 1658 0
-18 -1642 1643 0
-1643 1659 0
-19 -1643 1644 0
-1644 1660 0
-20 -1644 1645 0
-1645 1661 0
-21 -1645 1646 0
-1646 1662 0
-22 -1646 1647 0
-1647 1663 0
-23 -1647 1648 0
-1648 1664 0
-24 -1648 1649 0
-1649 1665 0
-25 -1649 1650 0
-1650 1666 0
-26 -1650 1651 0
-1651 1667 0
-27 -1651 1652 0
-1652 1668 0
-28 -1652 1653 0
-1653 1669 0
-29 -1653 1654 0
-1654 1670 0
-30 -1654 1655 0
-1655 1671 0
-31 -1655 1656 0
-1656 1672 0
-32 -1656 0
-17 1657 0
-1657 1673 0
-18 -1657 1658 0
-1658 1674 0
-19 -1658 1659 0
-1659 1675 0
-20 -1659 1660 0
-1660 1676 0
-21 -1660 1661 0
-1661 1677 0
-22 -1661 1662 0
-1662 1678 0
-23 -1662 1663 0
-1663 1679 0
-24 -1663 1664 0
-1664 1680 0
-25 -1664 1665 0
-1665 1681 0
-26 -1665 1666 0
-1666 1682 0
-27 -1666 1667 0
-1667 1683 0
-28 -1667 1668 0
-1668 1684 0
-29 -1668 1669 0
-1669 1685 0
-30 -1669 1670 0
-1670 1686 0
-31 -1670 1671 0
-1671 1687 0
-32 -1671 1672 0
-1672 1688 0
-33 -1672 0
-18 1673 0
-1673 1689 0
-19 -1673 1674 0
-1674 1690 0
-20 -1674 1675 0
-1675 1691 0
-21 -1675 1676 0
-1676 1692 0
-22 -1676 1677 0
-1677 1693 0
-23 -1677 1678 0
-1678 1694 0
-24 -1678 1679 0
-1679 1695 0
-25 -1679 1680 0
-1680 1696 0
-26 -1680 1681 0
-1681 1697 0
-27 -1681 1682 0
-1682 1698 0
-28 -1682 1683 0
-1683 1699 0
-29 -1683 1684 0
-1684 1700 0
-30 -1684 1685 0
-1685 1701 0
-31 -1685 1686 0
-1686 1702 0
-32 -1686 1687 0
-1687 1703 0
-33 -1687 1688 0
-1688 1704 0
-34 -1688 0
-19 1689 0
-1689 1705 0
-20 -1689 1690 0
-1690 1706 0
-21 -1690 1691 0
-1691 1707 0
-22 -1691 1692 0
-1692 1708 0
-23 -1692 1693 0
-1693 1709 0
-24 -1693 1694 0
-1694 1710 0
-25 -1694 1695 0
-1695 1711 0
-26 -1695 1696 0
-1696 1712 0
-27 -1696 1697 0
-1697 1713 0
-28 -1697 1698 0
-1698 1714 0
-29 -1698 1699 0
-1699 1715 0
-30 -1699 1700 0
-1700 1716 0
-31 -1700 1701 0
-1701 1717 0
-32 -1701 1702 0
-1702 1718 0
-33 -1702 1703 0
-1703 1719 0
-34 -1703 1704 0
-1704 1720 0
-35 -1704 0
-20 1705 0
-1705 1721 0
-21 -1705 1706 0
-1706 1722 0
-22 -1706 1707 0
-1707 1723 0
-23 -1707 1708 0
-1708 1724 0
-24 -1708 1709 0
-1709 1725 0
-25 -1709 1710 0
-1710 1726 0
-26 -1710 1711 0
-1711 1727 0
-27 -1711 1712 0
-1712 1728 0
-28 -1712 1713 0
-1713 1729 0
-29 -1713 1714 0
-1714 1730 0
-30 -1714 1715 0
-1715 1731 0
-31 -1715 1716 0
-1716 1732 0
-32 -1716 1717 0
-1717 1733 0
-33 -1717 1718 0
-1718 1734 0
-34 -1718 1719 0
-1719 1735 0
-35 -1719 1720 0
-1720 1736 0
-36 -1720 0
-21 1721 0
-1721 1737 0
-22 -1721 1722 0
-1722 1738 0
-23 -1722 1723 0
-1723 1739 0
-24 -1723 1724 0
-1724 1740 0
-25 -1724 1725 0
-1725 1741 0
-26 -1725 1726 0
-1726 1742 0
-27 -1726 1727 0
-1727 1743 0
-28 -1727 1728 0
-1728 1744 0
-29 -1728 1729 0
-1729 1745 0
-30 -1729 1730 0
-1730 1746 0
-31 -1730 1731 0
-1731 1747 0
-32 -1731 1732 0
-1732 1748 0
-33 -1732 1733 0
-1733 1749 0
-34 -1733 1734 0
-1734 1750 0
-35 -1734 1735 0
-1735 1751 0
-36 -1735 1736 0
-1736 1752 0
-37 -1736 0
-22 1737 0
-1737 1753 0
-23 -1737 1738 0
-1738 1754 0
-24 -1738 1739 0
-1739 1755 0
-25 -1739 1740 0
-1740 1756 0
-26 -1740 1741 0
-1741 1757 0
-27 -1741 1742 0
-1742 1758 0
-28 -1742 1743 0
-1743 1759 0
-29 -1743 1744 0
-1744 1760 0
-30 -1744 1745 0
-1745 1761 0
-31 -1745 1746 0
-1746 1762 0
-32 -1746 1747 0
-1747 1763 0
-33 -1747 1748 0
-1748 1764 0
-34 -1748 1749 0
-1749 1765 0
-35 -1749 1750 0
-1750 1766 0
-36 -1750 1751 0
-1751 1767 0
-37 -1751 1752 0
-1752 1768 0
-38 -1752 0
-23 1753 0
-1753 1769 0
-24 -1753 1754 0
-1754 1770 0
-25 -1754 1755 0
-1755 1771 0
-26 -1755 1756 0
-1756 1772 0
-27 -1756 1757 0
-1757 1773 0
-28 -1757 1758 0
-1758 1774 0
-29 -1758 1759 0
-1759 1775 0
-30 -1759 1760 0
-1760 1776 0
-31 -1760 1761 0
-1761 1777 0
-32 -1761 1762 0
-1762 1778 0
-33 -1762 1763 0
-1763 1779 0
-34 -1763 1764 0
-1764 1780 0
-35 -1764 1765 0
-1765 1781 0
-36 -1765 1766 0
-1766 1782 0
-37 -1766 1767 0
-1767 1783 0
-38 -1767 1768 0
-1768 1784 0
-39 -1768 0
-24 1769 0
-1769 1785 0
-25 -1769 1770 0
-1770 1786 0
-26 -1770 1771 0
-1771 1787 0
-27 -1771 1772 0
-1772 1788 0
-28 -1772 1773 0
-1773 1789 0
-29 -1773 1774 0
-1774 1790 0
-30 -1774 1775 0
-1775 1791 0
-31 -1775 1776 0
-1776 1792 0
-32 -1776 1777 0
-1777 1793 0
-33 -1777 1778 0
-1778 1794 0
-34 -1778 1779 0
-1779 1795 0
-35 -1779 1780 0
-1780 1796 0
-36 -1780 1781 0
-1781 1797 0
-37 -1781 1782 0
-1782 1798 0
-38 -1782 1783 0
-1783 1799 0
-39 -1783 1784 0
-1784 1800 0
-40 -1784 0
-25 1785 0
-1785 1801 0
-26 -1785 1786 0
-1786 1802 0
-27 -1786 1787 0
-1787 1803 0
-28 -1787 1788 0
-1788 1804 0
-29 -1788 1789 0
-1789 1805 0
-30 -1789 1790 0
-1790 1806 0
-31 -1790 1791 0
-1791 1807 0
-32 -1791 1792 0
-1792 1808 0
-33 -1792 1793 0
-1793 1809 0
-34 -1793 1794 0
-1794 1810 0
-35 -1794 1795 0
-1795 1811 0
-36 -1795 1796 0
-1796 1812 0
-37 -1796 1797 0
-1797 1813 0
-38 -1797 1798 0
-1798 1814 0
-39 -1798 1799 0
-1799 1815 0
-40 -1799 1800 0
-1800 1816 0
-41 -1800 0
-26 1801 0
-1801 1817 0
-27 -1801 1802 0
-1802 1818 0
-28 -1802 1803 0
-1803 1819 0
-29 -1803 1804 0
-1804 1820 0
-30 -1804 1805 0
-1805 1821 0
-31 -1805 1806 0
-1806 1822 0
-32 -1806 1807 0
-1807 1823 0
-33 -1807 1808 0
-1808 1824 0
-34 -1808 1809 0
-1809 1825 0
-35 -1809 1810 0
-1810 1826 0
-36 -1810 1811 0
-1811 1827 0
-37 -1811 1812 0
-1812 1828 0
-38 -1812 1813 0
-1813 1829 0
-39 -1813 1814 0
-1814 1830 0
-40 -1814 1815 0
-1815 1831 0
-41 -1815 1816 0
-1816 1832 0
-42 -1816 0
-27 1817 0
-1817 1833 0
-28 -1817 1818 0
-1818 1834 0
-29 -1818 1819 0
-1819 1835 0
-30 -1819 1820 0
-1820 1836 0
-31 -1820 1821 0
-1821 1837 0
-32 -1821 1822 0
-1822 1838 0
-33 -1822 1823 0
-1823 1839 0
-34 -1823 1824 0
-1824 1840 0
-35 -1824 1825 0
-1825 1841 0
-36 -1825 1826 0
-1826 1842 0
-37 -1826 1827 0
-1827 1843 0
-38 -1827 1828 0
-1828 1844 0
-39 -1828 1829 0
-1829 1845 0
-40 -1829 1830 0
-1830 1846 0
-41 -1830 1831 0
-1831 1847 0
-42 -1831 1832 0
-1832 1848 0
-43 -1832 0
-28 1833 0
-1833 1849 0
-29 -1833 1834 0
-1834 1850 0
-30 -1834 1835 0
-1835 1851 0
-31 -1835 1836 0
-1836 1852 0
-32 -1836 1837 0
-1837 1853 0
-33 -1837 1838 0
-1838 1854 0
-34 -1838 1839 0
-1839 1855 0
-35 -1839 1840 0
-1840 1856 0
-36 -1840 1841 0
-1841 1857 0
-37 -1841 1842 0
-1842 1858 0
-38 -1842 1843 0
-1843 1859 0
-39 -1843 1844 0
-1844 1860 0
-40 -1844 1845 0
-1845 1861 0
-41 -1845 1846 0
-1846 1862 0
-42 -1846 1847 0
-1847 1863 0
-43 -1847 1848 0
-1848 1864 0
-44 -1848 0
-29 1849 0
-1849 1865 0
-30 -1849 1850 0
-1850 1866 0
-31 -1850 1851 0
-1851 1867 0
-32 -1851 1852 0
-1852 1868 0
-33 -1852 1853 0
-1853 1869 0
-34 -1853 1854 0
-1854 1870 0
-35 -1854 1855 0
-1855 1871 0
-36 -1855 1856 0
-1856 1872 0
-37 -1856 1857 0
-1857 1873 0
-38 -1857 1858 0
-1858 1874 0
-39 -1858 1859 0
-1859 1875 0
-40 -1859 1860 0
-1860 1876 0
-41 -1860 1861 0
-1861 1877 0
-42 -1861 1862 0
-1862 1878 0
-43 -1862 1863 0
-1863 1879 0
-44 -1863 1864 0
-1864 1880 0
-45 -1864 0
-30 1865 0
-1865 1881 0
-31 -1865 1866 0
-1866 1882 0
-32 -1866 1867 0
-1867 1883 0
-33 -1867 1868 0
-1868 1884 0
-34 -1868 1869 0
-1869 1885 0
-35 -1869 1870 0
-1870 1886 0
-36 -1870 1871 0
-1871 1887 0
-37 -1871 1872 0
-1872 1888 0
-38 -1872 1873 0
-1873 1889 0
-39 -1873 1874 0
-1874 1890 0
-40 -1874 1875 0
-1875 1891 0
-41 -1875 1876 0
-1876 1892 0
-42 -1876 1877 0
-1877 1893 0
-43 -1877 1878 0
-1878 1894 0
-44 -1878 1879 0
-1879 1895 0
-45 -1879 1880 0
-1880 1896 0
-46 -1880 0
-31 1881 0
-1881 1897 0
-32 -1881 1882 0
-1882 1898 0
-33 -1882 1883 0
-1883 1899 0
-34 -1883 1884 0
-1884 1900 0
-35 -1884 1885 0
-1885 1901 0
-36 -1885 1886 0
-1886 1902 0
-37 -1886 1887 0
-1887 1903 0
-38 -1887 1888 0
-1888 1904 0
-39 -1888 1889 0
-1889 1905 0
-40 -1889 1890 0
-1890 1906 0
-41 -1890 1891 0
-1891 1907 0
-42 -1891 1892 0
-1892 1908 0
-43 -1892 1893 0
-1893 1909 0
-44 -1893 1894 0
-1894 1910 0
-45 -1894 1895 0
-1895 1911 0
-46 -1895 1896 0
-1896 1912 0
-47 -1896 0
-32 1897 0
-1897 1913 0
-33 -1897 1898 0
-1898 1914 0
-34 -1898 1899 0
-1899 1915 0
-35 -1899 1900 0
-1900 1916 0
-36 -1900 1901 0
-1901 1917 0
-37 -1901 1902 0
-1902 1918 0
-38 -1902 1903 0
-1903 1919 0
-39 -1903 1904 0
-1904 1920 0
-40 -1904 1905 0
-1905 1921 0
-41 -1905 1906 0
-1906 1922 0
-42 -1906 1907 0
-1907 1923 0
-43 -1907 1908 0
-1908 1924 0
-44 -1908 1909 0
-1909 1925 0
-45 -1909 1910 0
-1910 1926 0
-46 -1910 1911 0
-1911 1927 0
-47 -1911 1912 0
-1912 1928 0
-48 -1912 0
-33 1913 0
-1913 1929 0
-34 -1913 1914 0
-1914 1930 0
-35 -1914 1915 0
-1915 1931 0
-36 -1915 1916 0
-1916 1932 0
-37 -1916 1917 0
-1917 1933 0
-38 -1917 1918 0
-1918 1934 0
-39 -1918 1919 0
-1919 1935 0
-40 -1919 1920 0
-1920 1936 0
-41 -1920 1921 0
-1921 1937 0
-42 -1921 1922 0
-1922 1938 0
-43 -1922 1923 0
-1923 1939 0
-44 -1923 1924 0
-1924 1940 0
-45 -1924 1925 0
-1925 1941 0
-46 -1925 1926 0
-1926 1942 0
-47 -1926 1927 0
-1927 1943 0
-48 -1927 1928 0
-1928 1944 0
-49 -1928 0
-34 1929 0
-1929 1945 0
-35 -1929 1930 0
-1930 1946 0
-36 -1930 1931 0
-1931 1947 0
-37 -1931 1932 0
-1932 1948 0
-38 -1932 1933 0
-1933 1949 0
-39 -1933 1934 0
-1934 1950 0
-40 -1934 1935 0
-1935 1951 0
-41 -1935 1936 0
-1936 1952 0
-42 -1936 1937 0
-1937 1953 0
-43 -1937 1938 0
-1938 1954 0
-44 -1938 1939 0
-1939 1955 0
-45 -1939 1940 0
-1940 1956 0
-46 -1940 1941 0
-1941 1957 0
-47 -1941 1942 0
-1942 1958 0
-48 -1942 1943 0
-1943 1959 0
-49 -1943 1944 0
-1944 1960 0
-50 -1944 0
-35 1945 0
-1945 1961 0
-36 -1945 1946 0
-1946 1962 0
-37 -1946 1947 0
-1947 1963 0
-38 -1947 1948 0
-1948 1964 0
-39 -1948 1949 0
-1949 1965 0
-40 -1949 1950 0
-1950 1966 0
-41 -1950 1951 0
-1951 1967 0
-42 -1951 1952 0
-1952 1968 0
-43 -1952 1953 0
-1953 1969 0
-44 -1953 1954 0
-1954 1970 0
-45 -1954 1955 0
-1955 1971 0
-46 -1955 1956 0
-1956 1972 0
-47 -1956 1957 0
-1957 1973 0
-48 -1957 1958 0
-1958 1974 0
-49 -1958 1959 0
-1959 1975 0
-50 -1959 1960 0
-1960 1976 0
-51 -1960 0
-36 1961 0
-1961 1977 0
-37 -1961 1962 0
-1962 1978 0
-38 -1962 1963 0
-1963 1979 0
-39 -1963 1964 0
-1964 1980 0
-40 -1964 1965 0
-1965 1981 0
-41 -1965 1966 0
-1966 1982 0
-42 -1966 1967 0
-1967 1983 0
-43 -1967 1968 0
-1968 1984 0
-44 -1968 1969 0
-1969 1985 0
-45 -1969 1970 0
-1970 1986 0
-46 -1970 1971 0
-1971 1987 0
-47 -1971 1972 0
-1972 1988 0
-48 -1972 1973 0
-1973 1989 0
-49 -1973 1974 0
-1974 1990 0
-50 -1974 1975 0
-1975 1991 0
-51 -1975 1976 0
-1976 1992 0
-52 -1976 0
-37 1977 0
-1977 1993 0
-38 -1977 1978 0
-1978 1994 0
-39 -1978 1979 0
-1979 1995 0
-40 -1979 1980 0
-1980 1996 0
-41 -1980 1981 0
-1981 1997 0
-42 -1981 1982 0
-1982 1998 0
-43 -1982 1983 0
-1983 1999 0
-44 -1983 1984 0
-1984 2000 0
-45 -1984 1985 0
-1985 2001 0
-46 -1985 1986 0
-1986 2002 0
-47 -1986 1987 0
-1987 2003 0
-48 -1987 1988 0
-1988 2004 0
-49 -1988 1989 0
-1989 2005 0
-50 -1989 1990 0
-1990 2006 0
-51 -1990 1991 0
-1991 2007 0
-52 -1991 1992 0
-1992 2008 0
-53 -1992 0
-38 1993 0
-1993 2009 0
-39 -1993 1994 0
-1994 2010 0
-40 -1994 1995 0
-1995 2011 0
-41 -1995 1996 0
-1996 2012 0
-42 -1996 1997 0
-1997 2013 0
-43 -1997 1998 0
-1998 2014 0
-44 -1998 1999 0
-1999 2015 0
-45 -1999 2000 0
-2000 2016 0
-46 -2000 2001 0
-2001 2017 0
-47 -2001 2002 0
-2002 2018 0
-48 -2002 2003 0
-2003 2019 0
-49 -2003 2004 0
-2004 2020 0
-50 -2004 2005 0
-2005 2021 0
-51 -2005 2006 0
-2006 2022 0
-52 -2006 2007 0
-2007 2023 0
-53 -2007 2008 0
-2008 2024 0
-54 -2008 0
-39 2009 0
-2009 2025 0
-40 -2009 2010 0
-2010 2026 0
-41 -2010 2011 0
-2011 2027 0
-42 -2011 2012 0
-2012 2028 0
-43 -2012 2013 0
-2013 2029 0
-44 -2013 2014 0
-2014 2030 0
-45 -2014 2015 0
-2015 2031 0
-46 -2015 2016 0
-2016 2032 0
-47 -2016 2017 0
-2017 2033 0
-48 -2017 2018 0
-2018 2034 0
-49 -2018 2019 0
-2019 2035 0
-50 -2019 2020 0
-2020 2036 0
-51 -2020 2021 0
-2021 2037 0
-52 -2021 2022 0
-2022 2038 0
-53 -2022 2023 0
-2023 2039 0
-54 -2023 2024 0
-2024 2040 0
-55 -2024 0
-40 2025 0
-2025 2041 0
-41 -2025 2026 0
-2026 2042 0
-42 -2026 2027 0
-2027 2043 0
-43 -2027 2028 0
-2028 2044 0
-44 -2028 2029 0
-2029 2045 0
-45 -2029 2030 0
-2030 2046 0
-46 -2030 2031 0
-2031 2047 0
-47 -2031 2032 0
-2032 2048 0
-48 -2032 2033 0
-2033 2049 0
-49 -2033 2034 0
-2034 2050 0
-50 -2034 2035 0
-2035 2051 0
-51 -2035 2036 0
-2036 2052 0
-52 -2036 2037 0
-2037 2053 0
-53 -2037 2038 0
-2038 2054 0
-54 -2038 2039 0
-2039 2055 0
-55 -2039 2040 0
-2040 2056 0
-56 -2040 0
-41 2041 0
-2041 2057 0
-42 -2041 2042 0
-2042 2058 0
-43 -2042 2043 0
-2043 2059 0
-44 -2043 2044 0
-2044 2060 0
-45 -2044 2045 0
-2045 2061 0
-46 -2045 2046 0
-2046 2062 0
-47 -2046 2047 0
-2047 2063 0
-48 -2047 2048 0
-2048 2064 0
-49 -2048 2049 0
-2049 2065 0
-50 -2049 2050 0
-2050 2066 0
-51 -2050 2051 0
-2051 2067 0
-52 -2051 2052 0
-2052 2068 0
-53 -2052 2053 0
-2053 2069 0
-54 -2053 2054 0
-2054 2070 0
-55 -2054 2055 0
-2055 2071 0
-56 -2055 2056 0
-2056 2072 0
-57 -2056 0
-42 2057 0
-2057 2073 0
-43 -2057 2058 0
-2058 2074 0
-44 -2058 2059 0
-2059 2075 0
-45 -2059 2060 0
-2060 2076 0
-46 -2060 2061 0
-2061 2077 0
-47 -2061 2062 0
-2062 2078 0
-48 -2062 2063 0
-2063 2079 0
-49 -2063 2064 0
-2064 2080 0
-50 -2064 2065 0
-2065 2081 0
-51 -2065 2066 0
-2066 2082 0
-52 -2066 2067 0
-2067 2083 0
-53 -2067 2068 0
-2068 2084 0
-54 -2068 2069 0
-2069 2085 0
-55 -2069 2070 0
-2070 2086 0
-56 -2070 2071 0
-2071 2087 0
-57 -2071 2072 0
-2072 2088 0
-58 -2072 0
-43 2073 0
-2073 2089 0
-44 -2073 2074 0
-2074 2090 0
-45 -2074 2075 0
-2075 2091 0
-46 -2075 2076 0
-2076 2092 0
-47 -2076 2077 0
-2077 2093 0
-48 -2077 2078 0
-2078 2094 0
-49 -2078 2079 0
-2079 2095 0
-50 -2079 2080 0
-2080 2096 0
-51 -2080 2081 0
-2081 2097 0
-52 -2081 2082 0
-2082 2098 0
-53 -2082 2083 0
-2083 2099 0
-54 -2083 2084 0
-2084 2100 0
-55 -2084 2085 0
-2085 2101 0
-56 -2085 2086 0
-2086 2102 0
-57 -2086 2087 0
-2087 2103 0
-58 -2087 2088 0
-2088 2104 0
-59 -2088 0
-44 2089 0
-2089 2105 0
-45 -2089 2090 0
-2090 2106 0
-46 -2090 2091 0
-2091 2107 0
-47 -2091 2092 0
-2092 2108 0
-48 -2092 2093 0
-2093 2109 0
-49 -2093 2094 0
-2094 2110 0
-50 -2094 2095 0
-2095 2111 0
-51 -2095 2096 0
-2096 2112 0
-52 -2096 2097 0
-2097 2113 0
-53 -2097 2098 0
-2098 2114 0
-54 -2098 2099 0
-2099 2115 0
-55 -2099 2100 0
-2100 2116 0
-56 -2100 2101 0
-2101 2117 0
-57 -2101 2102 0
-2102 2118 0
-58 -2102 2103 0
-2103 2119 0
-59 -2103 2104 0
-2104 2120 0
-60 -2104 0
-45 2105 0
-2105 2121 0
-46 -2105 2106 0
-2106 2122 0
-47 -2106 2107 0
-2107 2123 0
-48 -2107 2108 0
-2108 2124 0
-49 -2108 2109 0
-2109 2125 0
-50 -2109 2110 0
-2110 2126 0
-51 -2110 2111 0
-2111 2127 0
-52 -2111 2112 0
-2112 2128 0
-53 -2112 2113 0
-2113 2129 0
-54 -2113 2114 0
-2114 2130 0
-55 -2114 2115 0
-2115 2131 0
-56 -2115 2116 0
-2116 2132 0
-57 -2116 2117 0
-2117 2133 0
-58 -2117 2118 0
-2118 2134 0
-59 -2118 2119 0
-2119 2135 0
-60 -2119 2120 0
-2120 2136 0
-61 -2120 0
-46 2121 0
-2121 2137 0
-47 -2121 2122 0
-2122 2138 0
-48 -2122 2123 0
-2123 2139 0
-49 -2123 2124 0
-2124 2140 0
-50 -2124 2125 0
-2125 2141 0
-51 -2125 2126 0
-2126 2142 0
-52 -2126 2127 0
-2127 2143 0
-53 -2127 2128 0
-2128 2144 0
-54 -2128 2129 0
-2129 2145 0
-55 -2129 2130 0
-2130 2146 0
-56 -2130 2131 0
-2131 2147 0
-57 -2131 2132 0
-2132 2148 0
-58 -2132 2133 0
-2133 2149 0
-59 -2133 2134 0
-2134 2150 0
-60 -2134 2135 0
-2135 2151 0
-61 -2135 2136 0
-2136 2152 0
-62 -2136 0
-47 2137 0
-2137 2153 0
-48 -2137 2138 0
-2138 2154 0
-49 -2138 2139 0
-2139 2155 0
-50 -2139 2140 0
-2140 2156 0
-51 -2140 2141 0
-2141 2157 0
-52 -2141 2142 0
-2142 2158 0
-53 -2142 2143 0
-2143 2159 0
-54 -2143 2144 0
-2144 2160 0
-55 -2144 2145 0
-2145 2161 0
-56 -2145 2146 0
-2146 2162 0
-57 -2146 2147 0
-2147 2163 0
-58 -2147 2148 0
-2148 2164 0
-59 -2148 2149 0
-2149 2165 0
-60 -2149 2150 0
-2150 2166 0
-61 -2150 2151 0
-2151 2167 0
-62 -2151 2152 0
-2152 2168 0
-63 -2152 0
-48 2153 0
-2153 2169 0
-49 -2153 2154 0
-2154 2170 0
-50 -2154 2155 0
-2155 2171 0
-51 -2155 2156 0
-2156 2172 0
-52 -2156 2157 0
-2157 2173 0
-53 -2157 2158 0
-2158 2174 0
-54 -2158 2159 0
-2159 2175 0
-55 -2159 2160 0
-2160 2176 0
-56 -2160 2161 0
-2161 2177 0
-57 -2161 2162 0
-2162 2178 0
-58 -2162 2163 0
-2163 2179 0
-59 -2163 2164 0
-2164 2180 0
-60 -2164 2165 0
-2165 2181 0
-61 -2165 2166 0
-2166 2182 0
-62 -2166 2167 0
-2167 2183 0
-63 -2167 2168 0
-2168 2184 0
-64 -2168 0
-49 2169 0
-2169 2185 0
-50 -2169 2170 0
-2170 2186 0
-51 -2170 2171 0
-2171 2187 0
-52 -2171 2172 0
-2172 2188 0
-53 -2172 2173 0
-2173 2189 0
-54 -2173 2174 0
-2174 2190 0
-55 -2174 2175 0
-2175 2191 0
-56 -2175 2176 0
-2176 2192 0
-57 -2176 2177 0
-2177 2193 0
-58 -2177 2178 0
-2178 2194 0
-59 -2178 2179 0
-2179 2195 0
-60 -2179 2180 0
-2180 2196 0
-61 -2180 2181 0
-2181 2197 0
-62 -2181 2182 0
-2182 2198 0
-63 -2182 2183 0
-2183 2199 0
-64 -2183 2184 0
-2184 2200 0
-65 -2184 0
-50 2185 0
-2185 2201 0
-51 -2185 2186 0
-2186 2202 0
-52 -2186 2187 0
-2187 2203 0
-53 -2187 2188 0
-2188 2204 0
-54 -2188 2189 0
-2189 2205 0
-55 -2189 2190 0
-2190 2206 0
-56 -2190 2191 0
-2191 2207 0
-57 -2191 2192 0
-2192 2208 0
-58 -2192 2193 0
-2193 2209 0
-59 -2193 2194 0
-2194 2210 0
-60 -2194 2195 0
-2195 2211 0
-61 -2195 2196 0
-2196 2212 0
-62 -2196 2197 0
-2197 2213 0
-63 -2197 2198 0
-2198 2214 0
-64 -2198 2199 0
-2199 2215 0
-65 -2199 2200 0
-2200 2216 0
-66 -2200 0
-51 2201 0
-2201 2217 0
-52 -2201 2202 0
-2202 2218 0
-53 -2202 2203 0
-2203 2219 0
-54 -2203 2204 0
-2204 2220 0
-55 -2204 2205 0
-2205 2221 0
-56 -2205 2206 0
-2206 2222 0
-57 -2206 2207 0
-2207 2223 0
-58 -2207 2208 0
-2208 2224 0
-59 -2208 2209 0
-2209 2225 0
-60 -2209 2210 0
-2210 2226 0
-61 -2210 2211 0
-2211 2227 0
-62 -2211 2212 0
-2212 2228 0
-63 -2212 2213 0
-2213 2229 0
-64 -2213 2214 0
-2214 2230 0
-65 -2214 2215 0
-2215 2231 0
-66 -2215 2216 0
-2216 2232 0
-67 -2216 0
-52 2217 0
-2217 2233 0
-53 -2217 2218 0
-2218 2234 0
-54 -2218 2219 0
-2219 2235 0
-55 -2219 2220 0
-2220 2236 0
-56 -2220 2221 0
-2221 2237 0
-57 -2221 2222 0
-2222 2238 0
-58 -2222 2223 0
-2223 2239 0
-59 -2223 2224 0
-2224 2240 0
-60 -2224 2225 0
-2225 2241 0
-61 -2225 2226 0
-2226 2242 0
-62 -2226 2227 0
-2227 2243 0
-63 -2227 2228 0
-2228 2244 0
-64 -2228 2229 0
-2229 2245 0
-65 -2229 2230 0
-2230 2246 0
-66 -2230 2231 0
-2231 2247 0
-67 -2231 2232 0
-2232 2248 0
-68 -2232 0
-53 2233 0
-2233 2249 0
-54 -2233 2234 0
-2234 2250 0
-55 -2234 2235 0
-2235 2251 0
-56 -2235 2236 0
-2236 2252 0
-57 -2236 2237 0
-2237 2253 0
-58 -2237 2238 0
-2238 2254 0
-59 -2238 2239 0
-2239 2255 0
-60 -2239 2240 0
-2240 2256 0
-61 -2240 2241 0
-2241 2257 0
-62 -2241 2242 0
-2242 2258 0
-63 -2242 2243 0
-2243 2259 0
-64 -2243 2244 0
-2244 2260 0
-65 -2244 2245 0
-2245 2261 0
-66 -2245 2246 0
-2246 2262 0
-67 -2246 2247 0
-2247 2263 0
-68 -2247 2248 0
-2248 2264 0
-69 -2248 0
-54 2249 0
-2249 2265 0
-55 -2249 2250 0
-2250 2266 0
-56 -2250 2251 0
-2251 2267 0
-57 -2251 2252 0
-2252 2268 0
-58 -2252 2253 0
-2253 2269 0
-59 -2253 2254 0
-2254 2270 0
-60 -2254 2255 0
-2255 2271 0
-61 -2255 2256 0
-2256 2272 0
-62 -2256 2257 0
-2257 2273 0
-63 -2257 2258 0
-2258 2274 0
-64 -2258 2259 0
-2259 2275 0
-65 -2259 2260 0
-2260 2276 0
-66 -2260 2261 0
-2261 2277 0
-67 -2261 2262 0
-2262 2278 0
-68 -2262 2263 0
-2263 2279 0
-69 -2263 2264 0
-2264 2280 0
-70 -2264 0
-55 2265 0
-2265 2281 0
-56 -2265 2266 0
-2266 2282 0
-57 -2266 2267 0
-2267 2283 0
-58 -2267 2268 0
-2268 2284 0
-59 -2268 2269 0
-2269 2285 0
-60 -2269 2270 0
-2270 2286 0
-61 -2270 2271 0
-2271 2287 0
-62 -2271 2272 0
-2272 2288 0
-63 -2272 2273 0
-2273 2289 0
-64 -2273 2274 0
-2274 2290 0
-65 -2274 2275 0
-2275 2291 0
-66 -2275 2276 0
-2276 2292 0
-67 -2276 2277 0
-2277 2293 0
-68 -2277 2278 0
-2278 2294 0
-69 -2278 2279 0
-2279 2295 0
-70 -2279 2280 0
-2280 2296 0
-71 -2280 0
-56 2281 0
-2281 2297 0
-57 -2281 2282 0
-2282 2298 0
-58 -2282 2283 0
-2283 2299 0
-59 -2283 2284 0
-2284 2300 0
-60 -2284 2285 0
-2285 2301 0
-61 -2285 2286 0
-2286 2302 0
-62 -2286 2287 0
-2287 2303 0
-63 -2287 2288 0
-2288 2304 0
-64 -2288 2289 0
-2289 2305 0
-65 -2289 2290 0
-2290 2306 0
-66 -2290 2291 0
-2291 2307 0
-67 -2291 2292 0
-2292 2308 0
-68 -2292 2293 0
-2293 2309 0
-69 -2293 2294 0
-2294 2310 0
-70 -2294 2295 0
-2295 2311 0
-71 -2295 2296 0
-2296 2312 0
-72 -2296 0
-57 2297 0
-2297 2313 0
-58 -2297 2298 0
-2298 2314 0
-59 -2298 2299 0
-2299 2315 0
-60 -2299 2300 0
-2300 2316 0
-61 -2300 2301 0
-2301 2317 0
-62 -2301 2302 0
-2302 2318 0
-63 -2302 2303 0
-2303 2319 0
-64 -2303 2304 0
-2304 2320 0
-65 -2304 2305 0
-2305 2321 0
-66 -2305 2306 0
-2306 2322 0
-67 -2306 2307 0
-2307 2323 0
-68 -2307 2308 0
-2308 2324 0
-69 -2308 2309 0
-2309 2325 0
-70 -2309 2310 0
-2310 2326 0
-71 -2310 2311 0
-2311 2327 0
-72 -2311 2312 0
-2312 2328 0
-73 -2312 0
-58 2313 0
-2313 2329 0
-59 -2313 2314 0
-2314 2330 0
-60 -2314 2315 0
-2315 2331 0
-61 -2315 2316 0
-2316 2332 0
-62 -2316 2317 0
-2317 2333 0
-63 -2317 2318 0
-2318 2334 0
-64 -2318 2319 0
-2319 2335 0
-65 -2319 2320 0
-2320 2336 0
-66 -2320 2321 0
-2321 2337 0
-67 -2321 2322 0
-2322 2338 0
-68 -2322 2323 0
-2323 2339 0
-69 -2323 2324 0
-2324 2340 0
-70 -2324 2325 0
-2325 2341 0
-71 -2325 2326 0
-2326 2342 0
-72 -2326 2327 0
-2327 2343 0
-73 -2327 2328 0
-2328 2344 0
-74 -2328 0
-59 2329 0
-2329 2345 0
-60 -2329 2330 0
-2330 2346 0
-61 -2330 2331 0
-2331 2347 0
-62 -2331 2332 0
-2332 2348 0
-63 -2332 2333 0
-2333 2349 0
-64 -2333 2334 0
-2334 2350 0
-65 -2334 2335 0
-2335 2351 0
-66 -2335 2336 0
-2336 2352 0
-67 -2336 2337 0
-2337 2353 0
-68 -2337 2338 0
-2338 2354 0
-69 -2338 2339 0
-2339 2355 0
-70 -2339 2340 0
-2340 2356 0
-71 -2340 2341 0
-2341 2357 0
-72 -2341 2342 0
-2342 2358 0
-73 -2342 2343 0
-2343 2359 0
-74 -2343 2344 0
-2344 2360 0
-75 -2344 0
-60 2345 0
-2345 2361 0
-61 -2345 2346 0
-2346 2362 0
-62 -2346 2347 0
-2347 2363 0
-63 -2347 2348 0
-2348 2364 0
-64 -2348 2349 0
-2349 2365 0
-65 -2349 2350 0
-2350 2366 0
-66 -2350 2351 0
-2351 2367 0
-67 -2351 2352 0
-2352 2368 0
-68 -2352 2353 0
-2353 2369 0
-69 -2353 2354 0
-2354 2370 0
-70 -2354 2355 0
-2355 2371 0
-71 -2355 2356 0
-2356 2372 0
-72 -2356 2357 0
-2357 2373 0
-73 -2357 2358 0
-2358 2374 0
-74 -2358 2359 0
-2359 2375 0
-75 -2359 2360 0
-2360 2376 0
-76 -2360 0
-61 2361 0
-2361 2377 0
-62 -2361 2362 0
-2362 2378 0
-63 -2362 2363 0
-2363 2379 0
-64 -2363 2364 0
-2364 2380 0
-65 -2364 2365 0
-2365 2381 0
-66 -2365 2366 0
-2366 2382 0
-67 -2366 2367 0
-2367 2383 0
-68 -2367 2368 0
-2368 2384 0
-69 -2368 2369 0
-2369 2385 0
-70 -2369 2370 0
-2370 2386 0
-71 -2370 2371 0
-2371 2387 0
-72 -2371 2372 0
-2372 2388 0
-73 -2372 2373 0
-2373 2389 0
-74 -2373 2374 0
-2374 2390 0
-75 -2374 2375 0
-2375 2391 0
-76 -2375 2376 0
-2376 2392 0
-77 -2376 0
-62 2377 0
-2377 2393 0
-63 -2377 2378 0
-2378 2394 0
-64 -2378 2379 0
-2379 2395 0
-65 -2379 2380 0
-2380 2396 0
-66 -2380 2381 0
-2381 2397 0
-67 -2381 2382 0
-2382 2398 0
-68 -2382 2383 0
-2383 2399 0
-69 -2383 2384 0
-2384 2400 0
-70 -2384 2385 0
-2385 2401 0
-71 -2385 2386 0
-2386 2402 0
-72 -2386 2387 0
-2387 2403 0
-73 -2387 2388 0
-2388 2404 0
-74 -2388 2389 0
-2389 2405 0
-75 -2389 2390 0
-2390 2406 0
-76 -2390 2391 0
-2391 2407 0
-77 -2391 2392 0
-2392 2408 0
-78 -2392 0
-63 2393 0
-2393 2409 0
-64 -2393 2394 0
-2394 2410 0
-65 -2394 2395 0
-2395 2411 0
-66 -2395 2396 0
-2396 2412 0
-67 -2396 2397 0
-2397 2413 0
-68 -2397 2398 0
-2398 2414 0
-69 -2398 2399 0
-2399 2415 0
-70 -2399 2400 0
-2400 2416 0
-71 -2400 2401 0
-2401 2417 0
-72 -2401 2402 0
-2402 2418 0
-73 -2402 2403 0
-2403 2419 0
-74 -2403 2404 0
-2404 2420 0
-75 -2404 2405 0
-2405 2421 0
-76 -2405 2406 0
-2406 2422 0
-77 -2406 2407 0
-2407 2423 0
-78 -2407 2408 0
-2408 2424 0
-79 -2408 0
-64 2409 0
-2409 2425 0
-65 -2409 2410 0
-2410 2426 0
-66 -2410 2411 0
-2411 2427 0
-67 -2411 2412 0
-2412 2428 0
-68 -2412 2413 0
-2413 2429 0
-69 -2413 2414 0
-2414 2430 0
-70 -2414 2415 0
-2415 2431 0
-71 -2415 2416 0
-2416 2432 0
-72 -2416 2417 0
-2417 2433 0
-73 -2417 2418 0
-2418 2434 0
-74 -2418 2419 0
-2419 2435 0
-75 -2419 2420 0
-2420 2436 0
-76 -2420 2421 0
-2421 2437 0
-77 -2421 2422 0
-2422 2438 0
-78 -2422 2423 0
-2423 2439 0
-79 -2423 2424 0
-2424 2440 0
-80 -2424 0
-65 2425 0
-2425 2441 0
-66 -2425 2426 0
-2426 2442 0
-67 -2426 2427 0
-2427 2443 0
-68 -2427 2428 0
-2428 2444 0
-69 -2428 2429 0
-2429 2445 0
-70 -2429 2430 0
-2430 2446 0
-71 -2430 2431 0
-2431 2447 0
-72 -2431 2432 0
-2432 2448 0
-73 -2432 2433 0
-2433 2449 0
-74 -2433 2434 0
-2434 2450 0
-75 -2434 2435 0
-2435 2451 0
-76 -2435 2436 0
-2436 2452 0
-77 -2436 2437 0
-2437 2453 0
-78 -2437 2438 0
-2438 2454 0
-79 -2438 2439 0
-2439 2455 0
-80 -2439 2440 0
-2440 2456 0
-81 -2440 0
-66 2441 0
-2441 2457 0
-67 -2441 2442 0
-2442 2458 0
-68 -2442 2443 0
-2443 2459 0
-69 -2443 2444 0
-2444 2460 0
-70 -2444 2445 0
-2445 2461 0
-71 -2445 2446 0
-2446 2462 0
-72 -2446 2447 0
-2447 2463 0
-73 -2447 2448 0
-2448 2464 0
-74 -2448 2449 0
-2449 2465 0
-75 -2449 2450 0
-2450 2466 0
-76 -2450 2451 0
-2451 2467 0
-77 -2451 2452 0
-2452 2468 0
-78 -2452 2453 0
-2453 2469 0
-79 -2453 2454 0
-2454 2470 0
-80 -2454 2455 0
-2455 2471 0
-81 -2455 2456 0
-2456 2472 0
-82 -2456 0
-67 2457 0
-2457 2473 0
-68 -2457 2458 0
-2458 2474 0
-69 -2458 2459 0
-2459 2475 0
-70 -2459 2460 0
-2460 2476 0
-71 -2460 2461 0
-2461 2477 0
-72 -2461 2462 0
-2462 2478 0
-73 -2462 2463 0
-2463 2479 0
-74 -2463 2464 0
-2464 2480 0
-75 -2464 2465 0
-2465 2481 0
-76 -2465 2466 0
-2466 2482 0
-77 -2466 2467 0
-2467 2483 0
-78 -2467 2468 0
-2468 2484 0
-79 -2468 2469 0
-2469 2485 0
-80 -2469 2470 0
-2470 2486 0
-81 -2470 2471 0
-2471 2487 0
-82 -2471 2472 0
-2472 2488 0
-83 -2472 0
-68 2473 0
-2473 2489 0
-69 -2473 2474 0
-2474 2490 0
-70 -2474 2475 0
-2475 2491 0
-71 -2475 2476 0
-2476 2492 0
-72 -2476 2477 0
-2477 2493 0
-73 -2477 2478 0
-2478 2494 0
-74 -2478 2479 0
-2479 2495 0
-75 -2479 2480 0
-2480 2496 0
-76 -2480 2481 0
-2481 2497 0
-77 -2481 2482 0
-2482 2498 0
-78 -2482 2483 0
-2483 2499 0
-79 -2483 2484 0
-2484 2500 0
-80 -2484 2485 0
-2485 2501 0
-81 -2485 2486 0
-2486 2502 0
-82 -2486 2487 0
-2487 2503 0
-83 -2487 2488 0
-2488 2504 0
-84 -2488 0
-69 2489 0
-2489 2505 0
-70 -2489 2490 0
-2490 2506 0
-71 -2490 2491 0
-2491 2507 0
-72 -2491 2492 0
-2492 2508 0
-73 -2492 2493 0
-2493 2509 0
-74 -2493 2494 0
-2494 2510 0
-75 -2494 2495 0
-2495 2511 0
-76 -2495 2496 0
-2496 2512 0
-77 -2496 2497 0
-2497 2513 0
-78 -2497 2498 0
-2498 2514 0
-79 -2498 2499 0
-2499 2515 0
-80 -2499 2500 0
-2500 2516 0
-81 -2500 2501 0
-2501 2517 0
-82 -2501 2502 0
-2502 2518 0
-83 -2502 2503 0
-2503 2519 0
-84 -2503 2504 0
-2504 2520 0
-85 -2504 0
-70 2505 0
-2505 2521 0
-71 -2505 2506 0
-2506 2522 0
-72 -2506 2507 0
-2507 2523 0
-73 -2507 2508 0
-2508 2524 0
-74 -2508 2509 0
-2509 2525 0
-75 -2509 2510 0
-2510 2526 0
-76 -2510 2511 0
-2511 2527 0
-77 -2511 2512 0
-2512 2528 0
-78 -2512 2513 0
-2513 2529 0
-79 -2513 2514 0
-2514 2530 0
-80 -2514 2515 0
-2515 2531 0
-81 -2515 2516 0
-2516 2532 0
-82 -2516 2517 0
-2517 2533 0
-83 -2517 2518 0
-2518 2534 0
-84 -2518 2519 0
-2519 2535 0
-85 -2519 2520 0
-2520 2536 0
-86 -2520 0
-71 2521 0
-2521 2537 0
-72 -2521 2522 0
-2522 2538 0
-73 -2522 2523 0
-2523 2539 0
-74 -2523 2524 0
-2524 2540 0
-75 -2524 2525 0
-2525 2541 0
-76 -2525 2526 0
-2526 2542 0
-77 -2526 2527 0
-2527 2543 0
-78 -2527 2528 0
-2528 2544 0
-79 -2528 2529 0
-2529 2545 0
-80 -2529 2530 0
-2530 2546 0
-81 -2530 2531 0
-2531 2547 0
-82 -2531 2532 0
-2532 2548 0
-83 -2532 2533 0
-2533 2549 0
-84 -2533 2534 0
-2534 2550 0
-85 -2534 2535 0
-2535 2551 0
-86 -2535 2536 0
-2536 2552 0
-87 -2536 0
-72 2537 0
-2537 2553 0
-73 -2537 2538 0
-2538 2554 0
-74 -2538 2539 0
-2539 2555 0
-75 -2539 2540 0
-2540 2556 0
-76 -2540 2541 0
-2541 2557 0
-77 -2541 2542 0
-2542 2558 0
-78 -2542 2543 0
-2543 2559 0
-79 -2543 2544 0
-2544 2560 0
-80 -2544 2545 0
-2545 2561 0
-81 -2545 2546 0
-2546 2562 0
-82 -2546 2547 0
-2547 2563 0
-83 -2547 2548 0
-2548 2564 0
-84 -2548 2549 0
-2549 2565 0
-85 -2549 2550 0
-2550 2566 0
-86 -2550 2551 0
-2551 2567 0
-87 -2551 2552 0
-2552 2568 0
-88 -2552 0
-73 2553 0
-2553 2569 0
-74 -2553 2554 0
-2554 2570 0
-75 -2554 2555 0
-2555 2571 0
-76 -2555 2556 0
-2556 2572 0
-77 -2556 2557 0
-2557 2573 0
-78 -2557 2558 0
-2558 2574 0
-79 -2558 2559 0
-2559 2575 0
-80 -2559 2560 0
-2560 2576 0
-81 -2560 2561 0
-2561 2577 0
-82 -2561 2562 0
-2562 2578 0
-83 -2562 2563 0
-2563 2579 0
-84 -2563 2564 0
-2564 2580 0
-85 -2564 2565 0
-2565 2581 0
-86 -2565 2566 0
-2566 2582 0
-87 -2566 2567 0
-2567 2583 0
-88 -2567 2568 0
-2568 2584 0
-89 -2568 0
-74 2569 0
-2569 2585 0
-75 -2569 2570 0
-2570 2586 0
-76 -2570 2571 0
-2571 2587 0
-77 -2571 2572 0
-2572 2588 0
-78 -2572 2573 0
-2573 2589 0
-79 -2573 2574 0
-2574 2590 0
-80 -2574 2575 0
-2575 2591 0
-81 -2575 2576 0
-2576 2592 0
-82 -2576 2577 0
-2577 2593 0
-83 -2577 2578 0
-2578 2594 0
-84 -2578 2579 0
-2579 2595 0
-85 -2579 2580 0
-2580 2596 0
-86 -2580 2581 0
-2581 2597 0
-87 -2581 2582 0
-2582 2598 0
-88 -2582 2583 0
-2583 2599 0
-89 -2583 2584 0
-2584 2600 0
-90 -2584 0
-75 2585 0
-2585 2601 0
-76 -2585 2586 0
-2586 2602 0
-77 -2586 2587 0
-2587 2603 0
-78 -2587 2588 0
-2588 2604 0
-79 -2588 2589 0
-2589 2605 0
-80 -2589 2590 0
-2590 2606 0
-81 -2590 2591 0
-2591 2607 0
-82 -2591 2592 0
-2592 2608 0
-83 -2592 2593 0
-2593 2609 0
-84 -2593 2594 0
-2594 2610 0
-85 -2594 2595 0
-2595 2611 0
-86 -2595 2596 0
-2596 2612 0
-87 -2596 2597 0
-2597 2613 0
-88 -2597 2598 0
-2598 2614 0
-89 -2598 2599 0
-2599 2615 0
-90 -2599 2600 0
-2600 2616 0
-91 -2600 0
-76 2601 0
-77 -2601 2602 0
-78 -2602 2603 0
-79 -2603 2604 0
-80 -2604 2605 0
-81 -2605 2606 0
-82 -2606 2607 0
-83 -2607 2608 0
-84 -2608 2609 0
-85 -2609 2610 0
-86 -2610 2611 0
-87 -2611 2612 0
-88 -2612 2613 0
-89 -2613 2614 0
-90 -2614 2615 0
-91 -2615 2616 0
-92 -2616 0
-93 2617 0
-2617 2618 0
-94 -2617 2619 0
-2619 2620 0
-95 -2619 2621 0
-2621 2622 0
-96 -2621 2623 0
-2623 2624 0
-97 -2623 2625 0
-2625 2626 0
-98 -2625 2627 0
-2627 2628 0
-99 -2627 2629 0
-2629 2630 0
-100 -2629 2631 0
-2631 2632 0
-101 -2631 2633 0
-2633 2634 0
-102 -2633 0
-94 2618 0
-2618 2635 0
-95 -2618 2620 0
-2620 2636 0
-96 -2620 2622 0
-2622 2637 0
-97 -2622 2624 0
-2624 2638 0
-98 -2624 2626 0
-2626 2639 0
-99 -2626 2628 0
-2628 2640 0
-100 -2628 2630 0
-2630 2641 0
-101 -2630 2632 0
-2632 2642 0
-102 -2632 2634 0
-2634 2643 0
-103 -2634 0
-95 2635 0
-2635 2644 0
-96 -2635 2636 0
-2636 2645 0
-97 -2636 2637 0
-2637 2646 0
-98 -2637 2638 0
-2638 2647 0
-99 -2638 2639 0
-2639 2648 0
-100 -2639 2640 0
-2640 2649 0
-101 -2640 2641 0
-2641 2650 0
-102 -2641 2642 0
-2642 2651 0
-103 -2642 2643 0
-2643 2652 0
-104 -2643 0
-96 2644 0
-2644 2653 0
-97 -2644 2645 0
-2645 2654 0
-98 -2645 2646 0
-2646 2655 0
-99 -2646 2647 0
-2647 2656 0
-100 -2647 2648 0
-2648 2657 0
-101 -2648 2649 0
-2649 2658 0
-102 -2649 2650 0
-2650 2659 0
-103 -2650 2651 0
-2651 2660 0
-104 -2651 2652 0
-2652 2661 0
-105 -2652 0
-97 2653 0
-2653 2662 0
-98 -2653 2654 0
-2654 2663 0
-99 -2654 2655 0
-2655 2664 0
-100 -2655 2656 0
-2656 2665 0
-101 -2656 2657 0
-2657 2666 0
-102 -2657 2658 0
-2658 2667 0
-103 -2658 2659 0
-2659 2668 0
-104 -2659 2660 0
-2660 2669 0
-105 -2660 2661 0
-2661 2670 0
-106 -2661 0
-98 2662 0
-2662 2671 0
-99 -2662 2663 0
-2663 2672 0
-100 -2663 2664 0
-2664 2673 0
-101 -2664 2665 0
-2665 2674 0
-102 -2665 2666 0
-2666 2675 0
-103 -2666 2667 0
-2667 2676 0
-104 -2667 2668 0
-2668 2677 0
-105 -2668 2669 0
-2669 2678 0
-106 -2669 2670 0
-2670 2679 0
-107 -2670 0
-99 2671 0
-2671 2680 0
-100 -2671 2672 0
-2672 2681 0
-101 -2672 2673 0
-2673 2682 0
-102 -2673 2674 0
-2674 2683 0
-103 -2674 2675 0
-2675 2684 0
-104 -2675 2676 0
-2676 2685 0
-105 -2676 2677 0
-2677 2686 0
-106 -2677 2678 0
-2678 2687 0
-107 -2678 2679 0
-2679 2688 0
-108 -2679 0
-100 2680 0
-2680 2689 0
-101 -2680 2681 0
-2681 2690 0
-102 -2681 2682 0
-2682 2691 0
-103 -2682 2683 0
-2683 2692 0
-104 -2683 2684 0
-2684 2693 0
-105 -2684 2685 0
-2685 2694 0
-106 -2685 2686 0
-2686 2695 0
-107 -2686 2687 0
-2687 2696 0
-108 -2687 2688 0
-2688 2697 0
-109 -2688 0
-101 2689 0
-2689 2698 0
-102 -2689 2690 0
-2690 2699 0
-103 -2690 2691 0
-2691 2700 0
-104 -2691 2692 0
-2692 2701 0
-105 -2692 2693 0
-2693 2702 0
-106 -2693 2694 0
-2694 2703 0
-107 -2694 2695 0
-2695 2704 0
-108 -2695 2696 0
-2696 2705 0
-109 -2696 2697 0
-2697 2706 0
-110 -2697 0
-102 2698 0
-2698 2707 0
-103 -2698 2699 0
-2699 2708 0
-104 -2699 2700 0
-2700 2709 0
-105 -2700 2701 0
-2701 2710 0
-106 -2701 2702 0
-2702 2711 0
-107 -2702 2703 0
-2703 2712 0
-108 -2703 2704 0
-2704 2713 0
-109 -2704 2705 0
-2705 2714 0
-110 -2705 2706 0
-2706 2715 0
-111 -2706 0
-103 2707 0
-2707 2716 0
-104 -2707 2708 0
-2708 2717 0
-105 -2708 2709 0
-2709 2718 0
-106 -2709 2710 0
-2710 2719 0
-107 -2710 2711 0
-2711 2720 0
-108 -2711 2712 0
-2712 2721 0
-109 -2712 2713 0
-2713 2722 0
-110 -2713 2714 0
-2714 2723 0
-111 -2714 2715 0
-2715 2724 0
-112 -2715 0
-104 2716 0
-2716 2725 0
-105 -2716 2717 0
-2717 2726 0
-106 -2717 2718 0
-2718 2727 0
-107 -2718 2719 0
-2719 2728 0
-108 -2719 2720 0
-2720 2729 0
-109 -2720 2721 0
-2721 2730 0
-110 -2721 2722 0
-2722 2731 0
-111 -2722 2723 0
-2723 2732 0
-112 -2723 2724 0
-2724 2733 0
-113 -2724 0
-105 2725 0
-2725 2734 0
-106 -2725 2726 0
-2726 2735 0
-107 -2726 2727 0
-2727 2736 0
-108 -2727 2728 0
-2728 2737 0
-109 -2728 2729 0
-2729 2738 0
-110 -2729 2730 0
-2730 2739 0
-111 -2730 2731 0
-2731 2740 0
-112 -2731 2732 0
-2732 2741 0
-113 -2732 2733 0
-2733 2742 0
-114 -2733 0
-106 2734 0
-2734 2743 0
-107 -2734 2735 0
-2735 2744 0
-108 -2735 2736 0
-2736 2745 0
-109 -2736 2737 0
-2737 2746 0
-110 -2737 2738 0
-2738 2747 0
-111 -2738 2739 0
-2739 2748 0
-112 -2739 2740 0
-2740 2749 0
-113 -2740 2741 0
-2741 2750 0
-114 -2741 2742 0
-2742 2751 0
-115 -2742 0
-107 2743 0
-2743 2752 0
-108 -2743 2744 0
-2744 2753 0
-109 -2744 2745 0
-2745 2754 0
-110 -2745 2746 0
-2746 2755 0
-111 -2746 2747 0
-2747 2756 0
-112 -2747 2748 0
-2748 2757 0
-113 -2748 2749 0
-2749 2758 0
-114 -2749 2750 0
-2750 2759 0
-115 -2750 2751 0
-2751 2760 0
-116 -2751 0
-108 2752 0
-2752 2761 0
-109 -2752 2753 0
-2753 2762 0
-110 -2753 2754 0
-2754 2763 0
-111 -2754 2755 0
-2755 2764 0
-112 -2755 2756 0
-2756 2765 0
-113 -2756 2757 0
-2757 2766 0
-114 -2757 2758 0
-2758 2767 0
-115 -2758 2759 0
-2759 2768 0
-116 -2759 2760 0
-2760 2769 0
-117 -2760 0
-109 2761 0
-2761 2770 0
-110 -2761 2762 0
-2762 2771 0
-111 -2762 2763 0
-2763 2772 0
-112 -2763 2764 0
-2764 2773 0
-113 -2764 2765 0
-2765 2774 0
-114 -2765 2766 0
-2766 2775 0
-115 -2766 2767 0
-2767 2776 0
-116 -2767 2768 0
-2768 2777 0
-117 -2768 2769 0
-2769 2778 0
-118 -2769 0
-110 2770 0
-2770 2779 0
-111 -2770 2771 0
-2771 2780 0
-112 -2771 2772 0
-2772 2781 0
-113 -2772 2773 0
-2773 2782 0
-114 -2773 2774 0
-2774 2783 0
-115 -2774 2775 0
-2775 2784 0
-116 -2775 2776 0
-2776 2785 0
-117 -2776 2777 0
-2777 2786 0
-118 -2777 2778 0
-2778 2787 0
-119 -2778 0
-111 2779 0
-2779 2788 0
-112 -2779 2780 0
-2780 2789 0
-113 -2780 2781 0
-2781 2790 0
-114 -2781 2782 0
-2782 2791 0
-115 -2782 2783 0
-2783 2792 0
-116 -2783 2784 0
-2784 2793 0
-117 -2784 2785 0
-2785 2794 0
-118 -2785 2786 0
-2786 2795 0
-119 -2786 2787 0
-2787 2796 0
-120 -2787 0
-112 2788 0
-2788 2797 0
-113 -2788 2789 0
-2789 2798 0
-114 -2789 2790 0
-2790 2799 0
-115 -2790 2791 0
-2791 2800 0
-116 -2791 2792 0
-2792 2801 0
-117 -2792 2793 0
-2793 2802 0
-118 -2793 2794 0
-2794 2803 0
-119 -2794 2795 0
-2795 2804 0
-120 -2795 2796 0
-2796 2805 0
-121 -2796 0
-113 2797 0
-2797 2806 0
-114 -2797 2798 0
-2798 2807 0
-115 -2798 2799 0
-2799 2808 0
-116 -2799 2800 0
-2800 2809 0
-117 -2800 2801 0
-2801 2810 0
-118 -2801 2802 0
-2802 2811 0
-119 -2802 2803 0
-2803 2812 0
-120 -2803 2804 0
-2804 2813 0
-121 -2804 2805 0
-2805 2814 0
-122 -2805 0
-114 2806 0
-2806 2815 0
-115 -2806 2807 0
-2807 2816 0
-116 -2807 2808 0
-2808 2817 0
-117 -2808 2809 0
-2809 2818 0
-118 -2809 2810 0
-2810 2819 0
-119 -2810 2811 0
-2811 2820 0
-120 -2811 2812 0
-2812 2821 0
-121 -2812 2813 0
-2813 2822 0
-122 -2813 2814 0
-2814 2823 0
-123 -2814 0
-115 2815 0
-2815 2824 0
-116 -2815 2816 0
-2816 2825 0
-117 -2816 2817 0
-2817 2826 0
-118 -2817 2818 0
-2818 2827 0
-119 -2818 2819 0
-2819 2828 0
-120 -2819 2820 0
-2820 2829 0
-121 -2820 2821 0
-2821 2830 0
-122 -2821 2822 0
-2822 2831 0
-123 -2822 2823 0
-2823 2832 0
-124 -2823 0
-116 2824 0
-2824 2833 0
-117 -2824 2825 0
-2825 2834 0
-118 -2825 2826 0
-2826 2835 0
-119 -2826 2827 0
-2827 2836 0
-120 -2827 2828 0
-2828 2837 0
-121 -2828 2829 0
-2829 2838 0
-122 -2829 2830 0
-2830 2839 0
-123 -2830 2831 0
-2831 2840 0
-124 -2831 2832 0
-2832 2841 0
-125 -2832 0
-117 2833 0
-2833 2842 0
-118 -2833 2834 0
-2834 2843 0
-119 -2834 2835 0
-2835 2844 0
-120 -2835 2836 0
-2836 2845 0
-121 -2836 2837 0
-2837 2846 0
-122 -2837 2838 0
-2838 2847 0
-123 -2838 2839 0
-2839 2848 0
-124 -2839 2840 0
-2840 2849 0
-125 -2840 2841 0
-2841 2850 0
-126 -2841 0
-118 2842 0
-2842 2851 0
-119 -2842 2843 0
-2843 2852 0
-120 -2843 2844 0
-2844 2853 0
-121 -2844 2845 0
-2845 2854 0
-122 -2845 2846 0
-2846 2855 0
-123 -2846 2847 0
-2847 2856 0
-124 -2847 2848 0
-2848 2857 0
-125 -2848 2849 0
-2849 2858 0
-126 -2849 2850 0
-2850 2859 0
-127 -2850 0
-119 2851 0
-2851 2860 0
-120 -2851 2852 0
-2852 2861 0
-121 -2852 2853 0
-2853 2862 0
-122 -2853 2854 0
-2854 2863 0
-123 -2854 2855 0
-2855 2864 0
-124 -2855 2856 0
-2856 2865 0
-125 -2856 2857 0
-2857 2866 0
-126 -2857 2858 0
-2858 2867 0
-127 -2858 2859 0
-2859 2868 0
-128 -2859 0
-120 2860 0
-2860 2869 0
-121 -2860 2861 0
-2861 2870 0
-122 -2861 2862 0
-2862 2871 0
-123 -2862 2863 0
-2863 2872 0
-124 -2863 2864 0
-2864 2873 0
-125 -2864 2865 0
-2865 2874 0
-126 -2865 2866 0
-2866 2875 0
-127 -2866 2867 0
-2867 2876 0
-128 -2867 2868 0
-2868 2877 0
-129 -2868 0
-121 2869 0
-2869 2878 0
-122 -2869 2870 0
-2870 2879 0
-123 -2870 2871 0
-2871 2880 0
-124 -2871 2872 0
-2872 2881 0
-125 -2872 2873 0
-2873 2882 0
-126 -2873 2874 0
-2874 2883 0
-127 -2874 2875 0
-2875 2884 0
-128 -2875 2876 0
-2876 2885 0
-129 -2876 2877 0
-2877 2886 0
-130 -2877 0
-122 2878 0
-2878 2887 0
-123 -2878 2879 0
-2879 2888 0
-124 -2879 2880 0
-2880 2889 0
-125 -2880 2881 0
-2881 2890 0
-126 -2881 2882 0
-2882 2891 0
-127 -2882 2883 0
-2883 2892 0
-128 -2883 2884 0
-2884 2893 0
-129 -2884 2885 0
-2885 2894 0
-130 -2885 2886 0
-2886 2895 0
-131 -2886 0
-123 2887 0
-2887 2896 0
-124 -2887 2888 0
-2888 2897 0
-125 -2888 2889 0
-2889 2898 0
-126 -2889 2890 0
-2890 2899 0
-127 -2890 2891 0
-2891 2900 0
-128 -2891 2892 0
-2892 2901 0
-129 -2892 2893 0
-2893 2902 0
-130 -2893 2894 0
-2894 2903 0
-131 -2894 2895 0
-2895 2904 0
-132 -2895 0
-124 2896 0
-2896 2905 0
-125 -2896 2897 0
-2897 2906 0
-126 -2897 2898 0
-2898 2907 0
-127 -2898 2899 0
-2899 2908 0
-128 -2899 2900 0
-2900 2909 0
-129 -2900 2901 0
-2901 2910 0
-130 -2901 2902 0
-2902 2911 0
-131 -2902 2903 0
-2903 2912 0
-132 -2903 2904 0
-2904 2913 0
-133 -2904 0
-125 2905 0
-2905 2914 0
-126 -2905 2906 0
-2906 2915 0
-127 -2906 2907 0
-2907 2916 0
-128 -2907 2908 0
-2908 2917 0
-129 -2908 2909 0
-2909 2918 0
-130 -2909 2910 0
-2910 2919 0
-131 -2910 2911 0
-2911 2920 0
-132 -2911 2912 0
-2912 2921 0
-133 -2912 2913 0
-2913 2922 0
-134 -2913 0
-126 2914 0
-2914 2923 0
-127 -2914 2915 0
-2915 2924 0
-128 -2915 2916 0
-2916 2925 0
-129 -2916 2917 0
-2917 2926 0
-130 -2917 2918 0
-2918 2927 0
-131 -2918 2919 0
-2919 2928 0
-132 -2919 2920 0
-2920 2929 0
-133 -2920 2921 0
-2921 2930 0
-134 -2921 2922 0
-2922 2931 0
-135 -2922 0
-127 2923 0
-2923 2932 0
-128 -2923 2924 0
-2924 2933 0
-129 -2924 2925 0
-2925 2934 0
-130 -2925 2926 0
-2926 2935 0
-131 -2926 2927 0
-2927 2936 0
-132 -2927 2928 0
-2928 2937 0
-133 -2928 2929 0
-2929 2938 0
-134 -2929 2930 0
-2930 2939 0
-135 -2930 2931 0
-2931 2940 0
-136 -2931 0
-128 2932 0
-2932 2941 0
-129 -2932 2933 0
-2933 2942 0
-130 -2933 2934 0
-2934 2943 0
-131 -2934 2935 0
-2935 2944 0
-132 -2935 2936 0
-2936 2945 0
-133 -2936 2937 0
-2937 2946 0
-134 -2937 2938 0
-2938 2947 0
-135 -2938 2939 0
-2939 2948 0
-136 -2939 2940 0
-2940 2949 0
-137 -2940 0
-129 2941 0
-2941 2950 0
-130 -2941 2942 0
-2942 2951 0
-131 -2942 2943 0
-2943 2952 0
-132 -2943 2944 0
-2944 2953 0
-133 -2944 2945 0
-2945 2954 0
-134 -2945 2946 0
-2946 2955 0
-135 -2946 2947 0
-2947 2956 0
-136 -2947 2948 0
-2948 2957 0
-137 -2948 2949 0
-2949 2958 0
-138 -2949 0
-130 2950 0
-2950 2959 0
-131 -2950 2951 0
-2951 2960 0
-132 -2951 2952 0
-2952 2961 0
-133 -2952 2953 0
-2953 2962 0
-134 -2953 2954 0
-2954 2963 0
-135 -2954 2955 0
-2955 2964 0
-136 -2955 2956 0
-2956 2965 0
-137 -2956 2957 0
-2957 2966 0
-138 -2957 2958 0
-2958 2967 0
-139 -2958 0
-131 2959 0
-2959 2968 0
-132 -2959 2960 0
-2960 2969 0
-133 -2960 2961 0
-2961 2970 0
-134 -2961 2962 0
-2962 2971 0
-135 -2962 2963 0
-2963 2972 0
-136 -2963 2964 0
-2964 2973 0
-137 -2964 2965 0
-2965 2974 0
-138 -2965 2966 0
-2966 2975 0
-139 -2966 2967 0
-2967 2976 0
-140 -2967 0
-132 2968 0
-2968 2977 0
-133 -2968 2969 0
-2969 2978 0
-134 -2969 2970 0
-2970 2979 0
-135 -2970 2971 0
-2971 2980 0
-136 -2971 2972 0
-2972 2981 0
-137 -2972 2973 0
-2973 2982 0
-138 -2973 2974 0
-2974 2983 0
-139 -2974 2975 0
-2975 2984 0
-140 -2975 2976 0
-2976 2985 0
-141 -2976 0
-133 2977 0
-2977 2986 0
-134 -2977 2978 0
-2978 2987 0
-135 -2978 2979 0
-2979 2988 0
-136 -2979 2980 0
-2980 2989 0
-137 -2980 2981 0
-2981 2990 0
-138 -2981 2982 0
-2982 2991 0
-139 -2982 2983 0
-2983 2992 0
-140 -2983 2984 0
-2984 2993 0
-141 -2984 2985 0
-2985 2994 0
-142 -2985 0
-134 2986 0
-2986 2995 0
-135 -2986 2987 0
-2987 2996 0
-136 -2987 2988 0
-2988 2997 0
-137 -2988 2989 0
-2989 2998 0
-138 -2989 2990 0
-2990 2999 0
-139 -2990 2991 0
-2991 3000 0
-140 -2991 2992 0
-2992 3001 0
-141 -2992 2993 0
-2993 3002 0
-142 -2993 2994 0
-2994 3003 0
-143 -2994 0
-135 2995 0
-2995 3004 0
-136 -2995 2996 0
-2996 3005 0
-137 -2996 2997 0
-2997 3006 0
-138 -2997 2998 0
-2998 3007 0
-139 -2998 2999 0
-2999 3008 0
-140 -2999 3000 0
-3000 3009 0
-141 -3000 3001 0
-3001 3010 0
-142 -3001 3002 0
-3002 3011 0
-143 -3002 3003 0
-3003 3012 0
-144 -3003 0
-136 3004 0
-3004 3013 0
-137 -3004 3005 0
-3005 3014 0
-138 -3005 3006 0
-3006 3015 0
-139 -3006 3007 0
-3007 3016 0
-140 -3007 3008 0
-3008 3017 0
-141 -3008 3009 0
-3009 3018 0
-142 -3009 3010 0
-3010 3019 0
-143 -3010 3011 0
-3011 3020 0
-144 -3011 3012 0
-3012 3021 0
-145 -3012 0
-137 3013 0
-3013 3022 0
-138 -3013 3014 0
-3014 3023 0
-139 -3014 3015 0
-3015 3024 0
-140 -3015 3016 0
-3016 3025 0
-141 -3016 3017 0
-3017 3026 0
-142 -3017 3018 0
-3018 3027 0
-143 -3018 3019 0
-3019 3028 0
-144 -3019 3020 0
-3020 3029 0
-145 -3020 3021 0
-3021 3030 0
-146 -3021 0
-138 3022 0
-3022 3031 0
-139 -3022 3023 0
-3023 3032 0
-140 -3023 3024 0
-3024 3033 0
-141 -3024 3025 0
-3025 3034 0
-142 -3025 3026 0
-3026 3035 0
-143 -3026 3027 0
-3027 3036 0
-144 -3027 3028 0
-3028 3037 0
-145 -3028 3029 0
-3029 3038 0
-146 -3029 3030 0
-3030 3039 0
-147 -3030 0
-139 3031 0
-3031 3040 0
-140 -3031 3032 0
-3032 3041 0
-141 -3032 3033 0
-3033 3042 0
-142 -3033 3034 0
-3034 3043 0
-143 -3034 3035 0
-3035 3044 0
-144 -3035 3036 0
-3036 3045 0
-145 -3036 3037 0
-3037 3046 0
-146 -3037 3038 0
-3038 3047 0
-147 -3038 3039 0
-3039 3048 0
-148 -3039 0
-140 3040 0
-3040 3049 0
-141 -3040 3041 0
-3041 3050 0
-142 -3041 3042 0
-3042 3051 0
-143 -3042 3043 0
-3043 3052 0
-144 -3043 3044 0
-3044 3053 0
-145 -3044 3045 0
-3045 3054 0
-146 -3045 3046 0
-3046 3055 0
-147 -3046 3047 0
-3047 3056 0
-148 -3047 3048 0
-3048 3057 0
-149 -3048 0
-141 3049 0
-3049 3058 0
-142 -3049 3050 0
-3050 3059 0
-143 -3050 3051 0
-3051 3060 0
-144 -3051 3052 0
-3052 3061 0
-145 -3052 3053 0
-3053 3062 0
-146 -3053 3054 0
-3054 3063 0
-147 -3054 3055 0
-3055 3064 0
-148 -3055 3056 0
-3056 3065 0
-149 -3056 3057 0
-3057 3066 0
-150 -3057 0
-142 3058 0
-3058 3067 0
-143 -3058 3059 0
-3059 3068 0
-144 -3059 3060 0
-3060 3069 0
-145 -3060 3061 0
-3061 3070 0
-146 -3061 3062 0
-3062 3071 0
-147 -3062 3063 0
-3063 3072 0
-148 -3063 3064 0
-3064 3073 0
-149 -3064 3065 0
-3065 3074 0
-150 -3065 3066 0
-3066 3075 0
-151 -3066 0
-143 3067 0
-3067 3076 0
-144 -3067 3068 0
-3068 3077 0
-145 -3068 3069 0
-3069 3078 0
-146 -3069 3070 0
-3070 3079 0
-147 -3070 3071 0
-3071 3080 0
-148 -3071 3072 0
-3072 3081 0
-149 -3072 3073 0
-3073 3082 0
-150 -3073 3074 0
-3074 3083 0
-151 -3074 3075 0
-3075 3084 0
-152 -3075 0
-144 3076 0
-3076 3085 0
-145 -3076 3077 0
-3077 3086 0
-146 -3077 3078 0
-3078 3087 0
-147 -3078 3079 0
-3079 3088 0
-148 -3079 3080 0
-3080 3089 0
-149 -3080 3081 0
-3081 3090 0
-150 -3081 3082 0
-3082 3091 0
-151 -3082 3083 0
-3083 3092 0
-152 -3083 3084 0
-3084 3093 0
-153 -3084 0
-145 3085 0
-3085 3094 0
-146 -3085 3086 0
-3086 3095 0
-147 -3086 3087 0
-3087 3096 0
-148 -3087 3088 0
-3088 3097 0
-149 -3088 3089 0
-3089 3098 0
-150 -3089 3090 0
-3090 3099 0
-151 -3090 3091 0
-3091 3100 0
-152 -3091 3092 0
-3092 3101 0
-153 -3092 3093 0
-3093 3102 0
-154 -3093 0
-146 3094 0
-3094 3103 0
-147 -3094 3095 0
-3095 3104 0
-148 -3095 3096 0
-3096 3105 0
-149 -3096 3097 0
-3097 3106 0
-150 -3097 3098 0
-3098 3107 0
-151 -3098 3099 0
-3099 3108 0
-152 -3099 3100 0
-3100 3109 0
-153 -3100 3101 0
-3101 3110 0
-154 -3101 3102 0
-3102 3111 0
-155 -3102 0
-147 3103 0
-3103 3112 0
-148 -3103 3104 0
-3104 3113 0
-149 -3104 3105 0
-3105 3114 0
-150 -3105 3106 0
-3106 3115 0
-151 -3106 3107 0
-3107 3116 0
-152 -3107 3108 0
-3108 3117 0
-153 -3108 3109 0
-3109 3118 0
-154 -3109 3110 0
-3110 3119 0
-155 -3110 3111 0
-3111 3120 0
-156 -3111 0
-148 3112 0
-3112 3121 0
-149 -3112 3113 0
-3113 3122 0
-150 -3113 3114 0
-3114 3123 0
-151 -3114 3115 0
-3115 3124 0
-152 -3115 3116 0
-3116 3125 0
-153 -3116 3117 0
-3117 3126 0
-154 -3117 3118 0
-3118 3127 0
-155 -3118 3119 0
-3119 3128 0
-156 -3119 3120 0
-3120 3129 0
-157 -3120 0
-149 3121 0
-3121 3130 0
-150 -3121 3122 0
-3122 3131 0
-151 -3122 3123 0
-3123 3132 0
-152 -3123 3124 0
-3124 3133 0
-153 -3124 3125 0
-3125 3134 0
-154 -3125 3126 0
-3126 3135 0
-155 -3126 3127 0
-3127 3136 0
-156 -3127 3128 0
-3128 3137 0
-157 -3128 3129 0
-3129 3138 0
-158 -3129 0
-150 3130 0
-3130 3139 0
-151 -3130 3131 0
-3131 3140 0
-152 -3131 3132 0
-3132 3141 0
-153 -3132 3133 0
-3133 3142 0
-154 -3133 3134 0
-3134 3143 0
-155 -3134 3135 0
-3135 3144 0
-156 -3135 3136 0
-3136 3145 0
-157 -3136 3137 0
-3137 3146 0
-158 -3137 3138 0
-3138 3147 0
-159 -3138 0
-151 3139 0
-3139 3148 0
-152 -3139 3140 0
-3140 3149 0
-153 -3140 3141 0
-3141 3150 0
-154 -3141 3142 0
-3142 3151 0
-155 -3142 3143 0
-3143 3152 0
-156 -3143 3144 0
-3144 3153 0
-157 -3144 3145 0
-3145 3154 0
-158 -3145 3146 0
-3146 3155 0
-159 -3146 3147 0
-3147 3156 0
-160 -3147 0
-152 3148 0
-3148 3157 0
-153 -3148 3149 0
-3149 3158 0
-154 -3149 3150 0
-3150 3159 0
-155 -3150 3151 0
-3151 3160 0
-156 -3151 3152 0
-3152 3161 0
-157 -3152 3153 0
-3153 3162 0
-158 -3153 3154 0
-3154 3163 0
-159 -3154 3155 0
-3155 3164 0
-160 -3155 3156 0
-3156 3165 0
-161 -3156 0
-153 3157 0
-3157 3166 0
-154 -3157 3158 0
-3158 3167 0
-155 -3158 3159 0
-3159 3168 0
-156 -3159 3160 0
-3160 3169 0
-157 -3160 3161 0
-3161 3170 0
-158 -3161 3162 0
-3162 3171 0
-159 -3162 3163 0
-3163 3172 0
-160 -3163 3164 0
-3164 3173 0
-161 -3164 3165 0
-3165 3174 0
-162 -3165 0
-154 3166 0
-3166 3175 0
-155 -3166 3167 0
-3167 3176 0
-156 -3167 3168 0
-3168 3177 0
-157 -3168 3169 0
-3169 3178 0
-158 -3169 3170 0
-3170 3179 0
-159 -3170 3171 0
-3171 3180 0
-160 -3171 3172 0
-3172 3181 0
-161 -3172 3173 0
-3173 3182 0
-162 -3173 3174 0
-3174 3183 0
-163 -3174 0
-155 3175 0
-3175 3184 0
-156 -3175 3176 0
-3176 3185 0
-157 -3176 3177 0
-3177 3186 0
-158 -3177 3178 0
-3178 3187 0
-159 -3178 3179 0
-3179 3188 0
-160 -3179 3180 0
-3180 3189 0
-161 -3180 3181 0
-3181 3190 0
-162 -3181 3182 0
-3182 3191 0
-163 -3182 3183 0
-3183 3192 0
-164 -3183 0
-156 3184 0
-3184 3193 0
-157 -3184 3185 0
-3185 3194 0
-158 -3185 3186 0
-3186 3195 0
-159 -3186 3187 0
-3187 3196 0
-160 -3187 3188 0
-3188 3197 0
-161 -3188 3189 0
-3189 3198 0
-162 -3189 3190 0
-3190 3199 0
-163 -3190 3191 0
-3191 3200 0
-164 -3191 3192 0
-3192 3201 0
-165 -3192 0
-157 3193 0
-3193 3202 0
-158 -3193 3194 0
-3194 3203 0
-159 -3194 3195 0
-3195 3204 0
-160 -3195 3196 0
-3196 3205 0
-161 -3196 3197 0
-3197 3206 0
-162 -3197 3198 0
-3198 3207 0
-163 -3198 3199 0
-3199 3208 0
-164 -3199 3200 0
-3200 3209 0
-165 -3200 3201 0
-3201 3210 0
-166 -3201 0
-158 3202 0
-3202 3211 0
-159 -3202 3203 0
-3203 3212 0
-160 -3203 3204 0
-3204 3213 0
-161 -3204 3205 0
-3205 3214 0
-162 -3205 3206 0
-3206 3215 0
-163 -3206 3207 0
-3207 3216 0
-164 -3207 3208 0
-3208 3217 0
-165 -3208 3209 0
-3209 3218 0
-166 -3209 3210 0
-3210 3219 0
-167 -3210 0
-159 3211 0
-3211 3220 0
-160 -3211 3212 0
-3212 3221 0
-161 -3212 3213 0
-3213 3222 0
-162 -3213 3214 0
-3214 3223 0
-163 -3214 3215 0
-3215 3224 0
-164 -3215 3216 0
-3216 3225 0
-165 -3216 3217 0
-3217 3226 0
-166 -3217 3218 0
-3218 3227 0
-167 -3218 3219 0
-3219 3228 0
-168 -3219 0
-160 3220 0
-3220 3229 0
-161 -3220 3221 0
-3221 3230 0
-162 -3221 3222 0
-3222 3231 0
-163 -3222 3223 0
-3223 3232 0
-164 -3223 3224 0
-3224 3233 0
-165 -3224 3225 0
-3225 3234 0
-166 -3225 3226 0
-3226 3235 0
-167 -3226 3227 0
-3227 3236 0
-168 -3227 3228 0
-3228 3237 0
-169 -3228 0
-161 3229 0
-3229 3238 0
-162 -3229 3230 0
-3230 3239 0
-163 -3230 3231 0
-3231 3240 0
-164 -3231 3232 0
-3232 3241 0
-165 -3232 3233 0
-3233 3242 0
-166 -3233 3234 0
-3234 3243 0
-167 -3234 3235 0
-3235 3244 0
-168 -3235 3236 0
-3236 3245 0
-169 -3236 3237 0
-3237 3246 0
-170 -3237 0
-162 3238 0
-3238 3247 0
-163 -3238 3239 0
-3239 3248 0
-164 -3239 3240 0
-3240 3249 0
-165 -3240 3241 0
-3241 3250 0
-166 -3241 3242 0
-3242 3251 0
-167 -3242 3243 0
-3243 3252 0
-168 -3243 3244 0
-3244 3253 0
-169 -3244 3245 0
-3245 3254 0
-170 -3245 3246 0
-3246 3255 0
-171 -3246 0
-163 3247 0
-3247 3256 0
-164 -3247 3248 0
-3248 3257 0
-165 -3248 3249 0
-3249 3258 0
-166 -3249 3250 0
-3250 3259 0
-167 -3250 3251 0
-3251 3260 0
-168 -3251 3252 0
-3252 3261 0
-169 -3252 3253 0
-3253 3262 0
-170 -3253 3254 0
-3254 3263 0
-171 -3254 3255 0
-3255 3264 0
-172 -3255 0
-164 3256 0
-3256 3265 0
-165 -3256 3257 0
-3257 3266 0
-166 -3257 3258 0
-3258 3267 0
-167 -3258 3259 0
-3259 3268 0
-168 -3259 3260 0
-3260 3269 0
-169 -3260 3261 0
-3261 3270 0
-170 -3261 3262 0
-3262 3271 0
-171 -3262 3263 0
-3263 3272 0
-172 -3263 3264 0
-3264 3273 0
-173 -3264 0
-165 3265 0
-3265 3274 0
-166 -3265 3266 0
-3266 3275 0
-167 -3266 3267 0
-3267 3276 0
-168 -3267 3268 0
-3268 3277 0
-169 -3268 3269 0
-3269 3278 0
-170 -3269 3270 0
-3270 3279 0
-171 -3270 3271 0
-3271 3280 0
-172 -3271 3272 0
-3272 3281 0
-173 -3272 3273 0
-3273 3282 0
-174 -3273 0
-166 3274 0
-3274 3283 0
-167 -3274 3275 0
-3275 3284 0
-168 -3275 3276 0
-3276 3285 0
-169 -3276 3277 0
-3277 3286 0
-170 -3277 3278 0
-3278 3287 0
-171 -3278 3279 0
-3279 3288 0
-172 -3279 3280 0
-3280 3289 0
-173 -3280 3281 0
-3281 3290 0
-174 -3281 3282 0
-3282 3291 0
-175 -3282 0
-167 3283 0
-3283 3292 0
-168 -3283 3284 0
-3284 3293 0
-169 -3284 3285 0
-3285 3294 0
-170 -3285 3286 0
-3286 3295 0
-171 -3286 3287 0
-3287 3296 0
-172 -3287 3288 0
-3288 3297 0
-173 -3288 3289 0
-3289 3298 0
-174 -3289 3290 0
-3290 3299 0
-175 -3290 3291 0
-3291 3300 0
-176 -3291 0
-168 3292 0
-3292 3301 0
-169 -3292 3293 0
-3293 3302 0
-170 -3293 3294 0
-3294 3303 0
-171 -3294 3295 0
-3295 3304 0
-172 -3295 3296 0
-3296 3305 0
-173 -3296 3297 0
-3297 3306 0
-174 -3297 3298 0
-3298 3307 0
-175 -3298 3299 0
-3299 3308 0
-176 -3299 3300 0
-3300 3309 0
-177 -3300 0
-169 3301 0
-3301 3310 0
-170 -3301 3302 0
-3302 3311 0
-171 -3302 3303 0
-3303 3312 0
-172 -3303 3304 0
-3304 3313 0
-173 -3304 3305 0
-3305 3314 0
-174 -3305 3306 0
-3306 3315 0
-175 -3306 3307 0
-3307 3316 0
-176 -3307 3308 0
-3308 3317 0
-177 -3308 3309 0
-3309 3318 0
-178 -3309 0
-170 3310 0
-3310 3319 0
-171 -3310 3311 0
-3311 3320 0
-172 -3311 3312 0
-3312 3321 0
-173 -3312 3313 0
-3313 3322 0
-174 -3313 3314 0
-3314 3323 0
-175 -3314 3315 0
-3315 3324 0
-176 -3315 3316 0
-3316 3325 0
-177 -3316 3317 0
-3317 3326 0
-178 -3317 3318 0
-3318 3327 0
-179 -3318 0
-171 3319 0
-3319 3328 0
-172 -3319 3320 0
-3320 3329 0
-173 -3320 3321 0
-3321 3330 0
-174 -3321 3322 0
-3322 3331 0
-175 -3322 3323 0
-3323 3332 0
-176 -3323 3324 0
-3324 3333 0
-177 -3324 3325 0
-3325 3334 0
-178 -3325 3326 0
-3326 3335 0
-179 -3326 3327 0
-3327 3336 0
-180 -3327 0
-172 3328 0
-3328 3337 0
-173 -3328 3329 0
-3329 3338 0
-174 -3329 3330 0
-3330 3339 0
-175 -3330 3331 0
-3331 3340 0
-176 -3331 3332 0
-3332 3341 0
-177 -3332 3333 0
-3333 3342 0
-178 -3333 3334 0
-3334 3343 0
-179 -3334 3335 0
-3335 3344 0
-180 -3335 3336 0
-3336 3345 0
-181 -3336 0
-173 3337 0
-3337 3346 0
-174 -3337 3338 0
-3338 3347 0
-175 -3338 3339 0
-3339 3348 0
-176 -3339 3340 0
-3340 3349 0
-177 -3340 3341 0
-3341 3350 0
-178 -3341 3342 0
-3342 3351 0
-179 -3342 3343 0
-3343 3352 0
-180 -3343 3344 0
-3344 3353 0
-181 -3344 3345 0
-3345 3354 0
-182 -3345 0
-174 3346 0
-3346 3355 0
-175 -3346 3347 0
-3347 3356 0
-176 -3347 3348 0
-3348 3357 0
-177 -3348 3349 0
-3349 3358 0
-178 -3349 3350 0
-3350 3359 0
-179 -3350 3351 0
-3351 3360 0
-180 -3351 3352 0
-3352 3361 0
-181 -3352 3353 0
-3353 3362 0
-182 -3353 3354 0
-3354 3363 0
-183 -3354 0
-175 3355 0
-176 -3355 3356 0
-177 -3356 3357 0
-178 -3357 3358 0
-179 -3358 3359 0
-180 -3359 3360 0
-181 -3360 3361 0
-182 -3361 3362 0
-183 -3362 3363 0
-184 -3363 0
1 47 0
