p cnf 6717 13757
-171 -1 0
-171 2 85 86 0
-2 1 171 0
-85 1 171 0
-86 1 171 0
-172 -2 0
-172 1 3 87 0
-1 2 172 0
-3 2 172 0
-87 2 172 0
-173 -3 0
-173 2 4 88 0
-2 3 173 0
-4 3 173 0
-88 3 173 0
-174 -4 0
-174 3 5 89 0
-3 4 174 0
-5 4 174 0
-89 4 174 0
-175 -5 0
-175 4 6 90 0
-4 5 175 0
-6 5 175 0
-90 5 175 0
-176 -6 0
-176 5 7 91 0
-5 6 176 0
-7 6 176 0
-91 6 176 0
-177 -7 0
-177 6 8 92 0
-6 7 177 0
-8 7 177 0
-92 7 177 0
-178 -8 0
-178 7 9 93 0
-7 8 178 0
-9 8 178 0
-93 8 178 0
-179 -9 0
-179 8 10 94 0
-8 9 179 0
-10 9 179 0
-94 9 179 0
-180 -10 0
-180 9 11 95 0
-9 10 180 0
-11 10 180 0
-95 10 180 0
-181 -11 0
-181 10 12 96 0
-10 11 181 0
-12 11 181 0
-96 11 181 0
-182 -12 0
-182 11 13 97 0
-11 12 182 0
-13 12 182 0
-97 12 182 0
-183 -13 0
-183 12 14 98 0
-12 13 183 0
-14 13 183 0
-98 13 183 0
-184 -14 0
-184 13 15 99 0
-13 14 184 0
-15 14 184 0
-99 14 184 0
-185 -15 0
-185 14 16 100 0
-14 15 185 0
-16 15 185 0
-100 15 185 0
-186 -16 0
-186 15 17 101 0
-15 16 186 0
-17 16 186 0
-101 16 186 0
-187 -17 0
-187 16 18 102 0
-16 17 187 0
-18 17 187 0
-102 17 187 0
-188 -18 0
-188 17 19 103 0
-17 18 188 0
-19 18 188 0
-103 18 188 0
-189 -19 0
-189 18 20 104 0
-18 19 189 0
-20 19 189 0
-104 19 189 0
-190 -20 0
-190 19 21 105 0
-19 20 190 0
-21 20 190 0
-105 20 190 0
-191 -21 0
-191 20 22 106 0
-20 21 191 0
-22 21 191 0
-106 21 191 0
-192 -22 0
-192 21 23 107 0
-21 22 192 0
-23 22 192 0
-107 22 192 0
-193 -23 0
-193 22 24 108 0
-22 23 193 0
-24 23 193 0
-108 23 193 0
-194 -24 0
-194 23 25 109 0
-23 24 194 0
-25 24 194 0
-109 24 194 0
-195 -25 0
-195 24 26 110 0
-24 25 195 0
-26 25 195 0
-110 25 195 0
-196 -26 0
-196 25 27 111 0
-25 26 196 0
-27 26 196 0
-111 26 196 0
-197 -27 0
-197 26 28 112 0
-26 27 197 0
-28 27 197 0
-112 27 197 0
-198 -28 0
-198 27 29 113 0
-27 28 198 0
-29 28 198 0
-113 28 198 0
-199 -29 0
-199 28 30 114 0
-28 29 199 0
-30 29 199 0
-114 29 199 0
-200 -30 0
-200 29 31 115 0
-29 30 200 0
-31 30 200 0
-115 30 200 0
-201 -31 0
-201 30 32 116 0
-30 31 201 0
-32 31 201 0
-116 31 201 0
-202 -32 0
-202 31 33 117 0
-31 32 202 0
-33 32 202 0
-117 32 202 0
-203 -33 0
-203 32 34 118 0
-32 33 203 0
-34 33 203 0
-118 33 203 0
-204 -34 0
-204 33 35 119 0
-33 34 204 0
-35 34 204 0
-119 34 204 0
-205 -35 0
-205 34 36 120 0
-34 35 205 0
-36 35 205 0
-120 35 205 0
-206 -36 0
-206 35 37 121 0
-35 36 206 0
-37 36 206 0
-121 36 206 0
-207 -37 0
-207 36 38 122 0
-36 37 207 0
-38 37 207 0
-122 37 207 0
-208 -38 0
-208 37 39 123 0
-37 38 208 0
-39 38 208 0
-123 38 208 0
-209 -39 0
-209 38 40 124 0
-38 39 209 0
-40 39 209 0
-124 39 209 0
-210 -40 0
-210 39 41 125 0
-39 40 210 0
-41 40 210 0
-125 40 210 0
-211 -41 0
-211 40 42 126 0
-40 41 211 0
-42 41 211 0
-126 41 211 0
-212 -42 0
-212 41 43 127 0
-41 42 212 0
-43 42 212 0
-127 42 212 0
-213 -43 0
-213 42 44 128 0
-42 43 213 0
-44 43 213 0
-128 43 213 0
-214 -44 0
-214 43 45 129 0
-43 44 214 0
-45 44 214 0
-129 44 214 0
-215 -45 0
-215 44 46 130 0
-44 45 215 0
-46 45 215 0
-130 45 215 0
-216 -46 0
-216 45 47 131 0
-45 46 216 0
-47 46 216 0
-131 46 216 0
-217 -47 0
-217 46 48 132 0
-46 47 217 0
-48 47 217 0
-132 47 217 0
-218 -48 0
-218 47 49 133 0
-47 48 218 0
-49 48 218 0
-133 48 218 0
-219 -49 0
-219 48 50 134 0
-48 49 219 0
-50 49 219 0
-134 49 219 0
-220 -50 0
-220 49 51 135 0
-49 50 220 0
-51 50 220 0
-135 50 220 0
-221 -51 0
-221 50 52 136 0
-50 51 221 0
-52 51 221 0
-136 51 221 0
-222 -52 0
-222 51 53 137 0
-51 52 222 0
-53 52 222 0
-137 52 222 0
-223 -53 0
-223 52 54 138 0
-52 53 223 0
-54 53 223 0
-138 53 223 0
-224 -54 0
-224 53 55 139 0
-53 54 224 0
-55 54 224 0
-139 54 224 0
-225 -55 0
-225 54 56 140 0
-54 55 225 0
-56 55 225 0
-140 55 225 0
-226 -56 0
-226 55 57 141 0
-55 56 226 0
-57 56 226 0
-141 56 226 0
-227 -57 0
-227 56 58 142 0
-56 57 227 0
-58 57 227 0
-142 57 227 0
-228 -58 0
-228 57 59 143 0
-57 58 228 0
-59 58 228 0
-143 58 228 0
-229 -59 0
-229 58 60 144 0
-58 59 229 0
-60 59 229 0
-144 59 229 0
-230 -60 0
-230 59 61 145 0
-59 60 230 0
-61 60 230 0
-145 60 230 0
-231 -61 0
-231 60 62 146 0
-60 61 231 0
-62 61 231 0
-146 61 231 0
-232 -62 0
-232 61 63 147 0
-61 62 232 0
-63 62 232 0
-147 62 232 0
-233 -63 0
-233 62 64 148 0
-62 63 233 0
-64 63 233 0
-148 63 233 0
-234 -64 0
-234 63 65 149 0
-63 64 234 0
-65 64 234 0
-149 64 234 0
-235 -65 0
-235 64 66 150 0
-64 65 235 0
-66 65 235 0
-150 65 235 0
-236 -66 0
-236 65 67 151 0
-65 66 236 0
-67 66 236 0
-151 66 236 0
-237 -67 0
-237 66 68 152 0
-66 67 237 0
-68 67 237 0
-152 67 237 0
-238 -68 0
-238 67 69 153 0
-67 68 238 0
-69 68 238 0
-153 68 238 0
-239 -69 0
-239 68 70 154 0
-68 69 239 0
-70 69 239 0
-154 69 239 0
-240 -70 0
-240 69 71 155 0
-69 70 240 0
-71 70 240 0
-155 70 240 0
-241 -71 0
-241 70 72 156 0
-70 71 241 0
-72 71 241 0
-156 71 241 0
-242 -72 0
-242 71 73 157 0
-71 72 242 0
-73 72 242 0
-157 72 242 0
-243 -73 0
-243 72 74 158 0
-72 73 243 0
-74 73 243 0
-158 73 243 0
-244 -74 0
-244 73 75 159 0
-73 74 244 0
-75 74 244 0
-159 74 244 0
-245 -75 0
-245 74 76 160 0
-74 75 245 0
-76 75 245 0
-160 75 245 0
-246 -76 0
-246 75 77 161 0
-75 76 246 0
-77 76 246 0
-161 76 246 0
-247 -77 0
-247 76 78 162 0
-76 77 247 0
-78 77 247 0
-162 77 247 0
-248 -78 0
-248 77 79 163 0
-77 78 248 0
-79 78 248 0
-163 78 248 0
-249 -79 0
-249 78 80 164 0
-78 79 249 0
-80 79 249 0
-164 79 249 0
-250 -80 0
-250 79 81 165 0
-79 80 250 0
-81 80 250 0
-165 80 250 0
-251 -81 0
-251 80 82 166 0
-80 81 251 0
-82 81 251 0
-166 81 251 0
-252 -82 0
-252 81 83 167 0
-81 82 252 0
-83 82 252 0
-167 82 252 0
-253 -83 0
-253 82 84 168 0
-82 83 253 0
-84 83 253 0
-168 83 253 0
-254 -84 0
-254 83 85 169 0
-83 84 254 0
-85 84 254 0
-169 84 254 0
-255 -85 0
-255 1 84 170 0
-1 85 255 0
-84 85 255 0
-170 85 255 0
-256 -86 0
-256 1 90 167 0
-1 86 256 0
-90 86 256 0
-167 86 256 0
-257 -87 0
-257 2 91 168 0
-2 87 257 0
-91 87 257 0
-168 87 257 0
-258 -88 0
-258 3 92 169 0
-3 88 258 0
-92 88 258 0
-169 88 258 0
-259 -89 0
-259 4 93 170 0
-4 89 259 0
-93 89 259 0
-170 89 259 0
-260 -90 0
-260 5 86 94 0
-5 90 260 0
-86 90 260 0
-94 90 260 0
-261 -91 0
-261 6 87 95 0
-6 91 261 0
-87 91 261 0
-95 91 261 0
-262 -92 0
-262 7 88 96 0
-7 92 262 0
-88 92 262 0
-96 92 262 0
-263 -93 0
-263 8 89 97 0
-8 93 263 0
-89 93 263 0
-97 93 263 0
-264 -94 0
-264 9 90 98 0
-9 94 264 0
-90 94 264 0
-98 94 264 0
-265 -95 0
-265 10 91 99 0
-10 95 265 0
-91 95 265 0
-99 95 265 0
-266 -96 0
-266 11 92 100 0
-11 96 266 0
-92 96 266 0
-100 96 266 0
-267 -97 0
-267 12 93 101 0
-12 97 267 0
-93 97 267 0
-101 97 267 0
-268 -98 0
-268 13 94 102 0
-13 98 268 0
-94 98 268 0
-102 98 268 0
-269 -99 0
-269 14 95 103 0
-14 99 269 0
-95 99 269 0
-103 99 269 0
-270 -100 0
-270 15 96 104 0
-15 100 270 0
-96 100 270 0
-104 100 270 0
-271 -101 0
-271 16 97 105 0
-16 101 271 0
-97 101 271 0
-105 101 271 0
-272 -102 0
-272 17 98 106 0
-17 102 272 0
-98 102 272 0
-106 102 272 0
-273 -103 0
-273 18 99 107 0
-18 103 273 0
-99 103 273 0
-107 103 273 0
-274 -104 0
-274 19 100 108 0
-19 104 274 0
-100 104 274 0
-108 104 274 0
-275 -105 0
-275 20 101 109 0
-20 105 275 0
-101 105 275 0
-109 105 275 0
-276 -106 0
-276 21 102 110 0
-21 106 276 0
-102 106 276 0
-110 106 276 0
-277 -107 0
-277 22 103 111 0
-22 107 277 0
-103 107 277 0
-111 107 277 0
-278 -108 0
-278 23 104 112 0
-23 108 278 0
-104 108 278 0
-112 108 278 0
-279 -109 0
-279 24 105 113 0
-24 109 279 0
-105 109 279 0
-113 109 279 0
-280 -110 0
-280 25 106 114 0
-25 110 280 0
-106 110 280 0
-114 110 280 0
-281 -111 0
-281 26 107 115 0
-26 111 281 0
-107 111 281 0
-115 111 281 0
-282 -112 0
-282 27 108 116 0
-27 112 282 0
-108 112 282 0
-116 112 282 0
-283 -113 0
-283 28 109 117 0
-28 113 283 0
-109 113 283 0
-117 113 283 0
-284 -114 0
-284 29 110 118 0
-29 114 284 0
-110 114 284 0
-118 114 284 0
-285 -115 0
-285 30 111 119 0
-30 115 285 0
-111 115 285 0
-119 115 285 0
-286 -116 0
-286 31 112 120 0
-31 116 286 0
-112 116 286 0
-120 116 286 0
-287 -117 0
-287 32 113 121 0
-32 117 287 0
-113 117 287 0
-121 117 287 0
-288 -118 0
-288 33 114 122 0
-33 118 288 0
-114 118 288 0
-122 118 288 0
-289 -119 0
-289 34 115 123 0
-34 119 289 0
-115 119 289 0
-123 119 289 0
-290 -120 0
-290 35 116 124 0
-35 120 290 0
-116 120 290 0
-124 120 290 0
-291 -121 0
-291 36 117 125 0
-36 121 291 0
-117 121 291 0
-125 121 291 0
-292 -122 0
-292 37 118 126 0
-37 122 292 0
-118 122 292 0
-126 122 292 0
-293 -123 0
-293 38 119 127 0
-38 123 293 0
-119 123 293 0
-127 123 293 0
-294 -124 0
-294 39 120 128 0
-39 124 294 0
-120 124 294 0
-128 124 294 0
-295 -125 0
-295 40 121 129 0
-40 125 295 0
-121 125 295 0
-129 125 295 0
-296 -126 0
-296 41 122 130 0
-41 126 296 0
-122 126 296 0
-130 126 296 0
-297 -127 0
-297 42 123 131 0
-42 127 297 0
-123 127 297 0
-131 127 297 0
-298 -128 0
-298 43 124 132 0
-43 128 298 0
-124 128 298 0
-132 128 298 0
-299 -129 0
-299 44 125 133 0
-44 129 299 0
-125 129 299 0
-133 129 299 0
-300 -130 0
-300 45 126 134 0
-45 130 300 0
-126 130 300 0
-134 130 300 0
-301 -131 0
-301 46 127 135 0
-46 131 301 0
-127 131 301 0
-135 131 301 0
-302 -132 0
-302 47 128 136 0
-47 132 302 0
-128 132 302 0
-136 132 302 0
-303 -133 0
-303 48 129 137 0
-48 133 303 0
-129 133 303 0
-137 133 303 0
-304 -134 0
-304 49 130 138 0
-49 134 304 0
-130 134 304 0
-138 134 304 0
-305 -135 0
-305 50 131 139 0
-50 135 305 0
-131 135 305 0
-139 135 305 0
-306 -136 0
-306 51 132 140 0
-51 136 306 0
-132 136 306 0
-140 136 306 0
-307 -137 0
-307 52 133 141 0
-52 137 307 0
-133 137 307 0
-141 137 307 0
-308 -138 0
-308 53 134 142 0
-53 138 308 0
-134 138 308 0
-142 138 308 0
-309 -139 0
-309 54 135 143 0
-54 139 309 0
-135 139 309 0
-143 139 309 0
-310 -140 0
-310 55 136 144 0
-55 140 310 0
-136 140 310 0
-144 140 310 0
-311 -141 0
-311 56 137 145 0
-56 141 311 0
-137 141 311 0
-145 141 311 0
-312 -142 0
-312 57 138 146 0
-57 142 312 0
-138 142 312 0
-146 142 312 0
-313 -143 0
-313 58 139 147 0
-58 143 313 0
-139 143 313 0
-147 143 313 0
-314 -144 0
-314 59 140 148 0
-59 144 314 0
-140 144 314 0
-148 144 314 0
-315 -145 0
-315 60 141 149 0
-60 145 315 0
-141 145 315 0
-149 145 315 0
-316 -146 0
-316 61 142 150 0
-61 146 316 0
-142 146 316 0
-150 146 316 0
-317 -147 0
-317 62 143 151 0
-62 147 317 0
-143 147 317 0
-151 147 317 0
-318 -148 0
-318 63 144 152 0
-63 148 318 0
-144 148 318 0
-152 148 318 0
-319 -149 0
-319 64 145 153 0
-64 149 319 0
-145 149 319 0
-153 149 319 0
-320 -150 0
-320 65 146 154 0
-65 150 320 0
-146 150 320 0
-154 150 320 0
-321 -151 0
-321 66 147 155 0
-66 151 321 0
-147 151 321 0
-155 151 321 0
-322 -152 0
-322 67 148 156 0
-67 152 322 0
-148 152 322 0
-156 152 322 0
-323 -153 0
-323 68 149 157 0
-68 153 323 0
-149 153 323 0
-157 153 323 0
-324 -154 0
-324 69 150 158 0
-69 154 324 0
-150 154 324 0
-158 154 324 0
-325 -155 0
-325 70 151 159 0
-70 155 325 0
-151 155 325 0
-159 155 325 0
-326 -156 0
-326 71 152 160 0
-71 156 326 0
-152 156 326 0
-160 156 326 0
-327 -157 0
-327 72 153 161 0
-72 157 327 0
-153 157 327 0
-161 157 327 0
-328 -158 0
-328 73 154 162 0
-73 158 328 0
-154 158 328 0
-162 158 328 0
-329 -159 0
-329 74 155 163 0
-74 159 329 0
-155 159 329 0
-163 159 329 0
-330 -160 0
-330 75 156 164 0
-75 160 330 0
-156 160 330 0
-164 160 330 0
-331 -161 0
-331 76 157 165 0
-76 161 331 0
-157 161 331 0
-165 161 331 0
-332 -162 0
-332 77 158 166 0
-77 162 332 0
-158 162 332 0
-166 162 332 0
-333 -163 0
-333 78 159 167 0
-78 163 333 0
-159 163 333 0
-167 163 333 0
-334 -164 0
-334 79 160 168 0
-79 164 334 0
-160 164 334 0
-168 164 334 0
-335 -165 0
-335 80 161 169 0
-80 165 335 0
-161 165 335 0
-169 165 335 0
-336 -166 0
-336 81 162 170 0
-81 166 336 0
-162 166 336 0
-170 166 336 0
-337 -167 0
-337 82 86 163 0
-82 167 337 0
-86 167 337 0
-163 167 337 0
-338 -168 0
-338 83 87 164 0
-83 168 338 0
-87 168 338 0
-164 168 338 0
-339 -169 0
-339 84 88 165 0
-84 169 339 0
-88 169 339 0
-165 169 339 0
-340 -170 0
-340 85 89 166 0
-85 170 340 0
-89 170 340 0
-166 170 340 0
1 341 0
-341 342 0
2 -341 343 0
-343 344 0
3 -343 345 0
-345 346 0
4 -345 347 0
-347 348 0
5 -347 349 0
-349 350 0
6 -349 351 0
-351 352 0
7 -351 353 0
-353 354 0
8 -353 355 0
-355 356 0
9 -355 357 0
-357 358 0
10 -357 359 0
-359 360 0
11 -359 361 0
-361 362 0
12 -361 363 0
-363 364 0
13 -363 365 0
-365 366 0
14 -365 367 0
-367 368 0
15 -367 369 0
-369 370 0
16 -369 371 0
-371 372 0
17 -371 373 0
-373 374 0
18 -373 375 0
-375 376 0
19 -375 377 0
-377 378 0
20 -377 379 0
-379 380 0
21 -379 381 0
-381 382 0
22 -381 383 0
-383 384 0
23 -383 385 0
-385 386 0
24 -385 387 0
-387 388 0
25 -387 389 0
-389 390 0
26 -389 391 0
-391 392 0
27 -391 393 0
-393 394 0
28 -393 395 0
-395 396 0
29 -395 397 0
-397 398 0
30 -397 399 0
-399 400 0
31 -399 401 0
-401 402 0
32 -401 403 0
-403 404 0
33 -403 405 0
-405 406 0
34 -405 407 0
-407 408 0
35 -407 409 0
-409 410 0
36 -409 411 0
-411 412 0
37 -411 413 0
-413 414 0
38 -413 415 0
-415 416 0
39 -415 417 0
-417 418 0
40 -417 419 0
-419 420 0
41 -419 421 0
-421 422 0
42 -421 423 0
-423 424 0
43 -423 425 0
-425 426 0
44 -425 427 0
-427 428 0
45 -427 429 0
-429 430 0
46 -429 431 0
-431 432 0
47 -431 433 0
-433 434 0
48 -433 435 0
-435 436 0
49 -435 437 0
-437 438 0
50 -437 439 0
-439 440 0
51 -439 441 0
-441 442 0
52 -441 443 0
-443 444 0
53 -443 445 0
-445 446 0
54 -445 447 0
-447 448 0
55 -447 449 0
-449 450 0
56 -449 451 0
-451 452 0
57 -451 453 0
-453 454 0
58 -453 455 0
-455 456 0
59 -455 457 0
-457 458 0
60 -457 459 0
-459 460 0
61 -459 461 0
-461 462 0
62 -461 463 0
-463 464 0
63 -463 465 0
-465 466 0
64 -465 467 0
-467 468 0
65 -467 469 0
-469 470 0
66 -469 471 0
-471 472 0
67 -471 473 0
-473 474 0
68 -473 475 0
-475 476 0
69 -475 477 0
-477 478 0
70 -477 479 0
-479 480 0
71 -479 481 0
-481 482 0
72 -481 483 0
-483 484 0
73 -483 485 0
-485 486 0
74 -485 487 0
-487 488 0
75 -487 489 0
-489 490 0
76 -489 491 0
-491 492 0
77 -491 493 0
-493 494 0
78 -493 495 0
-495 496 0
79 -495 497 0
-497 498 0
80 -497 499 0
-499 500 0
81 -499 501 0
-501 502 0
82 -501 503 0
-503 504 0
83 -503 505 0
-505 506 0
84 -505 507 0
-507 508 0
85 -507 509 0
-509 510 0
86 -509 511 0
-511 512 0
87 -511 513 0
-513 514 0
88 -513 515 0
-515 516 0
89 -515 517 0
-517 518 0
90 -517 519 0
-519 520 0
91 -519 521 0
-521 522 0
92 -521 523 0
-523 524 0
93 -523 525 0
-525 526 0
94 -525 527 0
-527 528 0
95 -527 529 0
-529 530 0
96 -529 531 0
-531 532 0
97 -531 533 0
-533 534 0
98 -533 535 0
-535 536 0
99 -535 537 0
-537 538 0
100 -537 539 0
-539 540 0
101 -539 541 0
-541 542 0
102 -541 543 0
-543 544 0
103 -543 545 0
-545 546 0
104 -545 547 0
-547 548 0
105 -547 549 0
-549 550 0
106 -549 551 0
-551 552 0
107 -551 553 0
-553 554 0
108 -553 555 0
-555 556 0
109 -555 557 0
-557 558 0
110 -557 559 0
-559 560 0
111 -559 561 0
-561 562 0
112 -561 563 0
-563 564 0
113 -563 565 0
-565 566 0
114 -565 567 0
-567 568 0
115 -567 569 0
-569 570 0
116 -569 571 0
-571 572 0
117 -571 573 0
-573 574 0
118 -573 575 0
-575 576 0
119 -575 577 0
-577 578 0
120 -577 579 0
-579 580 0
121 -579 581 0
-581 582 0
122 -581 583 0
-583 584 0
123 -583 585 0
-585 586 0
124 -585 587 0
-587 588 0
125 -587 589 0
-589 590 0
126 -589 591 0
-591 592 0
127 -591 593 0
-593 594 0
128 -593 595 0
-595 596 0
129 -595 597 0
-597 598 0
130 -597 599 0
-599 600 0
131 -599 601 0
-601 602 0
132 -601 603 0
-603 604 0
133 -603 605 0
-605 606 0
134 -605 607 0
-607 608 0
135 -607 609 0
-609 610 0
136 -609 611 0
-611 612 0
137 -611 613 0
-613 614 0
138 -613 615 0
-615 616 0
139 -615 617 0
-617 618 0
140 -617 619 0
-619 620 0
141 -619 621 0
-621 622 0
142 -621 623 0
-623 624 0
143 -623 625 0
-625 626 0
144 -625 627 0
-627 628 0
145 -627 629 0
-629 630 0
146 -629 631 0
-631 632 0
147 -631 633 0
-633 634 0
148 -633 635 0
-635 636 0
149 -635 637 0
-637 638 0
150 -637 639 0
-639 640 0
151 -639 641 0
-641 642 0
152 -641 643 0
-643 644 0
153 -643 645 0
-645 646 0
154 -645 647 0
-647 648 0
155 -647 0
2 342 0
-342 649 0
3 -342 344 0
-344 650 0
4 -344 346 0
-346 651 0
5 -346 348 0
-348 652 0
6 -348 350 0
-350 653 0
7 -350 352 0
-352 654 0
8 -352 354 0
-354 655 0
9 -354 356 0
-356 656 0
10 -356 358 0
-358 657 0
11 -358 360 0
-360 658 0
12 -360 362 0
-362 659 0
13 -362 364 0
-364 660 0
14 -364 366 0
-366 661 0
15 -366 368 0
-368 662 0
16 -368 370 0
-370 663 0
17 -370 372 0
-372 664 0
18 -372 374 0
-374 665 0
19 -374 376 0
-376 666 0
20 -376 378 0
-378 667 0
21 -378 380 0
-380 668 0
22 -380 382 0
-382 669 0
23 -382 384 0
-384 670 0
24 -384 386 0
-386 671 0
25 -386 388 0
-388 672 0
26 -388 390 0
-390 673 0
27 -390 392 0
-392 674 0
28 -392 394 0
-394 675 0
29 -394 396 0
-396 676 0
30 -396 398 0
-398 677 0
31 -398 400 0
-400 678 0
32 -400 402 0
-402 679 0
33 -402 404 0
-404 680 0
34 -404 406 0
-406 681 0
35 -406 408 0
-408 682 0
36 -408 410 0
-410 683 0
37 -410 412 0
-412 684 0
38 -412 414 0
-414 685 0
39 -414 416 0
-416 686 0
40 -416 418 0
-418 687 0
41 -418 420 0
-420 688 0
42 -420 422 0
-422 689 0
43 -422 424 0
-424 690 0
44 -424 426 0
-426 691 0
45 -426 428 0
-428 692 0
46 -428 430 0
-430 693 0
47 -430 432 0
-432 694 0
48 -432 434 0
-434 695 0
49 -434 436 0
-436 696 0
50 -436 438 0
-438 697 0
51 -438 440 0
-440 698 0
52 -440 442 0
-442 699 0
53 -442 444 0
-444 700 0
54 -444 446 0
-446 701 0
55 -446 448 0
-448 702 0
56 -448 450 0
-450 703 0
57 -450 452 0
-452 704 0
58 -452 454 0
-454 705 0
59 -454 456 0
-456 706 0
60 -456 458 0
-458 707 0
61 -458 460 0
-460 708 0
62 -460 462 0
-462 709 0
63 -462 464 0
-464 710 0
64 -464 466 0
-466 711 0
65 -466 468 0
-468 712 0
66 -468 470 0
-470 713 0
67 -470 472 0
-472 714 0
68 -472 474 0
-474 715 0
69 -474 476 0
-476 716 0
70 -476 478 0
-478 717 0
71 -478 480 0
-480 718 0
72 -480 482 0
-482 719 0
73 -482 484 0
-484 720 0
74 -484 486 0
-486 721 0
75 -486 488 0
-488 722 0
76 -488 490 0
-490 723 0
77 -490 492 0
-492 724 0
78 -492 494 0
-494 725 0
79 -494 496 0
-496 726 0
80 -496 498 0
-498 727 0
81 -498 500 0
-500 728 0
82 -500 502 0
-502 729 0
83 -502 504 0
-504 730 0
84 -504 506 0
-506 731 0
85 -506 508 0
-508 732 0
86 -508 510 0
-510 733 0
87 -510 512 0
-512 734 0
88 -512 514 0
-514 735 0
89 -514 516 0
-516 736 0
90 -516 518 0
-518 737 0
91 -518 520 0
-520 738 0
92 -520 522 0
-522 739 0
93 -522 524 0
-524 740 0
94 -524 526 0
-526 741 0
95 -526 528 0
-528 742 0
96 -528 530 0
-530 743 0
97 -530 532 0
-532 744 0
98 -532 534 0
-534 745 0
99 -534 536 0
-536 746 0
100 -536 538 0
-538 747 0
101 -538 540 0
-540 748 0
102 -540 542 0
-542 749 0
103 -542 544 0
-544 750 0
104 -544 546 0
-546 751 0
105 -546 548 0
-548 752 0
106 -548 550 0
-550 753 0
107 -550 552 0
-552 754 0
108 -552 554 0
-554 755 0
109 -554 556 0
-556 756 0
110 -556 558 0
-558 757 0
111 -558 560 0
-560 758 0
112 -560 562 0
-562 759 0
113 -562 564 0
-564 760 0
114 -564 566 0
-566 761 0
115 -566 568 0
-568 762 0
116 -568 570 0
-570 763 0
117 -570 572 0
-572 764 0
118 -572 574 0
-574 765 0
119 -574 576 0
-576 766 0
120 -576 578 0
-578 767 0
121 -578 580 0
-580 768 0
122 -580 582 0
-582 769 0
123 -582 584 0
-584 770 0
124 -584 586 0
-586 771 0
125 -586 588 0
-588 772 0
126 -588 590 0
-590 773 0
127 -590 592 0
-592 774 0
128 -592 594 0
-594 775 0
129 -594 596 0
-596 776 0
130 -596 598 0
-598 777 0
131 -598 600 0
-600 778 0
132 -600 602 0
-602 779 0
133 -602 604 0
-604 780 0
134 -604 606 0
-606 781 0
135 -606 608 0
-608 782 0
136 -608 610 0
-610 783 0
137 -610 612 0
-612 784 0
138 -612 614 0
-614 785 0
139 -614 616 0
-616 786 0
140 -616 618 0
-618 787 0
141 -618 620 0
-620 788 0
142 -620 622 0
-622 789 0
143 -622 624 0
-624 790 0
144 -624 626 0
-626 791 0
145 -626 628 0
-628 792 0
146 -628 630 0
-630 793 0
147 -630 632 0
-632 794 0
148 -632 634 0
-634 795 0
149 -634 636 0
-636 796 0
150 -636 638 0
-638 797 0
151 -638 640 0
-640 798 0
152 -640 642 0
-642 799 0
153 -642 644 0
-644 800 0
154 -644 646 0
-646 801 0
155 -646 648 0
-648 802 0
156 -648 0
3 649 0
-649 803 0
4 -649 650 0
-650 804 0
5 -650 651 0
-651 805 0
6 -651 652 0
-652 806 0
7 -652 653 0
-653 807 0
8 -653 654 0
-654 808 0
9 -654 655 0
-655 809 0
10 -655 656 0
-656 810 0
11 -656 657 0
-657 811 0
12 -657 658 0
-658 812 0
13 -658 659 0
-659 813 0
14 -659 660 0
-660 814 0
15 -660 661 0
-661 815 0
16 -661 662 0
-662 816 0
17 -662 663 0
-663 817 0
18 -663 664 0
-664 818 0
19 -664 665 0
-665 819 0
20 -665 666 0
-666 820 0
21 -666 667 0
-667 821 0
22 -667 668 0
-668 822 0
23 -668 669 0
-669 823 0
24 -669 670 0
-670 824 0
25 -670 671 0
-671 825 0
26 -671 672 0
-672 826 0
27 -672 673 0
-673 827 0
28 -673 674 0
-674 828 0
29 -674 675 0
-675 829 0
30 -675 676 0
-676 830 0
31 -676 677 0
-677 831 0
32 -677 678 0
-678 832 0
33 -678 679 0
-679 833 0
34 -679 680 0
-680 834 0
35 -680 681 0
-681 835 0
36 -681 682 0
-682 836 0
37 -682 683 0
-683 837 0
38 -683 684 0
-684 838 0
39 -684 685 0
-685 839 0
40 -685 686 0
-686 840 0
41 -686 687 0
-687 841 0
42 -687 688 0
-688 842 0
43 -688 689 0
-689 843 0
44 -689 690 0
-690 844 0
45 -690 691 0
-691 845 0
46 -691 692 0
-692 846 0
47 -692 693 0
-693 847 0
48 -693 694 0
-694 848 0
49 -694 695 0
-695 849 0
50 -695 696 0
-696 850 0
51 -696 697 0
-697 851 0
52 -697 698 0
-698 852 0
53 -698 699 0
-699 853 0
54 -699 700 0
-700 854 0
55 -700 701 0
-701 855 0
56 -701 702 0
-702 856 0
57 -702 703 0
-703 857 0
58 -703 704 0
-704 858 0
59 -704 705 0
-705 859 0
60 -705 706 0
-706 860 0
61 -706 707 0
-707 861 0
62 -707 708 0
-708 862 0
63 -708 709 0
-709 863 0
64 -709 710 0
-710 864 0
65 -710 711 0
-711 865 0
66 -711 712 0
-712 866 0
67 -712 713 0
-713 867 0
68 -713 714 0
-714 868 0
69 -714 715 0
-715 869 0
70 -715 716 0
-716 870 0
71 -716 717 0
-717 871 0
72 -717 718 0
-718 872 0
73 -718 719 0
-719 873 0
74 -719 720 0
-720 874 0
75 -720 721 0
-721 875 0
76 -721 722 0
-722 876 0
77 -722 723 0
-723 877 0
78 -723 724 0
-724 878 0
79 -724 725 0
-725 879 0
80 -725 726 0
-726 880 0
81 -726 727 0
-727 881 0
82 -727 728 0
-728 882 0
83 -728 729 0
-729 883 0
84 -729 730 0
-730 884 0
85 -730 731 0
-731 885 0
86 -731 732 0
-732 886 0
87 -732 733 0
-733 887 0
88 -733 734 0
-734 888 0
89 -734 735 0
-735 889 0
90 -735 736 0
-736 890 0
91 -736 737 0
-737 891 0
92 -737 738 0
-738 892 0
93 -738 739 0
-739 893 0
94 -739 740 0
-740 894 0
95 -740 741 0
-741 895 0
96 -741 742 0
-742 896 0
97 -742 743 0
-743 897 0
98 -743 744 0
-744 898 0
99 -744 745 0
-745 899 0
100 -745 746 0
-746 900 0
101 -746 747 0
-747 901 0
102 -747 748 0
-748 902 0
103 -748 749 0
-749 903 0
104 -749 750 0
-750 904 0
105 -750 751 0
-751 905 0
106 -751 752 0
-752 906 0
107 -752 753 0
-753 907 0
108 -753 754 0
-754 908 0
109 -754 755 0
-755 909 0
110 -755 756 0
-756 910 0
111 -756 757 0
-757 911 0
112 -757 758 0
-758 912 0
113 -758 759 0
-759 913 0
114 -759 760 0
-760 914 0
115 -760 761 0
-761 915 0
116 -761 762 0
-762 916 0
117 -762 763 0
-763 917 0
118 -763 764 0
-764 918 0
119 -764 765 0
-765 919 0
120 -765 766 0
-766 920 0
121 -766 767 0
-767 921 0
122 -767 768 0
-768 922 0
123 -768 769 0
-769 923 0
124 -769 770 0
-770 924 0
125 -770 771 0
-771 925 0
126 -771 772 0
-772 926 0
127 -772 773 0
-773 927 0
128 -773 774 0
-774 928 0
129 -774 775 0
-775 929 0
130 -775 776 0
-776 930 0
131 -776 777 0
-777 931 0
132 -777 778 0
-778 932 0
133 -778 779 0
-779 933 0
134 -779 780 0
-780 934 0
135 -780 781 0
-781 935 0
136 -781 782 0
-782 936 0
137 -782 783 0
-783 937 0
138 -783 784 0
-784 938 0
139 -784 785 0
-785 939 0
140 -785 786 0
-786 940 0
141 -786 787 0
-787 941 0
142 -787 788 0
-788 942 0
143 -788 789 0
-789 943 0
144 -789 790 0
-790 944 0
145 -790 791 0
-791 945 0
146 -791 792 0
-792 946 0
147 -792 793 0
-793 947 0
148 -793 794 0
-794 948 0
149 -794 795 0
-795 949 0
150 -795 796 0
-796 950 0
151 -796 797 0
-797 951 0
152 -797 798 0
-798 952 0
153 -798 799 0
-799 953 0
154 -799 800 0
-800 954 0
155 -800 801 0
-801 955 0
156 -801 802 0
-802 956 0
157 -802 0
4 803 0
-803 957 0
5 -803 804 0
-804 958 0
6 -804 805 0
-805 959 0
7 -805 806 0
-806 960 0
8 -806 807 0
-807 961 0
9 -807 808 0
-808 962 0
10 -808 809 0
-809 963 0
11 -809 810 0
-810 964 0
12 -810 811 0
-811 965 0
13 -811 812 0
-812 966 0
14 -812 813 0
-813 967 0
15 -813 814 0
-814 968 0
16 -814 815 0
-815 969 0
17 -815 816 0
-816 970 0
18 -816 817 0
-817 971 0
19 -817 818 0
-818 972 0
20 -818 819 0
-819 973 0
21 -819 820 0
-820 974 0
22 -820 821 0
-821 975 0
23 -821 822 0
-822 976 0
24 -822 823 0
-823 977 0
25 -823 824 0
-824 978 0
26 -824 825 0
-825 979 0
27 -825 826 0
-826 980 0
28 -826 827 0
-827 981 0
29 -827 828 0
-828 982 0
30 -828 829 0
-829 983 0
31 -829 830 0
-830 984 0
32 -830 831 0
-831 985 0
33 -831 832 0
-832 986 0
34 -832 833 0
-833 987 0
35 -833 834 0
-834 988 0
36 -834 835 0
-835 989 0
37 -835 836 0
-836 990 0
38 -836 837 0
-837 991 0
39 -837 838 0
-838 992 0
40 -838 839 0
-839 993 0
41 -839 840 0
-840 994 0
42 -840 841 0
-841 995 0
43 -841 842 0
-842 996 0
44 -842 843 0
-843 997 0
45 -843 844 0
-844 998 0
46 -844 845 0
-845 999 0
47 -845 846 0
-846 1000 0
48 -846 847 0
-847 1001 0
49 -847 848 0
-848 1002 0
50 -848 849 0
-849 1003 0
51 -849 850 0
-850 1004 0
52 -850 851 0
-851 1005 0
53 -851 852 0
-852 1006 0
54 -852 853 0
-853 1007 0
55 -853 854 0
-854 1008 0
56 -854 855 0
-855 1009 0
57 -855 856 0
-856 1010 0
58 -856 857 0
-857 1011 0
59 -857 858 0
-858 1012 0
60 -858 859 0
-859 1013 0
61 -859 860 0
-860 1014 0
62 -860 861 0
-861 1015 0
63 -861 862 0
-862 1016 0
64 -862 863 0
-863 1017 0
65 -863 864 0
-864 1018 0
66 -864 865 0
-865 1019 0
67 -865 866 0
-866 1020 0
68 -866 867 0
-867 1021 0
69 -867 868 0
-868 1022 0
70 -868 869 0
-869 1023 0
71 -869 870 0
-870 1024 0
72 -870 871 0
-871 1025 0
73 -871 872 0
-872 1026 0
74 -872 873 0
-873 1027 0
75 -873 874 0
-874 1028 0
76 -874 875 0
-875 1029 0
77 -875 876 0
-876 1030 0
78 -876 877 0
-877 1031 0
79 -877 878 0
-878 1032 0
80 -878 879 0
-879 1033 0
81 -879 880 0
-880 1034 0
82 -880 881 0
-881 1035 0
83 -881 882 0
-882 1036 0
84 -882 883 0
-883 1037 0
85 -883 884 0
-884 1038 0
86 -884 885 0
-885 1039 0
87 -885 886 0
-886 1040 0
88 -886 887 0
-887 1041 0
89 -887 888 0
-888 1042 0
90 -888 889 0
-889 1043 0
91 -889 890 0
-890 1044 0
92 -890 891 0
-891 1045 0
93 -891 892 0
-892 1046 0
94 -892 893 0
-893 1047 0
95 -893 894 0
-894 1048 0
96 -894 895 0
-895 1049 0
97 -895 896 0
-896 1050 0
98 -896 897 0
-897 1051 0
99 -897 898 0
-898 1052 0
100 -898 899 0
-899 1053 0
101 -899 900 0
-900 1054 0
102 -900 901 0
-901 1055 0
103 -901 902 0
-902 1056 0
104 -902 903 0
-903 1057 0
105 -903 904 0
-904 1058 0
106 -904 905 0
-905 1059 0
107 -905 906 0
-906 1060 0
108 -906 907 0
-907 1061 0
109 -907 908 0
-908 1062 0
110 -908 909 0
-909 1063 0
111 -909 910 0
-910 1064 0
112 -910 911 0
-911 1065 0
113 -911 912 0
-912 1066 0
114 -912 913 0
-913 1067 0
115 -913 914 0
-914 1068 0
116 -914 915 0
-915 1069 0
117 -915 916 0
-916 1070 0
118 -916 917 0
-917 1071 0
119 -917 918 0
-918 1072 0
120 -918 919 0
-919 1073 0
121 -919 920 0
-920 1074 0
122 -920 921 0
-921 1075 0
123 -921 922 0
-922 1076 0
124 -922 923 0
-923 1077 0
125 -923 924 0
-924 1078 0
126 -924 925 0
-925 1079 0
127 -925 926 0
-926 1080 0
128 -926 927 0
-927 1081 0
129 -927 928 0
-928 1082 0
130 -928 929 0
-929 1083 0
131 -929 930 0
-930 1084 0
132 -930 931 0
-931 1085 0
133 -931 932 0
-932 1086 0
134 -932 933 0
-933 1087 0
135 -933 934 0
-934 1088 0
136 -934 935 0
-935 1089 0
137 -935 936 0
-936 1090 0
138 -936 937 0
-937 1091 0
139 -937 938 0
-938 1092 0
140 -938 939 0
-939 1093 0
141 -939 940 0
-940 1094 0
142 -940 941 0
-941 1095 0
143 -941 942 0
-942 1096 0
144 -942 943 0
-943 1097 0
145 -943 944 0
-944 1098 0
146 -944 945 0
-945 1099 0
147 -945 946 0
-946 1100 0
148 -946 947 0
-947 1101 0
149 -947 948 0
-948 1102 0
150 -948 949 0
-949 1103 0
151 -949 950 0
-950 1104 0
152 -950 951 0
-951 1105 0
153 -951 952 0
-952 1106 0
154 -952 953 0
-953 1107 0
155 -953 954 0
-954 1108 0
156 -954 955 0
-955 1109 0
157 -955 956 0
-956 1110 0
158 -956 0
5 957 0
-957 1111 0
6 -957 958 0
-958 1112 0
7 -958 959 0
-959 1113 0
8 -959 960 0
-960 1114 0
9 -960 961 0
-961 1115 0
10 -961 962 0
-962 1116 0
11 -962 963 0
-963 1117 0
12 -963 964 0
-964 1118 0
13 -964 965 0
-965 1119 0
14 -965 966 0
-966 1120 0
15 -966 967 0
-967 1121 0
16 -967 968 0
-968 1122 0
17 -968 969 0
-969 1123 0
18 -969 970 0
-970 1124 0
19 -970 971 0
-971 1125 0
20 -971 972 0
-972 1126 0
21 -972 973 0
-973 1127 0
22 -973 974 0
-974 1128 0
23 -974 975 0
-975 1129 0
24 -975 976 0
-976 1130 0
25 -976 977 0
-977 1131 0
26 -977 978 0
-978 1132 0
27 -978 979 0
-979 1133 0
28 -979 980 0
-980 1134 0
29 -980 981 0
-981 1135 0
30 -981 982 0
-982 1136 0
31 -982 983 0
-983 1137 0
32 -983 984 0
-984 1138 0
33 -984 985 0
-985 1139 0
34 -985 986 0
-986 1140 0
35 -986 987 0
-987 1141 0
36 -987 988 0
-988 1142 0
37 -988 989 0
-989 1143 0
38 -989 990 0
-990 1144 0
39 -990 991 0
-991 1145 0
40 -991 992 0
-992 1146 0
41 -992 993 0
-993 1147 0
42 -993 994 0
-994 1148 0
43 -994 995 0
-995 1149 0
44 -995 996 0
-996 1150 0
45 -996 997 0
-997 1151 0
46 -997 998 0
-998 1152 0
47 -998 999 0
-999 1153 0
48 -999 1000 0
-1000 1154 0
49 -1000 1001 0
-1001 1155 0
50 -1001 1002 0
-1002 1156 0
51 -1002 1003 0
-1003 1157 0
52 -1003 1004 0
-1004 1158 0
53 -1004 1005 0
-1005 1159 0
54 -1005 1006 0
-1006 1160 0
55 -1006 1007 0
-1007 1161 0
56 -1007 1008 0
-1008 1162 0
57 -1008 1009 0
-1009 1163 0
58 -1009 1010 0
-1010 1164 0
59 -1010 1011 0
-1011 1165 0
60 -1011 1012 0
-1012 1166 0
61 -1012 1013 0
-1013 1167 0
62 -1013 1014 0
-1014 1168 0
63 -1014 1015 0
-1015 1169 0
64 -1015 1016 0
-1016 1170 0
65 -1016 1017 0
-1017 1171 0
66 -1017 1018 0
-1018 1172 0
67 -1018 1019 0
-1019 1173 0
68 -1019 1020 0
-1020 1174 0
69 -1020 1021 0
-1021 1175 0
70 -1021 1022 0
-1022 1176 0
71 -1022 1023 0
-1023 1177 0
72 -1023 1024 0
-1024 1178 0
73 -1024 1025 0
-1025 1179 0
74 -1025 1026 0
-1026 1180 0
75 -1026 1027 0
-1027 1181 0
76 -1027 1028 0
-1028 1182 0
77 -1028 1029 0
-1029 1183 0
78 -1029 1030 0
-1030 1184 0
79 -1030 1031 0
-1031 1185 0
80 -1031 1032 0
-1032 1186 0
81 -1032 1033 0
-1033 1187 0
82 -1033 1034 0
-1034 1188 0
83 -1034 1035 0
-1035 1189 0
84 -1035 1036 0
-1036 1190 0
85 -1036 1037 0
-1037 1191 0
86 -1037 1038 0
-1038 1192 0
87 -1038 1039 0
-1039 1193 0
88 -1039 1040 0
-1040 1194 0
89 -1040 1041 0
-1041 1195 0
90 -1041 1042 0
-1042 1196 0
91 -1042 1043 0
-1043 1197 0
92 -1043 1044 0
-1044 1198 0
93 -1044 1045 0
-1045 1199 0
94 -1045 1046 0
-1046 1200 0
95 -1046 1047 0
-1047 1201 0
96 -1047 1048 0
-1048 1202 0
97 -1048 1049 0
-1049 1203 0
98 -1049 1050 0
-1050 1204 0
99 -1050 1051 0
-1051 1205 0
100 -1051 1052 0
-1052 1206 0
101 -1052 1053 0
-1053 1207 0
102 -1053 1054 0
-1054 1208 0
103 -1054 1055 0
-1055 1209 0
104 -1055 1056 0
-1056 1210 0
105 -1056 1057 0
-1057 1211 0
106 -1057 1058 0
-1058 1212 0
107 -1058 1059 0
-1059 1213 0
108 -1059 1060 0
-1060 1214 0
109 -1060 1061 0
-1061 1215 0
110 -1061 1062 0
-1062 1216 0
111 -1062 1063 0
-1063 1217 0
112 -1063 1064 0
-1064 1218 0
113 -1064 1065 0
-1065 1219 0
114 -1065 1066 0
-1066 1220 0
115 -1066 1067 0
-1067 1221 0
116 -1067 1068 0
-1068 1222 0
117 -1068 1069 0
-1069 1223 0
118 -1069 1070 0
-1070 1224 0
119 -1070 1071 0
-1071 1225 0
120 -1071 1072 0
-1072 1226 0
121 -1072 1073 0
-1073 1227 0
122 -1073 1074 0
-1074 1228 0
123 -1074 1075 0
-1075 1229 0
124 -1075 1076 0
-1076 1230 0
125 -1076 1077 0
-1077 1231 0
126 -1077 1078 0
-1078 1232 0
127 -1078 1079 0
-1079 1233 0
128 -1079 1080 0
-1080 1234 0
129 -1080 1081 0
-1081 1235 0
130 -1081 1082 0
-1082 1236 0
131 -1082 1083 0
-1083 1237 0
132 -1083 1084 0
-1084 1238 0
133 -1084 1085 0
-1085 1239 0
134 -1085 1086 0
-1086 1240 0
135 -1086 1087 0
-1087 1241 0
136 -1087 1088 0
-1088 1242 0
137 -1088 1089 0
-1089 1243 0
138 -1089 1090 0
-1090 1244 0
139 -1090 1091 0
-1091 1245 0
140 -1091 1092 0
-1092 1246 0
141 -1092 1093 0
-1093 1247 0
142 -1093 1094 0
-1094 1248 0
143 -1094 1095 0
-1095 1249 0
144 -1095 1096 0
-1096 1250 0
145 -1096 1097 0
-1097 1251 0
146 -1097 1098 0
-1098 1252 0
147 -1098 1099 0
-1099 1253 0
148 -1099 1100 0
-1100 1254 0
149 -1100 1101 0
-1101 1255 0
150 -1101 1102 0
-1102 1256 0
151 -1102 1103 0
-1103 1257 0
152 -1103 1104 0
-1104 1258 0
153 -1104 1105 0
-1105 1259 0
154 -1105 1106 0
-1106 1260 0
155 -1106 1107 0
-1107 1261 0
156 -1107 1108 0
-1108 1262 0
157 -1108 1109 0
-1109 1263 0
158 -1109 1110 0
-1110 1264 0
159 -1110 0
6 1111 0
-1111 1265 0
7 -1111 1112 0
-1112 1266 0
8 -1112 1113 0
-1113 1267 0
9 -1113 1114 0
-1114 1268 0
10 -1114 1115 0
-1115 1269 0
11 -1115 1116 0
-1116 1270 0
12 -1116 1117 0
-1117 1271 0
13 -1117 1118 0
-1118 1272 0
14 -1118 1119 0
-1119 1273 0
15 -1119 1120 0
-1120 1274 0
16 -1120 1121 0
-1121 1275 0
17 -1121 1122 0
-1122 1276 0
18 -1122 1123 0
-1123 1277 0
19 -1123 1124 0
-1124 1278 0
20 -1124 1125 0
-1125 1279 0
21 -1125 1126 0
-1126 1280 0
22 -1126 1127 0
-1127 1281 0
23 -1127 1128 0
-1128 1282 0
24 -1128 1129 0
-1129 1283 0
25 -1129 1130 0
-1130 1284 0
26 -1130 1131 0
-1131 1285 0
27 -1131 1132 0
-1132 1286 0
28 -1132 1133 0
-1133 1287 0
29 -1133 1134 0
-1134 1288 0
30 -1134 1135 0
-1135 1289 0
31 -1135 1136 0
-1136 1290 0
32 -1136 1137 0
-1137 1291 0
33 -1137 1138 0
-1138 1292 0
34 -1138 1139 0
-1139 1293 0
35 -1139 1140 0
-1140 1294 0
36 -1140 1141 0
-1141 1295 0
37 -1141 1142 0
-1142 1296 0
38 -1142 1143 0
-1143 1297 0
39 -1143 1144 0
-1144 1298 0
40 -1144 1145 0
-1145 1299 0
41 -1145 1146 0
-1146 1300 0
42 -1146 1147 0
-1147 1301 0
43 -1147 1148 0
-1148 1302 0
44 -1148 1149 0
-1149 1303 0
45 -1149 1150 0
-1150 1304 0
46 -1150 1151 0
-1151 1305 0
47 -1151 1152 0
-1152 1306 0
48 -1152 1153 0
-1153 1307 0
49 -1153 1154 0
-1154 1308 0
50 -1154 1155 0
-1155 1309 0
51 -1155 1156 0
-1156 1310 0
52 -1156 1157 0
-1157 1311 0
53 -1157 1158 0
-1158 1312 0
54 -1158 1159 0
-1159 1313 0
55 -1159 1160 0
-1160 1314 0
56 -1160 1161 0
-1161 1315 0
57 -1161 1162 0
-1162 1316 0
58 -1162 1163 0
-1163 1317 0
59 -1163 1164 0
-1164 1318 0
60 -1164 1165 0
-1165 1319 0
61 -1165 1166 0
-1166 1320 0
62 -1166 1167 0
-1167 1321 0
63 -1167 1168 0
-1168 1322 0
64 -1168 1169 0
-1169 1323 0
65 -1169 1170 0
-1170 1324 0
66 -1170 1171 0
-1171 1325 0
67 -1171 1172 0
-1172 1326 0
68 -1172 1173 0
-1173 1327 0
69 -1173 1174 0
-1174 1328 0
70 -1174 1175 0
-1175 1329 0
71 -1175 1176 0
-1176 1330 0
72 -1176 1177 0
-1177 1331 0
73 -1177 1178 0
-1178 1332 0
74 -1178 1179 0
-1179 1333 0
75 -1179 1180 0
-1180 1334 0
76 -1180 1181 0
-1181 1335 0
77 -1181 1182 0
-1182 1336 0
78 -1182 1183 0
-1183 1337 0
79 -1183 1184 0
-1184 1338 0
80 -1184 1185 0
-1185 1339 0
81 -1185 1186 0
-1186 1340 0
82 -1186 1187 0
-1187 1341 0
83 -1187 1188 0
-1188 1342 0
84 -1188 1189 0
-1189 1343 0
85 -1189 1190 0
-1190 1344 0
86 -1190 1191 0
-1191 1345 0
87 -1191 1192 0
-1192 1346 0
88 -1192 1193 0
-1193 1347 0
89 -1193 1194 0
-1194 1348 0
90 -1194 1195 0
-1195 1349 0
91 -1195 1196 0
-1196 1350 0
92 -1196 1197 0
-1197 1351 0
93 -1197 1198 0
-1198 1352 0
94 -1198 1199 0
-1199 1353 0
95 -1199 1200 0
-1200 1354 0
96 -1200 1201 0
-1201 1355 0
97 -1201 1202 0
-1202 1356 0
98 -1202 1203 0
-1203 1357 0
99 -1203 1204 0
-1204 1358 0
100 -1204 1205 0
-1205 1359 0
101 -1205 1206 0
-1206 1360 0
102 -1206 1207 0
-1207 1361 0
103 -1207 1208 0
-1208 1362 0
104 -1208 1209 0
-1209 1363 0
105 -1209 1210 0
-1210 1364 0
106 -1210 1211 0
-1211 1365 0
107 -1211 1212 0
-1212 1366 0
108 -1212 1213 0
-1213 1367 0
109 -1213 1214 0
-1214 1368 0
110 -1214 1215 0
-1215 1369 0
111 -1215 1216 0
-1216 1370 0
112 -1216 1217 0
-1217 1371 0
113 -1217 1218 0
-1218 1372 0
114 -1218 1219 0
-1219 1373 0
115 -1219 1220 0
-1220 1374 0
116 -1220 1221 0
-1221 1375 0
117 -1221 1222 0
-1222 1376 0
118 -1222 1223 0
-1223 1377 0
119 -1223 1224 0
-1224 1378 0
120 -1224 1225 0
-1225 1379 0
121 -1225 1226 0
-1226 1380 0
122 -1226 1227 0
-1227 1381 0
123 -1227 1228 0
-1228 1382 0
124 -1228 1229 0
-1229 1383 0
125 -1229 1230 0
-1230 1384 0
126 -1230 1231 0
-1231 1385 0
127 -1231 1232 0
-1232 1386 0
128 -1232 1233 0
-1233 1387 0
129 -1233 1234 0
-1234 1388 0
130 -1234 1235 0
-1235 1389 0
131 -1235 1236 0
-1236 1390 0
132 -1236 1237 0
-1237 1391 0
133 -1237 1238 0
-1238 1392 0
134 -1238 1239 0
-1239 1393 0
135 -1239 1240 0
-1240 1394 0
136 -1240 1241 0
-1241 1395 0
137 -1241 1242 0
-1242 1396 0
138 -1242 1243 0
-1243 1397 0
139 -1243 1244 0
-1244 1398 0
140 -1244 1245 0
-1245 1399 0
141 -1245 1246 0
-1246 1400 0
142 -1246 1247 0
-1247 1401 0
143 -1247 1248 0
-1248 1402 0
144 -1248 1249 0
-1249 1403 0
145 -1249 1250 0
-1250 1404 0
146 -1250 1251 0
-1251 1405 0
147 -1251 1252 0
-1252 1406 0
148 -1252 1253 0
-1253 1407 0
149 -1253 1254 0
-1254 1408 0
150 -1254 1255 0
-1255 1409 0
151 -1255 1256 0
-1256 1410 0
152 -1256 1257 0
-1257 1411 0
153 -1257 1258 0
-1258 1412 0
154 -1258 1259 0
-1259 1413 0
155 -1259 1260 0
-1260 1414 0
156 -1260 1261 0
-1261 1415 0
157 -1261 1262 0
-1262 1416 0
158 -1262 1263 0
-1263 1417 0
159 -1263 1264 0
-1264 1418 0
160 -1264 0
7 1265 0
-1265 1419 0
8 -1265 1266 0
-1266 1420 0
9 -1266 1267 0
-1267 1421 0
10 -1267 1268 0
-1268 1422 0
11 -1268 1269 0
-1269 1423 0
12 -1269 1270 0
-1270 1424 0
13 -1270 1271 0
-1271 1425 0
14 -1271 1272 0
-1272 1426 0
15 -1272 1273 0
-1273 1427 0
16 -1273 1274 0
-1274 1428 0
17 -1274 1275 0
-1275 1429 0
18 -1275 1276 0
-1276 1430 0
19 -1276 1277 0
-1277 1431 0
20 -1277 1278 0
-1278 1432 0
21 -1278 1279 0
-1279 1433 0
22 -1279 1280 0
-1280 1434 0
23 -1280 1281 0
-1281 1435 0
24 -1281 1282 0
-1282 1436 0
25 -1282 1283 0
-1283 1437 0
26 -1283 1284 0
-1284 1438 0
27 -1284 1285 0
-1285 1439 0
28 -1285 1286 0
-1286 1440 0
29 -1286 1287 0
-1287 1441 0
30 -1287 1288 0
-1288 1442 0
31 -1288 1289 0
-1289 1443 0
32 -1289 1290 0
-1290 1444 0
33 -1290 1291 0
-1291 1445 0
34 -1291 1292 0
-1292 1446 0
35 -1292 1293 0
-1293 1447 0
36 -1293 1294 0
-1294 1448 0
37 -1294 1295 0
-1295 1449 0
38 -1295 1296 0
-1296 1450 0
39 -1296 1297 0
-1297 1451 0
40 -1297 1298 0
-1298 1452 0
41 -1298 1299 0
-1299 1453 0
42 -1299 1300 0
-1300 1454 0
43 -1300 1301 0
-1301 1455 0
44 -1301 1302 0
-1302 1456 0
45 -1302 1303 0
-1303 1457 0
46 -1303 1304 0
-1304 1458 0
47 -1304 1305 0
-1305 1459 0
48 -1305 1306 0
-1306 1460 0
49 -1306 1307 0
-1307 1461 0
50 -1307 1308 0
-1308 1462 0
51 -1308 1309 0
-1309 1463 0
52 -1309 1310 0
-1310 1464 0
53 -1310 1311 0
-1311 1465 0
54 -1311 1312 0
-1312 1466 0
55 -1312 1313 0
-1313 1467 0
56 -1313 1314 0
-1314 1468 0
57 -1314 1315 0
-1315 1469 0
58 -1315 1316 0
-1316 1470 0
59 -1316 1317 0
-1317 1471 0
60 -1317 1318 0
-1318 1472 0
61 -1318 1319 0
-1319 1473 0
62 -1319 1320 0
-1320 1474 0
63 -1320 1321 0
-1321 1475 0
64 -1321 1322 0
-1322 1476 0
65 -1322 1323 0
-1323 1477 0
66 -1323 1324 0
-1324 1478 0
67 -1324 1325 0
-1325 1479 0
68 -1325 1326 0
-1326 1480 0
69 -1326 1327 0
-1327 1481 0
70 -1327 1328 0
-1328 1482 0
71 -1328 1329 0
-1329 1483 0
72 -1329 1330 0
-1330 1484 0
73 -1330 1331 0
-1331 1485 0
74 -1331 1332 0
-1332 1486 0
75 -1332 1333 0
-1333 1487 0
76 -1333 1334 0
-1334 1488 0
77 -1334 1335 0
-1335 1489 0
78 -1335 1336 0
-1336 1490 0
79 -1336 1337 0
-1337 1491 0
80 -1337 1338 0
-1338 1492 0
81 -1338 1339 0
-1339 1493 0
82 -1339 1340 0
-1340 1494 0
83 -1340 1341 0
-1341 1495 0
84 -1341 1342 0
-1342 1496 0
85 -1342 1343 0
-1343 1497 0
86 -1343 1344 0
-1344 1498 0
87 -1344 1345 0
-1345 1499 0
88 -1345 1346 0
-1346 1500 0
89 -1346 1347 0
-1347 1501 0
90 -1347 1348 0
-1348 1502 0
91 -1348 1349 0
-1349 1503 0
92 -1349 1350 0
-1350 1504 0
93 -1350 1351 0
-1351 1505 0
94 -1351 1352 0
-1352 1506 0
95 -1352 1353 0
-1353 1507 0
96 -1353 1354 0
-1354 1508 0
97 -1354 1355 0
-1355 1509 0
98 -1355 1356 0
-1356 1510 0
99 -1356 1357 0
-1357 1511 0
100 -1357 1358 0
-1358 1512 0
101 -1358 1359 0
-1359 1513 0
102 -1359 1360 0
-1360 1514 0
103 -1360 1361 0
-1361 1515 0
104 -1361 1362 0
-1362 1516 0
105 -1362 1363 0
-1363 1517 0
106 -1363 1364 0
-1364 1518 0
107 -1364 1365 0
-1365 1519 0
108 -1365 1366 0
-1366 1520 0
109 -1366 1367 0
-1367 1521 0
110 -1367 1368 0
-1368 1522 0
111 -1368 1369 0
-1369 1523 0
112 -1369 1370 0
-1370 1524 0
113 -1370 1371 0
-1371 1525 0
114 -1371 1372 0
-1372 1526 0
115 -1372 1373 0
-1373 1527 0
116 -1373 1374 0
-1374 1528 0
117 -1374 1375 0
-1375 1529 0
118 -1375 1376 0
-1376 1530 0
119 -1376 1377 0
-1377 1531 0
120 -1377 1378 0
-1378 1532 0
121 -1378 1379 0
-1379 1533 0
122 -1379 1380 0
-1380 1534 0
123 -1380 1381 0
-1381 1535 0
124 -1381 1382 0
-1382 1536 0
125 -1382 1383 0
-1383 1537 0
126 -1383 1384 0
-1384 1538 0
127 -1384 1385 0
-1385 1539 0
128 -1385 1386 0
-1386 1540 0
129 -1386 1387 0
-1387 1541 0
130 -1387 1388 0
-1388 1542 0
131 -1388 1389 0
-1389 1543 0
132 -1389 1390 0
-1390 1544 0
133 -1390 1391 0
-1391 1545 0
134 -1391 1392 0
-1392 1546 0
135 -1392 1393 0
-1393 1547 0
136 -1393 1394 0
-1394 1548 0
137 -1394 1395 0
-1395 1549 0
138 -1395 1396 0
-1396 1550 0
139 -1396 1397 0
-1397 1551 0
140 -1397 1398 0
-1398 1552 0
141 -1398 1399 0
-1399 1553 0
142 -1399 1400 0
-1400 1554 0
143 -1400 1401 0
-1401 1555 0
144 -1401 1402 0
-1402 1556 0
145 -1402 1403 0
-1403 1557 0
146 -1403 1404 0
-1404 1558 0
147 -1404 1405 0
-1405 1559 0
148 -1405 1406 0
-1406 1560 0
149 -1406 1407 0
-1407 1561 0
150 -1407 1408 0
-1408 1562 0
151 -1408 1409 0
-1409 1563 0
152 -1409 1410 0
-1410 1564 0
153 -1410 1411 0
-1411 1565 0
154 -1411 1412 0
-1412 1566 0
155 -1412 1413 0
-1413 1567 0
156 -1413 1414 0
-1414 1568 0
157 -1414 1415 0
-1415 1569 0
158 -1415 1416 0
-1416 1570 0
159 -1416 1417 0
-1417 1571 0
160 -1417 1418 0
-1418 1572 0
161 -1418 0
8 1419 0
-1419 1573 0
9 -1419 1420 0
-1420 1574 0
10 -1420 1421 0
-1421 1575 0
11 -1421 1422 0
-1422 1576 0
12 -1422 1423 0
-1423 1577 0
13 -1423 1424 0
-1424 1578 0
14 -1424 1425 0
-1425 1579 0
15 -1425 1426 0
-1426 1580 0
16 -1426 1427 0
-1427 1581 0
17 -1427 1428 0
-1428 1582 0
18 -1428 1429 0
-1429 1583 0
19 -1429 1430 0
-1430 1584 0
20 -1430 1431 0
-1431 1585 0
21 -1431 1432 0
-1432 1586 0
22 -1432 1433 0
-1433 1587 0
23 -1433 1434 0
-1434 1588 0
24 -1434 1435 0
-1435 1589 0
25 -1435 1436 0
-1436 1590 0
26 -1436 1437 0
-1437 1591 0
27 -1437 1438 0
-1438 1592 0
28 -1438 1439 0
-1439 1593 0
29 -1439 1440 0
-1440 1594 0
30 -1440 1441 0
-1441 1595 0
31 -1441 1442 0
-1442 1596 0
32 -1442 1443 0
-1443 1597 0
33 -1443 1444 0
-1444 1598 0
34 -1444 1445 0
-1445 1599 0
35 -1445 1446 0
-1446 1600 0
36 -1446 1447 0
-1447 1601 0
37 -1447 1448 0
-1448 1602 0
38 -1448 1449 0
-1449 1603 0
39 -1449 1450 0
-1450 1604 0
40 -1450 1451 0
-1451 1605 0
41 -1451 1452 0
-1452 1606 0
42 -1452 1453 0
-1453 1607 0
43 -1453 1454 0
-1454 1608 0
44 -1454 1455 0
-1455 1609 0
45 -1455 1456 0
-1456 1610 0
46 -1456 1457 0
-1457 1611 0
47 -1457 1458 0
-1458 1612 0
48 -1458 1459 0
-1459 1613 0
49 -1459 1460 0
-1460 1614 0
50 -1460 1461 0
-1461 1615 0
51 -1461 1462 0
-1462 1616 0
52 -1462 1463 0
-1463 1617 0
53 -1463 1464 0
-1464 1618 0
54 -1464 1465 0
-1465 1619 0
55 -1465 1466 0
-1466 1620 0
56 -1466 1467 0
-1467 1621 0
57 -1467 1468 0
-1468 1622 0
58 -1468 1469 0
-1469 1623 0
59 -1469 1470 0
-1470 1624 0
60 -1470 1471 0
-1471 1625 0
61 -1471 1472 0
-1472 1626 0
62 -1472 1473 0
-1473 1627 0
63 -1473 1474 0
-1474 1628 0
64 -1474 1475 0
-1475 1629 0
65 -1475 1476 0
-1476 1630 0
66 -1476 1477 0
-1477 1631 0
67 -1477 1478 0
-1478 1632 0
68 -1478 1479 0
-1479 1633 0
69 -1479 1480 0
-1480 1634 0
70 -1480 1481 0
-1481 1635 0
71 -1481 1482 0
-1482 1636 0
72 -1482 1483 0
-1483 1637 0
73 -1483 1484 0
-1484 1638 0
74 -1484 1485 0
-1485 1639 0
75 -1485 1486 0
-1486 1640 0
76 -1486 1487 0
-1487 1641 0
77 -1487 1488 0
-1488 1642 0
78 -1488 1489 0
-1489 1643 0
79 -1489 1490 0
-1490 1644 0
80 -1490 1491 0
-1491 1645 0
81 -1491 1492 0
-1492 1646 0
82 -1492 1493 0
-1493 1647 0
83 -1493 1494 0
-1494 1648 0
84 -1494 1495 0
-1495 1649 0
85 -1495 1496 0
-1496 1650 0
86 -1496 1497 0
-1497 1651 0
87 -1497 1498 0
-1498 1652 0
88 -1498 1499 0
-1499 1653 0
89 -1499 1500 0
-1500 1654 0
90 -1500 1501 0
-1501 1655 0
91 -1501 1502 0
-1502 1656 0
92 -1502 1503 0
-1503 1657 0
93 -1503 1504 0
-1504 1658 0
94 -1504 1505 0
-1505 1659 0
95 -1505 1506 0
-1506 1660 0
96 -1506 1507 0
-1507 1661 0
97 -1507 1508 0
-1508 1662 0
98 -1508 1509 0
-1509 1663 0
99 -1509 1510 0
-1510 1664 0
100 -1510 1511 0
-1511 1665 0
101 -1511 1512 0
-1512 1666 0
102 -1512 1513 0
-1513 1667 0
103 -1513 1514 0
-1514 1668 0
104 -1514 1515 0
-1515 1669 0
105 -1515 1516 0
-1516 1670 0
106 -1516 1517 0
-1517 1671 0
107 -1517 1518 0
-1518 1672 0
108 -1518 1519 0
-1519 1673 0
109 -1519 1520 0
-1520 1674 0
110 -1520 1521 0
-1521 1675 0
111 -1521 1522 0
-1522 1676 0
112 -1522 1523 0
-1523 1677 0
113 -1523 1524 0
-1524 1678 0
114 -1524 1525 0
-1525 1679 0
115 -1525 1526 0
-1526 1680 0
116 -1526 1527 0
-1527 1681 0
117 -1527 1528 0
-1528 1682 0
118 -1528 1529 0
-1529 1683 0
119 -1529 1530 0
-1530 1684 0
120 -1530 1531 0
-1531 1685 0
121 -1531 1532 0
-1532 1686 0
122 -1532 1533 0
-1533 1687 0
123 -1533 1534 0
-1534 1688 0
124 -1534 1535 0
-1535 1689 0
125 -1535 1536 0
-1536 1690 0
126 -1536 1537 0
-1537 1691 0
127 -1537 1538 0
-1538 1692 0
128 -1538 1539 0
-1539 1693 0
129 -1539 1540 0
-1540 1694 0
130 -1540 1541 0
-1541 1695 0
131 -1541 1542 0
-1542 1696 0
132 -1542 1543 0
-1543 1697 0
133 -1543 1544 0
-1544 1698 0
134 -1544 1545 0
-1545 1699 0
135 -1545 1546 0
-1546 1700 0
136 -1546 1547 0
-1547 1701 0
137 -1547 1548 0
-1548 1702 0
138 -1548 1549 0
-1549 1703 0
139 -1549 1550 0
-1550 1704 0
140 -1550 1551 0
-1551 1705 0
141 -1551 1552 0
-1552 1706 0
142 -1552 1553 0
-1553 1707 0
143 -1553 1554 0
-1554 1708 0
144 -1554 1555 0
-1555 1709 0
145 -1555 1556 0
-1556 1710 0
146 -1556 1557 0
-1557 1711 0
147 -1557 1558 0
-1558 1712 0
148 -1558 1559 0
-1559 1713 0
149 -1559 1560 0
-1560 1714 0
150 -1560 1561 0
-1561 1715 0
151 -1561 1562 0
-1562 1716 0
152 -1562 1563 0
-1563 1717 0
153 -1563 1564 0
-1564 1718 0
154 -1564 1565 0
-1565 1719 0
155 -1565 1566 0
-1566 1720 0
156 -1566 1567 0
-1567 1721 0
157 -1567 1568 0
-1568 1722 0
158 -1568 1569 0
-1569 1723 0
159 -1569 1570 0
-1570 1724 0
160 -1570 1571 0
-1571 1725 0
161 -1571 1572 0
-1572 1726 0
162 -1572 0
9 1573 0
-1573 1727 0
10 -1573 1574 0
-1574 1728 0
11 -1574 1575 0
-1575 1729 0
12 -1575 1576 0
-1576 1730 0
13 -1576 1577 0
-1577 1731 0
14 -1577 1578 0
-1578 1732 0
15 -1578 1579 0
-1579 1733 0
16 -1579 1580 0
-1580 1734 0
17 -1580 1581 0
-1581 1735 0
18 -1581 1582 0
-1582 1736 0
19 -1582 1583 0
-1583 1737 0
20 -1583 1584 0
-1584 1738 0
21 -1584 1585 0
-1585 1739 0
22 -1585 1586 0
-1586 1740 0
23 -1586 1587 0
-1587 1741 0
24 -1587 1588 0
-1588 1742 0
25 -1588 1589 0
-1589 1743 0
26 -1589 1590 0
-1590 1744 0
27 -1590 1591 0
-1591 1745 0
28 -1591 1592 0
-1592 1746 0
29 -1592 1593 0
-1593 1747 0
30 -1593 1594 0
-1594 1748 0
31 -1594 1595 0
-1595 1749 0
32 -1595 1596 0
-1596 1750 0
33 -1596 1597 0
-1597 1751 0
34 -1597 1598 0
-1598 1752 0
35 -1598 1599 0
-1599 1753 0
36 -1599 1600 0
-1600 1754 0
37 -1600 1601 0
-1601 1755 0
38 -1601 1602 0
-1602 1756 0
39 -1602 1603 0
-1603 1757 0
40 -1603 1604 0
-1604 1758 0
41 -1604 1605 0
-1605 1759 0
42 -1605 1606 0
-1606 1760 0
43 -1606 1607 0
-1607 1761 0
44 -1607 1608 0
-1608 1762 0
45 -1608 1609 0
-1609 1763 0
46 -1609 1610 0
-1610 1764 0
47 -1610 1611 0
-1611 1765 0
48 -1611 1612 0
-1612 1766 0
49 -1612 1613 0
-1613 1767 0
50 -1613 1614 0
-1614 1768 0
51 -1614 1615 0
-1615 1769 0
52 -1615 1616 0
-1616 1770 0
53 -1616 1617 0
-1617 1771 0
54 -1617 1618 0
-1618 1772 0
55 -1618 1619 0
-1619 1773 0
56 -1619 1620 0
-1620 1774 0
57 -1620 1621 0
-1621 1775 0
58 -1621 1622 0
-1622 1776 0
59 -1622 1623 0
-1623 1777 0
60 -1623 1624 0
-1624 1778 0
61 -1624 1625 0
-1625 1779 0
62 -1625 1626 0
-1626 1780 0
63 -1626 1627 0
-1627 1781 0
64 -1627 1628 0
-1628 1782 0
65 -1628 1629 0
-1629 1783 0
66 -1629 1630 0
-1630 1784 0
67 -1630 1631 0
-1631 1785 0
68 -1631 1632 0
-1632 1786 0
69 -1632 1633 0
-1633 1787 0
70 -1633 1634 0
-1634 1788 0
71 -1634 1635 0
-1635 1789 0
72 -1635 1636 0
-1636 1790 0
73 -1636 1637 0
-1637 1791 0
74 -1637 1638 0
-1638 1792 0
75 -1638 1639 0
-1639 1793 0
76 -1639 1640 0
-1640 1794 0
77 -1640 1641 0
-1641 1795 0
78 -1641 1642 0
-1642 1796 0
79 -1642 1643 0
-1643 1797 0
80 -1643 1644 0
-1644 1798 0
81 -1644 1645 0
-1645 1799 0
82 -1645 1646 0
-1646 1800 0
83 -1646 1647 0
-1647 1801 0
84 -1647 1648 0
-1648 1802 0
85 -1648 1649 0
-1649 1803 0
86 -1649 1650 0
-1650 1804 0
87 -1650 1651 0
-1651 1805 0
88 -1651 1652 0
-1652 1806 0
89 -1652 1653 0
-1653 1807 0
90 -1653 1654 0
-1654 1808 0
91 -1654 1655 0
-1655 1809 0
92 -1655 1656 0
-1656 1810 0
93 -1656 1657 0
-1657 1811 0
94 -1657 1658 0
-1658 1812 0
95 -1658 1659 0
-1659 1813 0
96 -1659 1660 0
-1660 1814 0
97 -1660 1661 0
-1661 1815 0
98 -1661 1662 0
-1662 1816 0
99 -1662 1663 0
-1663 1817 0
100 -1663 1664 0
-1664 1818 0
101 -1664 1665 0
-1665 1819 0
102 -1665 1666 0
-1666 1820 0
103 -1666 1667 0
-1667 1821 0
104 -1667 1668 0
-1668 1822 0
105 -1668 1669 0
-1669 1823 0
106 -1669 1670 0
-1670 1824 0
107 -1670 1671 0
-1671 1825 0
108 -1671 1672 0
-1672 1826 0
109 -1672 1673 0
-1673 1827 0
110 -1673 1674 0
-1674 1828 0
111 -1674 1675 0
-1675 1829 0
112 -1675 1676 0
-1676 1830 0
113 -1676 1677 0
-1677 1831 0
114 -1677 1678 0
-1678 1832 0
115 -1678 1679 0
-1679 1833 0
116 -1679 1680 0
-1680 1834 0
117 -1680 1681 0
-1681 1835 0
118 -1681 1682 0
-1682 1836 0
119 -1682 1683 0
-1683 1837 0
120 -1683 1684 0
-1684 1838 0
121 -1684 1685 0
-1685 1839 0
122 -1685 1686 0
-1686 1840 0
123 -1686 1687 0
-1687 1841 0
124 -1687 1688 0
-1688 1842 0
125 -1688 1689 0
-1689 1843 0
126 -1689 1690 0
-1690 1844 0
127 -1690 1691 0
-1691 1845 0
128 -1691 1692 0
-1692 1846 0
129 -1692 1693 0
-1693 1847 0
130 -1693 1694 0
-1694 1848 0
131 -1694 1695 0
-1695 1849 0
132 -1695 1696 0
-1696 1850 0
133 -1696 1697 0
-1697 1851 0
134 -1697 1698 0
-1698 1852 0
135 -1698 1699 0
-1699 1853 0
136 -1699 1700 0
-1700 1854 0
137 -1700 1701 0
-1701 1855 0
138 -1701 1702 0
-1702 1856 0
139 -1702 1703 0
-1703 1857 0
140 -1703 1704 0
-1704 1858 0
141 -1704 1705 0
-1705 1859 0
142 -1705 1706 0
-1706 1860 0
143 -1706 1707 0
-1707 1861 0
144 -1707 1708 0
-1708 1862 0
145 -1708 1709 0
-1709 1863 0
146 -1709 1710 0
-1710 1864 0
147 -1710 1711 0
-1711 1865 0
148 -1711 1712 0
-1712 1866 0
149 -1712 1713 0
-1713 1867 0
150 -1713 1714 0
-1714 1868 0
151 -1714 1715 0
-1715 1869 0
152 -1715 1716 0
-1716 1870 0
153 -1716 1717 0
-1717 1871 0
154 -1717 1718 0
-1718 1872 0
155 -1718 1719 0
-1719 1873 0
156 -1719 1720 0
-1720 1874 0
157 -1720 1721 0
-1721 1875 0
158 -1721 1722 0
-1722 1876 0
159 -1722 1723 0
-1723 1877 0
160 -1723 1724 0
-1724 1878 0
161 -1724 1725 0
-1725 1879 0
162 -1725 1726 0
-1726 1880 0
163 -1726 0
10 1727 0
-1727 1881 0
11 -1727 1728 0
-1728 1882 0
12 -1728 1729 0
-1729 1883 0
13 -1729 1730 0
-1730 1884 0
14 -1730 1731 0
-1731 1885 0
15 -1731 1732 0
-1732 1886 0
16 -1732 1733 0
-1733 1887 0
17 -1733 1734 0
-1734 1888 0
18 -1734 1735 0
-1735 1889 0
19 -1735 1736 0
-1736 1890 0
20 -1736 1737 0
-1737 1891 0
21 -1737 1738 0
-1738 1892 0
22 -1738 1739 0
-1739 1893 0
23 -1739 1740 0
-1740 1894 0
24 -1740 1741 0
-1741 1895 0
25 -1741 1742 0
-1742 1896 0
26 -1742 1743 0
-1743 1897 0
27 -1743 1744 0
-1744 1898 0
28 -1744 1745 0
-1745 1899 0
29 -1745 1746 0
-1746 1900 0
30 -1746 1747 0
-1747 1901 0
31 -1747 1748 0
-1748 1902 0
32 -1748 1749 0
-1749 1903 0
33 -1749 1750 0
-1750 1904 0
34 -1750 1751 0
-1751 1905 0
35 -1751 1752 0
-1752 1906 0
36 -1752 1753 0
-1753 1907 0
37 -1753 1754 0
-1754 1908 0
38 -1754 1755 0
-1755 1909 0
39 -1755 1756 0
-1756 1910 0
40 -1756 1757 0
-1757 1911 0
41 -1757 1758 0
-1758 1912 0
42 -1758 1759 0
-1759 1913 0
43 -1759 1760 0
-1760 1914 0
44 -1760 1761 0
-1761 1915 0
45 -1761 1762 0
-1762 1916 0
46 -1762 1763 0
-1763 1917 0
47 -1763 1764 0
-1764 1918 0
48 -1764 1765 0
-1765 1919 0
49 -1765 1766 0
-1766 1920 0
50 -1766 1767 0
-1767 1921 0
51 -1767 1768 0
-1768 1922 0
52 -1768 1769 0
-1769 1923 0
53 -1769 1770 0
-1770 1924 0
54 -1770 1771 0
-1771 1925 0
55 -1771 1772 0
-1772 1926 0
56 -1772 1773 0
-1773 1927 0
57 -1773 1774 0
-1774 1928 0
58 -1774 1775 0
-1775 1929 0
59 -1775 1776 0
-1776 1930 0
60 -1776 1777 0
-1777 1931 0
61 -1777 1778 0
-1778 1932 0
62 -1778 1779 0
-1779 1933 0
63 -1779 1780 0
-1780 1934 0
64 -1780 1781 0
-1781 1935 0
65 -1781 1782 0
-1782 1936 0
66 -1782 1783 0
-1783 1937 0
67 -1783 1784 0
-1784 1938 0
68 -1784 1785 0
-1785 1939 0
69 -1785 1786 0
-1786 1940 0
70 -1786 1787 0
-1787 1941 0
71 -1787 1788 0
-1788 1942 0
72 -1788 1789 0
-1789 1943 0
73 -1789 1790 0
-1790 1944 0
74 -1790 1791 0
-1791 1945 0
75 -1791 1792 0
-1792 1946 0
76 -1792 1793 0
-1793 1947 0
77 -1793 1794 0
-1794 1948 0
78 -1794 1795 0
-1795 1949 0
79 -1795 1796 0
-1796 1950 0
80 -1796 1797 0
-1797 1951 0
81 -1797 1798 0
-1798 1952 0
82 -1798 1799 0
-1799 1953 0
83 -1799 1800 0
-1800 1954 0
84 -1800 1801 0
-1801 1955 0
85 -1801 1802 0
-1802 1956 0
86 -1802 1803 0
-1803 1957 0
87 -1803 1804 0
-1804 1958 0
88 -1804 1805 0
-1805 1959 0
89 -1805 1806 0
-1806 1960 0
90 -1806 1807 0
-1807 1961 0
91 -1807 1808 0
-1808 1962 0
92 -1808 1809 0
-1809 1963 0
93 -1809 1810 0
-1810 1964 0
94 -1810 1811 0
-1811 1965 0
95 -1811 1812 0
-1812 1966 0
96 -1812 1813 0
-1813 1967 0
97 -1813 1814 0
-1814 1968 0
98 -1814 1815 0
-1815 1969 0
99 -1815 1816 0
-1816 1970 0
100 -1816 1817 0
-1817 1971 0
101 -1817 1818 0
-1818 1972 0
102 -1818 1819 0
-1819 1973 0
103 -1819 1820 0
-1820 1974 0
104 -1820 1821 0
-1821 1975 0
105 -1821 1822 0
-1822 1976 0
106 -1822 1823 0
-1823 1977 0
107 -1823 1824 0
-1824 1978 0
108 -1824 1825 0
-1825 1979 0
109 -1825 1826 0
-1826 1980 0
110 -1826 1827 0
-1827 1981 0
111 -1827 1828 0
-1828 1982 0
112 -1828 1829 0
-1829 1983 0
113 -1829 1830 0
-1830 1984 0
114 -1830 1831 0
-1831 1985 0
115 -1831 1832 0
-1832 1986 0
116 -1832 1833 0
-1833 1987 0
117 -1833 1834 0
-1834 1988 0
118 -1834 1835 0
-1835 1989 0
119 -1835 1836 0
-1836 1990 0
120 -1836 1837 0
-1837 1991 0
121 -1837 1838 0
-1838 1992 0
122 -1838 1839 0
-1839 1993 0
123 -1839 1840 0
-1840 1994 0
124 -1840 1841 0
-1841 1995 0
125 -1841 1842 0
-1842 1996 0
126 -1842 1843 0
-1843 1997 0
127 -1843 1844 0
-1844 1998 0
128 -1844 1845 0
-1845 1999 0
129 -1845 1846 0
-1846 2000 0
130 -1846 1847 0
-1847 2001 0
131 -1847 1848 0
-1848 2002 0
132 -1848 1849 0
-1849 2003 0
133 -1849 1850 0
-1850 2004 0
134 -1850 1851 0
-1851 2005 0
135 -1851 1852 0
-1852 2006 0
136 -1852 1853 0
-1853 2007 0
137 -1853 1854 0
-1854 2008 0
138 -1854 1855 0
-1855 2009 0
139 -1855 1856 0
-1856 2010 0
140 -1856 1857 0
-1857 2011 0
141 -1857 1858 0
-1858 2012 0
142 -1858 1859 0
-1859 2013 0
143 -1859 1860 0
-1860 2014 0
144 -1860 1861 0
-1861 2015 0
145 -1861 1862 0
-1862 2016 0
146 -1862 1863 0
-1863 2017 0
147 -1863 1864 0
-1864 2018 0
148 -1864 1865 0
-1865 2019 0
149 -1865 1866 0
-1866 2020 0
150 -1866 1867 0
-1867 2021 0
151 -1867 1868 0
-1868 2022 0
152 -1868 1869 0
-1869 2023 0
153 -1869 1870 0
-1870 2024 0
154 -1870 1871 0
-1871 2025 0
155 -1871 1872 0
-1872 2026 0
156 -1872 1873 0
-1873 2027 0
157 -1873 1874 0
-1874 2028 0
158 -1874 1875 0
-1875 2029 0
159 -1875 1876 0
-1876 2030 0
160 -1876 1877 0
-1877 2031 0
161 -1877 1878 0
-1878 2032 0
162 -1878 1879 0
-1879 2033 0
163 -1879 1880 0
-1880 2034 0
164 -1880 0
11 1881 0
-1881 2035 0
12 -1881 1882 0
-1882 2036 0
13 -1882 1883 0
-1883 2037 0
14 -1883 1884 0
-1884 2038 0
15 -1884 1885 0
-1885 2039 0
16 -1885 1886 0
-1886 2040 0
17 -1886 1887 0
-1887 2041 0
18 -1887 1888 0
-1888 2042 0
19 -1888 1889 0
-1889 2043 0
20 -1889 1890 0
-1890 2044 0
21 -1890 1891 0
-1891 2045 0
22 -1891 1892 0
-1892 2046 0
23 -1892 1893 0
-1893 2047 0
24 -1893 1894 0
-1894 2048 0
25 -1894 1895 0
-1895 2049 0
26 -1895 1896 0
-1896 2050 0
27 -1896 1897 0
-1897 2051 0
28 -1897 1898 0
-1898 2052 0
29 -1898 1899 0
-1899 2053 0
30 -1899 1900 0
-1900 2054 0
31 -1900 1901 0
-1901 2055 0
32 -1901 1902 0
-1902 2056 0
33 -1902 1903 0
-1903 2057 0
34 -1903 1904 0
-1904 2058 0
35 -1904 1905 0
-1905 2059 0
36 -1905 1906 0
-1906 2060 0
37 -1906 1907 0
-1907 2061 0
38 -1907 1908 0
-1908 2062 0
39 -1908 1909 0
-1909 2063 0
40 -1909 1910 0
-1910 2064 0
41 -1910 1911 0
-1911 2065 0
42 -1911 1912 0
-1912 2066 0
43 -1912 1913 0
-1913 2067 0
44 -1913 1914 0
-1914 2068 0
45 -1914 1915 0
-1915 2069 0
46 -1915 1916 0
-1916 2070 0
47 -1916 1917 0
-1917 2071 0
48 -1917 1918 0
-1918 2072 0
49 -1918 1919 0
-1919 2073 0
50 -1919 1920 0
-1920 2074 0
51 -1920 1921 0
-1921 2075 0
52 -1921 1922 0
-1922 2076 0
53 -1922 1923 0
-1923 2077 0
54 -1923 1924 0
-1924 2078 0
55 -1924 1925 0
-1925 2079 0
56 -1925 1926 0
-1926 2080 0
57 -1926 1927 0
-1927 2081 0
58 -1927 1928 0
-1928 2082 0
59 -1928 1929 0
-1929 2083 0
60 -1929 1930 0
-1930 2084 0
61 -1930 1931 0
-1931 2085 0
62 -1931 1932 0
-1932 2086 0
63 -1932 1933 0
-1933 2087 0
64 -1933 1934 0
-1934 2088 0
65 -1934 1935 0
-1935 2089 0
66 -1935 1936 0
-1936 2090 0
67 -1936 1937 0
-1937 2091 0
68 -1937 1938 0
-1938 2092 0
69 -1938 1939 0
-1939 2093 0
70 -1939 1940 0
-1940 2094 0
71 -1940 1941 0
-1941 2095 0
72 -1941 1942 0
-1942 2096 0
73 -1942 1943 0
-1943 2097 0
74 -1943 1944 0
-1944 2098 0
75 -1944 1945 0
-1945 2099 0
76 -1945 1946 0
-1946 2100 0
77 -1946 1947 0
-1947 2101 0
78 -1947 1948 0
-1948 2102 0
79 -1948 1949 0
-1949 2103 0
80 -1949 1950 0
-1950 2104 0
81 -1950 1951 0
-1951 2105 0
82 -1951 1952 0
-1952 2106 0
83 -1952 1953 0
-1953 2107 0
84 -1953 1954 0
-1954 2108 0
85 -1954 1955 0
-1955 2109 0
86 -1955 1956 0
-1956 2110 0
87 -1956 1957 0
-1957 2111 0
88 -1957 1958 0
-1958 2112 0
89 -1958 1959 0
-1959 2113 0
90 -1959 1960 0
-1960 2114 0
91 -1960 1961 0
-1961 2115 0
92 -1961 1962 0
-1962 2116 0
93 -1962 1963 0
-1963 2117 0
94 -1963 1964 0
-1964 2118 0
95 -1964 1965 0
-1965 2119 0
96 -1965 1966 0
-1966 2120 0
97 -1966 1967 0
-1967 2121 0
98 -1967 1968 0
-1968 2122 0
99 -1968 1969 0
-1969 2123 0
100 -1969 1970 0
-1970 2124 0
101 -1970 1971 0
-1971 2125 0
102 -1971 1972 0
-1972 2126 0
103 -1972 1973 0
-1973 2127 0
104 -1973 1974 0
-1974 2128 0
105 -1974 1975 0
-1975 2129 0
106 -1975 1976 0
-1976 2130 0
107 -1976 1977 0
-1977 2131 0
108 -1977 1978 0
-1978 2132 0
109 -1978 1979 0
-1979 2133 0
110 -1979 1980 0
-1980 2134 0
111 -1980 1981 0
-1981 2135 0
112 -1981 1982 0
-1982 2136 0
113 -1982 1983 0
-1983 2137 0
114 -1983 1984 0
-1984 2138 0
115 -1984 1985 0
-1985 2139 0
116 -1985 1986 0
-1986 2140 0
117 -1986 1987 0
-1987 2141 0
118 -1987 1988 0
-1988 2142 0
119 -1988 1989 0
-1989 2143 0
120 -1989 1990 0
-1990 2144 0
121 -1990 1991 0
-1991 2145 0
122 -1991 1992 0
-1992 2146 0
123 -1992 1993 0
-1993 2147 0
124 -1993 1994 0
-1994 2148 0
125 -1994 1995 0
-1995 2149 0
126 -1995 1996 0
-1996 2150 0
127 -1996 1997 0
-1997 2151 0
128 -1997 1998 0
-1998 2152 0
129 -1998 1999 0
-1999 2153 0
130 -1999 2000 0
-2000 2154 0
131 -2000 2001 0
-2001 2155 0
132 -2001 2002 0
-2002 2156 0
133 -2002 2003 0
-2003 2157 0
134 -2003 2004 0
-2004 2158 0
135 -2004 2005 0
-2005 2159 0
136 -2005 2006 0
-2006 2160 0
137 -2006 2007 0
-2007 2161 0
138 -2007 2008 0
-2008 2162 0
139 -2008 2009 0
-2009 2163 0
140 -2009 2010 0
-2010 2164 0
141 -2010 2011 0
-2011 2165 0
142 -2011 2012 0
-2012 2166 0
143 -2012 2013 0
-2013 2167 0
144 -2013 2014 0
-2014 2168 0
145 -2014 2015 0
-2015 2169 0
146 -2015 2016 0
-2016 2170 0
147 -2016 2017 0
-2017 2171 0
148 -2017 2018 0
-2018 2172 0
149 -2018 2019 0
-2019 2173 0
150 -2019 2020 0
-2020 2174 0
151 -2020 2021 0
-2021 2175 0
152 -2021 2022 0
-2022 2176 0
153 -2022 2023 0
-2023 2177 0
154 -2023 2024 0
-2024 2178 0
155 -2024 2025 0
-2025 2179 0
156 -2025 2026 0
-2026 2180 0
157 -2026 2027 0
-2027 2181 0
158 -2027 2028 0
-2028 2182 0
159 -2028 2029 0
-2029 2183 0
160 -2029 2030 0
-2030 2184 0
161 -2030 2031 0
-2031 2185 0
162 -2031 2032 0
-2032 2186 0
163 -2032 2033 0
-2033 2187 0
164 -2033 2034 0
-2034 2188 0
165 -2034 0
12 2035 0
-2035 2189 0
13 -2035 2036 0
-2036 2190 0
14 -2036 2037 0
-2037 2191 0
15 -2037 2038 0
-2038 2192 0
16 -2038 2039 0
-2039 2193 0
17 -2039 2040 0
-2040 2194 0
18 -2040 2041 0
-2041 2195 0
19 -2041 2042 0
-2042 2196 0
20 -2042 2043 0
-2043 2197 0
21 -2043 2044 0
-2044 2198 0
22 -2044 2045 0
-2045 2199 0
23 -2045 2046 0
-2046 2200 0
24 -2046 2047 0
-2047 2201 0
25 -2047 2048 0
-2048 2202 0
26 -2048 2049 0
-2049 2203 0
27 -2049 2050 0
-2050 2204 0
28 -2050 2051 0
-2051 2205 0
29 -2051 2052 0
-2052 2206 0
30 -2052 2053 0
-2053 2207 0
31 -2053 2054 0
-2054 2208 0
32 -2054 2055 0
-2055 2209 0
33 -2055 2056 0
-2056 2210 0
34 -2056 2057 0
-2057 2211 0
35 -2057 2058 0
-2058 2212 0
36 -2058 2059 0
-2059 2213 0
37 -2059 2060 0
-2060 2214 0
38 -2060 2061 0
-2061 2215 0
39 -2061 2062 0
-2062 2216 0
40 -2062 2063 0
-2063 2217 0
41 -2063 2064 0
-2064 2218 0
42 -2064 2065 0
-2065 2219 0
43 -2065 2066 0
-2066 2220 0
44 -2066 2067 0
-2067 2221 0
45 -2067 2068 0
-2068 2222 0
46 -2068 2069 0
-2069 2223 0
47 -2069 2070 0
-2070 2224 0
48 -2070 2071 0
-2071 2225 0
49 -2071 2072 0
-2072 2226 0
50 -2072 2073 0
-2073 2227 0
51 -2073 2074 0
-2074 2228 0
52 -2074 2075 0
-2075 2229 0
53 -2075 2076 0
-2076 2230 0
54 -2076 2077 0
-2077 2231 0
55 -2077 2078 0
-2078 2232 0
56 -2078 2079 0
-2079 2233 0
57 -2079 2080 0
-2080 2234 0
58 -2080 2081 0
-2081 2235 0
59 -2081 2082 0
-2082 2236 0
60 -2082 2083 0
-2083 2237 0
61 -2083 2084 0
-2084 2238 0
62 -2084 2085 0
-2085 2239 0
63 -2085 2086 0
-2086 2240 0
64 -2086 2087 0
-2087 2241 0
65 -2087 2088 0
-2088 2242 0
66 -2088 2089 0
-2089 2243 0
67 -2089 2090 0
-2090 2244 0
68 -2090 2091 0
-2091 2245 0
69 -2091 2092 0
-2092 2246 0
70 -2092 2093 0
-2093 2247 0
71 -2093 2094 0
-2094 2248 0
72 -2094 2095 0
-2095 2249 0
73 -2095 2096 0
-2096 2250 0
74 -2096 2097 0
-2097 2251 0
75 -2097 2098 0
-2098 2252 0
76 -2098 2099 0
-2099 2253 0
77 -2099 2100 0
-2100 2254 0
78 -2100 2101 0
-2101 2255 0
79 -2101 2102 0
-2102 2256 0
80 -2102 2103 0
-2103 2257 0
81 -2103 2104 0
-2104 2258 0
82 -2104 2105 0
-2105 2259 0
83 -2105 2106 0
-2106 2260 0
84 -2106 2107 0
-2107 2261 0
85 -2107 2108 0
-2108 2262 0
86 -2108 2109 0
-2109 2263 0
87 -2109 2110 0
-2110 2264 0
88 -2110 2111 0
-2111 2265 0
89 -2111 2112 0
-2112 2266 0
90 -2112 2113 0
-2113 2267 0
91 -2113 2114 0
-2114 2268 0
92 -2114 2115 0
-2115 2269 0
93 -2115 2116 0
-2116 2270 0
94 -2116 2117 0
-2117 2271 0
95 -2117 2118 0
-2118 2272 0
96 -2118 2119 0
-2119 2273 0
97 -2119 2120 0
-2120 2274 0
98 -2120 2121 0
-2121 2275 0
99 -2121 2122 0
-2122 2276 0
100 -2122 2123 0
-2123 2277 0
101 -2123 2124 0
-2124 2278 0
102 -2124 2125 0
-2125 2279 0
103 -2125 2126 0
-2126 2280 0
104 -2126 2127 0
-2127 2281 0
105 -2127 2128 0
-2128 2282 0
106 -2128 2129 0
-2129 2283 0
107 -2129 2130 0
-2130 2284 0
108 -2130 2131 0
-2131 2285 0
109 -2131 2132 0
-2132 2286 0
110 -2132 2133 0
-2133 2287 0
111 -2133 2134 0
-2134 2288 0
112 -2134 2135 0
-2135 2289 0
113 -2135 2136 0
-2136 2290 0
114 -2136 2137 0
-2137 2291 0
115 -2137 2138 0
-2138 2292 0
116 -2138 2139 0
-2139 2293 0
117 -2139 2140 0
-2140 2294 0
118 -2140 2141 0
-2141 2295 0
119 -2141 2142 0
-2142 2296 0
120 -2142 2143 0
-2143 2297 0
121 -2143 2144 0
-2144 2298 0
122 -2144 2145 0
-2145 2299 0
123 -2145 2146 0
-2146 2300 0
124 -2146 2147 0
-2147 2301 0
125 -2147 2148 0
-2148 2302 0
126 -2148 2149 0
-2149 2303 0
127 -2149 2150 0
-2150 2304 0
128 -2150 2151 0
-2151 2305 0
129 -2151 2152 0
-2152 2306 0
130 -2152 2153 0
-2153 2307 0
131 -2153 2154 0
-2154 2308 0
132 -2154 2155 0
-2155 2309 0
133 -2155 2156 0
-2156 2310 0
134 -2156 2157 0
-2157 2311 0
135 -2157 2158 0
-2158 2312 0
136 -2158 2159 0
-2159 2313 0
137 -2159 2160 0
-2160 2314 0
138 -2160 2161 0
-2161 2315 0
139 -2161 2162 0
-2162 2316 0
140 -2162 2163 0
-2163 2317 0
141 -2163 2164 0
-2164 2318 0
142 -2164 2165 0
-2165 2319 0
143 -2165 2166 0
-2166 2320 0
144 -2166 2167 0
-2167 2321 0
145 -2167 2168 0
-2168 2322 0
146 -2168 2169 0
-2169 2323 0
147 -2169 2170 0
-2170 2324 0
148 -2170 2171 0
-2171 2325 0
149 -2171 2172 0
-2172 2326 0
150 -2172 2173 0
-2173 2327 0
151 -2173 2174 0
-2174 2328 0
152 -2174 2175 0
-2175 2329 0
153 -2175 2176 0
-2176 2330 0
154 -2176 2177 0
-2177 2331 0
155 -2177 2178 0
-2178 2332 0
156 -2178 2179 0
-2179 2333 0
157 -2179 2180 0
-2180 2334 0
158 -2180 2181 0
-2181 2335 0
159 -2181 2182 0
-2182 2336 0
160 -2182 2183 0
-2183 2337 0
161 -2183 2184 0
-2184 2338 0
162 -2184 2185 0
-2185 2339 0
163 -2185 2186 0
-2186 2340 0
164 -2186 2187 0
-2187 2341 0
165 -2187 2188 0
-2188 2342 0
166 -2188 0
13 2189 0
-2189 2343 0
14 -2189 2190 0
-2190 2344 0
15 -2190 2191 0
-2191 2345 0
16 -2191 2192 0
-2192 2346 0
17 -2192 2193 0
-2193 2347 0
18 -2193 2194 0
-2194 2348 0
19 -2194 2195 0
-2195 2349 0
20 -2195 2196 0
-2196 2350 0
21 -2196 2197 0
-2197 2351 0
22 -2197 2198 0
-2198 2352 0
23 -2198 2199 0
-2199 2353 0
24 -2199 2200 0
-2200 2354 0
25 -2200 2201 0
-2201 2355 0
26 -2201 2202 0
-2202 2356 0
27 -2202 2203 0
-2203 2357 0
28 -2203 2204 0
-2204 2358 0
29 -2204 2205 0
-2205 2359 0
30 -2205 2206 0
-2206 2360 0
31 -2206 2207 0
-2207 2361 0
32 -2207 2208 0
-2208 2362 0
33 -2208 2209 0
-2209 2363 0
34 -2209 2210 0
-2210 2364 0
35 -2210 2211 0
-2211 2365 0
36 -2211 2212 0
-2212 2366 0
37 -2212 2213 0
-2213 2367 0
38 -2213 2214 0
-2214 2368 0
39 -2214 2215 0
-2215 2369 0
40 -2215 2216 0
-2216 2370 0
41 -2216 2217 0
-2217 2371 0
42 -2217 2218 0
-2218 2372 0
43 -2218 2219 0
-2219 2373 0
44 -2219 2220 0
-2220 2374 0
45 -2220 2221 0
-2221 2375 0
46 -2221 2222 0
-2222 2376 0
47 -2222 2223 0
-2223 2377 0
48 -2223 2224 0
-2224 2378 0
49 -2224 2225 0
-2225 2379 0
50 -2225 2226 0
-2226 2380 0
51 -2226 2227 0
-2227 2381 0
52 -2227 2228 0
-2228 2382 0
53 -2228 2229 0
-2229 2383 0
54 -2229 2230 0
-2230 2384 0
55 -2230 2231 0
-2231 2385 0
56 -2231 2232 0
-2232 2386 0
57 -2232 2233 0
-2233 2387 0
58 -2233 2234 0
-2234 2388 0
59 -2234 2235 0
-2235 2389 0
60 -2235 2236 0
-2236 2390 0
61 -2236 2237 0
-2237 2391 0
62 -2237 2238 0
-2238 2392 0
63 -2238 2239 0
-2239 2393 0
64 -2239 2240 0
-2240 2394 0
65 -2240 2241 0
-2241 2395 0
66 -2241 2242 0
-2242 2396 0
67 -2242 2243 0
-2243 2397 0
68 -2243 2244 0
-2244 2398 0
69 -2244 2245 0
-2245 2399 0
70 -2245 2246 0
-2246 2400 0
71 -2246 2247 0
-2247 2401 0
72 -2247 2248 0
-2248 2402 0
73 -2248 2249 0
-2249 2403 0
74 -2249 2250 0
-2250 2404 0
75 -2250 2251 0
-2251 2405 0
76 -2251 2252 0
-2252 2406 0
77 -2252 2253 0
-2253 2407 0
78 -2253 2254 0
-2254 2408 0
79 -2254 2255 0
-2255 2409 0
80 -2255 2256 0
-2256 2410 0
81 -2256 2257 0
-2257 2411 0
82 -2257 2258 0
-2258 2412 0
83 -2258 2259 0
-2259 2413 0
84 -2259 2260 0
-2260 2414 0
85 -2260 2261 0
-2261 2415 0
86 -2261 2262 0
-2262 2416 0
87 -2262 2263 0
-2263 2417 0
88 -2263 2264 0
-2264 2418 0
89 -2264 2265 0
-2265 2419 0
90 -2265 2266 0
-2266 2420 0
91 -2266 2267 0
-2267 2421 0
92 -2267 2268 0
-2268 2422 0
93 -2268 2269 0
-2269 2423 0
94 -2269 2270 0
-2270 2424 0
95 -2270 2271 0
-2271 2425 0
96 -2271 2272 0
-2272 2426 0
97 -2272 2273 0
-2273 2427 0
98 -2273 2274 0
-2274 2428 0
99 -2274 2275 0
-2275 2429 0
100 -2275 2276 0
-2276 2430 0
101 -2276 2277 0
-2277 2431 0
102 -2277 2278 0
-2278 2432 0
103 -2278 2279 0
-2279 2433 0
104 -2279 2280 0
-2280 2434 0
105 -2280 2281 0
-2281 2435 0
106 -2281 2282 0
-2282 2436 0
107 -2282 2283 0
-2283 2437 0
108 -2283 2284 0
-2284 2438 0
109 -2284 2285 0
-2285 2439 0
110 -2285 2286 0
-2286 2440 0
111 -2286 2287 0
-2287 2441 0
112 -2287 2288 0
-2288 2442 0
113 -2288 2289 0
-2289 2443 0
114 -2289 2290 0
-2290 2444 0
115 -2290 2291 0
-2291 2445 0
116 -2291 2292 0
-2292 2446 0
117 -2292 2293 0
-2293 2447 0
118 -2293 2294 0
-2294 2448 0
119 -2294 2295 0
-2295 2449 0
120 -2295 2296 0
-2296 2450 0
121 -2296 2297 0
-2297 2451 0
122 -2297 2298 0
-2298 2452 0
123 -2298 2299 0
-2299 2453 0
124 -2299 2300 0
-2300 2454 0
125 -2300 2301 0
-2301 2455 0
126 -2301 2302 0
-2302 2456 0
127 -2302 2303 0
-2303 2457 0
128 -2303 2304 0
-2304 2458 0
129 -2304 2305 0
-2305 2459 0
130 -2305 2306 0
-2306 2460 0
131 -2306 2307 0
-2307 2461 0
132 -2307 2308 0
-2308 2462 0
133 -2308 2309 0
-2309 2463 0
134 -2309 2310 0
-2310 2464 0
135 -2310 2311 0
-2311 2465 0
136 -2311 2312 0
-2312 2466 0
137 -2312 2313 0
-2313 2467 0
138 -2313 2314 0
-2314 2468 0
139 -2314 2315 0
-2315 2469 0
140 -2315 2316 0
-2316 2470 0
141 -2316 2317 0
-2317 2471 0
142 -2317 2318 0
-2318 2472 0
143 -2318 2319 0
-2319 2473 0
144 -2319 2320 0
-2320 2474 0
145 -2320 2321 0
-2321 2475 0
146 -2321 2322 0
-2322 2476 0
147 -2322 2323 0
-2323 2477 0
148 -2323 2324 0
-2324 2478 0
149 -2324 2325 0
-2325 2479 0
150 -2325 2326 0
-2326 2480 0
151 -2326 2327 0
-2327 2481 0
152 -2327 2328 0
-2328 2482 0
153 -2328 2329 0
-2329 2483 0
154 -2329 2330 0
-2330 2484 0
155 -2330 2331 0
-2331 2485 0
156 -2331 2332 0
-2332 2486 0
157 -2332 2333 0
-2333 2487 0
158 -2333 2334 0
-2334 2488 0
159 -2334 2335 0
-2335 2489 0
160 -2335 2336 0
-2336 2490 0
161 -2336 2337 0
-2337 2491 0
162 -2337 2338 0
-2338 2492 0
163 -2338 2339 0
-2339 2493 0
164 -2339 2340 0
-2340 2494 0
165 -2340 2341 0
-2341 2495 0
166 -2341 2342 0
-2342 2496 0
167 -2342 0
14 2343 0
-2343 2497 0
15 -2343 2344 0
-2344 2498 0
16 -2344 2345 0
-2345 2499 0
17 -2345 2346 0
-2346 2500 0
18 -2346 2347 0
-2347 2501 0
19 -2347 2348 0
-2348 2502 0
20 -2348 2349 0
-2349 2503 0
21 -2349 2350 0
-2350 2504 0
22 -2350 2351 0
-2351 2505 0
23 -2351 2352 0
-2352 2506 0
24 -2352 2353 0
-2353 2507 0
25 -2353 2354 0
-2354 2508 0
26 -2354 2355 0
-2355 2509 0
27 -2355 2356 0
-2356 2510 0
28 -2356 2357 0
-2357 2511 0
29 -2357 2358 0
-2358 2512 0
30 -2358 2359 0
-2359 2513 0
31 -2359 2360 0
-2360 2514 0
32 -2360 2361 0
-2361 2515 0
33 -2361 2362 0
-2362 2516 0
34 -2362 2363 0
-2363 2517 0
35 -2363 2364 0
-2364 2518 0
36 -2364 2365 0
-2365 2519 0
37 -2365 2366 0
-2366 2520 0
38 -2366 2367 0
-2367 2521 0
39 -2367 2368 0
-2368 2522 0
40 -2368 2369 0
-2369 2523 0
41 -2369 2370 0
-2370 2524 0
42 -2370 2371 0
-2371 2525 0
43 -2371 2372 0
-2372 2526 0
44 -2372 2373 0
-2373 2527 0
45 -2373 2374 0
-2374 2528 0
46 -2374 2375 0
-2375 2529 0
47 -2375 2376 0
-2376 2530 0
48 -2376 2377 0
-2377 2531 0
49 -2377 2378 0
-2378 2532 0
50 -2378 2379 0
-2379 2533 0
51 -2379 2380 0
-2380 2534 0
52 -2380 2381 0
-2381 2535 0
53 -2381 2382 0
-2382 2536 0
54 -2382 2383 0
-2383 2537 0
55 -2383 2384 0
-2384 2538 0
56 -2384 2385 0
-2385 2539 0
57 -2385 2386 0
-2386 2540 0
58 -2386 2387 0
-2387 2541 0
59 -2387 2388 0
-2388 2542 0
60 -2388 2389 0
-2389 2543 0
61 -2389 2390 0
-2390 2544 0
62 -2390 2391 0
-2391 2545 0
63 -2391 2392 0
-2392 2546 0
64 -2392 2393 0
-2393 2547 0
65 -2393 2394 0
-2394 2548 0
66 -2394 2395 0
-2395 2549 0
67 -2395 2396 0
-2396 2550 0
68 -2396 2397 0
-2397 2551 0
69 -2397 2398 0
-2398 2552 0
70 -2398 2399 0
-2399 2553 0
71 -2399 2400 0
-2400 2554 0
72 -2400 2401 0
-2401 2555 0
73 -2401 2402 0
-2402 2556 0
74 -2402 2403 0
-2403 2557 0
75 -2403 2404 0
-2404 2558 0
76 -2404 2405 0
-2405 2559 0
77 -2405 2406 0
-2406 2560 0
78 -2406 2407 0
-2407 2561 0
79 -2407 2408 0
-2408 2562 0
80 -2408 2409 0
-2409 2563 0
81 -2409 2410 0
-2410 2564 0
82 -2410 2411 0
-2411 2565 0
83 -2411 2412 0
-2412 2566 0
84 -2412 2413 0
-2413 2567 0
85 -2413 2414 0
-2414 2568 0
86 -2414 2415 0
-2415 2569 0
87 -2415 2416 0
-2416 2570 0
88 -2416 2417 0
-2417 2571 0
89 -2417 2418 0
-2418 2572 0
90 -2418 2419 0
-2419 2573 0
91 -2419 2420 0
-2420 2574 0
92 -2420 2421 0
-2421 2575 0
93 -2421 2422 0
-2422 2576 0
94 -2422 2423 0
-2423 2577 0
95 -2423 2424 0
-2424 2578 0
96 -2424 2425 0
-2425 2579 0
97 -2425 2426 0
-2426 2580 0
98 -2426 2427 0
-2427 2581 0
99 -2427 2428 0
-2428 2582 0
100 -2428 2429 0
-2429 2583 0
101 -2429 2430 0
-2430 2584 0
102 -2430 2431 0
-2431 2585 0
103 -2431 2432 0
-2432 2586 0
104 -2432 2433 0
-2433 2587 0
105 -2433 2434 0
-2434 2588 0
106 -2434 2435 0
-2435 2589 0
107 -2435 2436 0
-2436 2590 0
108 -2436 2437 0
-2437 2591 0
109 -2437 2438 0
-2438 2592 0
110 -2438 2439 0
-2439 2593 0
111 -2439 2440 0
-2440 2594 0
112 -2440 2441 0
-2441 2595 0
113 -2441 2442 0
-2442 2596 0
114 -2442 2443 0
-2443 2597 0
115 -2443 2444 0
-2444 2598 0
116 -2444 2445 0
-2445 2599 0
117 -2445 2446 0
-2446 2600 0
118 -2446 2447 0
-2447 2601 0
119 -2447 2448 0
-2448 2602 0
120 -2448 2449 0
-2449 2603 0
121 -2449 2450 0
-2450 2604 0
122 -2450 2451 0
-2451 2605 0
123 -2451 2452 0
-2452 2606 0
124 -2452 2453 0
-2453 2607 0
125 -2453 2454 0
-2454 2608 0
126 -2454 2455 0
-2455 2609 0
127 -2455 2456 0
-2456 2610 0
128 -2456 2457 0
-2457 2611 0
129 -2457 2458 0
-2458 2612 0
130 -2458 2459 0
-2459 2613 0
131 -2459 2460 0
-2460 2614 0
132 -2460 2461 0
-2461 2615 0
133 -2461 2462 0
-2462 2616 0
134 -2462 2463 0
-2463 2617 0
135 -2463 2464 0
-2464 2618 0
136 -2464 2465 0
-2465 2619 0
137 -2465 2466 0
-2466 2620 0
138 -2466 2467 0
-2467 2621 0
139 -2467 2468 0
-2468 2622 0
140 -2468 2469 0
-2469 2623 0
141 -2469 2470 0
-2470 2624 0
142 -2470 2471 0
-2471 2625 0
143 -2471 2472 0
-2472 2626 0
144 -2472 2473 0
-2473 2627 0
145 -2473 2474 0
-2474 2628 0
146 -2474 2475 0
-2475 2629 0
147 -2475 2476 0
-2476 2630 0
148 -2476 2477 0
-2477 2631 0
149 -2477 2478 0
-2478 2632 0
150 -2478 2479 0
-2479 2633 0
151 -2479 2480 0
-2480 2634 0
152 -2480 2481 0
-2481 2635 0
153 -2481 2482 0
-2482 2636 0
154 -2482 2483 0
-2483 2637 0
155 -2483 2484 0
-2484 2638 0
156 -2484 2485 0
-2485 2639 0
157 -2485 2486 0
-2486 2640 0
158 -2486 2487 0
-2487 2641 0
159 -2487 2488 0
-2488 2642 0
160 -2488 2489 0
-2489 2643 0
161 -2489 2490 0
-2490 2644 0
162 -2490 2491 0
-2491 2645 0
163 -2491 2492 0
-2492 2646 0
164 -2492 2493 0
-2493 2647 0
165 -2493 2494 0
-2494 2648 0
166 -2494 2495 0
-2495 2649 0
167 -2495 2496 0
-2496 2650 0
168 -2496 0
15 2497 0
-2497 2651 0
16 -2497 2498 0
-2498 2652 0
17 -2498 2499 0
-2499 2653 0
18 -2499 2500 0
-2500 2654 0
19 -2500 2501 0
-2501 2655 0
20 -2501 2502 0
-2502 2656 0
21 -2502 2503 0
-2503 2657 0
22 -2503 2504 0
-2504 2658 0
23 -2504 2505 0
-2505 2659 0
24 -2505 2506 0
-2506 2660 0
25 -2506 2507 0
-2507 2661 0
26 -2507 2508 0
-2508 2662 0
27 -2508 2509 0
-2509 2663 0
28 -2509 2510 0
-2510 2664 0
29 -2510 2511 0
-2511 2665 0
30 -2511 2512 0
-2512 2666 0
31 -2512 2513 0
-2513 2667 0
32 -2513 2514 0
-2514 2668 0
33 -2514 2515 0
-2515 2669 0
34 -2515 2516 0
-2516 2670 0
35 -2516 2517 0
-2517 2671 0
36 -2517 2518 0
-2518 2672 0
37 -2518 2519 0
-2519 2673 0
38 -2519 2520 0
-2520 2674 0
39 -2520 2521 0
-2521 2675 0
40 -2521 2522 0
-2522 2676 0
41 -2522 2523 0
-2523 2677 0
42 -2523 2524 0
-2524 2678 0
43 -2524 2525 0
-2525 2679 0
44 -2525 2526 0
-2526 2680 0
45 -2526 2527 0
-2527 2681 0
46 -2527 2528 0
-2528 2682 0
47 -2528 2529 0
-2529 2683 0
48 -2529 2530 0
-2530 2684 0
49 -2530 2531 0
-2531 2685 0
50 -2531 2532 0
-2532 2686 0
51 -2532 2533 0
-2533 2687 0
52 -2533 2534 0
-2534 2688 0
53 -2534 2535 0
-2535 2689 0
54 -2535 2536 0
-2536 2690 0
55 -2536 2537 0
-2537 2691 0
56 -2537 2538 0
-2538 2692 0
57 -2538 2539 0
-2539 2693 0
58 -2539 2540 0
-2540 2694 0
59 -2540 2541 0
-2541 2695 0
60 -2541 2542 0
-2542 2696 0
61 -2542 2543 0
-2543 2697 0
62 -2543 2544 0
-2544 2698 0
63 -2544 2545 0
-2545 2699 0
64 -2545 2546 0
-2546 2700 0
65 -2546 2547 0
-2547 2701 0
66 -2547 2548 0
-2548 2702 0
67 -2548 2549 0
-2549 2703 0
68 -2549 2550 0
-2550 2704 0
69 -2550 2551 0
-2551 2705 0
70 -2551 2552 0
-2552 2706 0
71 -2552 2553 0
-2553 2707 0
72 -2553 2554 0
-2554 2708 0
73 -2554 2555 0
-2555 2709 0
74 -2555 2556 0
-2556 2710 0
75 -2556 2557 0
-2557 2711 0
76 -2557 2558 0
-2558 2712 0
77 -2558 2559 0
-2559 2713 0
78 -2559 2560 0
-2560 2714 0
79 -2560 2561 0
-2561 2715 0
80 -2561 2562 0
-2562 2716 0
81 -2562 2563 0
-2563 2717 0
82 -2563 2564 0
-2564 2718 0
83 -2564 2565 0
-2565 2719 0
84 -2565 2566 0
-2566 2720 0
85 -2566 2567 0
-2567 2721 0
86 -2567 2568 0
-2568 2722 0
87 -2568 2569 0
-2569 2723 0
88 -2569 2570 0
-2570 2724 0
89 -2570 2571 0
-2571 2725 0
90 -2571 2572 0
-2572 2726 0
91 -2572 2573 0
-2573 2727 0
92 -2573 2574 0
-2574 2728 0
93 -2574 2575 0
-2575 2729 0
94 -2575 2576 0
-2576 2730 0
95 -2576 2577 0
-2577 2731 0
96 -2577 2578 0
-2578 2732 0
97 -2578 2579 0
-2579 2733 0
98 -2579 2580 0
-2580 2734 0
99 -2580 2581 0
-2581 2735 0
100 -2581 2582 0
-2582 2736 0
101 -2582 2583 0
-2583 2737 0
102 -2583 2584 0
-2584 2738 0
103 -2584 2585 0
-2585 2739 0
104 -2585 2586 0
-2586 2740 0
105 -2586 2587 0
-2587 2741 0
106 -2587 2588 0
-2588 2742 0
107 -2588 2589 0
-2589 2743 0
108 -2589 2590 0
-2590 2744 0
109 -2590 2591 0
-2591 2745 0
110 -2591 2592 0
-2592 2746 0
111 -2592 2593 0
-2593 2747 0
112 -2593 2594 0
-2594 2748 0
113 -2594 2595 0
-2595 2749 0
114 -2595 2596 0
-2596 2750 0
115 -2596 2597 0
-2597 2751 0
116 -2597 2598 0
-2598 2752 0
117 -2598 2599 0
-2599 2753 0
118 -2599 2600 0
-2600 2754 0
119 -2600 2601 0
-2601 2755 0
120 -2601 2602 0
-2602 2756 0
121 -2602 2603 0
-2603 2757 0
122 -2603 2604 0
-2604 2758 0
123 -2604 2605 0
-2605 2759 0
124 -2605 2606 0
-2606 2760 0
125 -2606 2607 0
-2607 2761 0
126 -2607 2608 0
-2608 2762 0
127 -2608 2609 0
-2609 2763 0
128 -2609 2610 0
-2610 2764 0
129 -2610 2611 0
-2611 2765 0
130 -2611 2612 0
-2612 2766 0
131 -2612 2613 0
-2613 2767 0
132 -2613 2614 0
-2614 2768 0
133 -2614 2615 0
-2615 2769 0
134 -2615 2616 0
-2616 2770 0
135 -2616 2617 0
-2617 2771 0
136 -2617 2618 0
-2618 2772 0
137 -2618 2619 0
-2619 2773 0
138 -2619 2620 0
-2620 2774 0
139 -2620 2621 0
-2621 2775 0
140 -2621 2622 0
-2622 2776 0
141 -2622 2623 0
-2623 2777 0
142 -2623 2624 0
-2624 2778 0
143 -2624 2625 0
-2625 2779 0
144 -2625 2626 0
-2626 2780 0
145 -2626 2627 0
-2627 2781 0
146 -2627 2628 0
-2628 2782 0
147 -2628 2629 0
-2629 2783 0
148 -2629 2630 0
-2630 2784 0
149 -2630 2631 0
-2631 2785 0
150 -2631 2632 0
-2632 2786 0
151 -2632 2633 0
-2633 2787 0
152 -2633 2634 0
-2634 2788 0
153 -2634 2635 0
-2635 2789 0
154 -2635 2636 0
-2636 2790 0
155 -2636 2637 0
-2637 2791 0
156 -2637 2638 0
-2638 2792 0
157 -2638 2639 0
-2639 2793 0
158 -2639 2640 0
-2640 2794 0
159 -2640 2641 0
-2641 2795 0
160 -2641 2642 0
-2642 2796 0
161 -2642 2643 0
-2643 2797 0
162 -2643 2644 0
-2644 2798 0
163 -2644 2645 0
-2645 2799 0
164 -2645 2646 0
-2646 2800 0
165 -2646 2647 0
-2647 2801 0
166 -2647 2648 0
-2648 2802 0
167 -2648 2649 0
-2649 2803 0
168 -2649 2650 0
-2650 2804 0
169 -2650 0
16 2651 0
17 -2651 2652 0
18 -2652 2653 0
19 -2653 2654 0
20 -2654 2655 0
21 -2655 2656 0
22 -2656 2657 0
23 -2657 2658 0
24 -2658 2659 0
25 -2659 2660 0
26 -2660 2661 0
27 -2661 2662 0
28 -2662 2663 0
29 -2663 2664 0
30 -2664 2665 0
31 -2665 2666 0
32 -2666 2667 0
33 -2667 2668 0
34 -2668 2669 0
35 -2669 2670 0
36 -2670 2671 0
37 -2671 2672 0
38 -2672 2673 0
39 -2673 2674 0
40 -2674 2675 0
41 -2675 2676 0
42 -2676 2677 0
43 -2677 2678 0
44 -2678 2679 0
45 -2679 2680 0
46 -2680 2681 0
47 -2681 2682 0
48 -2682 2683 0
49 -2683 2684 0
50 -2684 2685 0
51 -2685 2686 0
52 -2686 2687 0
53 -2687 2688 0
54 -2688 2689 0
55 -2689 2690 0
56 -2690 2691 0
57 -2691 2692 0
58 -2692 2693 0
59 -2693 2694 0
60 -2694 2695 0
61 -2695 2696 0
62 -2696 2697 0
63 -2697 2698 0
64 -2698 2699 0
65 -2699 2700 0
66 -2700 2701 0
67 -2701 2702 0
68 -2702 2703 0
69 -2703 2704 0
70 -2704 2705 0
71 -2705 2706 0
72 -2706 2707 0
73 -2707 2708 0
74 -2708 2709 0
75 -2709 2710 0
76 -2710 2711 0
77 -2711 2712 0
78 -2712 2713 0
79 -2713 2714 0
80 -2714 2715 0
81 -2715 2716 0
82 -2716 2717 0
83 -2717 2718 0
84 -2718 2719 0
85 -2719 2720 0
86 -2720 2721 0
87 -2721 2722 0
88 -2722 2723 0
89 -2723 2724 0
90 -2724 2725 0
91 -2725 2726 0
92 -2726 2727 0
93 -2727 2728 0
94 -2728 2729 0
95 -2729 2730 0
96 -2730 2731 0
97 -2731 2732 0
98 -2732 2733 0
99 -2733 2734 0
100 -2734 2735 0
101 -2735 2736 0
102 -2736 2737 0
103 -2737 2738 0
104 -2738 2739 0
105 -2739 2740 0
106 -2740 2741 0
107 -2741 2742 0
108 -2742 2743 0
109 -2743 2744 0
110 -2744 2745 0
111 -2745 2746 0
112 -2746 2747 0
113 -2747 2748 0
114 -2748 2749 0
115 -2749 2750 0
116 -2750 2751 0
117 -2751 2752 0
118 -2752 2753 0
119 -2753 2754 0
120 -2754 2755 0
121 -2755 2756 0
122 -2756 2757 0
123 -2757 2758 0
124 -2758 2759 0
125 -2759 2760 0
126 -2760 2761 0
127 -2761 2762 0
128 -2762 2763 0
129 -2763 2764 0
130 -2764 2765 0
131 -2765 2766 0
132 -2766 2767 0
133 -2767 2768 0
134 -2768 2769 0
135 -2769 2770 0
136 -2770 2771 0
137 -2771 2772 0
138 -2772 2773 0
139 -2773 2774 0
140 -2774 2775 0
141 -2775 2776 0
142 -2776 2777 0
143 -2777 2778 0
144 -2778 2779 0
145 -2779 2780 0
146 -2780 2781 0
147 -2781 2782 0
148 -2782 2783 0
149 -2783 2784 0
150 -2784 2785 0
151 -2785 2786 0
152 -2786 2787 0
153 -2787 2788 0
154 -2788 2789 0
155 -2789 2790 0
156 -2790 2791 0
157 -2791 2792 0
158 -2792 2793 0
159 -2793 2794 0
160 -2794 2795 0
161 -2795 2796 0
162 -2796 2797 0
163 -2797 2798 0
164 -2798 2799 0
165 -2799 2800 0
166 -2800 2801 0
167 -2801 2802 0
168 -2802 2803 0
169 -2803 2804 0
170 -2804 0
-1 2805 0
-2805 2806 0
-2 -2805 2807 0
-2807 2808 0
-3 -2807 2809 0
-2809 2810 0
-4 -2809 2811 0
-2811 2812 0
-5 -2811 2813 0
-2813 2814 0
-6 -2813 2815 0
-2815 2816 0
-7 -2815 2817 0
-2817 2818 0
-8 -2817 2819 0
-2819 2820 0
-9 -2819 2821 0
-2821 2822 0
-10 -2821 2823 0
-2823 2824 0
-11 -2823 2825 0
-2825 2826 0
-12 -2825 2827 0
-2827 2828 0
-13 -2827 2829 0
-2829 2830 0
-14 -2829 2831 0
-2831 2832 0
-15 -2831 2833 0
-2833 2834 0
-16 -2833 2835 0
-2835 2836 0
-17 -2835 0
-2 2806 0
-2806 2837 0
-3 -2806 2808 0
-2808 2838 0
-4 -2808 2810 0
-2810 2839 0
-5 -2810 2812 0
-2812 2840 0
-6 -2812 2814 0
-2814 2841 0
-7 -2814 2816 0
-2816 2842 0
-8 -2816 2818 0
-2818 2843 0
-9 -2818 2820 0
-2820 2844 0
-10 -2820 2822 0
-2822 2845 0
-11 -2822 2824 0
-2824 2846 0
-12 -2824 2826 0
-2826 2847 0
-13 -2826 2828 0
-2828 2848 0
-14 -2828 2830 0
-2830 2849 0
-15 -2830 2832 0
-2832 2850 0
-16 -2832 2834 0
-2834 2851 0
-17 -2834 2836 0
-2836 2852 0
-18 -2836 0
-3 2837 0
-2837 2853 0
-4 -2837 2838 0
-2838 2854 0
-5 -2838 2839 0
-2839 2855 0
-6 -2839 2840 0
-2840 2856 0
-7 -2840 2841 0
-2841 2857 0
-8 -2841 2842 0
-2842 2858 0
-9 -2842 2843 0
-2843 2859 0
-10 -2843 2844 0
-2844 2860 0
-11 -2844 2845 0
-2845 2861 0
-12 -2845 2846 0
-2846 2862 0
-13 -2846 2847 0
-2847 2863 0
-14 -2847 2848 0
-2848 2864 0
-15 -2848 2849 0
-2849 2865 0
-16 -2849 2850 0
-2850 2866 0
-17 -2850 2851 0
-2851 2867 0
-18 -2851 2852 0
-2852 2868 0
-19 -2852 0
-4 2853 0
-2853 2869 0
-5 -2853 2854 0
-2854 2870 0
-6 -2854 2855 0
-2855 2871 0
-7 -2855 2856 0
-2856 2872 0
-8 -2856 2857 0
-2857 2873 0
-9 -2857 2858 0
-2858 2874 0
-10 -2858 2859 0
-2859 2875 0
-11 -2859 2860 0
-2860 2876 0
-12 -2860 2861 0
-2861 2877 0
-13 -2861 2862 0
-2862 2878 0
-14 -2862 2863 0
-2863 2879 0
-15 -2863 2864 0
-2864 2880 0
-16 -2864 2865 0
-2865 2881 0
-17 -2865 2866 0
-2866 2882 0
-18 -2866 2867 0
-2867 2883 0
-19 -2867 2868 0
-2868 2884 0
-20 -2868 0
-5 2869 0
-2869 2885 0
-6 -2869 2870 0
-2870 2886 0
-7 -2870 2871 0
-2871 2887 0
-8 -2871 2872 0
-2872 2888 0
-9 -2872 2873 0
-2873 2889 0
-10 -2873 2874 0
-2874 2890 0
-11 -2874 2875 0
-2875 2891 0
-12 -2875 2876 0
-2876 2892 0
-13 -2876 2877 0
-2877 2893 0
-14 -2877 2878 0
-2878 2894 0
-15 -2878 2879 0
-2879 2895 0
-16 -2879 2880 0
-2880 2896 0
-17 -2880 2881 0
-2881 2897 0
-18 -2881 2882 0
-2882 2898 0
-19 -2882 2883 0
-2883 2899 0
-20 -2883 2884 0
-2884 2900 0
-21 -2884 0
-6 2885 0
-2885 2901 0
-7 -2885 2886 0
-2886 2902 0
-8 -2886 2887 0
-2887 2903 0
-9 -2887 2888 0
-2888 2904 0
-10 -2888 2889 0
-2889 2905 0
-11 -2889 2890 0
-2890 2906 0
-12 -2890 2891 0
-2891 2907 0
-13 -2891 2892 0
-2892 2908 0
-14 -2892 2893 0
-2893 2909 0
-15 -2893 2894 0
-2894 2910 0
-16 -2894 2895 0
-2895 2911 0
-17 -2895 2896 0
-2896 2912 0
-18 -2896 2897 0
-2897 2913 0
-19 -2897 2898 0
-2898 2914 0
-20 -2898 2899 0
-2899 2915 0
-21 -2899 2900 0
-2900 2916 0
-22 -2900 0
-7 2901 0
-2901 2917 0
-8 -2901 2902 0
-2902 2918 0
-9 -2902 2903 0
-2903 2919 0
-10 -2903 2904 0
-2904 2920 0
-11 -2904 2905 0
-2905 2921 0
-12 -2905 2906 0
-2906 2922 0
-13 -2906 2907 0
-2907 2923 0
-14 -2907 2908 0
-2908 2924 0
-15 -2908 2909 0
-2909 2925 0
-16 -2909 2910 0
-2910 2926 0
-17 -2910 2911 0
-2911 2927 0
-18 -2911 2912 0
-2912 2928 0
-19 -2912 2913 0
-2913 2929 0
-20 -2913 2914 0
-2914 2930 0
-21 -2914 2915 0
-2915 2931 0
-22 -2915 2916 0
-2916 2932 0
-23 -2916 0
-8 2917 0
-2917 2933 0
-9 -2917 2918 0
-2918 2934 0
-10 -2918 2919 0
-2919 2935 0
-11 -2919 2920 0
-2920 2936 0
-12 -2920 2921 0
-2921 2937 0
-13 -2921 2922 0
-2922 2938 0
-14 -2922 2923 0
-2923 2939 0
-15 -2923 2924 0
-2924 2940 0
-16 -2924 2925 0
-2925 2941 0
-17 -2925 2926 0
-2926 2942 0
-18 -2926 2927 0
-2927 2943 0
-19 -2927 2928 0
-2928 2944 0
-20 -2928 2929 0
-2929 2945 0
-21 -2929 2930 0
-2930 2946 0
-22 -2930 2931 0
-2931 2947 0
-23 -2931 2932 0
-2932 2948 0
-24 -2932 0
-9 2933 0
-2933 2949 0
-10 -2933 2934 0
-2934 2950 0
-11 -2934 2935 0
-2935 2951 0
-12 -2935 2936 0
-2936 2952 0
-13 -2936 2937 0
-2937 2953 0
-14 -2937 2938 0
-2938 2954 0
-15 -2938 2939 0
-2939 2955 0
-16 -2939 2940 0
-2940 2956 0
-17 -2940 2941 0
-2941 2957 0
-18 -2941 2942 0
-2942 2958 0
-19 -2942 2943 0
-2943 2959 0
-20 -2943 2944 0
-2944 2960 0
-21 -2944 2945 0
-2945 2961 0
-22 -2945 2946 0
-2946 2962 0
-23 -2946 2947 0
-2947 2963 0
-24 -2947 2948 0
-2948 2964 0
-25 -2948 0
-10 2949 0
-2949 2965 0
-11 -2949 2950 0
-2950 2966 0
-12 -2950 2951 0
-2951 2967 0
-13 -2951 2952 0
-2952 2968 0
-14 -2952 2953 0
-2953 2969 0
-15 -2953 2954 0
-2954 2970 0
-16 -2954 2955 0
-2955 2971 0
-17 -2955 2956 0
-2956 2972 0
-18 -2956 2957 0
-2957 2973 0
-19 -2957 2958 0
-2958 2974 0
-20 -2958 2959 0
-2959 2975 0
-21 -2959 2960 0
-2960 2976 0
-22 -2960 2961 0
-2961 2977 0
-23 -2961 2962 0
-2962 2978 0
-24 -2962 2963 0
-2963 2979 0
-25 -2963 2964 0
-2964 2980 0
-26 -2964 0
-11 2965 0
-2965 2981 0
-12 -2965 2966 0
-2966 2982 0
-13 -2966 2967 0
-2967 2983 0
-14 -2967 2968 0
-2968 2984 0
-15 -2968 2969 0
-2969 2985 0
-16 -2969 2970 0
-2970 2986 0
-17 -2970 2971 0
-2971 2987 0
-18 -2971 2972 0
-2972 2988 0
-19 -2972 2973 0
-2973 2989 0
-20 -2973 2974 0
-2974 2990 0
-21 -2974 2975 0
-2975 2991 0
-22 -2975 2976 0
-2976 2992 0
-23 -2976 2977 0
-2977 2993 0
-24 -2977 2978 0
-2978 2994 0
-25 -2978 2979 0
-2979 2995 0
-26 -2979 2980 0
-2980 2996 0
-27 -2980 0
-12 2981 0
-2981 2997 0
-13 -2981 2982 0
-2982 2998 0
-14 -2982 2983 0
-2983 2999 0
-15 -2983 2984 0
-2984 3000 0
-16 -2984 2985 0
-2985 3001 0
-17 -2985 2986 0
-2986 3002 0
-18 -2986 2987 0
-2987 3003 0
-19 -2987 2988 0
-2988 3004 0
-20 -2988 2989 0
-2989 3005 0
-21 -2989 2990 0
-2990 3006 0
-22 -2990 2991 0
-2991 3007 0
-23 -2991 2992 0
-2992 3008 0
-24 -2992 2993 0
-2993 3009 0
-25 -2993 2994 0
-2994 3010 0
-26 -2994 2995 0
-2995 3011 0
-27 -2995 2996 0
-2996 3012 0
-28 -2996 0
-13 2997 0
-2997 3013 0
-14 -2997 2998 0
-2998 3014 0
-15 -2998 2999 0
-2999 3015 0
-16 -2999 3000 0
-3000 3016 0
-17 -3000 3001 0
-3001 3017 0
-18 -3001 3002 0
-3002 3018 0
-19 -3002 3003 0
-3003 3019 0
-20 -3003 3004 0
-3004 3020 0
-21 -3004 3005 0
-3005 3021 0
-22 -3005 3006 0
-3006 3022 0
-23 -3006 3007 0
-3007 3023 0
-24 -3007 3008 0
-3008 3024 0
-25 -3008 3009 0
-3009 3025 0
-26 -3009 3010 0
-3010 3026 0
-27 -3010 3011 0
-3011 3027 0
-28 -3011 3012 0
-3012 3028 0
-29 -3012 0
-14 3013 0
-3013 3029 0
-15 -3013 3014 0
-3014 3030 0
-16 -3014 3015 0
-3015 3031 0
-17 -3015 3016 0
-3016 3032 0
-18 -3016 3017 0
-3017 3033 0
-19 -3017 3018 0
-3018 3034 0
-20 -3018 3019 0
-3019 3035 0
-21 -3019 3020 0
-3020 3036 0
-22 -3020 3021 0
-3021 3037 0
-23 -3021 3022 0
-3022 3038 0
-24 -3022 3023 0
-3023 3039 0
-25 -3023 3024 0
-3024 3040 0
-26 -3024 3025 0
-3025 3041 0
-27 -3025 3026 0
-3026 3042 0
-28 -3026 3027 0
-3027 3043 0
-29 -3027 3028 0
-3028 3044 0
-30 -3028 0
-15 3029 0
-3029 3045 0
-16 -3029 3030 0
-3030 3046 0
-17 -3030 3031 0
-3031 3047 0
-18 -3031 3032 0
-3032 3048 0
-19 -3032 3033 0
-3033 3049 0
-20 -3033 3034 0
-3034 3050 0
-21 -3034 3035 0
-3035 3051 0
-22 -3035 3036 0
-3036 3052 0
-23 -3036 3037 0
-3037 3053 0
-24 -3037 3038 0
-3038 3054 0
-25 -3038 3039 0
-3039 3055 0
-26 -3039 3040 0
-3040 3056 0
-27 -3040 3041 0
-3041 3057 0
-28 -3041 3042 0
-3042 3058 0
-29 -3042 3043 0
-3043 3059 0
-30 -3043 3044 0
-3044 3060 0
-31 -3044 0
-16 3045 0
-3045 3061 0
-17 -3045 3046 0
-3046 3062 0
-18 -3046 3047 0
-3047 3063 0
-19 -3047 3048 0
-3048 3064 0
-20 -3048 3049 0
-3049 3065 0
-21 -3049 3050 0
-3050 3066 0
-22 -3050 3051 0
-3051 3067 0
-23 -3051 3052 0
-3052 3068 0
-24 -3052 3053 0
-3053 3069 0
-25 -3053 3054 0
-3054 3070 0
-26 -3054 3055 0
-3055 3071 0
-27 -3055 3056 0
-3056 3072 0
-28 -3056 3057 0
-3057 3073 0
-29 -3057 3058 0
-3058 3074 0
-30 -3058 3059 0
-3059 3075 0
-31 -3059 3060 0
-3060 3076 0
-32 -3060 0
-17 3061 0
-3061 3077 0
-18 -3061 3062 0
-3062 3078 0
-19 -3062 3063 0
-3063 3079 0
-20 -3063 3064 0
-3064 3080 0
-21 -3064 3065 0
-3065 3081 0
-22 -3065 3066 0
-3066 3082 0
-23 -3066 3067 0
-3067 3083 0
-24 -3067 3068 0
-3068 3084 0
-25 -3068 3069 0
-3069 3085 0
-26 -3069 3070 0
-3070 3086 0
-27 -3070 3071 0
-3071 3087 0
-28 -3071 3072 0
-3072 3088 0
-29 -3072 3073 0
-3073 3089 0
-30 -3073 3074 0
-3074 3090 0
-31 -3074 3075 0
-3075 3091 0
-32 -3075 3076 0
-3076 3092 0
-33 -3076 0
-18 3077 0
-3077 3093 0
-19 -3077 3078 0
-3078 3094 0
-20 -3078 3079 0
-3079 3095 0
-21 -3079 3080 0
-3080 3096 0
-22 -3080 3081 0
-3081 3097 0
-23 -3081 3082 0
-3082 3098 0
-24 -3082 3083 0
-3083 3099 0
-25 -3083 3084 0
-3084 3100 0
-26 -3084 3085 0
-3085 3101 0
-27 -3085 3086 0
-3086 3102 0
-28 -3086 3087 0
-3087 3103 0
-29 -3087 3088 0
-3088 3104 0
-30 -3088 3089 0
-3089 3105 0
-31 -3089 3090 0
-3090 3106 0
-32 -3090 3091 0
-3091 3107 0
-33 -3091 3092 0
-3092 3108 0
-34 -3092 0
-19 3093 0
-3093 3109 0
-20 -3093 3094 0
-3094 3110 0
-21 -3094 3095 0
-3095 3111 0
-22 -3095 3096 0
-3096 3112 0
-23 -3096 3097 0
-3097 3113 0
-24 -3097 3098 0
-3098 3114 0
-25 -3098 3099 0
-3099 3115 0
-26 -3099 3100 0
-3100 3116 0
-27 -3100 3101 0
-3101 3117 0
-28 -3101 3102 0
-3102 3118 0
-29 -3102 3103 0
-3103 3119 0
-30 -3103 3104 0
-3104 3120 0
-31 -3104 3105 0
-3105 3121 0
-32 -3105 3106 0
-3106 3122 0
-33 -3106 3107 0
-3107 3123 0
-34 -3107 3108 0
-3108 3124 0
-35 -3108 0
-20 3109 0
-3109 3125 0
-21 -3109 3110 0
-3110 3126 0
-22 -3110 3111 0
-3111 3127 0
-23 -3111 3112 0
-3112 3128 0
-24 -3112 3113 0
-3113 3129 0
-25 -3113 3114 0
-3114 3130 0
-26 -3114 3115 0
-3115 3131 0
-27 -3115 3116 0
-3116 3132 0
-28 -3116 3117 0
-3117 3133 0
-29 -3117 3118 0
-3118 3134 0
-30 -3118 3119 0
-3119 3135 0
-31 -3119 3120 0
-3120 3136 0
-32 -3120 3121 0
-3121 3137 0
-33 -3121 3122 0
-3122 3138 0
-34 -3122 3123 0
-3123 3139 0
-35 -3123 3124 0
-3124 3140 0
-36 -3124 0
-21 3125 0
-3125 3141 0
-22 -3125 3126 0
-3126 3142 0
-23 -3126 3127 0
-3127 3143 0
-24 -3127 3128 0
-3128 3144 0
-25 -3128 3129 0
-3129 3145 0
-26 -3129 3130 0
-3130 3146 0
-27 -3130 3131 0
-3131 3147 0
-28 -3131 3132 0
-3132 3148 0
-29 -3132 3133 0
-3133 3149 0
-30 -3133 3134 0
-3134 3150 0
-31 -3134 3135 0
-3135 3151 0
-32 -3135 3136 0
-3136 3152 0
-33 -3136 3137 0
-3137 3153 0
-34 -3137 3138 0
-3138 3154 0
-35 -3138 3139 0
-3139 3155 0
-36 -3139 3140 0
-3140 3156 0
-37 -3140 0
-22 3141 0
-3141 3157 0
-23 -3141 3142 0
-3142 3158 0
-24 -3142 3143 0
-3143 3159 0
-25 -3143 3144 0
-3144 3160 0
-26 -3144 3145 0
-3145 3161 0
-27 -3145 3146 0
-3146 3162 0
-28 -3146 3147 0
-3147 3163 0
-29 -3147 3148 0
-3148 3164 0
-30 -3148 3149 0
-3149 3165 0
-31 -3149 3150 0
-3150 3166 0
-32 -3150 3151 0
-3151 3167 0
-33 -3151 3152 0
-3152 3168 0
-34 -3152 3153 0
-3153 3169 0
-35 -3153 3154 0
-3154 3170 0
-36 -3154 3155 0
-3155 3171 0
-37 -3155 3156 0
-3156 3172 0
-38 -3156 0
-23 3157 0
-3157 3173 0
-24 -3157 3158 0
-3158 3174 0
-25 -3158 3159 0
-3159 3175 0
-26 -3159 3160 0
-3160 3176 0
-27 -3160 3161 0
-3161 3177 0
-28 -3161 3162 0
-3162 3178 0
-29 -3162 3163 0
-3163 3179 0
-30 -3163 3164 0
-3164 3180 0
-31 -3164 3165 0
-3165 3181 0
-32 -3165 3166 0
-3166 3182 0
-33 -3166 3167 0
-3167 3183 0
-34 -3167 3168 0
-3168 3184 0
-35 -3168 3169 0
-3169 3185 0
-36 -3169 3170 0
-3170 3186 0
-37 -3170 3171 0
-3171 3187 0
-38 -3171 3172 0
-3172 3188 0
-39 -3172 0
-24 3173 0
-3173 3189 0
-25 -3173 3174 0
-3174 3190 0
-26 -3174 3175 0
-3175 3191 0
-27 -3175 3176 0
-3176 3192 0
-28 -3176 3177 0
-3177 3193 0
-29 -3177 3178 0
-3178 3194 0
-30 -3178 3179 0
-3179 3195 0
-31 -3179 3180 0
-3180 3196 0
-32 -3180 3181 0
-3181 3197 0
-33 -3181 3182 0
-3182 3198 0
-34 -3182 3183 0
-3183 3199 0
-35 -3183 3184 0
-3184 3200 0
-36 -3184 3185 0
-3185 3201 0
-37 -3185 3186 0
-3186 3202 0
-38 -3186 3187 0
-3187 3203 0
-39 -3187 3188 0
-3188 3204 0
-40 -3188 0
-25 3189 0
-3189 3205 0
-26 -3189 3190 0
-3190 3206 0
-27 -3190 3191 0
-3191 3207 0
-28 -3191 3192 0
-3192 3208 0
-29 -3192 3193 0
-3193 3209 0
-30 -3193 3194 0
-3194 3210 0
-31 -3194 3195 0
-3195 3211 0
-32 -3195 3196 0
-3196 3212 0
-33 -3196 3197 0
-3197 3213 0
-34 -3197 3198 0
-3198 3214 0
-35 -3198 3199 0
-3199 3215 0
-36 -3199 3200 0
-3200 3216 0
-37 -3200 3201 0
-3201 3217 0
-38 -3201 3202 0
-3202 3218 0
-39 -3202 3203 0
-3203 3219 0
-40 -3203 3204 0
-3204 3220 0
-41 -3204 0
-26 3205 0
-3205 3221 0
-27 -3205 3206 0
-3206 3222 0
-28 -3206 3207 0
-3207 3223 0
-29 -3207 3208 0
-3208 3224 0
-30 -3208 3209 0
-3209 3225 0
-31 -3209 3210 0
-3210 3226 0
-32 -3210 3211 0
-3211 3227 0
-33 -3211 3212 0
-3212 3228 0
-34 -3212 3213 0
-3213 3229 0
-35 -3213 3214 0
-3214 3230 0
-36 -3214 3215 0
-3215 3231 0
-37 -3215 3216 0
-3216 3232 0
-38 -3216 3217 0
-3217 3233 0
-39 -3217 3218 0
-3218 3234 0
-40 -3218 3219 0
-3219 3235 0
-41 -3219 3220 0
-3220 3236 0
-42 -3220 0
-27 3221 0
-3221 3237 0
-28 -3221 3222 0
-3222 3238 0
-29 -3222 3223 0
-3223 3239 0
-30 -3223 3224 0
-3224 3240 0
-31 -3224 3225 0
-3225 3241 0
-32 -3225 3226 0
-3226 3242 0
-33 -3226 3227 0
-3227 3243 0
-34 -3227 3228 0
-3228 3244 0
-35 -3228 3229 0
-3229 3245 0
-36 -3229 3230 0
-3230 3246 0
-37 -3230 3231 0
-3231 3247 0
-38 -3231 3232 0
-3232 3248 0
-39 -3232 3233 0
-3233 3249 0
-40 -3233 3234 0
-3234 3250 0
-41 -3234 3235 0
-3235 3251 0
-42 -3235 3236 0
-3236 3252 0
-43 -3236 0
-28 3237 0
-3237 3253 0
-29 -3237 3238 0
-3238 3254 0
-30 -3238 3239 0
-3239 3255 0
-31 -3239 3240 0
-3240 3256 0
-32 -3240 3241 0
-3241 3257 0
-33 -3241 3242 0
-3242 3258 0
-34 -3242 3243 0
-3243 3259 0
-35 -3243 3244 0
-3244 3260 0
-36 -3244 3245 0
-3245 3261 0
-37 -3245 3246 0
-3246 3262 0
-38 -3246 3247 0
-3247 3263 0
-39 -3247 3248 0
-3248 3264 0
-40 -3248 3249 0
-3249 3265 0
-41 -3249 3250 0
-3250 3266 0
-42 -3250 3251 0
-3251 3267 0
-43 -3251 3252 0
-3252 3268 0
-44 -3252 0
-29 3253 0
-3253 3269 0
-30 -3253 3254 0
-3254 3270 0
-31 -3254 3255 0
-3255 3271 0
-32 -3255 3256 0
-3256 3272 0
-33 -3256 3257 0
-3257 3273 0
-34 -3257 3258 0
-3258 3274 0
-35 -3258 3259 0
-3259 3275 0
-36 -3259 3260 0
-3260 3276 0
-37 -3260 3261 0
-3261 3277 0
-38 -3261 3262 0
-3262 3278 0
-39 -3262 3263 0
-3263 3279 0
-40 -3263 3264 0
-3264 3280 0
-41 -3264 3265 0
-3265 3281 0
-42 -3265 3266 0
-3266 3282 0
-43 -3266 3267 0
-3267 3283 0
-44 -3267 3268 0
-3268 3284 0
-45 -3268 0
-30 3269 0
-3269 3285 0
-31 -3269 3270 0
-3270 3286 0
-32 -3270 3271 0
-3271 3287 0
-33 -3271 3272 0
-3272 3288 0
-34 -3272 3273 0
-3273 3289 0
-35 -3273 3274 0
-3274 3290 0
-36 -3274 3275 0
-3275 3291 0
-37 -3275 3276 0
-3276 3292 0
-38 -3276 3277 0
-3277 3293 0
-39 -3277 3278 0
-3278 3294 0
-40 -3278 3279 0
-3279 3295 0
-41 -3279 3280 0
-3280 3296 0
-42 -3280 3281 0
-3281 3297 0
-43 -3281 3282 0
-3282 3298 0
-44 -3282 3283 0
-3283 3299 0
-45 -3283 3284 0
-3284 3300 0
-46 -3284 0
-31 3285 0
-3285 3301 0
-32 -3285 3286 0
-3286 3302 0
-33 -3286 3287 0
-3287 3303 0
-34 -3287 3288 0
-3288 3304 0
-35 -3288 3289 0
-3289 3305 0
-36 -3289 3290 0
-3290 3306 0
-37 -3290 3291 0
-3291 3307 0
-38 -3291 3292 0
-3292 3308 0
-39 -3292 3293 0
-3293 3309 0
-40 -3293 3294 0
-3294 3310 0
-41 -3294 3295 0
-3295 3311 0
-42 -3295 3296 0
-3296 3312 0
-43 -3296 3297 0
-3297 3313 0
-44 -3297 3298 0
-3298 3314 0
-45 -3298 3299 0
-3299 3315 0
-46 -3299 3300 0
-3300 3316 0
-47 -3300 0
-32 3301 0
-3301 3317 0
-33 -3301 3302 0
-3302 3318 0
-34 -3302 3303 0
-3303 3319 0
-35 -3303 3304 0
-3304 3320 0
-36 -3304 3305 0
-3305 3321 0
-37 -3305 3306 0
-3306 3322 0
-38 -3306 3307 0
-3307 3323 0
-39 -3307 3308 0
-3308 3324 0
-40 -3308 3309 0
-3309 3325 0
-41 -3309 3310 0
-3310 3326 0
-42 -3310 3311 0
-3311 3327 0
-43 -3311 3312 0
-3312 3328 0
-44 -3312 3313 0
-3313 3329 0
-45 -3313 3314 0
-3314 3330 0
-46 -3314 3315 0
-3315 3331 0
-47 -3315 3316 0
-3316 3332 0
-48 -3316 0
-33 3317 0
-3317 3333 0
-34 -3317 3318 0
-3318 3334 0
-35 -3318 3319 0
-3319 3335 0
-36 -3319 3320 0
-3320 3336 0
-37 -3320 3321 0
-3321 3337 0
-38 -3321 3322 0
-3322 3338 0
-39 -3322 3323 0
-3323 3339 0
-40 -3323 3324 0
-3324 3340 0
-41 -3324 3325 0
-3325 3341 0
-42 -3325 3326 0
-3326 3342 0
-43 -3326 3327 0
-3327 3343 0
-44 -3327 3328 0
-3328 3344 0
-45 -3328 3329 0
-3329 3345 0
-46 -3329 3330 0
-3330 3346 0
-47 -3330 3331 0
-3331 3347 0
-48 -3331 3332 0
-3332 3348 0
-49 -3332 0
-34 3333 0
-3333 3349 0
-35 -3333 3334 0
-3334 3350 0
-36 -3334 3335 0
-3335 3351 0
-37 -3335 3336 0
-3336 3352 0
-38 -3336 3337 0
-3337 3353 0
-39 -3337 3338 0
-3338 3354 0
-40 -3338 3339 0
-3339 3355 0
-41 -3339 3340 0
-3340 3356 0
-42 -3340 3341 0
-3341 3357 0
-43 -3341 3342 0
-3342 3358 0
-44 -3342 3343 0
-3343 3359 0
-45 -3343 3344 0
-3344 3360 0
-46 -3344 3345 0
-3345 3361 0
-47 -3345 3346 0
-3346 3362 0
-48 -3346 3347 0
-3347 3363 0
-49 -3347 3348 0
-3348 3364 0
-50 -3348 0
-35 3349 0
-3349 3365 0
-36 -3349 3350 0
-3350 3366 0
-37 -3350 3351 0
-3351 3367 0
-38 -3351 3352 0
-3352 3368 0
-39 -3352 3353 0
-3353 3369 0
-40 -3353 3354 0
-3354 3370 0
-41 -3354 3355 0
-3355 3371 0
-42 -3355 3356 0
-3356 3372 0
-43 -3356 3357 0
-3357 3373 0
-44 -3357 3358 0
-3358 3374 0
-45 -3358 3359 0
-3359 3375 0
-46 -3359 3360 0
-3360 3376 0
-47 -3360 3361 0
-3361 3377 0
-48 -3361 3362 0
-3362 3378 0
-49 -3362 3363 0
-3363 3379 0
-50 -3363 3364 0
-3364 3380 0
-51 -3364 0
-36 3365 0
-3365 3381 0
-37 -3365 3366 0
-3366 3382 0
-38 -3366 3367 0
-3367 3383 0
-39 -3367 3368 0
-3368 3384 0
-40 -3368 3369 0
-3369 3385 0
-41 -3369 3370 0
-3370 3386 0
-42 -3370 3371 0
-3371 3387 0
-43 -3371 3372 0
-3372 3388 0
-44 -3372 3373 0
-3373 3389 0
-45 -3373 3374 0
-3374 3390 0
-46 -3374 3375 0
-3375 3391 0
-47 -3375 3376 0
-3376 3392 0
-48 -3376 3377 0
-3377 3393 0
-49 -3377 3378 0
-3378 3394 0
-50 -3378 3379 0
-3379 3395 0
-51 -3379 3380 0
-3380 3396 0
-52 -3380 0
-37 3381 0
-3381 3397 0
-38 -3381 3382 0
-3382 3398 0
-39 -3382 3383 0
-3383 3399 0
-40 -3383 3384 0
-3384 3400 0
-41 -3384 3385 0
-3385 3401 0
-42 -3385 3386 0
-3386 3402 0
-43 -3386 3387 0
-3387 3403 0
-44 -3387 3388 0
-3388 3404 0
-45 -3388 3389 0
-3389 3405 0
-46 -3389 3390 0
-3390 3406 0
-47 -3390 3391 0
-3391 3407 0
-48 -3391 3392 0
-3392 3408 0
-49 -3392 3393 0
-3393 3409 0
-50 -3393 3394 0
-3394 3410 0
-51 -3394 3395 0
-3395 3411 0
-52 -3395 3396 0
-3396 3412 0
-53 -3396 0
-38 3397 0
-3397 3413 0
-39 -3397 3398 0
-3398 3414 0
-40 -3398 3399 0
-3399 3415 0
-41 -3399 3400 0
-3400 3416 0
-42 -3400 3401 0
-3401 3417 0
-43 -3401 3402 0
-3402 3418 0
-44 -3402 3403 0
-3403 3419 0
-45 -3403 3404 0
-3404 3420 0
-46 -3404 3405 0
-3405 3421 0
-47 -3405 3406 0
-3406 3422 0
-48 -3406 3407 0
-3407 3423 0
-49 -3407 3408 0
-3408 3424 0
-50 -3408 3409 0
-3409 3425 0
-51 -3409 3410 0
-3410 3426 0
-52 -3410 3411 0
-3411 3427 0
-53 -3411 3412 0
-3412 3428 0
-54 -3412 0
-39 3413 0
-3413 3429 0
-40 -3413 3414 0
-3414 3430 0
-41 -3414 3415 0
-3415 3431 0
-42 -3415 3416 0
-3416 3432 0
-43 -3416 3417 0
-3417 3433 0
-44 -3417 3418 0
-3418 3434 0
-45 -3418 3419 0
-3419 3435 0
-46 -3419 3420 0
-3420 3436 0
-47 -3420 3421 0
-3421 3437 0
-48 -3421 3422 0
-3422 3438 0
-49 -3422 3423 0
-3423 3439 0
-50 -3423 3424 0
-3424 3440 0
-51 -3424 3425 0
-3425 3441 0
-52 -3425 3426 0
-3426 3442 0
-53 -3426 3427 0
-3427 3443 0
-54 -3427 3428 0
-3428 3444 0
-55 -3428 0
-40 3429 0
-3429 3445 0
-41 -3429 3430 0
-3430 3446 0
-42 -3430 3431 0
-3431 3447 0
-43 -3431 3432 0
-3432 3448 0
-44 -3432 3433 0
-3433 3449 0
-45 -3433 3434 0
-3434 3450 0
-46 -3434 3435 0
-3435 3451 0
-47 -3435 3436 0
-3436 3452 0
-48 -3436 3437 0
-3437 3453 0
-49 -3437 3438 0
-3438 3454 0
-50 -3438 3439 0
-3439 3455 0
-51 -3439 3440 0
-3440 3456 0
-52 -3440 3441 0
-3441 3457 0
-53 -3441 3442 0
-3442 3458 0
-54 -3442 3443 0
-3443 3459 0
-55 -3443 3444 0
-3444 3460 0
-56 -3444 0
-41 3445 0
-3445 3461 0
-42 -3445 3446 0
-3446 3462 0
-43 -3446 3447 0
-3447 3463 0
-44 -3447 3448 0
-3448 3464 0
-45 -3448 3449 0
-3449 3465 0
-46 -3449 3450 0
-3450 3466 0
-47 -3450 3451 0
-3451 3467 0
-48 -3451 3452 0
-3452 3468 0
-49 -3452 3453 0
-3453 3469 0
-50 -3453 3454 0
-3454 3470 0
-51 -3454 3455 0
-3455 3471 0
-52 -3455 3456 0
-3456 3472 0
-53 -3456 3457 0
-3457 3473 0
-54 -3457 3458 0
-3458 3474 0
-55 -3458 3459 0
-3459 3475 0
-56 -3459 3460 0
-3460 3476 0
-57 -3460 0
-42 3461 0
-3461 3477 0
-43 -3461 3462 0
-3462 3478 0
-44 -3462 3463 0
-3463 3479 0
-45 -3463 3464 0
-3464 3480 0
-46 -3464 3465 0
-3465 3481 0
-47 -3465 3466 0
-3466 3482 0
-48 -3466 3467 0
-3467 3483 0
-49 -3467 3468 0
-3468 3484 0
-50 -3468 3469 0
-3469 3485 0
-51 -3469 3470 0
-3470 3486 0
-52 -3470 3471 0
-3471 3487 0
-53 -3471 3472 0
-3472 3488 0
-54 -3472 3473 0
-3473 3489 0
-55 -3473 3474 0
-3474 3490 0
-56 -3474 3475 0
-3475 3491 0
-57 -3475 3476 0
-3476 3492 0
-58 -3476 0
-43 3477 0
-3477 3493 0
-44 -3477 3478 0
-3478 3494 0
-45 -3478 3479 0
-3479 3495 0
-46 -3479 3480 0
-3480 3496 0
-47 -3480 3481 0
-3481 3497 0
-48 -3481 3482 0
-3482 3498 0
-49 -3482 3483 0
-3483 3499 0
-50 -3483 3484 0
-3484 3500 0
-51 -3484 3485 0
-3485 3501 0
-52 -3485 3486 0
-3486 3502 0
-53 -3486 3487 0
-3487 3503 0
-54 -3487 3488 0
-3488 3504 0
-55 -3488 3489 0
-3489 3505 0
-56 -3489 3490 0
-3490 3506 0
-57 -3490 3491 0
-3491 3507 0
-58 -3491 3492 0
-3492 3508 0
-59 -3492 0
-44 3493 0
-3493 3509 0
-45 -3493 3494 0
-3494 3510 0
-46 -3494 3495 0
-3495 3511 0
-47 -3495 3496 0
-3496 3512 0
-48 -3496 3497 0
-3497 3513 0
-49 -3497 3498 0
-3498 3514 0
-50 -3498 3499 0
-3499 3515 0
-51 -3499 3500 0
-3500 3516 0
-52 -3500 3501 0
-3501 3517 0
-53 -3501 3502 0
-3502 3518 0
-54 -3502 3503 0
-3503 3519 0
-55 -3503 3504 0
-3504 3520 0
-56 -3504 3505 0
-3505 3521 0
-57 -3505 3506 0
-3506 3522 0
-58 -3506 3507 0
-3507 3523 0
-59 -3507 3508 0
-3508 3524 0
-60 -3508 0
-45 3509 0
-3509 3525 0
-46 -3509 3510 0
-3510 3526 0
-47 -3510 3511 0
-3511 3527 0
-48 -3511 3512 0
-3512 3528 0
-49 -3512 3513 0
-3513 3529 0
-50 -3513 3514 0
-3514 3530 0
-51 -3514 3515 0
-3515 3531 0
-52 -3515 3516 0
-3516 3532 0
-53 -3516 3517 0
-3517 3533 0
-54 -3517 3518 0
-3518 3534 0
-55 -3518 3519 0
-3519 3535 0
-56 -3519 3520 0
-3520 3536 0
-57 -3520 3521 0
-3521 3537 0
-58 -3521 3522 0
-3522 3538 0
-59 -3522 3523 0
-3523 3539 0
-60 -3523 3524 0
-3524 3540 0
-61 -3524 0
-46 3525 0
-3525 3541 0
-47 -3525 3526 0
-3526 3542 0
-48 -3526 3527 0
-3527 3543 0
-49 -3527 3528 0
-3528 3544 0
-50 -3528 3529 0
-3529 3545 0
-51 -3529 3530 0
-3530 3546 0
-52 -3530 3531 0
-3531 3547 0
-53 -3531 3532 0
-3532 3548 0
-54 -3532 3533 0
-3533 3549 0
-55 -3533 3534 0
-3534 3550 0
-56 -3534 3535 0
-3535 3551 0
-57 -3535 3536 0
-3536 3552 0
-58 -3536 3537 0
-3537 3553 0
-59 -3537 3538 0
-3538 3554 0
-60 -3538 3539 0
-3539 3555 0
-61 -3539 3540 0
-3540 3556 0
-62 -3540 0
-47 3541 0
-3541 3557 0
-48 -3541 3542 0
-3542 3558 0
-49 -3542 3543 0
-3543 3559 0
-50 -3543 3544 0
-3544 3560 0
-51 -3544 3545 0
-3545 3561 0
-52 -3545 3546 0
-3546 3562 0
-53 -3546 3547 0
-3547 3563 0
-54 -3547 3548 0
-3548 3564 0
-55 -3548 3549 0
-3549 3565 0
-56 -3549 3550 0
-3550 3566 0
-57 -3550 3551 0
-3551 3567 0
-58 -3551 3552 0
-3552 3568 0
-59 -3552 3553 0
-3553 3569 0
-60 -3553 3554 0
-3554 3570 0
-61 -3554 3555 0
-3555 3571 0
-62 -3555 3556 0
-3556 3572 0
-63 -3556 0
-48 3557 0
-3557 3573 0
-49 -3557 3558 0
-3558 3574 0
-50 -3558 3559 0
-3559 3575 0
-51 -3559 3560 0
-3560 3576 0
-52 -3560 3561 0
-3561 3577 0
-53 -3561 3562 0
-3562 3578 0
-54 -3562 3563 0
-3563 3579 0
-55 -3563 3564 0
-3564 3580 0
-56 -3564 3565 0
-3565 3581 0
-57 -3565 3566 0
-3566 3582 0
-58 -3566 3567 0
-3567 3583 0
-59 -3567 3568 0
-3568 3584 0
-60 -3568 3569 0
-3569 3585 0
-61 -3569 3570 0
-3570 3586 0
-62 -3570 3571 0
-3571 3587 0
-63 -3571 3572 0
-3572 3588 0
-64 -3572 0
-49 3573 0
-3573 3589 0
-50 -3573 3574 0
-3574 3590 0
-51 -3574 3575 0
-3575 3591 0
-52 -3575 3576 0
-3576 3592 0
-53 -3576 3577 0
-3577 3593 0
-54 -3577 3578 0
-3578 3594 0
-55 -3578 3579 0
-3579 3595 0
-56 -3579 3580 0
-3580 3596 0
-57 -3580 3581 0
-3581 3597 0
-58 -3581 3582 0
-3582 3598 0
-59 -3582 3583 0
-3583 3599 0
-60 -3583 3584 0
-3584 3600 0
-61 -3584 3585 0
-3585 3601 0
-62 -3585 3586 0
-3586 3602 0
-63 -3586 3587 0
-3587 3603 0
-64 -3587 3588 0
-3588 3604 0
-65 -3588 0
-50 3589 0
-3589 3605 0
-51 -3589 3590 0
-3590 3606 0
-52 -3590 3591 0
-3591 3607 0
-53 -3591 3592 0
-3592 3608 0
-54 -3592 3593 0
-3593 3609 0
-55 -3593 3594 0
-3594 3610 0
-56 -3594 3595 0
-3595 3611 0
-57 -3595 3596 0
-3596 3612 0
-58 -3596 3597 0
-3597 3613 0
-59 -3597 3598 0
-3598 3614 0
-60 -3598 3599 0
-3599 3615 0
-61 -3599 3600 0
-3600 3616 0
-62 -3600 3601 0
-3601 3617 0
-63 -3601 3602 0
-3602 3618 0
-64 -3602 3603 0
-3603 3619 0
-65 -3603 3604 0
-3604 3620 0
-66 -3604 0
-51 3605 0
-3605 3621 0
-52 -3605 3606 0
-3606 3622 0
-53 -3606 3607 0
-3607 3623 0
-54 -3607 3608 0
-3608 3624 0
-55 -3608 3609 0
-3609 3625 0
-56 -3609 3610 0
-3610 3626 0
-57 -3610 3611 0
-3611 3627 0
-58 -3611 3612 0
-3612 3628 0
-59 -3612 3613 0
-3613 3629 0
-60 -3613 3614 0
-3614 3630 0
-61 -3614 3615 0
-3615 3631 0
-62 -3615 3616 0
-3616 3632 0
-63 -3616 3617 0
-3617 3633 0
-64 -3617 3618 0
-3618 3634 0
-65 -3618 3619 0
-3619 3635 0
-66 -3619 3620 0
-3620 3636 0
-67 -3620 0
-52 3621 0
-3621 3637 0
-53 -3621 3622 0
-3622 3638 0
-54 -3622 3623 0
-3623 3639 0
-55 -3623 3624 0
-3624 3640 0
-56 -3624 3625 0
-3625 3641 0
-57 -3625 3626 0
-3626 3642 0
-58 -3626 3627 0
-3627 3643 0
-59 -3627 3628 0
-3628 3644 0
-60 -3628 3629 0
-3629 3645 0
-61 -3629 3630 0
-3630 3646 0
-62 -3630 3631 0
-3631 3647 0
-63 -3631 3632 0
-3632 3648 0
-64 -3632 3633 0
-3633 3649 0
-65 -3633 3634 0
-3634 3650 0
-66 -3634 3635 0
-3635 3651 0
-67 -3635 3636 0
-3636 3652 0
-68 -3636 0
-53 3637 0
-3637 3653 0
-54 -3637 3638 0
-3638 3654 0
-55 -3638 3639 0
-3639 3655 0
-56 -3639 3640 0
-3640 3656 0
-57 -3640 3641 0
-3641 3657 0
-58 -3641 3642 0
-3642 3658 0
-59 -3642 3643 0
-3643 3659 0
-60 -3643 3644 0
-3644 3660 0
-61 -3644 3645 0
-3645 3661 0
-62 -3645 3646 0
-3646 3662 0
-63 -3646 3647 0
-3647 3663 0
-64 -3647 3648 0
-3648 3664 0
-65 -3648 3649 0
-3649 3665 0
-66 -3649 3650 0
-3650 3666 0
-67 -3650 3651 0
-3651 3667 0
-68 -3651 3652 0
-3652 3668 0
-69 -3652 0
-54 3653 0
-3653 3669 0
-55 -3653 3654 0
-3654 3670 0
-56 -3654 3655 0
-3655 3671 0
-57 -3655 3656 0
-3656 3672 0
-58 -3656 3657 0
-3657 3673 0
-59 -3657 3658 0
-3658 3674 0
-60 -3658 3659 0
-3659 3675 0
-61 -3659 3660 0
-3660 3676 0
-62 -3660 3661 0
-3661 3677 0
-63 -3661 3662 0
-3662 3678 0
-64 -3662 3663 0
-3663 3679 0
-65 -3663 3664 0
-3664 3680 0
-66 -3664 3665 0
-3665 3681 0
-67 -3665 3666 0
-3666 3682 0
-68 -3666 3667 0
-3667 3683 0
-69 -3667 3668 0
-3668 3684 0
-70 -3668 0
-55 3669 0
-3669 3685 0
-56 -3669 3670 0
-3670 3686 0
-57 -3670 3671 0
-3671 3687 0
-58 -3671 3672 0
-3672 3688 0
-59 -3672 3673 0
-3673 3689 0
-60 -3673 3674 0
-3674 3690 0
-61 -3674 3675 0
-3675 3691 0
-62 -3675 3676 0
-3676 3692 0
-63 -3676 3677 0
-3677 3693 0
-64 -3677 3678 0
-3678 3694 0
-65 -3678 3679 0
-3679 3695 0
-66 -3679 3680 0
-3680 3696 0
-67 -3680 3681 0
-3681 3697 0
-68 -3681 3682 0
-3682 3698 0
-69 -3682 3683 0
-3683 3699 0
-70 -3683 3684 0
-3684 3700 0
-71 -3684 0
-56 3685 0
-3685 3701 0
-57 -3685 3686 0
-3686 3702 0
-58 -3686 3687 0
-3687 3703 0
-59 -3687 3688 0
-3688 3704 0
-60 -3688 3689 0
-3689 3705 0
-61 -3689 3690 0
-3690 3706 0
-62 -3690 3691 0
-3691 3707 0
-63 -3691 3692 0
-3692 3708 0
-64 -3692 3693 0
-3693 3709 0
-65 -3693 3694 0
-3694 3710 0
-66 -3694 3695 0
-3695 3711 0
-67 -3695 3696 0
-3696 3712 0
-68 -3696 3697 0
-3697 3713 0
-69 -3697 3698 0
-3698 3714 0
-70 -3698 3699 0
-3699 3715 0
-71 -3699 3700 0
-3700 3716 0
-72 -3700 0
-57 3701 0
-3701 3717 0
-58 -3701 3702 0
-3702 3718 0
-59 -3702 3703 0
-3703 3719 0
-60 -3703 3704 0
-3704 3720 0
-61 -3704 3705 0
-3705 3721 0
-62 -3705 3706 0
-3706 3722 0
-63 -3706 3707 0
-3707 3723 0
-64 -3707 3708 0
-3708 3724 0
-65 -3708 3709 0
-3709 3725 0
-66 -3709 3710 0
-3710 3726 0
-67 -3710 3711 0
-3711 3727 0
-68 -3711 3712 0
-3712 3728 0
-69 -3712 3713 0
-3713 3729 0
-70 -3713 3714 0
-3714 3730 0
-71 -3714 3715 0
-3715 3731 0
-72 -3715 3716 0
-3716 3732 0
-73 -3716 0
-58 3717 0
-3717 3733 0
-59 -3717 3718 0
-3718 3734 0
-60 -3718 3719 0
-3719 3735 0
-61 -3719 3720 0
-3720 3736 0
-62 -3720 3721 0
-3721 3737 0
-63 -3721 3722 0
-3722 3738 0
-64 -3722 3723 0
-3723 3739 0
-65 -3723 3724 0
-3724 3740 0
-66 -3724 3725 0
-3725 3741 0
-67 -3725 3726 0
-3726 3742 0
-68 -3726 3727 0
-3727 3743 0
-69 -3727 3728 0
-3728 3744 0
-70 -3728 3729 0
-3729 3745 0
-71 -3729 3730 0
-3730 3746 0
-72 -3730 3731 0
-3731 3747 0
-73 -3731 3732 0
-3732 3748 0
-74 -3732 0
-59 3733 0
-3733 3749 0
-60 -3733 3734 0
-3734 3750 0
-61 -3734 3735 0
-3735 3751 0
-62 -3735 3736 0
-3736 3752 0
-63 -3736 3737 0
-3737 3753 0
-64 -3737 3738 0
-3738 3754 0
-65 -3738 3739 0
-3739 3755 0
-66 -3739 3740 0
-3740 3756 0
-67 -3740 3741 0
-3741 3757 0
-68 -3741 3742 0
-3742 3758 0
-69 -3742 3743 0
-3743 3759 0
-70 -3743 3744 0
-3744 3760 0
-71 -3744 3745 0
-3745 3761 0
-72 -3745 3746 0
-3746 3762 0
-73 -3746 3747 0
-3747 3763 0
-74 -3747 3748 0
-3748 3764 0
-75 -3748 0
-60 3749 0
-3749 3765 0
-61 -3749 3750 0
-3750 3766 0
-62 -3750 3751 0
-3751 3767 0
-63 -3751 3752 0
-3752 3768 0
-64 -3752 3753 0
-3753 3769 0
-65 -3753 3754 0
-3754 3770 0
-66 -3754 3755 0
-3755 3771 0
-67 -3755 3756 0
-3756 3772 0
-68 -3756 3757 0
-3757 3773 0
-69 -3757 3758 0
-3758 3774 0
-70 -3758 3759 0
-3759 3775 0
-71 -3759 3760 0
-3760 3776 0
-72 -3760 3761 0
-3761 3777 0
-73 -3761 3762 0
-3762 3778 0
-74 -3762 3763 0
-3763 3779 0
-75 -3763 3764 0
-3764 3780 0
-76 -3764 0
-61 3765 0
-3765 3781 0
-62 -3765 3766 0
-3766 3782 0
-63 -3766 3767 0
-3767 3783 0
-64 -3767 3768 0
-3768 3784 0
-65 -3768 3769 0
-3769 3785 0
-66 -3769 3770 0
-3770 3786 0
-67 -3770 3771 0
-3771 3787 0
-68 -3771 3772 0
-3772 3788 0
-69 -3772 3773 0
-3773 3789 0
-70 -3773 3774 0
-3774 3790 0
-71 -3774 3775 0
-3775 3791 0
-72 -3775 3776 0
-3776 3792 0
-73 -3776 3777 0
-3777 3793 0
-74 -3777 3778 0
-3778 3794 0
-75 -3778 3779 0
-3779 3795 0
-76 -3779 3780 0
-3780 3796 0
-77 -3780 0
-62 3781 0
-3781 3797 0
-63 -3781 3782 0
-3782 3798 0
-64 -3782 3783 0
-3783 3799 0
-65 -3783 3784 0
-3784 3800 0
-66 -3784 3785 0
-3785 3801 0
-67 -3785 3786 0
-3786 3802 0
-68 -3786 3787 0
-3787 3803 0
-69 -3787 3788 0
-3788 3804 0
-70 -3788 3789 0
-3789 3805 0
-71 -3789 3790 0
-3790 3806 0
-72 -3790 3791 0
-3791 3807 0
-73 -3791 3792 0
-3792 3808 0
-74 -3792 3793 0
-3793 3809 0
-75 -3793 3794 0
-3794 3810 0
-76 -3794 3795 0
-3795 3811 0
-77 -3795 3796 0
-3796 3812 0
-78 -3796 0
-63 3797 0
-3797 3813 0
-64 -3797 3798 0
-3798 3814 0
-65 -3798 3799 0
-3799 3815 0
-66 -3799 3800 0
-3800 3816 0
-67 -3800 3801 0
-3801 3817 0
-68 -3801 3802 0
-3802 3818 0
-69 -3802 3803 0
-3803 3819 0
-70 -3803 3804 0
-3804 3820 0
-71 -3804 3805 0
-3805 3821 0
-72 -3805 3806 0
-3806 3822 0
-73 -3806 3807 0
-3807 3823 0
-74 -3807 3808 0
-3808 3824 0
-75 -3808 3809 0
-3809 3825 0
-76 -3809 3810 0
-3810 3826 0
-77 -3810 3811 0
-3811 3827 0
-78 -3811 3812 0
-3812 3828 0
-79 -3812 0
-64 3813 0
-3813 3829 0
-65 -3813 3814 0
-3814 3830 0
-66 -3814 3815 0
-3815 3831 0
-67 -3815 3816 0
-3816 3832 0
-68 -3816 3817 0
-3817 3833 0
-69 -3817 3818 0
-3818 3834 0
-70 -3818 3819 0
-3819 3835 0
-71 -3819 3820 0
-3820 3836 0
-72 -3820 3821 0
-3821 3837 0
-73 -3821 3822 0
-3822 3838 0
-74 -3822 3823 0
-3823 3839 0
-75 -3823 3824 0
-3824 3840 0
-76 -3824 3825 0
-3825 3841 0
-77 -3825 3826 0
-3826 3842 0
-78 -3826 3827 0
-3827 3843 0
-79 -3827 3828 0
-3828 3844 0
-80 -3828 0
-65 3829 0
-3829 3845 0
-66 -3829 3830 0
-3830 3846 0
-67 -3830 3831 0
-3831 3847 0
-68 -3831 3832 0
-3832 3848 0
-69 -3832 3833 0
-3833 3849 0
-70 -3833 3834 0
-3834 3850 0
-71 -3834 3835 0
-3835 3851 0
-72 -3835 3836 0
-3836 3852 0
-73 -3836 3837 0
-3837 3853 0
-74 -3837 3838 0
-3838 3854 0
-75 -3838 3839 0
-3839 3855 0
-76 -3839 3840 0
-3840 3856 0
-77 -3840 3841 0
-3841 3857 0
-78 -3841 3842 0
-3842 3858 0
-79 -3842 3843 0
-3843 3859 0
-80 -3843 3844 0
-3844 3860 0
-81 -3844 0
-66 3845 0
-3845 3861 0
-67 -3845 3846 0
-3846 3862 0
-68 -3846 3847 0
-3847 3863 0
-69 -3847 3848 0
-3848 3864 0
-70 -3848 3849 0
-3849 3865 0
-71 -3849 3850 0
-3850 3866 0
-72 -3850 3851 0
-3851 3867 0
-73 -3851 3852 0
-3852 3868 0
-74 -3852 3853 0
-3853 3869 0
-75 -3853 3854 0
-3854 3870 0
-76 -3854 3855 0
-3855 3871 0
-77 -3855 3856 0
-3856 3872 0
-78 -3856 3857 0
-3857 3873 0
-79 -3857 3858 0
-3858 3874 0
-80 -3858 3859 0
-3859 3875 0
-81 -3859 3860 0
-3860 3876 0
-82 -3860 0
-67 3861 0
-3861 3877 0
-68 -3861 3862 0
-3862 3878 0
-69 -3862 3863 0
-3863 3879 0
-70 -3863 3864 0
-3864 3880 0
-71 -3864 3865 0
-3865 3881 0
-72 -3865 3866 0
-3866 3882 0
-73 -3866 3867 0
-3867 3883 0
-74 -3867 3868 0
-3868 3884 0
-75 -3868 3869 0
-3869 3885 0
-76 -3869 3870 0
-3870 3886 0
-77 -3870 3871 0
-3871 3887 0
-78 -3871 3872 0
-3872 3888 0
-79 -3872 3873 0
-3873 3889 0
-80 -3873 3874 0
-3874 3890 0
-81 -3874 3875 0
-3875 3891 0
-82 -3875 3876 0
-3876 3892 0
-83 -3876 0
-68 3877 0
-3877 3893 0
-69 -3877 3878 0
-3878 3894 0
-70 -3878 3879 0
-3879 3895 0
-71 -3879 3880 0
-3880 3896 0
-72 -3880 3881 0
-3881 3897 0
-73 -3881 3882 0
-3882 3898 0
-74 -3882 3883 0
-3883 3899 0
-75 -3883 3884 0
-3884 3900 0
-76 -3884 3885 0
-3885 3901 0
-77 -3885 3886 0
-3886 3902 0
-78 -3886 3887 0
-3887 3903 0
-79 -3887 3888 0
-3888 3904 0
-80 -3888 3889 0
-3889 3905 0
-81 -3889 3890 0
-3890 3906 0
-82 -3890 3891 0
-3891 3907 0
-83 -3891 3892 0
-3892 3908 0
-84 -3892 0
-69 3893 0
-3893 3909 0
-70 -3893 3894 0
-3894 3910 0
-71 -3894 3895 0
-3895 3911 0
-72 -3895 3896 0
-3896 3912 0
-73 -3896 3897 0
-3897 3913 0
-74 -3897 3898 0
-3898 3914 0
-75 -3898 3899 0
-3899 3915 0
-76 -3899 3900 0
-3900 3916 0
-77 -3900 3901 0
-3901 3917 0
-78 -3901 3902 0
-3902 3918 0
-79 -3902 3903 0
-3903 3919 0
-80 -3903 3904 0
-3904 3920 0
-81 -3904 3905 0
-3905 3921 0
-82 -3905 3906 0
-3906 3922 0
-83 -3906 3907 0
-3907 3923 0
-84 -3907 3908 0
-3908 3924 0
-85 -3908 0
-70 3909 0
-3909 3925 0
-71 -3909 3910 0
-3910 3926 0
-72 -3910 3911 0
-3911 3927 0
-73 -3911 3912 0
-3912 3928 0
-74 -3912 3913 0
-3913 3929 0
-75 -3913 3914 0
-3914 3930 0
-76 -3914 3915 0
-3915 3931 0
-77 -3915 3916 0
-3916 3932 0
-78 -3916 3917 0
-3917 3933 0
-79 -3917 3918 0
-3918 3934 0
-80 -3918 3919 0
-3919 3935 0
-81 -3919 3920 0
-3920 3936 0
-82 -3920 3921 0
-3921 3937 0
-83 -3921 3922 0
-3922 3938 0
-84 -3922 3923 0
-3923 3939 0
-85 -3923 3924 0
-3924 3940 0
-86 -3924 0
-71 3925 0
-3925 3941 0
-72 -3925 3926 0
-3926 3942 0
-73 -3926 3927 0
-3927 3943 0
-74 -3927 3928 0
-3928 3944 0
-75 -3928 3929 0
-3929 3945 0
-76 -3929 3930 0
-3930 3946 0
-77 -3930 3931 0
-3931 3947 0
-78 -3931 3932 0
-3932 3948 0
-79 -3932 3933 0
-3933 3949 0
-80 -3933 3934 0
-3934 3950 0
-81 -3934 3935 0
-3935 3951 0
-82 -3935 3936 0
-3936 3952 0
-83 -3936 3937 0
-3937 3953 0
-84 -3937 3938 0
-3938 3954 0
-85 -3938 3939 0
-3939 3955 0
-86 -3939 3940 0
-3940 3956 0
-87 -3940 0
-72 3941 0
-3941 3957 0
-73 -3941 3942 0
-3942 3958 0
-74 -3942 3943 0
-3943 3959 0
-75 -3943 3944 0
-3944 3960 0
-76 -3944 3945 0
-3945 3961 0
-77 -3945 3946 0
-3946 3962 0
-78 -3946 3947 0
-3947 3963 0
-79 -3947 3948 0
-3948 3964 0
-80 -3948 3949 0
-3949 3965 0
-81 -3949 3950 0
-3950 3966 0
-82 -3950 3951 0
-3951 3967 0
-83 -3951 3952 0
-3952 3968 0
-84 -3952 3953 0
-3953 3969 0
-85 -3953 3954 0
-3954 3970 0
-86 -3954 3955 0
-3955 3971 0
-87 -3955 3956 0
-3956 3972 0
-88 -3956 0
-73 3957 0
-3957 3973 0
-74 -3957 3958 0
-3958 3974 0
-75 -3958 3959 0
-3959 3975 0
-76 -3959 3960 0
-3960 3976 0
-77 -3960 3961 0
-3961 3977 0
-78 -3961 3962 0
-3962 3978 0
-79 -3962 3963 0
-3963 3979 0
-80 -3963 3964 0
-3964 3980 0
-81 -3964 3965 0
-3965 3981 0
-82 -3965 3966 0
-3966 3982 0
-83 -3966 3967 0
-3967 3983 0
-84 -3967 3968 0
-3968 3984 0
-85 -3968 3969 0
-3969 3985 0
-86 -3969 3970 0
-3970 3986 0
-87 -3970 3971 0
-3971 3987 0
-88 -3971 3972 0
-3972 3988 0
-89 -3972 0
-74 3973 0
-3973 3989 0
-75 -3973 3974 0
-3974 3990 0
-76 -3974 3975 0
-3975 3991 0
-77 -3975 3976 0
-3976 3992 0
-78 -3976 3977 0
-3977 3993 0
-79 -3977 3978 0
-3978 3994 0
-80 -3978 3979 0
-3979 3995 0
-81 -3979 3980 0
-3980 3996 0
-82 -3980 3981 0
-3981 3997 0
-83 -3981 3982 0
-3982 3998 0
-84 -3982 3983 0
-3983 3999 0
-85 -3983 3984 0
-3984 4000 0
-86 -3984 3985 0
-3985 4001 0
-87 -3985 3986 0
-3986 4002 0
-88 -3986 3987 0
-3987 4003 0
-89 -3987 3988 0
-3988 4004 0
-90 -3988 0
-75 3989 0
-3989 4005 0
-76 -3989 3990 0
-3990 4006 0
-77 -3990 3991 0
-3991 4007 0
-78 -3991 3992 0
-3992 4008 0
-79 -3992 3993 0
-3993 4009 0
-80 -3993 3994 0
-3994 4010 0
-81 -3994 3995 0
-3995 4011 0
-82 -3995 3996 0
-3996 4012 0
-83 -3996 3997 0
-3997 4013 0
-84 -3997 3998 0
-3998 4014 0
-85 -3998 3999 0
-3999 4015 0
-86 -3999 4000 0
-4000 4016 0
-87 -4000 4001 0
-4001 4017 0
-88 -4001 4002 0
-4002 4018 0
-89 -4002 4003 0
-4003 4019 0
-90 -4003 4004 0
-4004 4020 0
-91 -4004 0
-76 4005 0
-4005 4021 0
-77 -4005 4006 0
-4006 4022 0
-78 -4006 4007 0
-4007 4023 0
-79 -4007 4008 0
-4008 4024 0
-80 -4008 4009 0
-4009 4025 0
-81 -4009 4010 0
-4010 4026 0
-82 -4010 4011 0
-4011 4027 0
-83 -4011 4012 0
-4012 4028 0
-84 -4012 4013 0
-4013 4029 0
-85 -4013 4014 0
-4014 4030 0
-86 -4014 4015 0
-4015 4031 0
-87 -4015 4016 0
-4016 4032 0
-88 -4016 4017 0
-4017 4033 0
-89 -4017 4018 0
-4018 4034 0
-90 -4018 4019 0
-4019 4035 0
-91 -4019 4020 0
-4020 4036 0
-92 -4020 0
-77 4021 0
-4021 4037 0
-78 -4021 4022 0
-4022 4038 0
-79 -4022 4023 0
-4023 4039 0
-80 -4023 4024 0
-4024 4040 0
-81 -4024 4025 0
-4025 4041 0
-82 -4025 4026 0
-4026 4042 0
-83 -4026 4027 0
-4027 4043 0
-84 -4027 4028 0
-4028 4044 0
-85 -4028 4029 0
-4029 4045 0
-86 -4029 4030 0
-4030 4046 0
-87 -4030 4031 0
-4031 4047 0
-88 -4031 4032 0
-4032 4048 0
-89 -4032 4033 0
-4033 4049 0
-90 -4033 4034 0
-4034 4050 0
-91 -4034 4035 0
-4035 4051 0
-92 -4035 4036 0
-4036 4052 0
-93 -4036 0
-78 4037 0
-4037 4053 0
-79 -4037 4038 0
-4038 4054 0
-80 -4038 4039 0
-4039 4055 0
-81 -4039 4040 0
-4040 4056 0
-82 -4040 4041 0
-4041 4057 0
-83 -4041 4042 0
-4042 4058 0
-84 -4042 4043 0
-4043 4059 0
-85 -4043 4044 0
-4044 4060 0
-86 -4044 4045 0
-4045 4061 0
-87 -4045 4046 0
-4046 4062 0
-88 -4046 4047 0
-4047 4063 0
-89 -4047 4048 0
-4048 4064 0
-90 -4048 4049 0
-4049 4065 0
-91 -4049 4050 0
-4050 4066 0
-92 -4050 4051 0
-4051 4067 0
-93 -4051 4052 0
-4052 4068 0
-94 -4052 0
-79 4053 0
-4053 4069 0
-80 -4053 4054 0
-4054 4070 0
-81 -4054 4055 0
-4055 4071 0
-82 -4055 4056 0
-4056 4072 0
-83 -4056 4057 0
-4057 4073 0
-84 -4057 4058 0
-4058 4074 0
-85 -4058 4059 0
-4059 4075 0
-86 -4059 4060 0
-4060 4076 0
-87 -4060 4061 0
-4061 4077 0
-88 -4061 4062 0
-4062 4078 0
-89 -4062 4063 0
-4063 4079 0
-90 -4063 4064 0
-4064 4080 0
-91 -4064 4065 0
-4065 4081 0
-92 -4065 4066 0
-4066 4082 0
-93 -4066 4067 0
-4067 4083 0
-94 -4067 4068 0
-4068 4084 0
-95 -4068 0
-80 4069 0
-4069 4085 0
-81 -4069 4070 0
-4070 4086 0
-82 -4070 4071 0
-4071 4087 0
-83 -4071 4072 0
-4072 4088 0
-84 -4072 4073 0
-4073 4089 0
-85 -4073 4074 0
-4074 4090 0
-86 -4074 4075 0
-4075 4091 0
-87 -4075 4076 0
-4076 4092 0
-88 -4076 4077 0
-4077 4093 0
-89 -4077 4078 0
-4078 4094 0
-90 -4078 4079 0
-4079 4095 0
-91 -4079 4080 0
-4080 4096 0
-92 -4080 4081 0
-4081 4097 0
-93 -4081 4082 0
-4082 4098 0
-94 -4082 4083 0
-4083 4099 0
-95 -4083 4084 0
-4084 4100 0
-96 -4084 0
-81 4085 0
-4085 4101 0
-82 -4085 4086 0
-4086 4102 0
-83 -4086 4087 0
-4087 4103 0
-84 -4087 4088 0
-4088 4104 0
-85 -4088 4089 0
-4089 4105 0
-86 -4089 4090 0
-4090 4106 0
-87 -4090 4091 0
-4091 4107 0
-88 -4091 4092 0
-4092 4108 0
-89 -4092 4093 0
-4093 4109 0
-90 -4093 4094 0
-4094 4110 0
-91 -4094 4095 0
-4095 4111 0
-92 -4095 4096 0
-4096 4112 0
-93 -4096 4097 0
-4097 4113 0
-94 -4097 4098 0
-4098 4114 0
-95 -4098 4099 0
-4099 4115 0
-96 -4099 4100 0
-4100 4116 0
-97 -4100 0
-82 4101 0
-4101 4117 0
-83 -4101 4102 0
-4102 4118 0
-84 -4102 4103 0
-4103 4119 0
-85 -4103 4104 0
-4104 4120 0
-86 -4104 4105 0
-4105 4121 0
-87 -4105 4106 0
-4106 4122 0
-88 -4106 4107 0
-4107 4123 0
-89 -4107 4108 0
-4108 4124 0
-90 -4108 4109 0
-4109 4125 0
-91 -4109 4110 0
-4110 4126 0
-92 -4110 4111 0
-4111 4127 0
-93 -4111 4112 0
-4112 4128 0
-94 -4112 4113 0
-4113 4129 0
-95 -4113 4114 0
-4114 4130 0
-96 -4114 4115 0
-4115 4131 0
-97 -4115 4116 0
-4116 4132 0
-98 -4116 0
-83 4117 0
-4117 4133 0
-84 -4117 4118 0
-4118 4134 0
-85 -4118 4119 0
-4119 4135 0
-86 -4119 4120 0
-4120 4136 0
-87 -4120 4121 0
-4121 4137 0
-88 -4121 4122 0
-4122 4138 0
-89 -4122 4123 0
-4123 4139 0
-90 -4123 4124 0
-4124 4140 0
-91 -4124 4125 0
-4125 4141 0
-92 -4125 4126 0
-4126 4142 0
-93 -4126 4127 0
-4127 4143 0
-94 -4127 4128 0
-4128 4144 0
-95 -4128 4129 0
-4129 4145 0
-96 -4129 4130 0
-4130 4146 0
-97 -4130 4131 0
-4131 4147 0
-98 -4131 4132 0
-4132 4148 0
-99 -4132 0
-84 4133 0
-4133 4149 0
-85 -4133 4134 0
-4134 4150 0
-86 -4134 4135 0
-4135 4151 0
-87 -4135 4136 0
-4136 4152 0
-88 -4136 4137 0
-4137 4153 0
-89 -4137 4138 0
-4138 4154 0
-90 -4138 4139 0
-4139 4155 0
-91 -4139 4140 0
-4140 4156 0
-92 -4140 4141 0
-4141 4157 0
-93 -4141 4142 0
-4142 4158 0
-94 -4142 4143 0
-4143 4159 0
-95 -4143 4144 0
-4144 4160 0
-96 -4144 4145 0
-4145 4161 0
-97 -4145 4146 0
-4146 4162 0
-98 -4146 4147 0
-4147 4163 0
-99 -4147 4148 0
-4148 4164 0
-100 -4148 0
-85 4149 0
-4149 4165 0
-86 -4149 4150 0
-4150 4166 0
-87 -4150 4151 0
-4151 4167 0
-88 -4151 4152 0
-4152 4168 0
-89 -4152 4153 0
-4153 4169 0
-90 -4153 4154 0
-4154 4170 0
-91 -4154 4155 0
-4155 4171 0
-92 -4155 4156 0
-4156 4172 0
-93 -4156 4157 0
-4157 4173 0
-94 -4157 4158 0
-4158 4174 0
-95 -4158 4159 0
-4159 4175 0
-96 -4159 4160 0
-4160 4176 0
-97 -4160 4161 0
-4161 4177 0
-98 -4161 4162 0
-4162 4178 0
-99 -4162 4163 0
-4163 4179 0
-100 -4163 4164 0
-4164 4180 0
-101 -4164 0
-86 4165 0
-4165 4181 0
-87 -4165 4166 0
-4166 4182 0
-88 -4166 4167 0
-4167 4183 0
-89 -4167 4168 0
-4168 4184 0
-90 -4168 4169 0
-4169 4185 0
-91 -4169 4170 0
-4170 4186 0
-92 -4170 4171 0
-4171 4187 0
-93 -4171 4172 0
-4172 4188 0
-94 -4172 4173 0
-4173 4189 0
-95 -4173 4174 0
-4174 4190 0
-96 -4174 4175 0
-4175 4191 0
-97 -4175 4176 0
-4176 4192 0
-98 -4176 4177 0
-4177 4193 0
-99 -4177 4178 0
-4178 4194 0
-100 -4178 4179 0
-4179 4195 0
-101 -4179 4180 0
-4180 4196 0
-102 -4180 0
-87 4181 0
-4181 4197 0
-88 -4181 4182 0
-4182 4198 0
-89 -4182 4183 0
-4183 4199 0
-90 -4183 4184 0
-4184 4200 0
-91 -4184 4185 0
-4185 4201 0
-92 -4185 4186 0
-4186 4202 0
-93 -4186 4187 0
-4187 4203 0
-94 -4187 4188 0
-4188 4204 0
-95 -4188 4189 0
-4189 4205 0
-96 -4189 4190 0
-4190 4206 0
-97 -4190 4191 0
-4191 4207 0
-98 -4191 4192 0
-4192 4208 0
-99 -4192 4193 0
-4193 4209 0
-100 -4193 4194 0
-4194 4210 0
-101 -4194 4195 0
-4195 4211 0
-102 -4195 4196 0
-4196 4212 0
-103 -4196 0
-88 4197 0
-4197 4213 0
-89 -4197 4198 0
-4198 4214 0
-90 -4198 4199 0
-4199 4215 0
-91 -4199 4200 0
-4200 4216 0
-92 -4200 4201 0
-4201 4217 0
-93 -4201 4202 0
-4202 4218 0
-94 -4202 4203 0
-4203 4219 0
-95 -4203 4204 0
-4204 4220 0
-96 -4204 4205 0
-4205 4221 0
-97 -4205 4206 0
-4206 4222 0
-98 -4206 4207 0
-4207 4223 0
-99 -4207 4208 0
-4208 4224 0
-100 -4208 4209 0
-4209 4225 0
-101 -4209 4210 0
-4210 4226 0
-102 -4210 4211 0
-4211 4227 0
-103 -4211 4212 0
-4212 4228 0
-104 -4212 0
-89 4213 0
-4213 4229 0
-90 -4213 4214 0
-4214 4230 0
-91 -4214 4215 0
-4215 4231 0
-92 -4215 4216 0
-4216 4232 0
-93 -4216 4217 0
-4217 4233 0
-94 -4217 4218 0
-4218 4234 0
-95 -4218 4219 0
-4219 4235 0
-96 -4219 4220 0
-4220 4236 0
-97 -4220 4221 0
-4221 4237 0
-98 -4221 4222 0
-4222 4238 0
-99 -4222 4223 0
-4223 4239 0
-100 -4223 4224 0
-4224 4240 0
-101 -4224 4225 0
-4225 4241 0
-102 -4225 4226 0
-4226 4242 0
-103 -4226 4227 0
-4227 4243 0
-104 -4227 4228 0
-4228 4244 0
-105 -4228 0
-90 4229 0
-4229 4245 0
-91 -4229 4230 0
-4230 4246 0
-92 -4230 4231 0
-4231 4247 0
-93 -4231 4232 0
-4232 4248 0
-94 -4232 4233 0
-4233 4249 0
-95 -4233 4234 0
-4234 4250 0
-96 -4234 4235 0
-4235 4251 0
-97 -4235 4236 0
-4236 4252 0
-98 -4236 4237 0
-4237 4253 0
-99 -4237 4238 0
-4238 4254 0
-100 -4238 4239 0
-4239 4255 0
-101 -4239 4240 0
-4240 4256 0
-102 -4240 4241 0
-4241 4257 0
-103 -4241 4242 0
-4242 4258 0
-104 -4242 4243 0
-4243 4259 0
-105 -4243 4244 0
-4244 4260 0
-106 -4244 0
-91 4245 0
-4245 4261 0
-92 -4245 4246 0
-4246 4262 0
-93 -4246 4247 0
-4247 4263 0
-94 -4247 4248 0
-4248 4264 0
-95 -4248 4249 0
-4249 4265 0
-96 -4249 4250 0
-4250 4266 0
-97 -4250 4251 0
-4251 4267 0
-98 -4251 4252 0
-4252 4268 0
-99 -4252 4253 0
-4253 4269 0
-100 -4253 4254 0
-4254 4270 0
-101 -4254 4255 0
-4255 4271 0
-102 -4255 4256 0
-4256 4272 0
-103 -4256 4257 0
-4257 4273 0
-104 -4257 4258 0
-4258 4274 0
-105 -4258 4259 0
-4259 4275 0
-106 -4259 4260 0
-4260 4276 0
-107 -4260 0
-92 4261 0
-4261 4277 0
-93 -4261 4262 0
-4262 4278 0
-94 -4262 4263 0
-4263 4279 0
-95 -4263 4264 0
-4264 4280 0
-96 -4264 4265 0
-4265 4281 0
-97 -4265 4266 0
-4266 4282 0
-98 -4266 4267 0
-4267 4283 0
-99 -4267 4268 0
-4268 4284 0
-100 -4268 4269 0
-4269 4285 0
-101 -4269 4270 0
-4270 4286 0
-102 -4270 4271 0
-4271 4287 0
-103 -4271 4272 0
-4272 4288 0
-104 -4272 4273 0
-4273 4289 0
-105 -4273 4274 0
-4274 4290 0
-106 -4274 4275 0
-4275 4291 0
-107 -4275 4276 0
-4276 4292 0
-108 -4276 0
-93 4277 0
-4277 4293 0
-94 -4277 4278 0
-4278 4294 0
-95 -4278 4279 0
-4279 4295 0
-96 -4279 4280 0
-4280 4296 0
-97 -4280 4281 0
-4281 4297 0
-98 -4281 4282 0
-4282 4298 0
-99 -4282 4283 0
-4283 4299 0
-100 -4283 4284 0
-4284 4300 0
-101 -4284 4285 0
-4285 4301 0
-102 -4285 4286 0
-4286 4302 0
-103 -4286 4287 0
-4287 4303 0
-104 -4287 4288 0
-4288 4304 0
-105 -4288 4289 0
-4289 4305 0
-106 -4289 4290 0
-4290 4306 0
-107 -4290 4291 0
-4291 4307 0
-108 -4291 4292 0
-4292 4308 0
-109 -4292 0
-94 4293 0
-4293 4309 0
-95 -4293 4294 0
-4294 4310 0
-96 -4294 4295 0
-4295 4311 0
-97 -4295 4296 0
-4296 4312 0
-98 -4296 4297 0
-4297 4313 0
-99 -4297 4298 0
-4298 4314 0
-100 -4298 4299 0
-4299 4315 0
-101 -4299 4300 0
-4300 4316 0
-102 -4300 4301 0
-4301 4317 0
-103 -4301 4302 0
-4302 4318 0
-104 -4302 4303 0
-4303 4319 0
-105 -4303 4304 0
-4304 4320 0
-106 -4304 4305 0
-4305 4321 0
-107 -4305 4306 0
-4306 4322 0
-108 -4306 4307 0
-4307 4323 0
-109 -4307 4308 0
-4308 4324 0
-110 -4308 0
-95 4309 0
-4309 4325 0
-96 -4309 4310 0
-4310 4326 0
-97 -4310 4311 0
-4311 4327 0
-98 -4311 4312 0
-4312 4328 0
-99 -4312 4313 0
-4313 4329 0
-100 -4313 4314 0
-4314 4330 0
-101 -4314 4315 0
-4315 4331 0
-102 -4315 4316 0
-4316 4332 0
-103 -4316 4317 0
-4317 4333 0
-104 -4317 4318 0
-4318 4334 0
-105 -4318 4319 0
-4319 4335 0
-106 -4319 4320 0
-4320 4336 0
-107 -4320 4321 0
-4321 4337 0
-108 -4321 4322 0
-4322 4338 0
-109 -4322 4323 0
-4323 4339 0
-110 -4323 4324 0
-4324 4340 0
-111 -4324 0
-96 4325 0
-4325 4341 0
-97 -4325 4326 0
-4326 4342 0
-98 -4326 4327 0
-4327 4343 0
-99 -4327 4328 0
-4328 4344 0
-100 -4328 4329 0
-4329 4345 0
-101 -4329 4330 0
-4330 4346 0
-102 -4330 4331 0
-4331 4347 0
-103 -4331 4332 0
-4332 4348 0
-104 -4332 4333 0
-4333 4349 0
-105 -4333 4334 0
-4334 4350 0
-106 -4334 4335 0
-4335 4351 0
-107 -4335 4336 0
-4336 4352 0
-108 -4336 4337 0
-4337 4353 0
-109 -4337 4338 0
-4338 4354 0
-110 -4338 4339 0
-4339 4355 0
-111 -4339 4340 0
-4340 4356 0
-112 -4340 0
-97 4341 0
-4341 4357 0
-98 -4341 4342 0
-4342 4358 0
-99 -4342 4343 0
-4343 4359 0
-100 -4343 4344 0
-4344 4360 0
-101 -4344 4345 0
-4345 4361 0
-102 -4345 4346 0
-4346 4362 0
-103 -4346 4347 0
-4347 4363 0
-104 -4347 4348 0
-4348 4364 0
-105 -4348 4349 0
-4349 4365 0
-106 -4349 4350 0
-4350 4366 0
-107 -4350 4351 0
-4351 4367 0
-108 -4351 4352 0
-4352 4368 0
-109 -4352 4353 0
-4353 4369 0
-110 -4353 4354 0
-4354 4370 0
-111 -4354 4355 0
-4355 4371 0
-112 -4355 4356 0
-4356 4372 0
-113 -4356 0
-98 4357 0
-4357 4373 0
-99 -4357 4358 0
-4358 4374 0
-100 -4358 4359 0
-4359 4375 0
-101 -4359 4360 0
-4360 4376 0
-102 -4360 4361 0
-4361 4377 0
-103 -4361 4362 0
-4362 4378 0
-104 -4362 4363 0
-4363 4379 0
-105 -4363 4364 0
-4364 4380 0
-106 -4364 4365 0
-4365 4381 0
-107 -4365 4366 0
-4366 4382 0
-108 -4366 4367 0
-4367 4383 0
-109 -4367 4368 0
-4368 4384 0
-110 -4368 4369 0
-4369 4385 0
-111 -4369 4370 0
-4370 4386 0
-112 -4370 4371 0
-4371 4387 0
-113 -4371 4372 0
-4372 4388 0
-114 -4372 0
-99 4373 0
-4373 4389 0
-100 -4373 4374 0
-4374 4390 0
-101 -4374 4375 0
-4375 4391 0
-102 -4375 4376 0
-4376 4392 0
-103 -4376 4377 0
-4377 4393 0
-104 -4377 4378 0
-4378 4394 0
-105 -4378 4379 0
-4379 4395 0
-106 -4379 4380 0
-4380 4396 0
-107 -4380 4381 0
-4381 4397 0
-108 -4381 4382 0
-4382 4398 0
-109 -4382 4383 0
-4383 4399 0
-110 -4383 4384 0
-4384 4400 0
-111 -4384 4385 0
-4385 4401 0
-112 -4385 4386 0
-4386 4402 0
-113 -4386 4387 0
-4387 4403 0
-114 -4387 4388 0
-4388 4404 0
-115 -4388 0
-100 4389 0
-4389 4405 0
-101 -4389 4390 0
-4390 4406 0
-102 -4390 4391 0
-4391 4407 0
-103 -4391 4392 0
-4392 4408 0
-104 -4392 4393 0
-4393 4409 0
-105 -4393 4394 0
-4394 4410 0
-106 -4394 4395 0
-4395 4411 0
-107 -4395 4396 0
-4396 4412 0
-108 -4396 4397 0
-4397 4413 0
-109 -4397 4398 0
-4398 4414 0
-110 -4398 4399 0
-4399 4415 0
-111 -4399 4400 0
-4400 4416 0
-112 -4400 4401 0
-4401 4417 0
-113 -4401 4402 0
-4402 4418 0
-114 -4402 4403 0
-4403 4419 0
-115 -4403 4404 0
-4404 4420 0
-116 -4404 0
-101 4405 0
-4405 4421 0
-102 -4405 4406 0
-4406 4422 0
-103 -4406 4407 0
-4407 4423 0
-104 -4407 4408 0
-4408 4424 0
-105 -4408 4409 0
-4409 4425 0
-106 -4409 4410 0
-4410 4426 0
-107 -4410 4411 0
-4411 4427 0
-108 -4411 4412 0
-4412 4428 0
-109 -4412 4413 0
-4413 4429 0
-110 -4413 4414 0
-4414 4430 0
-111 -4414 4415 0
-4415 4431 0
-112 -4415 4416 0
-4416 4432 0
-113 -4416 4417 0
-4417 4433 0
-114 -4417 4418 0
-4418 4434 0
-115 -4418 4419 0
-4419 4435 0
-116 -4419 4420 0
-4420 4436 0
-117 -4420 0
-102 4421 0
-4421 4437 0
-103 -4421 4422 0
-4422 4438 0
-104 -4422 4423 0
-4423 4439 0
-105 -4423 4424 0
-4424 4440 0
-106 -4424 4425 0
-4425 4441 0
-107 -4425 4426 0
-4426 4442 0
-108 -4426 4427 0
-4427 4443 0
-109 -4427 4428 0
-4428 4444 0
-110 -4428 4429 0
-4429 4445 0
-111 -4429 4430 0
-4430 4446 0
-112 -4430 4431 0
-4431 4447 0
-113 -4431 4432 0
-4432 4448 0
-114 -4432 4433 0
-4433 4449 0
-115 -4433 4434 0
-4434 4450 0
-116 -4434 4435 0
-4435 4451 0
-117 -4435 4436 0
-4436 4452 0
-118 -4436 0
-103 4437 0
-4437 4453 0
-104 -4437 4438 0
-4438 4454 0
-105 -4438 4439 0
-4439 4455 0
-106 -4439 4440 0
-4440 4456 0
-107 -4440 4441 0
-4441 4457 0
-108 -4441 4442 0
-4442 4458 0
-109 -4442 4443 0
-4443 4459 0
-110 -4443 4444 0
-4444 4460 0
-111 -4444 4445 0
-4445 4461 0
-112 -4445 4446 0
-4446 4462 0
-113 -4446 4447 0
-4447 4463 0
-114 -4447 4448 0
-4448 4464 0
-115 -4448 4449 0
-4449 4465 0
-116 -4449 4450 0
-4450 4466 0
-117 -4450 4451 0
-4451 4467 0
-118 -4451 4452 0
-4452 4468 0
-119 -4452 0
-104 4453 0
-4453 4469 0
-105 -4453 4454 0
-4454 4470 0
-106 -4454 4455 0
-4455 4471 0
-107 -4455 4456 0
-4456 4472 0
-108 -4456 4457 0
-4457 4473 0
-109 -4457 4458 0
-4458 4474 0
-110 -4458 4459 0
-4459 4475 0
-111 -4459 4460 0
-4460 4476 0
-112 -4460 4461 0
-4461 4477 0
-113 -4461 4462 0
-4462 4478 0
-114 -4462 4463 0
-4463 4479 0
-115 -4463 4464 0
-4464 4480 0
-116 -4464 4465 0
-4465 4481 0
-117 -4465 4466 0
-4466 4482 0
-118 -4466 4467 0
-4467 4483 0
-119 -4467 4468 0
-4468 4484 0
-120 -4468 0
-105 4469 0
-4469 4485 0
-106 -4469 4470 0
-4470 4486 0
-107 -4470 4471 0
-4471 4487 0
-108 -4471 4472 0
-4472 4488 0
-109 -4472 4473 0
-4473 4489 0
-110 -4473 4474 0
-4474 4490 0
-111 -4474 4475 0
-4475 4491 0
-112 -4475 4476 0
-4476 4492 0
-113 -4476 4477 0
-4477 4493 0
-114 -4477 4478 0
-4478 4494 0
-115 -4478 4479 0
-4479 4495 0
-116 -4479 4480 0
-4480 4496 0
-117 -4480 4481 0
-4481 4497 0
-118 -4481 4482 0
-4482 4498 0
-119 -4482 4483 0
-4483 4499 0
-120 -4483 4484 0
-4484 4500 0
-121 -4484 0
-106 4485 0
-4485 4501 0
-107 -4485 4486 0
-4486 4502 0
-108 -4486 4487 0
-4487 4503 0
-109 -4487 4488 0
-4488 4504 0
-110 -4488 4489 0
-4489 4505 0
-111 -4489 4490 0
-4490 4506 0
-112 -4490 4491 0
-4491 4507 0
-113 -4491 4492 0
-4492 4508 0
-114 -4492 4493 0
-4493 4509 0
-115 -4493 4494 0
-4494 4510 0
-116 -4494 4495 0
-4495 4511 0
-117 -4495 4496 0
-4496 4512 0
-118 -4496 4497 0
-4497 4513 0
-119 -4497 4498 0
-4498 4514 0
-120 -4498 4499 0
-4499 4515 0
-121 -4499 4500 0
-4500 4516 0
-122 -4500 0
-107 4501 0
-4501 4517 0
-108 -4501 4502 0
-4502 4518 0
-109 -4502 4503 0
-4503 4519 0
-110 -4503 4504 0
-4504 4520 0
-111 -4504 4505 0
-4505 4521 0
-112 -4505 4506 0
-4506 4522 0
-113 -4506 4507 0
-4507 4523 0
-114 -4507 4508 0
-4508 4524 0
-115 -4508 4509 0
-4509 4525 0
-116 -4509 4510 0
-4510 4526 0
-117 -4510 4511 0
-4511 4527 0
-118 -4511 4512 0
-4512 4528 0
-119 -4512 4513 0
-4513 4529 0
-120 -4513 4514 0
-4514 4530 0
-121 -4514 4515 0
-4515 4531 0
-122 -4515 4516 0
-4516 4532 0
-123 -4516 0
-108 4517 0
-4517 4533 0
-109 -4517 4518 0
-4518 4534 0
-110 -4518 4519 0
-4519 4535 0
-111 -4519 4520 0
-4520 4536 0
-112 -4520 4521 0
-4521 4537 0
-113 -4521 4522 0
-4522 4538 0
-114 -4522 4523 0
-4523 4539 0
-115 -4523 4524 0
-4524 4540 0
-116 -4524 4525 0
-4525 4541 0
-117 -4525 4526 0
-4526 4542 0
-118 -4526 4527 0
-4527 4543 0
-119 -4527 4528 0
-4528 4544 0
-120 -4528 4529 0
-4529 4545 0
-121 -4529 4530 0
-4530 4546 0
-122 -4530 4531 0
-4531 4547 0
-123 -4531 4532 0
-4532 4548 0
-124 -4532 0
-109 4533 0
-4533 4549 0
-110 -4533 4534 0
-4534 4550 0
-111 -4534 4535 0
-4535 4551 0
-112 -4535 4536 0
-4536 4552 0
-113 -4536 4537 0
-4537 4553 0
-114 -4537 4538 0
-4538 4554 0
-115 -4538 4539 0
-4539 4555 0
-116 -4539 4540 0
-4540 4556 0
-117 -4540 4541 0
-4541 4557 0
-118 -4541 4542 0
-4542 4558 0
-119 -4542 4543 0
-4543 4559 0
-120 -4543 4544 0
-4544 4560 0
-121 -4544 4545 0
-4545 4561 0
-122 -4545 4546 0
-4546 4562 0
-123 -4546 4547 0
-4547 4563 0
-124 -4547 4548 0
-4548 4564 0
-125 -4548 0
-110 4549 0
-4549 4565 0
-111 -4549 4550 0
-4550 4566 0
-112 -4550 4551 0
-4551 4567 0
-113 -4551 4552 0
-4552 4568 0
-114 -4552 4553 0
-4553 4569 0
-115 -4553 4554 0
-4554 4570 0
-116 -4554 4555 0
-4555 4571 0
-117 -4555 4556 0
-4556 4572 0
-118 -4556 4557 0
-4557 4573 0
-119 -4557 4558 0
-4558 4574 0
-120 -4558 4559 0
-4559 4575 0
-121 -4559 4560 0
-4560 4576 0
-122 -4560 4561 0
-4561 4577 0
-123 -4561 4562 0
-4562 4578 0
-124 -4562 4563 0
-4563 4579 0
-125 -4563 4564 0
-4564 4580 0
-126 -4564 0
-111 4565 0
-4565 4581 0
-112 -4565 4566 0
-4566 4582 0
-113 -4566 4567 0
-4567 4583 0
-114 -4567 4568 0
-4568 4584 0
-115 -4568 4569 0
-4569 4585 0
-116 -4569 4570 0
-4570 4586 0
-117 -4570 4571 0
-4571 4587 0
-118 -4571 4572 0
-4572 4588 0
-119 -4572 4573 0
-4573 4589 0
-120 -4573 4574 0
-4574 4590 0
-121 -4574 4575 0
-4575 4591 0
-122 -4575 4576 0
-4576 4592 0
-123 -4576 4577 0
-4577 4593 0
-124 -4577 4578 0
-4578 4594 0
-125 -4578 4579 0
-4579 4595 0
-126 -4579 4580 0
-4580 4596 0
-127 -4580 0
-112 4581 0
-4581 4597 0
-113 -4581 4582 0
-4582 4598 0
-114 -4582 4583 0
-4583 4599 0
-115 -4583 4584 0
-4584 4600 0
-116 -4584 4585 0
-4585 4601 0
-117 -4585 4586 0
-4586 4602 0
-118 -4586 4587 0
-4587 4603 0
-119 -4587 4588 0
-4588 4604 0
-120 -4588 4589 0
-4589 4605 0
-121 -4589 4590 0
-4590 4606 0
-122 -4590 4591 0
-4591 4607 0
-123 -4591 4592 0
-4592 4608 0
-124 -4592 4593 0
-4593 4609 0
-125 -4593 4594 0
-4594 4610 0
-126 -4594 4595 0
-4595 4611 0
-127 -4595 4596 0
-4596 4612 0
-128 -4596 0
-113 4597 0
-4597 4613 0
-114 -4597 4598 0
-4598 4614 0
-115 -4598 4599 0
-4599 4615 0
-116 -4599 4600 0
-4600 4616 0
-117 -4600 4601 0
-4601 4617 0
-118 -4601 4602 0
-4602 4618 0
-119 -4602 4603 0
-4603 4619 0
-120 -4603 4604 0
-4604 4620 0
-121 -4604 4605 0
-4605 4621 0
-122 -4605 4606 0
-4606 4622 0
-123 -4606 4607 0
-4607 4623 0
-124 -4607 4608 0
-4608 4624 0
-125 -4608 4609 0
-4609 4625 0
-126 -4609 4610 0
-4610 4626 0
-127 -4610 4611 0
-4611 4627 0
-128 -4611 4612 0
-4612 4628 0
-129 -4612 0
-114 4613 0
-4613 4629 0
-115 -4613 4614 0
-4614 4630 0
-116 -4614 4615 0
-4615 4631 0
-117 -4615 4616 0
-4616 4632 0
-118 -4616 4617 0
-4617 4633 0
-119 -4617 4618 0
-4618 4634 0
-120 -4618 4619 0
-4619 4635 0
-121 -4619 4620 0
-4620 4636 0
-122 -4620 4621 0
-4621 4637 0
-123 -4621 4622 0
-4622 4638 0
-124 -4622 4623 0
-4623 4639 0
-125 -4623 4624 0
-4624 4640 0
-126 -4624 4625 0
-4625 4641 0
-127 -4625 4626 0
-4626 4642 0
-128 -4626 4627 0
-4627 4643 0
-129 -4627 4628 0
-4628 4644 0
-130 -4628 0
-115 4629 0
-4629 4645 0
-116 -4629 4630 0
-4630 4646 0
-117 -4630 4631 0
-4631 4647 0
-118 -4631 4632 0
-4632 4648 0
-119 -4632 4633 0
-4633 4649 0
-120 -4633 4634 0
-4634 4650 0
-121 -4634 4635 0
-4635 4651 0
-122 -4635 4636 0
-4636 4652 0
-123 -4636 4637 0
-4637 4653 0
-124 -4637 4638 0
-4638 4654 0
-125 -4638 4639 0
-4639 4655 0
-126 -4639 4640 0
-4640 4656 0
-127 -4640 4641 0
-4641 4657 0
-128 -4641 4642 0
-4642 4658 0
-129 -4642 4643 0
-4643 4659 0
-130 -4643 4644 0
-4644 4660 0
-131 -4644 0
-116 4645 0
-4645 4661 0
-117 -4645 4646 0
-4646 4662 0
-118 -4646 4647 0
-4647 4663 0
-119 -4647 4648 0
-4648 4664 0
-120 -4648 4649 0
-4649 4665 0
-121 -4649 4650 0
-4650 4666 0
-122 -4650 4651 0
-4651 4667 0
-123 -4651 4652 0
-4652 4668 0
-124 -4652 4653 0
-4653 4669 0
-125 -4653 4654 0
-4654 4670 0
-126 -4654 4655 0
-4655 4671 0
-127 -4655 4656 0
-4656 4672 0
-128 -4656 4657 0
-4657 4673 0
-129 -4657 4658 0
-4658 4674 0
-130 -4658 4659 0
-4659 4675 0
-131 -4659 4660 0
-4660 4676 0
-132 -4660 0
-117 4661 0
-4661 4677 0
-118 -4661 4662 0
-4662 4678 0
-119 -4662 4663 0
-4663 4679 0
-120 -4663 4664 0
-4664 4680 0
-121 -4664 4665 0
-4665 4681 0
-122 -4665 4666 0
-4666 4682 0
-123 -4666 4667 0
-4667 4683 0
-124 -4667 4668 0
-4668 4684 0
-125 -4668 4669 0
-4669 4685 0
-126 -4669 4670 0
-4670 4686 0
-127 -4670 4671 0
-4671 4687 0
-128 -4671 4672 0
-4672 4688 0
-129 -4672 4673 0
-4673 4689 0
-130 -4673 4674 0
-4674 4690 0
-131 -4674 4675 0
-4675 4691 0
-132 -4675 4676 0
-4676 4692 0
-133 -4676 0
-118 4677 0
-4677 4693 0
-119 -4677 4678 0
-4678 4694 0
-120 -4678 4679 0
-4679 4695 0
-121 -4679 4680 0
-4680 4696 0
-122 -4680 4681 0
-4681 4697 0
-123 -4681 4682 0
-4682 4698 0
-124 -4682 4683 0
-4683 4699 0
-125 -4683 4684 0
-4684 4700 0
-126 -4684 4685 0
-4685 4701 0
-127 -4685 4686 0
-4686 4702 0
-128 -4686 4687 0
-4687 4703 0
-129 -4687 4688 0
-4688 4704 0
-130 -4688 4689 0
-4689 4705 0
-131 -4689 4690 0
-4690 4706 0
-132 -4690 4691 0
-4691 4707 0
-133 -4691 4692 0
-4692 4708 0
-134 -4692 0
-119 4693 0
-4693 4709 0
-120 -4693 4694 0
-4694 4710 0
-121 -4694 4695 0
-4695 4711 0
-122 -4695 4696 0
-4696 4712 0
-123 -4696 4697 0
-4697 4713 0
-124 -4697 4698 0
-4698 4714 0
-125 -4698 4699 0
-4699 4715 0
-126 -4699 4700 0
-4700 4716 0
-127 -4700 4701 0
-4701 4717 0
-128 -4701 4702 0
-4702 4718 0
-129 -4702 4703 0
-4703 4719 0
-130 -4703 4704 0
-4704 4720 0
-131 -4704 4705 0
-4705 4721 0
-132 -4705 4706 0
-4706 4722 0
-133 -4706 4707 0
-4707 4723 0
-134 -4707 4708 0
-4708 4724 0
-135 -4708 0
-120 4709 0
-4709 4725 0
-121 -4709 4710 0
-4710 4726 0
-122 -4710 4711 0
-4711 4727 0
-123 -4711 4712 0
-4712 4728 0
-124 -4712 4713 0
-4713 4729 0
-125 -4713 4714 0
-4714 4730 0
-126 -4714 4715 0
-4715 4731 0
-127 -4715 4716 0
-4716 4732 0
-128 -4716 4717 0
-4717 4733 0
-129 -4717 4718 0
-4718 4734 0
-130 -4718 4719 0
-4719 4735 0
-131 -4719 4720 0
-4720 4736 0
-132 -4720 4721 0
-4721 4737 0
-133 -4721 4722 0
-4722 4738 0
-134 -4722 4723 0
-4723 4739 0
-135 -4723 4724 0
-4724 4740 0
-136 -4724 0
-121 4725 0
-4725 4741 0
-122 -4725 4726 0
-4726 4742 0
-123 -4726 4727 0
-4727 4743 0
-124 -4727 4728 0
-4728 4744 0
-125 -4728 4729 0
-4729 4745 0
-126 -4729 4730 0
-4730 4746 0
-127 -4730 4731 0
-4731 4747 0
-128 -4731 4732 0
-4732 4748 0
-129 -4732 4733 0
-4733 4749 0
-130 -4733 4734 0
-4734 4750 0
-131 -4734 4735 0
-4735 4751 0
-132 -4735 4736 0
-4736 4752 0
-133 -4736 4737 0
-4737 4753 0
-134 -4737 4738 0
-4738 4754 0
-135 -4738 4739 0
-4739 4755 0
-136 -4739 4740 0
-4740 4756 0
-137 -4740 0
-122 4741 0
-4741 4757 0
-123 -4741 4742 0
-4742 4758 0
-124 -4742 4743 0
-4743 4759 0
-125 -4743 4744 0
-4744 4760 0
-126 -4744 4745 0
-4745 4761 0
-127 -4745 4746 0
-4746 4762 0
-128 -4746 4747 0
-4747 4763 0
-129 -4747 4748 0
-4748 4764 0
-130 -4748 4749 0
-4749 4765 0
-131 -4749 4750 0
-4750 4766 0
-132 -4750 4751 0
-4751 4767 0
-133 -4751 4752 0
-4752 4768 0
-134 -4752 4753 0
-4753 4769 0
-135 -4753 4754 0
-4754 4770 0
-136 -4754 4755 0
-4755 4771 0
-137 -4755 4756 0
-4756 4772 0
-138 -4756 0
-123 4757 0
-4757 4773 0
-124 -4757 4758 0
-4758 4774 0
-125 -4758 4759 0
-4759 4775 0
-126 -4759 4760 0
-4760 4776 0
-127 -4760 4761 0
-4761 4777 0
-128 -4761 4762 0
-4762 4778 0
-129 -4762 4763 0
-4763 4779 0
-130 -4763 4764 0
-4764 4780 0
-131 -4764 4765 0
-4765 4781 0
-132 -4765 4766 0
-4766 4782 0
-133 -4766 4767 0
-4767 4783 0
-134 -4767 4768 0
-4768 4784 0
-135 -4768 4769 0
-4769 4785 0
-136 -4769 4770 0
-4770 4786 0
-137 -4770 4771 0
-4771 4787 0
-138 -4771 4772 0
-4772 4788 0
-139 -4772 0
-124 4773 0
-4773 4789 0
-125 -4773 4774 0
-4774 4790 0
-126 -4774 4775 0
-4775 4791 0
-127 -4775 4776 0
-4776 4792 0
-128 -4776 4777 0
-4777 4793 0
-129 -4777 4778 0
-4778 4794 0
-130 -4778 4779 0
-4779 4795 0
-131 -4779 4780 0
-4780 4796 0
-132 -4780 4781 0
-4781 4797 0
-133 -4781 4782 0
-4782 4798 0
-134 -4782 4783 0
-4783 4799 0
-135 -4783 4784 0
-4784 4800 0
-136 -4784 4785 0
-4785 4801 0
-137 -4785 4786 0
-4786 4802 0
-138 -4786 4787 0
-4787 4803 0
-139 -4787 4788 0
-4788 4804 0
-140 -4788 0
-125 4789 0
-4789 4805 0
-126 -4789 4790 0
-4790 4806 0
-127 -4790 4791 0
-4791 4807 0
-128 -4791 4792 0
-4792 4808 0
-129 -4792 4793 0
-4793 4809 0
-130 -4793 4794 0
-4794 4810 0
-131 -4794 4795 0
-4795 4811 0
-132 -4795 4796 0
-4796 4812 0
-133 -4796 4797 0
-4797 4813 0
-134 -4797 4798 0
-4798 4814 0
-135 -4798 4799 0
-4799 4815 0
-136 -4799 4800 0
-4800 4816 0
-137 -4800 4801 0
-4801 4817 0
-138 -4801 4802 0
-4802 4818 0
-139 -4802 4803 0
-4803 4819 0
-140 -4803 4804 0
-4804 4820 0
-141 -4804 0
-126 4805 0
-4805 4821 0
-127 -4805 4806 0
-4806 4822 0
-128 -4806 4807 0
-4807 4823 0
-129 -4807 4808 0
-4808 4824 0
-130 -4808 4809 0
-4809 4825 0
-131 -4809 4810 0
-4810 4826 0
-132 -4810 4811 0
-4811 4827 0
-133 -4811 4812 0
-4812 4828 0
-134 -4812 4813 0
-4813 4829 0
-135 -4813 4814 0
-4814 4830 0
-136 -4814 4815 0
-4815 4831 0
-137 -4815 4816 0
-4816 4832 0
-138 -4816 4817 0
-4817 4833 0
-139 -4817 4818 0
-4818 4834 0
-140 -4818 4819 0
-4819 4835 0
-141 -4819 4820 0
-4820 4836 0
-142 -4820 0
-127 4821 0
-4821 4837 0
-128 -4821 4822 0
-4822 4838 0
-129 -4822 4823 0
-4823 4839 0
-130 -4823 4824 0
-4824 4840 0
-131 -4824 4825 0
-4825 4841 0
-132 -4825 4826 0
-4826 4842 0
-133 -4826 4827 0
-4827 4843 0
-134 -4827 4828 0
-4828 4844 0
-135 -4828 4829 0
-4829 4845 0
-136 -4829 4830 0
-4830 4846 0
-137 -4830 4831 0
-4831 4847 0
-138 -4831 4832 0
-4832 4848 0
-139 -4832 4833 0
-4833 4849 0
-140 -4833 4834 0
-4834 4850 0
-141 -4834 4835 0
-4835 4851 0
-142 -4835 4836 0
-4836 4852 0
-143 -4836 0
-128 4837 0
-4837 4853 0
-129 -4837 4838 0
-4838 4854 0
-130 -4838 4839 0
-4839 4855 0
-131 -4839 4840 0
-4840 4856 0
-132 -4840 4841 0
-4841 4857 0
-133 -4841 4842 0
-4842 4858 0
-134 -4842 4843 0
-4843 4859 0
-135 -4843 4844 0
-4844 4860 0
-136 -4844 4845 0
-4845 4861 0
-137 -4845 4846 0
-4846 4862 0
-138 -4846 4847 0
-4847 4863 0
-139 -4847 4848 0
-4848 4864 0
-140 -4848 4849 0
-4849 4865 0
-141 -4849 4850 0
-4850 4866 0
-142 -4850 4851 0
-4851 4867 0
-143 -4851 4852 0
-4852 4868 0
-144 -4852 0
-129 4853 0
-4853 4869 0
-130 -4853 4854 0
-4854 4870 0
-131 -4854 4855 0
-4855 4871 0
-132 -4855 4856 0
-4856 4872 0
-133 -4856 4857 0
-4857 4873 0
-134 -4857 4858 0
-4858 4874 0
-135 -4858 4859 0
-4859 4875 0
-136 -4859 4860 0
-4860 4876 0
-137 -4860 4861 0
-4861 4877 0
-138 -4861 4862 0
-4862 4878 0
-139 -4862 4863 0
-4863 4879 0
-140 -4863 4864 0
-4864 4880 0
-141 -4864 4865 0
-4865 4881 0
-142 -4865 4866 0
-4866 4882 0
-143 -4866 4867 0
-4867 4883 0
-144 -4867 4868 0
-4868 4884 0
-145 -4868 0
-130 4869 0
-4869 4885 0
-131 -4869 4870 0
-4870 4886 0
-132 -4870 4871 0
-4871 4887 0
-133 -4871 4872 0
-4872 4888 0
-134 -4872 4873 0
-4873 4889 0
-135 -4873 4874 0
-4874 4890 0
-136 -4874 4875 0
-4875 4891 0
-137 -4875 4876 0
-4876 4892 0
-138 -4876 4877 0
-4877 4893 0
-139 -4877 4878 0
-4878 4894 0
-140 -4878 4879 0
-4879 4895 0
-141 -4879 4880 0
-4880 4896 0
-142 -4880 4881 0
-4881 4897 0
-143 -4881 4882 0
-4882 4898 0
-144 -4882 4883 0
-4883 4899 0
-145 -4883 4884 0
-4884 4900 0
-146 -4884 0
-131 4885 0
-4885 4901 0
-132 -4885 4886 0
-4886 4902 0
-133 -4886 4887 0
-4887 4903 0
-134 -4887 4888 0
-4888 4904 0
-135 -4888 4889 0
-4889 4905 0
-136 -4889 4890 0
-4890 4906 0
-137 -4890 4891 0
-4891 4907 0
-138 -4891 4892 0
-4892 4908 0
-139 -4892 4893 0
-4893 4909 0
-140 -4893 4894 0
-4894 4910 0
-141 -4894 4895 0
-4895 4911 0
-142 -4895 4896 0
-4896 4912 0
-143 -4896 4897 0
-4897 4913 0
-144 -4897 4898 0
-4898 4914 0
-145 -4898 4899 0
-4899 4915 0
-146 -4899 4900 0
-4900 4916 0
-147 -4900 0
-132 4901 0
-4901 4917 0
-133 -4901 4902 0
-4902 4918 0
-134 -4902 4903 0
-4903 4919 0
-135 -4903 4904 0
-4904 4920 0
-136 -4904 4905 0
-4905 4921 0
-137 -4905 4906 0
-4906 4922 0
-138 -4906 4907 0
-4907 4923 0
-139 -4907 4908 0
-4908 4924 0
-140 -4908 4909 0
-4909 4925 0
-141 -4909 4910 0
-4910 4926 0
-142 -4910 4911 0
-4911 4927 0
-143 -4911 4912 0
-4912 4928 0
-144 -4912 4913 0
-4913 4929 0
-145 -4913 4914 0
-4914 4930 0
-146 -4914 4915 0
-4915 4931 0
-147 -4915 4916 0
-4916 4932 0
-148 -4916 0
-133 4917 0
-4917 4933 0
-134 -4917 4918 0
-4918 4934 0
-135 -4918 4919 0
-4919 4935 0
-136 -4919 4920 0
-4920 4936 0
-137 -4920 4921 0
-4921 4937 0
-138 -4921 4922 0
-4922 4938 0
-139 -4922 4923 0
-4923 4939 0
-140 -4923 4924 0
-4924 4940 0
-141 -4924 4925 0
-4925 4941 0
-142 -4925 4926 0
-4926 4942 0
-143 -4926 4927 0
-4927 4943 0
-144 -4927 4928 0
-4928 4944 0
-145 -4928 4929 0
-4929 4945 0
-146 -4929 4930 0
-4930 4946 0
-147 -4930 4931 0
-4931 4947 0
-148 -4931 4932 0
-4932 4948 0
-149 -4932 0
-134 4933 0
-4933 4949 0
-135 -4933 4934 0
-4934 4950 0
-136 -4934 4935 0
-4935 4951 0
-137 -4935 4936 0
-4936 4952 0
-138 -4936 4937 0
-4937 4953 0
-139 -4937 4938 0
-4938 4954 0
-140 -4938 4939 0
-4939 4955 0
-141 -4939 4940 0
-4940 4956 0
-142 -4940 4941 0
-4941 4957 0
-143 -4941 4942 0
-4942 4958 0
-144 -4942 4943 0
-4943 4959 0
-145 -4943 4944 0
-4944 4960 0
-146 -4944 4945 0
-4945 4961 0
-147 -4945 4946 0
-4946 4962 0
-148 -4946 4947 0
-4947 4963 0
-149 -4947 4948 0
-4948 4964 0
-150 -4948 0
-135 4949 0
-4949 4965 0
-136 -4949 4950 0
-4950 4966 0
-137 -4950 4951 0
-4951 4967 0
-138 -4951 4952 0
-4952 4968 0
-139 -4952 4953 0
-4953 4969 0
-140 -4953 4954 0
-4954 4970 0
-141 -4954 4955 0
-4955 4971 0
-142 -4955 4956 0
-4956 4972 0
-143 -4956 4957 0
-4957 4973 0
-144 -4957 4958 0
-4958 4974 0
-145 -4958 4959 0
-4959 4975 0
-146 -4959 4960 0
-4960 4976 0
-147 -4960 4961 0
-4961 4977 0
-148 -4961 4962 0
-4962 4978 0
-149 -4962 4963 0
-4963 4979 0
-150 -4963 4964 0
-4964 4980 0
-151 -4964 0
-136 4965 0
-4965 4981 0
-137 -4965 4966 0
-4966 4982 0
-138 -4966 4967 0
-4967 4983 0
-139 -4967 4968 0
-4968 4984 0
-140 -4968 4969 0
-4969 4985 0
-141 -4969 4970 0
-4970 4986 0
-142 -4970 4971 0
-4971 4987 0
-143 -4971 4972 0
-4972 4988 0
-144 -4972 4973 0
-4973 4989 0
-145 -4973 4974 0
-4974 4990 0
-146 -4974 4975 0
-4975 4991 0
-147 -4975 4976 0
-4976 4992 0
-148 -4976 4977 0
-4977 4993 0
-149 -4977 4978 0
-4978 4994 0
-150 -4978 4979 0
-4979 4995 0
-151 -4979 4980 0
-4980 4996 0
-152 -4980 0
-137 4981 0
-4981 4997 0
-138 -4981 4982 0
-4982 4998 0
-139 -4982 4983 0
-4983 4999 0
-140 -4983 4984 0
-4984 5000 0
-141 -4984 4985 0
-4985 5001 0
-142 -4985 4986 0
-4986 5002 0
-143 -4986 4987 0
-4987 5003 0
-144 -4987 4988 0
-4988 5004 0
-145 -4988 4989 0
-4989 5005 0
-146 -4989 4990 0
-4990 5006 0
-147 -4990 4991 0
-4991 5007 0
-148 -4991 4992 0
-4992 5008 0
-149 -4992 4993 0
-4993 5009 0
-150 -4993 4994 0
-4994 5010 0
-151 -4994 4995 0
-4995 5011 0
-152 -4995 4996 0
-4996 5012 0
-153 -4996 0
-138 4997 0
-4997 5013 0
-139 -4997 4998 0
-4998 5014 0
-140 -4998 4999 0
-4999 5015 0
-141 -4999 5000 0
-5000 5016 0
-142 -5000 5001 0
-5001 5017 0
-143 -5001 5002 0
-5002 5018 0
-144 -5002 5003 0
-5003 5019 0
-145 -5003 5004 0
-5004 5020 0
-146 -5004 5005 0
-5005 5021 0
-147 -5005 5006 0
-5006 5022 0
-148 -5006 5007 0
-5007 5023 0
-149 -5007 5008 0
-5008 5024 0
-150 -5008 5009 0
-5009 5025 0
-151 -5009 5010 0
-5010 5026 0
-152 -5010 5011 0
-5011 5027 0
-153 -5011 5012 0
-5012 5028 0
-154 -5012 0
-139 5013 0
-5013 5029 0
-140 -5013 5014 0
-5014 5030 0
-141 -5014 5015 0
-5015 5031 0
-142 -5015 5016 0
-5016 5032 0
-143 -5016 5017 0
-5017 5033 0
-144 -5017 5018 0
-5018 5034 0
-145 -5018 5019 0
-5019 5035 0
-146 -5019 5020 0
-5020 5036 0
-147 -5020 5021 0
-5021 5037 0
-148 -5021 5022 0
-5022 5038 0
-149 -5022 5023 0
-5023 5039 0
-150 -5023 5024 0
-5024 5040 0
-151 -5024 5025 0
-5025 5041 0
-152 -5025 5026 0
-5026 5042 0
-153 -5026 5027 0
-5027 5043 0
-154 -5027 5028 0
-5028 5044 0
-155 -5028 0
-140 5029 0
-5029 5045 0
-141 -5029 5030 0
-5030 5046 0
-142 -5030 5031 0
-5031 5047 0
-143 -5031 5032 0
-5032 5048 0
-144 -5032 5033 0
-5033 5049 0
-145 -5033 5034 0
-5034 5050 0
-146 -5034 5035 0
-5035 5051 0
-147 -5035 5036 0
-5036 5052 0
-148 -5036 5037 0
-5037 5053 0
-149 -5037 5038 0
-5038 5054 0
-150 -5038 5039 0
-5039 5055 0
-151 -5039 5040 0
-5040 5056 0
-152 -5040 5041 0
-5041 5057 0
-153 -5041 5042 0
-5042 5058 0
-154 -5042 5043 0
-5043 5059 0
-155 -5043 5044 0
-5044 5060 0
-156 -5044 0
-141 5045 0
-5045 5061 0
-142 -5045 5046 0
-5046 5062 0
-143 -5046 5047 0
-5047 5063 0
-144 -5047 5048 0
-5048 5064 0
-145 -5048 5049 0
-5049 5065 0
-146 -5049 5050 0
-5050 5066 0
-147 -5050 5051 0
-5051 5067 0
-148 -5051 5052 0
-5052 5068 0
-149 -5052 5053 0
-5053 5069 0
-150 -5053 5054 0
-5054 5070 0
-151 -5054 5055 0
-5055 5071 0
-152 -5055 5056 0
-5056 5072 0
-153 -5056 5057 0
-5057 5073 0
-154 -5057 5058 0
-5058 5074 0
-155 -5058 5059 0
-5059 5075 0
-156 -5059 5060 0
-5060 5076 0
-157 -5060 0
-142 5061 0
-5061 5077 0
-143 -5061 5062 0
-5062 5078 0
-144 -5062 5063 0
-5063 5079 0
-145 -5063 5064 0
-5064 5080 0
-146 -5064 5065 0
-5065 5081 0
-147 -5065 5066 0
-5066 5082 0
-148 -5066 5067 0
-5067 5083 0
-149 -5067 5068 0
-5068 5084 0
-150 -5068 5069 0
-5069 5085 0
-151 -5069 5070 0
-5070 5086 0
-152 -5070 5071 0
-5071 5087 0
-153 -5071 5072 0
-5072 5088 0
-154 -5072 5073 0
-5073 5089 0
-155 -5073 5074 0
-5074 5090 0
-156 -5074 5075 0
-5075 5091 0
-157 -5075 5076 0
-5076 5092 0
-158 -5076 0
-143 5077 0
-5077 5093 0
-144 -5077 5078 0
-5078 5094 0
-145 -5078 5079 0
-5079 5095 0
-146 -5079 5080 0
-5080 5096 0
-147 -5080 5081 0
-5081 5097 0
-148 -5081 5082 0
-5082 5098 0
-149 -5082 5083 0
-5083 5099 0
-150 -5083 5084 0
-5084 5100 0
-151 -5084 5085 0
-5085 5101 0
-152 -5085 5086 0
-5086 5102 0
-153 -5086 5087 0
-5087 5103 0
-154 -5087 5088 0
-5088 5104 0
-155 -5088 5089 0
-5089 5105 0
-156 -5089 5090 0
-5090 5106 0
-157 -5090 5091 0
-5091 5107 0
-158 -5091 5092 0
-5092 5108 0
-159 -5092 0
-144 5093 0
-5093 5109 0
-145 -5093 5094 0
-5094 5110 0
-146 -5094 5095 0
-5095 5111 0
-147 -5095 5096 0
-5096 5112 0
-148 -5096 5097 0
-5097 5113 0
-149 -5097 5098 0
-5098 5114 0
-150 -5098 5099 0
-5099 5115 0
-151 -5099 5100 0
-5100 5116 0
-152 -5100 5101 0
-5101 5117 0
-153 -5101 5102 0
-5102 5118 0
-154 -5102 5103 0
-5103 5119 0
-155 -5103 5104 0
-5104 5120 0
-156 -5104 5105 0
-5105 5121 0
-157 -5105 5106 0
-5106 5122 0
-158 -5106 5107 0
-5107 5123 0
-159 -5107 5108 0
-5108 5124 0
-160 -5108 0
-145 5109 0
-5109 5125 0
-146 -5109 5110 0
-5110 5126 0
-147 -5110 5111 0
-5111 5127 0
-148 -5111 5112 0
-5112 5128 0
-149 -5112 5113 0
-5113 5129 0
-150 -5113 5114 0
-5114 5130 0
-151 -5114 5115 0
-5115 5131 0
-152 -5115 5116 0
-5116 5132 0
-153 -5116 5117 0
-5117 5133 0
-154 -5117 5118 0
-5118 5134 0
-155 -5118 5119 0
-5119 5135 0
-156 -5119 5120 0
-5120 5136 0
-157 -5120 5121 0
-5121 5137 0
-158 -5121 5122 0
-5122 5138 0
-159 -5122 5123 0
-5123 5139 0
-160 -5123 5124 0
-5124 5140 0
-161 -5124 0
-146 5125 0
-5125 5141 0
-147 -5125 5126 0
-5126 5142 0
-148 -5126 5127 0
-5127 5143 0
-149 -5127 5128 0
-5128 5144 0
-150 -5128 5129 0
-5129 5145 0
-151 -5129 5130 0
-5130 5146 0
-152 -5130 5131 0
-5131 5147 0
-153 -5131 5132 0
-5132 5148 0
-154 -5132 5133 0
-5133 5149 0
-155 -5133 5134 0
-5134 5150 0
-156 -5134 5135 0
-5135 5151 0
-157 -5135 5136 0
-5136 5152 0
-158 -5136 5137 0
-5137 5153 0
-159 -5137 5138 0
-5138 5154 0
-160 -5138 5139 0
-5139 5155 0
-161 -5139 5140 0
-5140 5156 0
-162 -5140 0
-147 5141 0
-5141 5157 0
-148 -5141 5142 0
-5142 5158 0
-149 -5142 5143 0
-5143 5159 0
-150 -5143 5144 0
-5144 5160 0
-151 -5144 5145 0
-5145 5161 0
-152 -5145 5146 0
-5146 5162 0
-153 -5146 5147 0
-5147 5163 0
-154 -5147 5148 0
-5148 5164 0
-155 -5148 5149 0
-5149 5165 0
-156 -5149 5150 0
-5150 5166 0
-157 -5150 5151 0
-5151 5167 0
-158 -5151 5152 0
-5152 5168 0
-159 -5152 5153 0
-5153 5169 0
-160 -5153 5154 0
-5154 5170 0
-161 -5154 5155 0
-5155 5171 0
-162 -5155 5156 0
-5156 5172 0
-163 -5156 0
-148 5157 0
-5157 5173 0
-149 -5157 5158 0
-5158 5174 0
-150 -5158 5159 0
-5159 5175 0
-151 -5159 5160 0
-5160 5176 0
-152 -5160 5161 0
-5161 5177 0
-153 -5161 5162 0
-5162 5178 0
-154 -5162 5163 0
-5163 5179 0
-155 -5163 5164 0
-5164 5180 0
-156 -5164 5165 0
-5165 5181 0
-157 -5165 5166 0
-5166 5182 0
-158 -5166 5167 0
-5167 5183 0
-159 -5167 5168 0
-5168 5184 0
-160 -5168 5169 0
-5169 5185 0
-161 -5169 5170 0
-5170 5186 0
-162 -5170 5171 0
-5171 5187 0
-163 -5171 5172 0
-5172 5188 0
-164 -5172 0
-149 5173 0
-5173 5189 0
-150 -5173 5174 0
-5174 5190 0
-151 -5174 5175 0
-5175 5191 0
-152 -5175 5176 0
-5176 5192 0
-153 -5176 5177 0
-5177 5193 0
-154 -5177 5178 0
-5178 5194 0
-155 -5178 5179 0
-5179 5195 0
-156 -5179 5180 0
-5180 5196 0
-157 -5180 5181 0
-5181 5197 0
-158 -5181 5182 0
-5182 5198 0
-159 -5182 5183 0
-5183 5199 0
-160 -5183 5184 0
-5184 5200 0
-161 -5184 5185 0
-5185 5201 0
-162 -5185 5186 0
-5186 5202 0
-163 -5186 5187 0
-5187 5203 0
-164 -5187 5188 0
-5188 5204 0
-165 -5188 0
-150 5189 0
-5189 5205 0
-151 -5189 5190 0
-5190 5206 0
-152 -5190 5191 0
-5191 5207 0
-153 -5191 5192 0
-5192 5208 0
-154 -5192 5193 0
-5193 5209 0
-155 -5193 5194 0
-5194 5210 0
-156 -5194 5195 0
-5195 5211 0
-157 -5195 5196 0
-5196 5212 0
-158 -5196 5197 0
-5197 5213 0
-159 -5197 5198 0
-5198 5214 0
-160 -5198 5199 0
-5199 5215 0
-161 -5199 5200 0
-5200 5216 0
-162 -5200 5201 0
-5201 5217 0
-163 -5201 5202 0
-5202 5218 0
-164 -5202 5203 0
-5203 5219 0
-165 -5203 5204 0
-5204 5220 0
-166 -5204 0
-151 5205 0
-5205 5221 0
-152 -5205 5206 0
-5206 5222 0
-153 -5206 5207 0
-5207 5223 0
-154 -5207 5208 0
-5208 5224 0
-155 -5208 5209 0
-5209 5225 0
-156 -5209 5210 0
-5210 5226 0
-157 -5210 5211 0
-5211 5227 0
-158 -5211 5212 0
-5212 5228 0
-159 -5212 5213 0
-5213 5229 0
-160 -5213 5214 0
-5214 5230 0
-161 -5214 5215 0
-5215 5231 0
-162 -5215 5216 0
-5216 5232 0
-163 -5216 5217 0
-5217 5233 0
-164 -5217 5218 0
-5218 5234 0
-165 -5218 5219 0
-5219 5235 0
-166 -5219 5220 0
-5220 5236 0
-167 -5220 0
-152 5221 0
-5221 5237 0
-153 -5221 5222 0
-5222 5238 0
-154 -5222 5223 0
-5223 5239 0
-155 -5223 5224 0
-5224 5240 0
-156 -5224 5225 0
-5225 5241 0
-157 -5225 5226 0
-5226 5242 0
-158 -5226 5227 0
-5227 5243 0
-159 -5227 5228 0
-5228 5244 0
-160 -5228 5229 0
-5229 5245 0
-161 -5229 5230 0
-5230 5246 0
-162 -5230 5231 0
-5231 5247 0
-163 -5231 5232 0
-5232 5248 0
-164 -5232 5233 0
-5233 5249 0
-165 -5233 5234 0
-5234 5250 0
-166 -5234 5235 0
-5235 5251 0
-167 -5235 5236 0
-5236 5252 0
-168 -5236 0
-153 5237 0
-5237 5253 0
-154 -5237 5238 0
-5238 5254 0
-155 -5238 5239 0
-5239 5255 0
-156 -5239 5240 0
-5240 5256 0
-157 -5240 5241 0
-5241 5257 0
-158 -5241 5242 0
-5242 5258 0
-159 -5242 5243 0
-5243 5259 0
-160 -5243 5244 0
-5244 5260 0
-161 -5244 5245 0
-5245 5261 0
-162 -5245 5246 0
-5246 5262 0
-163 -5246 5247 0
-5247 5263 0
-164 -5247 5248 0
-5248 5264 0
-165 -5248 5249 0
-5249 5265 0
-166 -5249 5250 0
-5250 5266 0
-167 -5250 5251 0
-5251 5267 0
-168 -5251 5252 0
-5252 5268 0
-169 -5252 0
-154 5253 0
-155 -5253 5254 0
-156 -5254 5255 0
-157 -5255 5256 0
-158 -5256 5257 0
-159 -5257 5258 0
-160 -5258 5259 0
-161 -5259 5260 0
-162 -5260 5261 0
-163 -5261 5262 0
-164 -5262 5263 0
-165 -5263 5264 0
-166 -5264 5265 0
-167 -5265 5266 0
-168 -5266 5267 0
-169 -5267 5268 0
-170 -5268 0
-171 5269 0
-5269 5270 0
-172 -5269 5271 0
-5271 5272 0
-173 -5271 5273 0
-5273 5274 0
-174 -5273 5275 0
-5275 5276 0
-175 -5275 5277 0
-5277 5278 0
-176 -5277 5279 0
-5279 5280 0
-177 -5279 5281 0
-5281 5282 0
-178 -5281 5283 0
-5283 5284 0
-179 -5283 5285 0
-5285 5286 0
-180 -5285 0
-172 5270 0
-5270 5287 0
-173 -5270 5272 0
-5272 5288 0
-174 -5272 5274 0
-5274 5289 0
-175 -5274 5276 0
-5276 5290 0
-176 -5276 5278 0
-5278 5291 0
-177 -5278 5280 0
-5280 5292 0
-178 -5280 5282 0
-5282 5293 0
-179 -5282 5284 0
-5284 5294 0
-180 -5284 5286 0
-5286 5295 0
-181 -5286 0
-173 5287 0
-5287 5296 0
-174 -5287 5288 0
-5288 5297 0
-175 -5288 5289 0
-5289 5298 0
-176 -5289 5290 0
-5290 5299 0
-177 -5290 5291 0
-5291 5300 0
-178 -5291 5292 0
-5292 5301 0
-179 -5292 5293 0
-5293 5302 0
-180 -5293 5294 0
-5294 5303 0
-181 -5294 5295 0
-5295 5304 0
-182 -5295 0
-174 5296 0
-5296 5305 0
-175 -5296 5297 0
-5297 5306 0
-176 -5297 5298 0
-5298 5307 0
-177 -5298 5299 0
-5299 5308 0
-178 -5299 5300 0
-5300 5309 0
-179 -5300 5301 0
-5301 5310 0
-180 -5301 5302 0
-5302 5311 0
-181 -5302 5303 0
-5303 5312 0
-182 -5303 5304 0
-5304 5313 0
-183 -5304 0
-175 5305 0
-5305 5314 0
-176 -5305 5306 0
-5306 5315 0
-177 -5306 5307 0
-5307 5316 0
-178 -5307 5308 0
-5308 5317 0
-179 -5308 5309 0
-5309 5318 0
-180 -5309 5310 0
-5310 5319 0
-181 -5310 5311 0
-5311 5320 0
-182 -5311 5312 0
-5312 5321 0
-183 -5312 5313 0
-5313 5322 0
-184 -5313 0
-176 5314 0
-5314 5323 0
-177 -5314 5315 0
-5315 5324 0
-178 -5315 5316 0
-5316 5325 0
-179 -5316 5317 0
-5317 5326 0
-180 -5317 5318 0
-5318 5327 0
-181 -5318 5319 0
-5319 5328 0
-182 -5319 5320 0
-5320 5329 0
-183 -5320 5321 0
-5321 5330 0
-184 -5321 5322 0
-5322 5331 0
-185 -5322 0
-177 5323 0
-5323 5332 0
-178 -5323 5324 0
-5324 5333 0
-179 -5324 5325 0
-5325 5334 0
-180 -5325 5326 0
-5326 5335 0
-181 -5326 5327 0
-5327 5336 0
-182 -5327 5328 0
-5328 5337 0
-183 -5328 5329 0
-5329 5338 0
-184 -5329 5330 0
-5330 5339 0
-185 -5330 5331 0
-5331 5340 0
-186 -5331 0
-178 5332 0
-5332 5341 0
-179 -5332 5333 0
-5333 5342 0
-180 -5333 5334 0
-5334 5343 0
-181 -5334 5335 0
-5335 5344 0
-182 -5335 5336 0
-5336 5345 0
-183 -5336 5337 0
-5337 5346 0
-184 -5337 5338 0
-5338 5347 0
-185 -5338 5339 0
-5339 5348 0
-186 -5339 5340 0
-5340 5349 0
-187 -5340 0
-179 5341 0
-5341 5350 0
-180 -5341 5342 0
-5342 5351 0
-181 -5342 5343 0
-5343 5352 0
-182 -5343 5344 0
-5344 5353 0
-183 -5344 5345 0
-5345 5354 0
-184 -5345 5346 0
-5346 5355 0
-185 -5346 5347 0
-5347 5356 0
-186 -5347 5348 0
-5348 5357 0
-187 -5348 5349 0
-5349 5358 0
-188 -5349 0
-180 5350 0
-5350 5359 0
-181 -5350 5351 0
-5351 5360 0
-182 -5351 5352 0
-5352 5361 0
-183 -5352 5353 0
-5353 5362 0
-184 -5353 5354 0
-5354 5363 0
-185 -5354 5355 0
-5355 5364 0
-186 -5355 5356 0
-5356 5365 0
-187 -5356 5357 0
-5357 5366 0
-188 -5357 5358 0
-5358 5367 0
-189 -5358 0
-181 5359 0
-5359 5368 0
-182 -5359 5360 0
-5360 5369 0
-183 -5360 5361 0
-5361 5370 0
-184 -5361 5362 0
-5362 5371 0
-185 -5362 5363 0
-5363 5372 0
-186 -5363 5364 0
-5364 5373 0
-187 -5364 5365 0
-5365 5374 0
-188 -5365 5366 0
-5366 5375 0
-189 -5366 5367 0
-5367 5376 0
-190 -5367 0
-182 5368 0
-5368 5377 0
-183 -5368 5369 0
-5369 5378 0
-184 -5369 5370 0
-5370 5379 0
-185 -5370 5371 0
-5371 5380 0
-186 -5371 5372 0
-5372 5381 0
-187 -5372 5373 0
-5373 5382 0
-188 -5373 5374 0
-5374 5383 0
-189 -5374 5375 0
-5375 5384 0
-190 -5375 5376 0
-5376 5385 0
-191 -5376 0
-183 5377 0
-5377 5386 0
-184 -5377 5378 0
-5378 5387 0
-185 -5378 5379 0
-5379 5388 0
-186 -5379 5380 0
-5380 5389 0
-187 -5380 5381 0
-5381 5390 0
-188 -5381 5382 0
-5382 5391 0
-189 -5382 5383 0
-5383 5392 0
-190 -5383 5384 0
-5384 5393 0
-191 -5384 5385 0
-5385 5394 0
-192 -5385 0
-184 5386 0
-5386 5395 0
-185 -5386 5387 0
-5387 5396 0
-186 -5387 5388 0
-5388 5397 0
-187 -5388 5389 0
-5389 5398 0
-188 -5389 5390 0
-5390 5399 0
-189 -5390 5391 0
-5391 5400 0
-190 -5391 5392 0
-5392 5401 0
-191 -5392 5393 0
-5393 5402 0
-192 -5393 5394 0
-5394 5403 0
-193 -5394 0
-185 5395 0
-5395 5404 0
-186 -5395 5396 0
-5396 5405 0
-187 -5396 5397 0
-5397 5406 0
-188 -5397 5398 0
-5398 5407 0
-189 -5398 5399 0
-5399 5408 0
-190 -5399 5400 0
-5400 5409 0
-191 -5400 5401 0
-5401 5410 0
-192 -5401 5402 0
-5402 5411 0
-193 -5402 5403 0
-5403 5412 0
-194 -5403 0
-186 5404 0
-5404 5413 0
-187 -5404 5405 0
-5405 5414 0
-188 -5405 5406 0
-5406 5415 0
-189 -5406 5407 0
-5407 5416 0
-190 -5407 5408 0
-5408 5417 0
-191 -5408 5409 0
-5409 5418 0
-192 -5409 5410 0
-5410 5419 0
-193 -5410 5411 0
-5411 5420 0
-194 -5411 5412 0
-5412 5421 0
-195 -5412 0
-187 5413 0
-5413 5422 0
-188 -5413 5414 0
-5414 5423 0
-189 -5414 5415 0
-5415 5424 0
-190 -5415 5416 0
-5416 5425 0
-191 -5416 5417 0
-5417 5426 0
-192 -5417 5418 0
-5418 5427 0
-193 -5418 5419 0
-5419 5428 0
-194 -5419 5420 0
-5420 5429 0
-195 -5420 5421 0
-5421 5430 0
-196 -5421 0
-188 5422 0
-5422 5431 0
-189 -5422 5423 0
-5423 5432 0
-190 -5423 5424 0
-5424 5433 0
-191 -5424 5425 0
-5425 5434 0
-192 -5425 5426 0
-5426 5435 0
-193 -5426 5427 0
-5427 5436 0
-194 -5427 5428 0
-5428 5437 0
-195 -5428 5429 0
-5429 5438 0
-196 -5429 5430 0
-5430 5439 0
-197 -5430 0
-189 5431 0
-5431 5440 0
-190 -5431 5432 0
-5432 5441 0
-191 -5432 5433 0
-5433 5442 0
-192 -5433 5434 0
-5434 5443 0
-193 -5434 5435 0
-5435 5444 0
-194 -5435 5436 0
-5436 5445 0
-195 -5436 5437 0
-5437 5446 0
-196 -5437 5438 0
-5438 5447 0
-197 -5438 5439 0
-5439 5448 0
-198 -5439 0
-190 5440 0
-5440 5449 0
-191 -5440 5441 0
-5441 5450 0
-192 -5441 5442 0
-5442 5451 0
-193 -5442 5443 0
-5443 5452 0
-194 -5443 5444 0
-5444 5453 0
-195 -5444 5445 0
-5445 5454 0
-196 -5445 5446 0
-5446 5455 0
-197 -5446 5447 0
-5447 5456 0
-198 -5447 5448 0
-5448 5457 0
-199 -5448 0
-191 5449 0
-5449 5458 0
-192 -5449 5450 0
-5450 5459 0
-193 -5450 5451 0
-5451 5460 0
-194 -5451 5452 0
-5452 5461 0
-195 -5452 5453 0
-5453 5462 0
-196 -5453 5454 0
-5454 5463 0
-197 -5454 5455 0
-5455 5464 0
-198 -5455 5456 0
-5456 5465 0
-199 -5456 5457 0
-5457 5466 0
-200 -5457 0
-192 5458 0
-5458 5467 0
-193 -5458 5459 0
-5459 5468 0
-194 -5459 5460 0
-5460 5469 0
-195 -5460 5461 0
-5461 5470 0
-196 -5461 5462 0
-5462 5471 0
-197 -5462 5463 0
-5463 5472 0
-198 -5463 5464 0
-5464 5473 0
-199 -5464 5465 0
-5465 5474 0
-200 -5465 5466 0
-5466 5475 0
-201 -5466 0
-193 5467 0
-5467 5476 0
-194 -5467 5468 0
-5468 5477 0
-195 -5468 5469 0
-5469 5478 0
-196 -5469 5470 0
-5470 5479 0
-197 -5470 5471 0
-5471 5480 0
-198 -5471 5472 0
-5472 5481 0
-199 -5472 5473 0
-5473 5482 0
-200 -5473 5474 0
-5474 5483 0
-201 -5474 5475 0
-5475 5484 0
-202 -5475 0
-194 5476 0
-5476 5485 0
-195 -5476 5477 0
-5477 5486 0
-196 -5477 5478 0
-5478 5487 0
-197 -5478 5479 0
-5479 5488 0
-198 -5479 5480 0
-5480 5489 0
-199 -5480 5481 0
-5481 5490 0
-200 -5481 5482 0
-5482 5491 0
-201 -5482 5483 0
-5483 5492 0
-202 -5483 5484 0
-5484 5493 0
-203 -5484 0
-195 5485 0
-5485 5494 0
-196 -5485 5486 0
-5486 5495 0
-197 -5486 5487 0
-5487 5496 0
-198 -5487 5488 0
-5488 5497 0
-199 -5488 5489 0
-5489 5498 0
-200 -5489 5490 0
-5490 5499 0
-201 -5490 5491 0
-5491 5500 0
-202 -5491 5492 0
-5492 5501 0
-203 -5492 5493 0
-5493 5502 0
-204 -5493 0
-196 5494 0
-5494 5503 0
-197 -5494 5495 0
-5495 5504 0
-198 -5495 5496 0
-5496 5505 0
-199 -5496 5497 0
-5497 5506 0
-200 -5497 5498 0
-5498 5507 0
-201 -5498 5499 0
-5499 5508 0
-202 -5499 5500 0
-5500 5509 0
-203 -5500 5501 0
-5501 5510 0
-204 -5501 5502 0
-5502 5511 0
-205 -5502 0
-197 5503 0
-5503 5512 0
-198 -5503 5504 0
-5504 5513 0
-199 -5504 5505 0
-5505 5514 0
-200 -5505 5506 0
-5506 5515 0
-201 -5506 5507 0
-5507 5516 0
-202 -5507 5508 0
-5508 5517 0
-203 -5508 5509 0
-5509 5518 0
-204 -5509 5510 0
-5510 5519 0
-205 -5510 5511 0
-5511 5520 0
-206 -5511 0
-198 5512 0
-5512 5521 0
-199 -5512 5513 0
-5513 5522 0
-200 -5513 5514 0
-5514 5523 0
-201 -5514 5515 0
-5515 5524 0
-202 -5515 5516 0
-5516 5525 0
-203 -5516 5517 0
-5517 5526 0
-204 -5517 5518 0
-5518 5527 0
-205 -5518 5519 0
-5519 5528 0
-206 -5519 5520 0
-5520 5529 0
-207 -5520 0
-199 5521 0
-5521 5530 0
-200 -5521 5522 0
-5522 5531 0
-201 -5522 5523 0
-5523 5532 0
-202 -5523 5524 0
-5524 5533 0
-203 -5524 5525 0
-5525 5534 0
-204 -5525 5526 0
-5526 5535 0
-205 -5526 5527 0
-5527 5536 0
-206 -5527 5528 0
-5528 5537 0
-207 -5528 5529 0
-5529 5538 0
-208 -5529 0
-200 5530 0
-5530 5539 0
-201 -5530 5531 0
-5531 5540 0
-202 -5531 5532 0
-5532 5541 0
-203 -5532 5533 0
-5533 5542 0
-204 -5533 5534 0
-5534 5543 0
-205 -5534 5535 0
-5535 5544 0
-206 -5535 5536 0
-5536 5545 0
-207 -5536 5537 0
-5537 5546 0
-208 -5537 5538 0
-5538 5547 0
-209 -5538 0
-201 5539 0
-5539 5548 0
-202 -5539 5540 0
-5540 5549 0
-203 -5540 5541 0
-5541 5550 0
-204 -5541 5542 0
-5542 5551 0
-205 -5542 5543 0
-5543 5552 0
-206 -5543 5544 0
-5544 5553 0
-207 -5544 5545 0
-5545 5554 0
-208 -5545 5546 0
-5546 5555 0
-209 -5546 5547 0
-5547 5556 0
-210 -5547 0
-202 5548 0
-5548 5557 0
-203 -5548 5549 0
-5549 5558 0
-204 -5549 5550 0
-5550 5559 0
-205 -5550 5551 0
-5551 5560 0
-206 -5551 5552 0
-5552 5561 0
-207 -5552 5553 0
-5553 5562 0
-208 -5553 5554 0
-5554 5563 0
-209 -5554 5555 0
-5555 5564 0
-210 -5555 5556 0
-5556 5565 0
-211 -5556 0
-203 5557 0
-5557 5566 0
-204 -5557 5558 0
-5558 5567 0
-205 -5558 5559 0
-5559 5568 0
-206 -5559 5560 0
-5560 5569 0
-207 -5560 5561 0
-5561 5570 0
-208 -5561 5562 0
-5562 5571 0
-209 -5562 5563 0
-5563 5572 0
-210 -5563 5564 0
-5564 5573 0
-211 -5564 5565 0
-5565 5574 0
-212 -5565 0
-204 5566 0
-5566 5575 0
-205 -5566 5567 0
-5567 5576 0
-206 -5567 5568 0
-5568 5577 0
-207 -5568 5569 0
-5569 5578 0
-208 -5569 5570 0
-5570 5579 0
-209 -5570 5571 0
-5571 5580 0
-210 -5571 5572 0
-5572 5581 0
-211 -5572 5573 0
-5573 5582 0
-212 -5573 5574 0
-5574 5583 0
-213 -5574 0
-205 5575 0
-5575 5584 0
-206 -5575 5576 0
-5576 5585 0
-207 -5576 5577 0
-5577 5586 0
-208 -5577 5578 0
-5578 5587 0
-209 -5578 5579 0
-5579 5588 0
-210 -5579 5580 0
-5580 5589 0
-211 -5580 5581 0
-5581 5590 0
-212 -5581 5582 0
-5582 5591 0
-213 -5582 5583 0
-5583 5592 0
-214 -5583 0
-206 5584 0
-5584 5593 0
-207 -5584 5585 0
-5585 5594 0
-208 -5585 5586 0
-5586 5595 0
-209 -5586 5587 0
-5587 5596 0
-210 -5587 5588 0
-5588 5597 0
-211 -5588 5589 0
-5589 5598 0
-212 -5589 5590 0
-5590 5599 0
-213 -5590 5591 0
-5591 5600 0
-214 -5591 5592 0
-5592 5601 0
-215 -5592 0
-207 5593 0
-5593 5602 0
-208 -5593 5594 0
-5594 5603 0
-209 -5594 5595 0
-5595 5604 0
-210 -5595 5596 0
-5596 5605 0
-211 -5596 5597 0
-5597 5606 0
-212 -5597 5598 0
-5598 5607 0
-213 -5598 5599 0
-5599 5608 0
-214 -5599 5600 0
-5600 5609 0
-215 -5600 5601 0
-5601 5610 0
-216 -5601 0
-208 5602 0
-5602 5611 0
-209 -5602 5603 0
-5603 5612 0
-210 -5603 5604 0
-5604 5613 0
-211 -5604 5605 0
-5605 5614 0
-212 -5605 5606 0
-5606 5615 0
-213 -5606 5607 0
-5607 5616 0
-214 -5607 5608 0
-5608 5617 0
-215 -5608 5609 0
-5609 5618 0
-216 -5609 5610 0
-5610 5619 0
-217 -5610 0
-209 5611 0
-5611 5620 0
-210 -5611 5612 0
-5612 5621 0
-211 -5612 5613 0
-5613 5622 0
-212 -5613 5614 0
-5614 5623 0
-213 -5614 5615 0
-5615 5624 0
-214 -5615 5616 0
-5616 5625 0
-215 -5616 5617 0
-5617 5626 0
-216 -5617 5618 0
-5618 5627 0
-217 -5618 5619 0
-5619 5628 0
-218 -5619 0
-210 5620 0
-5620 5629 0
-211 -5620 5621 0
-5621 5630 0
-212 -5621 5622 0
-5622 5631 0
-213 -5622 5623 0
-5623 5632 0
-214 -5623 5624 0
-5624 5633 0
-215 -5624 5625 0
-5625 5634 0
-216 -5625 5626 0
-5626 5635 0
-217 -5626 5627 0
-5627 5636 0
-218 -5627 5628 0
-5628 5637 0
-219 -5628 0
-211 5629 0
-5629 5638 0
-212 -5629 5630 0
-5630 5639 0
-213 -5630 5631 0
-5631 5640 0
-214 -5631 5632 0
-5632 5641 0
-215 -5632 5633 0
-5633 5642 0
-216 -5633 5634 0
-5634 5643 0
-217 -5634 5635 0
-5635 5644 0
-218 -5635 5636 0
-5636 5645 0
-219 -5636 5637 0
-5637 5646 0
-220 -5637 0
-212 5638 0
-5638 5647 0
-213 -5638 5639 0
-5639 5648 0
-214 -5639 5640 0
-5640 5649 0
-215 -5640 5641 0
-5641 5650 0
-216 -5641 5642 0
-5642 5651 0
-217 -5642 5643 0
-5643 5652 0
-218 -5643 5644 0
-5644 5653 0
-219 -5644 5645 0
-5645 5654 0
-220 -5645 5646 0
-5646 5655 0
-221 -5646 0
-213 5647 0
-5647 5656 0
-214 -5647 5648 0
-5648 5657 0
-215 -5648 5649 0
-5649 5658 0
-216 -5649 5650 0
-5650 5659 0
-217 -5650 5651 0
-5651 5660 0
-218 -5651 5652 0
-5652 5661 0
-219 -5652 5653 0
-5653 5662 0
-220 -5653 5654 0
-5654 5663 0
-221 -5654 5655 0
-5655 5664 0
-222 -5655 0
-214 5656 0
-5656 5665 0
-215 -5656 5657 0
-5657 5666 0
-216 -5657 5658 0
-5658 5667 0
-217 -5658 5659 0
-5659 5668 0
-218 -5659 5660 0
-5660 5669 0
-219 -5660 5661 0
-5661 5670 0
-220 -5661 5662 0
-5662 5671 0
-221 -5662 5663 0
-5663 5672 0
-222 -5663 5664 0
-5664 5673 0
-223 -5664 0
-215 5665 0
-5665 5674 0
-216 -5665 5666 0
-5666 5675 0
-217 -5666 5667 0
-5667 5676 0
-218 -5667 5668 0
-5668 5677 0
-219 -5668 5669 0
-5669 5678 0
-220 -5669 5670 0
-5670 5679 0
-221 -5670 5671 0
-5671 5680 0
-222 -5671 5672 0
-5672 5681 0
-223 -5672 5673 0
-5673 5682 0
-224 -5673 0
-216 5674 0
-5674 5683 0
-217 -5674 5675 0
-5675 5684 0
-218 -5675 5676 0
-5676 5685 0
-219 -5676 5677 0
-5677 5686 0
-220 -5677 5678 0
-5678 5687 0
-221 -5678 5679 0
-5679 5688 0
-222 -5679 5680 0
-5680 5689 0
-223 -5680 5681 0
-5681 5690 0
-224 -5681 5682 0
-5682 5691 0
-225 -5682 0
-217 5683 0
-5683 5692 0
-218 -5683 5684 0
-5684 5693 0
-219 -5684 5685 0
-5685 5694 0
-220 -5685 5686 0
-5686 5695 0
-221 -5686 5687 0
-5687 5696 0
-222 -5687 5688 0
-5688 5697 0
-223 -5688 5689 0
-5689 5698 0
-224 -5689 5690 0
-5690 5699 0
-225 -5690 5691 0
-5691 5700 0
-226 -5691 0
-218 5692 0
-5692 5701 0
-219 -5692 5693 0
-5693 5702 0
-220 -5693 5694 0
-5694 5703 0
-221 -5694 5695 0
-5695 5704 0
-222 -5695 5696 0
-5696 5705 0
-223 -5696 5697 0
-5697 5706 0
-224 -5697 5698 0
-5698 5707 0
-225 -5698 5699 0
-5699 5708 0
-226 -5699 5700 0
-5700 5709 0
-227 -5700 0
-219 5701 0
-5701 5710 0
-220 -5701 5702 0
-5702 5711 0
-221 -5702 5703 0
-5703 5712 0
-222 -5703 5704 0
-5704 5713 0
-223 -5704 5705 0
-5705 5714 0
-224 -5705 5706 0
-5706 5715 0
-225 -5706 5707 0
-5707 5716 0
-226 -5707 5708 0
-5708 5717 0
-227 -5708 5709 0
-5709 5718 0
-228 -5709 0
-220 5710 0
-5710 5719 0
-221 -5710 5711 0
-5711 5720 0
-222 -5711 5712 0
-5712 5721 0
-223 -5712 5713 0
-5713 5722 0
-224 -5713 5714 0
-5714 5723 0
-225 -5714 5715 0
-5715 5724 0
-226 -5715 5716 0
-5716 5725 0
-227 -5716 5717 0
-5717 5726 0
-228 -5717 5718 0
-5718 5727 0
-229 -5718 0
-221 5719 0
-5719 5728 0
-222 -5719 5720 0
-5720 5729 0
-223 -5720 5721 0
-5721 5730 0
-224 -5721 5722 0
-5722 5731 0
-225 -5722 5723 0
-5723 5732 0
-226 -5723 5724 0
-5724 5733 0
-227 -5724 5725 0
-5725 5734 0
-228 -5725 5726 0
-5726 5735 0
-229 -5726 5727 0
-5727 5736 0
-230 -5727 0
-222 5728 0
-5728 5737 0
-223 -5728 5729 0
-5729 5738 0
-224 -5729 5730 0
-5730 5739 0
-225 -5730 5731 0
-5731 5740 0
-226 -5731 5732 0
-5732 5741 0
-227 -5732 5733 0
-5733 5742 0
-228 -5733 5734 0
-5734 5743 0
-229 -5734 5735 0
-5735 5744 0
-230 -5735 5736 0
-5736 5745 0
-231 -5736 0
-223 5737 0
-5737 5746 0
-224 -5737 5738 0
-5738 5747 0
-225 -5738 5739 0
-5739 5748 0
-226 -5739 5740 0
-5740 5749 0
-227 -5740 5741 0
-5741 5750 0
-228 -5741 5742 0
-5742 5751 0
-229 -5742 5743 0
-5743 5752 0
-230 -5743 5744 0
-5744 5753 0
-231 -5744 5745 0
-5745 5754 0
-232 -5745 0
-224 5746 0
-5746 5755 0
-225 -5746 5747 0
-5747 5756 0
-226 -5747 5748 0
-5748 5757 0
-227 -5748 5749 0
-5749 5758 0
-228 -5749 5750 0
-5750 5759 0
-229 -5750 5751 0
-5751 5760 0
-230 -5751 5752 0
-5752 5761 0
-231 -5752 5753 0
-5753 5762 0
-232 -5753 5754 0
-5754 5763 0
-233 -5754 0
-225 5755 0
-5755 5764 0
-226 -5755 5756 0
-5756 5765 0
-227 -5756 5757 0
-5757 5766 0
-228 -5757 5758 0
-5758 5767 0
-229 -5758 5759 0
-5759 5768 0
-230 -5759 5760 0
-5760 5769 0
-231 -5760 5761 0
-5761 5770 0
-232 -5761 5762 0
-5762 5771 0
-233 -5762 5763 0
-5763 5772 0
-234 -5763 0
-226 5764 0
-5764 5773 0
-227 -5764 5765 0
-5765 5774 0
-228 -5765 5766 0
-5766 5775 0
-229 -5766 5767 0
-5767 5776 0
-230 -5767 5768 0
-5768 5777 0
-231 -5768 5769 0
-5769 5778 0
-232 -5769 5770 0
-5770 5779 0
-233 -5770 5771 0
-5771 5780 0
-234 -5771 5772 0
-5772 5781 0
-235 -5772 0
-227 5773 0
-5773 5782 0
-228 -5773 5774 0
-5774 5783 0
-229 -5774 5775 0
-5775 5784 0
-230 -5775 5776 0
-5776 5785 0
-231 -5776 5777 0
-5777 5786 0
-232 -5777 5778 0
-5778 5787 0
-233 -5778 5779 0
-5779 5788 0
-234 -5779 5780 0
-5780 5789 0
-235 -5780 5781 0
-5781 5790 0
-236 -5781 0
-228 5782 0
-5782 5791 0
-229 -5782 5783 0
-5783 5792 0
-230 -5783 5784 0
-5784 5793 0
-231 -5784 5785 0
-5785 5794 0
-232 -5785 5786 0
-5786 5795 0
-233 -5786 5787 0
-5787 5796 0
-234 -5787 5788 0
-5788 5797 0
-235 -5788 5789 0
-5789 5798 0
-236 -5789 5790 0
-5790 5799 0
-237 -5790 0
-229 5791 0
-5791 5800 0
-230 -5791 5792 0
-5792 5801 0
-231 -5792 5793 0
-5793 5802 0
-232 -5793 5794 0
-5794 5803 0
-233 -5794 5795 0
-5795 5804 0
-234 -5795 5796 0
-5796 5805 0
-235 -5796 5797 0
-5797 5806 0
-236 -5797 5798 0
-5798 5807 0
-237 -5798 5799 0
-5799 5808 0
-238 -5799 0
-230 5800 0
-5800 5809 0
-231 -5800 5801 0
-5801 5810 0
-232 -5801 5802 0
-5802 5811 0
-233 -5802 5803 0
-5803 5812 0
-234 -5803 5804 0
-5804 5813 0
-235 -5804 5805 0
-5805 5814 0
-236 -5805 5806 0
-5806 5815 0
-237 -5806 5807 0
-5807 5816 0
-238 -5807 5808 0
-5808 5817 0
-239 -5808 0
-231 5809 0
-5809 5818 0
-232 -5809 5810 0
-5810 5819 0
-233 -5810 5811 0
-5811 5820 0
-234 -5811 5812 0
-5812 5821 0
-235 -5812 5813 0
-5813 5822 0
-236 -5813 5814 0
-5814 5823 0
-237 -5814 5815 0
-5815 5824 0
-238 -5815 5816 0
-5816 5825 0
-239 -5816 5817 0
-5817 5826 0
-240 -5817 0
-232 5818 0
-5818 5827 0
-233 -5818 5819 0
-5819 5828 0
-234 -5819 5820 0
-5820 5829 0
-235 -5820 5821 0
-5821 5830 0
-236 -5821 5822 0
-5822 5831 0
-237 -5822 5823 0
-5823 5832 0
-238 -5823 5824 0
-5824 5833 0
-239 -5824 5825 0
-5825 5834 0
-240 -5825 5826 0
-5826 5835 0
-241 -5826 0
-233 5827 0
-5827 5836 0
-234 -5827 5828 0
-5828 5837 0
-235 -5828 5829 0
-5829 5838 0
-236 -5829 5830 0
-5830 5839 0
-237 -5830 5831 0
-5831 5840 0
-238 -5831 5832 0
-5832 5841 0
-239 -5832 5833 0
-5833 5842 0
-240 -5833 5834 0
-5834 5843 0
-241 -5834 5835 0
-5835 5844 0
-242 -5835 0
-234 5836 0
-5836 5845 0
-235 -5836 5837 0
-5837 5846 0
-236 -5837 5838 0
-5838 5847 0
-237 -5838 5839 0
-5839 5848 0
-238 -5839 5840 0
-5840 5849 0
-239 -5840 5841 0
-5841 5850 0
-240 -5841 5842 0
-5842 5851 0
-241 -5842 5843 0
-5843 5852 0
-242 -5843 5844 0
-5844 5853 0
-243 -5844 0
-235 5845 0
-5845 5854 0
-236 -5845 5846 0
-5846 5855 0
-237 -5846 5847 0
-5847 5856 0
-238 -5847 5848 0
-5848 5857 0
-239 -5848 5849 0
-5849 5858 0
-240 -5849 5850 0
-5850 5859 0
-241 -5850 5851 0
-5851 5860 0
-242 -5851 5852 0
-5852 5861 0
-243 -5852 5853 0
-5853 5862 0
-244 -5853 0
-236 5854 0
-5854 5863 0
-237 -5854 5855 0
-5855 5864 0
-238 -5855 5856 0
-5856 5865 0
-239 -5856 5857 0
-5857 5866 0
-240 -5857 5858 0
-5858 5867 0
-241 -5858 5859 0
-5859 5868 0
-242 -5859 5860 0
-5860 5869 0
-243 -5860 5861 0
-5861 5870 0
-244 -5861 5862 0
-5862 5871 0
-245 -5862 0
-237 5863 0
-5863 5872 0
-238 -5863 5864 0
-5864 5873 0
-239 -5864 5865 0
-5865 5874 0
-240 -5865 5866 0
-5866 5875 0
-241 -5866 5867 0
-5867 5876 0
-242 -5867 5868 0
-5868 5877 0
-243 -5868 5869 0
-5869 5878 0
-244 -5869 5870 0
-5870 5879 0
-245 -5870 5871 0
-5871 5880 0
-246 -5871 0
-238 5872 0
-5872 5881 0
-239 -5872 5873 0
-5873 5882 0
-240 -5873 5874 0
-5874 5883 0
-241 -5874 5875 0
-5875 5884 0
-242 -5875 5876 0
-5876 5885 0
-243 -5876 5877 0
-5877 5886 0
-244 -5877 5878 0
-5878 5887 0
-245 -5878 5879 0
-5879 5888 0
-246 -5879 5880 0
-5880 5889 0
-247 -5880 0
-239 5881 0
-5881 5890 0
-240 -5881 5882 0
-5882 5891 0
-241 -5882 5883 0
-5883 5892 0
-242 -5883 5884 0
-5884 5893 0
-243 -5884 5885 0
-5885 5894 0
-244 -5885 5886 0
-5886 5895 0
-245 -5886 5887 0
-5887 5896 0
-246 -5887 5888 0
-5888 5897 0
-247 -5888 5889 0
-5889 5898 0
-248 -5889 0
-240 5890 0
-5890 5899 0
-241 -5890 5891 0
-5891 5900 0
-242 -5891 5892 0
-5892 5901 0
-243 -5892 5893 0
-5893 5902 0
-244 -5893 5894 0
-5894 5903 0
-245 -5894 5895 0
-5895 5904 0
-246 -5895 5896 0
-5896 5905 0
-247 -5896 5897 0
-5897 5906 0
-248 -5897 5898 0
-5898 5907 0
-249 -5898 0
-241 5899 0
-5899 5908 0
-242 -5899 5900 0
-5900 5909 0
-243 -5900 5901 0
-5901 5910 0
-244 -5901 5902 0
-5902 5911 0
-245 -5902 5903 0
-5903 5912 0
-246 -5903 5904 0
-5904 5913 0
-247 -5904 5905 0
-5905 5914 0
-248 -5905 5906 0
-5906 5915 0
-249 -5906 5907 0
-5907 5916 0
-250 -5907 0
-242 5908 0
-5908 5917 0
-243 -5908 5909 0
-5909 5918 0
-244 -5909 5910 0
-5910 5919 0
-245 -5910 5911 0
-5911 5920 0
-246 -5911 5912 0
-5912 5921 0
-247 -5912 5913 0
-5913 5922 0
-248 -5913 5914 0
-5914 5923 0
-249 -5914 5915 0
-5915 5924 0
-250 -5915 5916 0
-5916 5925 0
-251 -5916 0
-243 5917 0
-5917 5926 0
-244 -5917 5918 0
-5918 5927 0
-245 -5918 5919 0
-5919 5928 0
-246 -5919 5920 0
-5920 5929 0
-247 -5920 5921 0
-5921 5930 0
-248 -5921 5922 0
-5922 5931 0
-249 -5922 5923 0
-5923 5932 0
-250 -5923 5924 0
-5924 5933 0
-251 -5924 5925 0
-5925 5934 0
-252 -5925 0
-244 5926 0
-5926 5935 0
-245 -5926 5927 0
-5927 5936 0
-246 -5927 5928 0
-5928 5937 0
-247 -5928 5929 0
-5929 5938 0
-248 -5929 5930 0
-5930 5939 0
-249 -5930 5931 0
-5931 5940 0
-250 -5931 5932 0
-5932 5941 0
-251 -5932 5933 0
-5933 5942 0
-252 -5933 5934 0
-5934 5943 0
-253 -5934 0
-245 5935 0
-5935 5944 0
-246 -5935 5936 0
-5936 5945 0
-247 -5936 5937 0
-5937 5946 0
-248 -5937 5938 0
-5938 5947 0
-249 -5938 5939 0
-5939 5948 0
-250 -5939 5940 0
-5940 5949 0
-251 -5940 5941 0
-5941 5950 0
-252 -5941 5942 0
-5942 5951 0
-253 -5942 5943 0
-5943 5952 0
-254 -5943 0
-246 5944 0
-5944 5953 0
-247 -5944 5945 0
-5945 5954 0
-248 -5945 5946 0
-5946 5955 0
-249 -5946 5947 0
-5947 5956 0
-250 -5947 5948 0
-5948 5957 0
-251 -5948 5949 0
-5949 5958 0
-252 -5949 5950 0
-5950 5959 0
-253 -5950 5951 0
-5951 5960 0
-254 -5951 5952 0
-5952 5961 0
-255 -5952 0
-247 5953 0
-5953 5962 0
-248 -5953 5954 0
-5954 5963 0
-249 -5954 5955 0
-5955 5964 0
-250 -5955 5956 0
-5956 5965 0
-251 -5956 5957 0
-5957 5966 0
-252 -5957 5958 0
-5958 5967 0
-253 -5958 5959 0
-5959 5968 0
-254 -5959 5960 0
-5960 5969 0
-255 -5960 5961 0
-5961 5970 0
-256 -5961 0
-248 5962 0
-5962 5971 0
-249 -5962 5963 0
-5963 5972 0
-250 -5963 5964 0
-5964 5973 0
-251 -5964 5965 0
-5965 5974 0
-252 -5965 5966 0
-5966 5975 0
-253 -5966 5967 0
-5967 5976 0
-254 -5967 5968 0
-5968 5977 0
-255 -5968 5969 0
-5969 5978 0
-256 -5969 5970 0
-5970 5979 0
-257 -5970 0
-249 5971 0
-5971 5980 0
-250 -5971 5972 0
-5972 5981 0
-251 -5972 5973 0
-5973 5982 0
-252 -5973 5974 0
-5974 5983 0
-253 -5974 5975 0
-5975 5984 0
-254 -5975 5976 0
-5976 5985 0
-255 -5976 5977 0
-5977 5986 0
-256 -5977 5978 0
-5978 5987 0
-257 -5978 5979 0
-5979 5988 0
-258 -5979 0
-250 5980 0
-5980 5989 0
-251 -5980 5981 0
-5981 5990 0
-252 -5981 5982 0
-5982 5991 0
-253 -5982 5983 0
-5983 5992 0
-254 -5983 5984 0
-5984 5993 0
-255 -5984 5985 0
-5985 5994 0
-256 -5985 5986 0
-5986 5995 0
-257 -5986 5987 0
-5987 5996 0
-258 -5987 5988 0
-5988 5997 0
-259 -5988 0
-251 5989 0
-5989 5998 0
-252 -5989 5990 0
-5990 5999 0
-253 -5990 5991 0
-5991 6000 0
-254 -5991 5992 0
-5992 6001 0
-255 -5992 5993 0
-5993 6002 0
-256 -5993 5994 0
-5994 6003 0
-257 -5994 5995 0
-5995 6004 0
-258 -5995 5996 0
-5996 6005 0
-259 -5996 5997 0
-5997 6006 0
-260 -5997 0
-252 5998 0
-5998 6007 0
-253 -5998 5999 0
-5999 6008 0
-254 -5999 6000 0
-6000 6009 0
-255 -6000 6001 0
-6001 6010 0
-256 -6001 6002 0
-6002 6011 0
-257 -6002 6003 0
-6003 6012 0
-258 -6003 6004 0
-6004 6013 0
-259 -6004 6005 0
-6005 6014 0
-260 -6005 6006 0
-6006 6015 0
-261 -6006 0
-253 6007 0
-6007 6016 0
-254 -6007 6008 0
-6008 6017 0
-255 -6008 6009 0
-6009 6018 0
-256 -6009 6010 0
-6010 6019 0
-257 -6010 6011 0
-6011 6020 0
-258 -6011 6012 0
-6012 6021 0
-259 -6012 6013 0
-6013 6022 0
-260 -6013 6014 0
-6014 6023 0
-261 -6014 6015 0
-6015 6024 0
-262 -6015 0
-254 6016 0
-6016 6025 0
-255 -6016 6017 0
-6017 6026 0
-256 -6017 6018 0
-6018 6027 0
-257 -6018 6019 0
-6019 6028 0
-258 -6019 6020 0
-6020 6029 0
-259 -6020 6021 0
-6021 6030 0
-260 -6021 6022 0
-6022 6031 0
-261 -6022 6023 0
-6023 6032 0
-262 -6023 6024 0
-6024 6033 0
-263 -6024 0
-255 6025 0
-6025 6034 0
-256 -6025 6026 0
-6026 6035 0
-257 -6026 6027 0
-6027 6036 0
-258 -6027 6028 0
-6028 6037 0
-259 -6028 6029 0
-6029 6038 0
-260 -6029 6030 0
-6030 6039 0
-261 -6030 6031 0
-6031 6040 0
-262 -6031 6032 0
-6032 6041 0
-263 -6032 6033 0
-6033 6042 0
-264 -6033 0
-256 6034 0
-6034 6043 0
-257 -6034 6035 0
-6035 6044 0
-258 -6035 6036 0
-6036 6045 0
-259 -6036 6037 0
-6037 6046 0
-260 -6037 6038 0
-6038 6047 0
-261 -6038 6039 0
-6039 6048 0
-262 -6039 6040 0
-6040 6049 0
-263 -6040 6041 0
-6041 6050 0
-264 -6041 6042 0
-6042 6051 0
-265 -6042 0
-257 6043 0
-6043 6052 0
-258 -6043 6044 0
-6044 6053 0
-259 -6044 6045 0
-6045 6054 0
-260 -6045 6046 0
-6046 6055 0
-261 -6046 6047 0
-6047 6056 0
-262 -6047 6048 0
-6048 6057 0
-263 -6048 6049 0
-6049 6058 0
-264 -6049 6050 0
-6050 6059 0
-265 -6050 6051 0
-6051 6060 0
-266 -6051 0
-258 6052 0
-6052 6061 0
-259 -6052 6053 0
-6053 6062 0
-260 -6053 6054 0
-6054 6063 0
-261 -6054 6055 0
-6055 6064 0
-262 -6055 6056 0
-6056 6065 0
-263 -6056 6057 0
-6057 6066 0
-264 -6057 6058 0
-6058 6067 0
-265 -6058 6059 0
-6059 6068 0
-266 -6059 6060 0
-6060 6069 0
-267 -6060 0
-259 6061 0
-6061 6070 0
-260 -6061 6062 0
-6062 6071 0
-261 -6062 6063 0
-6063 6072 0
-262 -6063 6064 0
-6064 6073 0
-263 -6064 6065 0
-6065 6074 0
-264 -6065 6066 0
-6066 6075 0
-265 -6066 6067 0
-6067 6076 0
-266 -6067 6068 0
-6068 6077 0
-267 -6068 6069 0
-6069 6078 0
-268 -6069 0
-260 6070 0
-6070 6079 0
-261 -6070 6071 0
-6071 6080 0
-262 -6071 6072 0
-6072 6081 0
-263 -6072 6073 0
-6073 6082 0
-264 -6073 6074 0
-6074 6083 0
-265 -6074 6075 0
-6075 6084 0
-266 -6075 6076 0
-6076 6085 0
-267 -6076 6077 0
-6077 6086 0
-268 -6077 6078 0
-6078 6087 0
-269 -6078 0
-261 6079 0
-6079 6088 0
-262 -6079 6080 0
-6080 6089 0
-263 -6080 6081 0
-6081 6090 0
-264 -6081 6082 0
-6082 6091 0
-265 -6082 6083 0
-6083 6092 0
-266 -6083 6084 0
-6084 6093 0
-267 -6084 6085 0
-6085 6094 0
-268 -6085 6086 0
-6086 6095 0
-269 -6086 6087 0
-6087 6096 0
-270 -6087 0
-262 6088 0
-6088 6097 0
-263 -6088 6089 0
-6089 6098 0
-264 -6089 6090 0
-6090 6099 0
-265 -6090 6091 0
-6091 6100 0
-266 -6091 6092 0
-6092 6101 0
-267 -6092 6093 0
-6093 6102 0
-268 -6093 6094 0
-6094 6103 0
-269 -6094 6095 0
-6095 6104 0
-270 -6095 6096 0
-6096 6105 0
-271 -6096 0
-263 6097 0
-6097 6106 0
-264 -6097 6098 0
-6098 6107 0
-265 -6098 6099 0
-6099 6108 0
-266 -6099 6100 0
-6100 6109 0
-267 -6100 6101 0
-6101 6110 0
-268 -6101 6102 0
-6102 6111 0
-269 -6102 6103 0
-6103 6112 0
-270 -6103 6104 0
-6104 6113 0
-271 -6104 6105 0
-6105 6114 0
-272 -6105 0
-264 6106 0
-6106 6115 0
-265 -6106 6107 0
-6107 6116 0
-266 -6107 6108 0
-6108 6117 0
-267 -6108 6109 0
-6109 6118 0
-268 -6109 6110 0
-6110 6119 0
-269 -6110 6111 0
-6111 6120 0
-270 -6111 6112 0
-6112 6121 0
-271 -6112 6113 0
-6113 6122 0
-272 -6113 6114 0
-6114 6123 0
-273 -6114 0
-265 6115 0
-6115 6124 0
-266 -6115 6116 0
-6116 6125 0
-267 -6116 6117 0
-6117 6126 0
-268 -6117 6118 0
-6118 6127 0
-269 -6118 6119 0
-6119 6128 0
-270 -6119 6120 0
-6120 6129 0
-271 -6120 6121 0
-6121 6130 0
-272 -6121 6122 0
-6122 6131 0
-273 -6122 6123 0
-6123 6132 0
-274 -6123 0
-266 6124 0
-6124 6133 0
-267 -6124 6125 0
-6125 6134 0
-268 -6125 6126 0
-6126 6135 0
-269 -6126 6127 0
-6127 6136 0
-270 -6127 6128 0
-6128 6137 0
-271 -6128 6129 0
-6129 6138 0
-272 -6129 6130 0
-6130 6139 0
-273 -6130 6131 0
-6131 6140 0
-274 -6131 6132 0
-6132 6141 0
-275 -6132 0
-267 6133 0
-6133 6142 0
-268 -6133 6134 0
-6134 6143 0
-269 -6134 6135 0
-6135 6144 0
-270 -6135 6136 0
-6136 6145 0
-271 -6136 6137 0
-6137 6146 0
-272 -6137 6138 0
-6138 6147 0
-273 -6138 6139 0
-6139 6148 0
-274 -6139 6140 0
-6140 6149 0
-275 -6140 6141 0
-6141 6150 0
-276 -6141 0
-268 6142 0
-6142 6151 0
-269 -6142 6143 0
-6143 6152 0
-270 -6143 6144 0
-6144 6153 0
-271 -6144 6145 0
-6145 6154 0
-272 -6145 6146 0
-6146 6155 0
-273 -6146 6147 0
-6147 6156 0
-274 -6147 6148 0
-6148 6157 0
-275 -6148 6149 0
-6149 6158 0
-276 -6149 6150 0
-6150 6159 0
-277 -6150 0
-269 6151 0
-6151 6160 0
-270 -6151 6152 0
-6152 6161 0
-271 -6152 6153 0
-6153 6162 0
-272 -6153 6154 0
-6154 6163 0
-273 -6154 6155 0
-6155 6164 0
-274 -6155 6156 0
-6156 6165 0
-275 -6156 6157 0
-6157 6166 0
-276 -6157 6158 0
-6158 6167 0
-277 -6158 6159 0
-6159 6168 0
-278 -6159 0
-270 6160 0
-6160 6169 0
-271 -6160 6161 0
-6161 6170 0
-272 -6161 6162 0
-6162 6171 0
-273 -6162 6163 0
-6163 6172 0
-274 -6163 6164 0
-6164 6173 0
-275 -6164 6165 0
-6165 6174 0
-276 -6165 6166 0
-6166 6175 0
-277 -6166 6167 0
-6167 6176 0
-278 -6167 6168 0
-6168 6177 0
-279 -6168 0
-271 6169 0
-6169 6178 0
-272 -6169 6170 0
-6170 6179 0
-273 -6170 6171 0
-6171 6180 0
-274 -6171 6172 0
-6172 6181 0
-275 -6172 6173 0
-6173 6182 0
-276 -6173 6174 0
-6174 6183 0
-277 -6174 6175 0
-6175 6184 0
-278 -6175 6176 0
-6176 6185 0
-279 -6176 6177 0
-6177 6186 0
-280 -6177 0
-272 6178 0
-6178 6187 0
-273 -6178 6179 0
-6179 6188 0
-274 -6179 6180 0
-6180 6189 0
-275 -6180 6181 0
-6181 6190 0
-276 -6181 6182 0
-6182 6191 0
-277 -6182 6183 0
-6183 6192 0
-278 -6183 6184 0
-6184 6193 0
-279 -6184 6185 0
-6185 6194 0
-280 -6185 6186 0
-6186 6195 0
-281 -6186 0
-273 6187 0
-6187 6196 0
-274 -6187 6188 0
-6188 6197 0
-275 -6188 6189 0
-6189 6198 0
-276 -6189 6190 0
-6190 6199 0
-277 -6190 6191 0
-6191 6200 0
-278 -6191 6192 0
-6192 6201 0
-279 -6192 6193 0
-6193 6202 0
-280 -6193 6194 0
-6194 6203 0
-281 -6194 6195 0
-6195 6204 0
-282 -6195 0
-274 6196 0
-6196 6205 0
-275 -6196 6197 0
-6197 6206 0
-276 -6197 6198 0
-6198 6207 0
-277 -6198 6199 0
-6199 6208 0
-278 -6199 6200 0
-6200 6209 0
-279 -6200 6201 0
-6201 6210 0
-280 -6201 6202 0
-6202 6211 0
-281 -6202 6203 0
-6203 6212 0
-282 -6203 6204 0
-6204 6213 0
-283 -6204 0
-275 6205 0
-6205 6214 0
-276 -6205 6206 0
-6206 6215 0
-277 -6206 6207 0
-6207 6216 0
-278 -6207 6208 0
-6208 6217 0
-279 -6208 6209 0
-6209 6218 0
-280 -6209 6210 0
-6210 6219 0
-281 -6210 6211 0
-6211 6220 0
-282 -6211 6212 0
-6212 6221 0
-283 -6212 6213 0
-6213 6222 0
-284 -6213 0
-276 6214 0
-6214 6223 0
-277 -6214 6215 0
-6215 6224 0
-278 -6215 6216 0
-6216 6225 0
-279 -6216 6217 0
-6217 6226 0
-280 -6217 6218 0
-6218 6227 0
-281 -6218 6219 0
-6219 6228 0
-282 -6219 6220 0
-6220 6229 0
-283 -6220 6221 0
-6221 6230 0
-284 -6221 6222 0
-6222 6231 0
-285 -6222 0
-277 6223 0
-6223 6232 0
-278 -6223 6224 0
-6224 6233 0
-279 -6224 6225 0
-6225 6234 0
-280 -6225 6226 0
-6226 6235 0
-281 -6226 6227 0
-6227 6236 0
-282 -6227 6228 0
-6228 6237 0
-283 -6228 6229 0
-6229 6238 0
-284 -6229 6230 0
-6230 6239 0
-285 -6230 6231 0
-6231 6240 0
-286 -6231 0
-278 6232 0
-6232 6241 0
-279 -6232 6233 0
-6233 6242 0
-280 -6233 6234 0
-6234 6243 0
-281 -6234 6235 0
-6235 6244 0
-282 -6235 6236 0
-6236 6245 0
-283 -6236 6237 0
-6237 6246 0
-284 -6237 6238 0
-6238 6247 0
-285 -6238 6239 0
-6239 6248 0
-286 -6239 6240 0
-6240 6249 0
-287 -6240 0
-279 6241 0
-6241 6250 0
-280 -6241 6242 0
-6242 6251 0
-281 -6242 6243 0
-6243 6252 0
-282 -6243 6244 0
-6244 6253 0
-283 -6244 6245 0
-6245 6254 0
-284 -6245 6246 0
-6246 6255 0
-285 -6246 6247 0
-6247 6256 0
-286 -6247 6248 0
-6248 6257 0
-287 -6248 6249 0
-6249 6258 0
-288 -6249 0
-280 6250 0
-6250 6259 0
-281 -6250 6251 0
-6251 6260 0
-282 -6251 6252 0
-6252 6261 0
-283 -6252 6253 0
-6253 6262 0
-284 -6253 6254 0
-6254 6263 0
-285 -6254 6255 0
-6255 6264 0
-286 -6255 6256 0
-6256 6265 0
-287 -6256 6257 0
-6257 6266 0
-288 -6257 6258 0
-6258 6267 0
-289 -6258 0
-281 6259 0
-6259 6268 0
-282 -6259 6260 0
-6260 6269 0
-283 -6260 6261 0
-6261 6270 0
-284 -6261 6262 0
-6262 6271 0
-285 -6262 6263 0
-6263 6272 0
-286 -6263 6264 0
-6264 6273 0
-287 -6264 6265 0
-6265 6274 0
-288 -6265 6266 0
-6266 6275 0
-289 -6266 6267 0
-6267 6276 0
-290 -6267 0
-282 6268 0
-6268 6277 0
-283 -6268 6269 0
-6269 6278 0
-284 -6269 6270 0
-6270 6279 0
-285 -6270 6271 0
-6271 6280 0
-286 -6271 6272 0
-6272 6281 0
-287 -6272 6273 0
-6273 6282 0
-288 -6273 6274 0
-6274 6283 0
-289 -6274 6275 0
-6275 6284 0
-290 -6275 6276 0
-6276 6285 0
-291 -6276 0
-283 6277 0
-6277 6286 0
-284 -6277 6278 0
-6278 6287 0
-285 -6278 6279 0
-6279 6288 0
-286 -6279 6280 0
-6280 6289 0
-287 -6280 6281 0
-6281 6290 0
-288 -6281 6282 0
-6282 6291 0
-289 -6282 6283 0
-6283 6292 0
-290 -6283 6284 0
-6284 6293 0
-291 -6284 6285 0
-6285 6294 0
-292 -6285 0
-284 6286 0
-6286 6295 0
-285 -6286 6287 0
-6287 6296 0
-286 -6287 6288 0
-6288 6297 0
-287 -6288 6289 0
-6289 6298 0
-288 -6289 6290 0
-6290 6299 0
-289 -6290 6291 0
-6291 6300 0
-290 -6291 6292 0
-6292 6301 0
-291 -6292 6293 0
-6293 6302 0
-292 -6293 6294 0
-6294 6303 0
-293 -6294 0
-285 6295 0
-6295 6304 0
-286 -6295 6296 0
-6296 6305 0
-287 -6296 6297 0
-6297 6306 0
-288 -6297 6298 0
-6298 6307 0
-289 -6298 6299 0
-6299 6308 0
-290 -6299 6300 0
-6300 6309 0
-291 -6300 6301 0
-6301 6310 0
-292 -6301 6302 0
-6302 6311 0
-293 -6302 6303 0
-6303 6312 0
-294 -6303 0
-286 6304 0
-6304 6313 0
-287 -6304 6305 0
-6305 6314 0
-288 -6305 6306 0
-6306 6315 0
-289 -6306 6307 0
-6307 6316 0
-290 -6307 6308 0
-6308 6317 0
-291 -6308 6309 0
-6309 6318 0
-292 -6309 6310 0
-6310 6319 0
-293 -6310 6311 0
-6311 6320 0
-294 -6311 6312 0
-6312 6321 0
-295 -6312 0
-287 6313 0
-6313 6322 0
-288 -6313 6314 0
-6314 6323 0
-289 -6314 6315 0
-6315 6324 0
-290 -6315 6316 0
-6316 6325 0
-291 -6316 6317 0
-6317 6326 0
-292 -6317 6318 0
-6318 6327 0
-293 -6318 6319 0
-6319 6328 0
-294 -6319 6320 0
-6320 6329 0
-295 -6320 6321 0
-6321 6330 0
-296 -6321 0
-288 6322 0
-6322 6331 0
-289 -6322 6323 0
-6323 6332 0
-290 -6323 6324 0
-6324 6333 0
-291 -6324 6325 0
-6325 6334 0
-292 -6325 6326 0
-6326 6335 0
-293 -6326 6327 0
-6327 6336 0
-294 -6327 6328 0
-6328 6337 0
-295 -6328 6329 0
-6329 6338 0
-296 -6329 6330 0
-6330 6339 0
-297 -6330 0
-289 6331 0
-6331 6340 0
-290 -6331 6332 0
-6332 6341 0
-291 -6332 6333 0
-6333 6342 0
-292 -6333 6334 0
-6334 6343 0
-293 -6334 6335 0
-6335 6344 0
-294 -6335 6336 0
-6336 6345 0
-295 -6336 6337 0
-6337 6346 0
-296 -6337 6338 0
-6338 6347 0
-297 -6338 6339 0
-6339 6348 0
-298 -6339 0
-290 6340 0
-6340 6349 0
-291 -6340 6341 0
-6341 6350 0
-292 -6341 6342 0
-6342 6351 0
-293 -6342 6343 0
-6343 6352 0
-294 -6343 6344 0
-6344 6353 0
-295 -6344 6345 0
-6345 6354 0
-296 -6345 6346 0
-6346 6355 0
-297 -6346 6347 0
-6347 6356 0
-298 -6347 6348 0
-6348 6357 0
-299 -6348 0
-291 6349 0
-6349 6358 0
-292 -6349 6350 0
-6350 6359 0
-293 -6350 6351 0
-6351 6360 0
-294 -6351 6352 0
-6352 6361 0
-295 -6352 6353 0
-6353 6362 0
-296 -6353 6354 0
-6354 6363 0
-297 -6354 6355 0
-6355 6364 0
-298 -6355 6356 0
-6356 6365 0
-299 -6356 6357 0
-6357 6366 0
-300 -6357 0
-292 6358 0
-6358 6367 0
-293 -6358 6359 0
-6359 6368 0
-294 -6359 6360 0
-6360 6369 0
-295 -6360 6361 0
-6361 6370 0
-296 -6361 6362 0
-6362 6371 0
-297 -6362 6363 0
-6363 6372 0
-298 -6363 6364 0
-6364 6373 0
-299 -6364 6365 0
-6365 6374 0
-300 -6365 6366 0
-6366 6375 0
-301 -6366 0
-293 6367 0
-6367 6376 0
-294 -6367 6368 0
-6368 6377 0
-295 -6368 6369 0
-6369 6378 0
-296 -6369 6370 0
-6370 6379 0
-297 -6370 6371 0
-6371 6380 0
-298 -6371 6372 0
-6372 6381 0
-299 -6372 6373 0
-6373 6382 0
-300 -6373 6374 0
-6374 6383 0
-301 -6374 6375 0
-6375 6384 0
-302 -6375 0
-294 6376 0
-6376 6385 0
-295 -6376 6377 0
-6377 6386 0
-296 -6377 6378 0
-6378 6387 0
-297 -6378 6379 0
-6379 6388 0
-298 -6379 6380 0
-6380 6389 0
-299 -6380 6381 0
-6381 6390 0
-300 -6381 6382 0
-6382 6391 0
-301 -6382 6383 0
-6383 6392 0
-302 -6383 6384 0
-6384 6393 0
-303 -6384 0
-295 6385 0
-6385 6394 0
-296 -6385 6386 0
-6386 6395 0
-297 -6386 6387 0
-6387 6396 0
-298 -6387 6388 0
-6388 6397 0
-299 -6388 6389 0
-6389 6398 0
-300 -6389 6390 0
-6390 6399 0
-301 -6390 6391 0
-6391 6400 0
-302 -6391 6392 0
-6392 6401 0
-303 -6392 6393 0
-6393 6402 0
-304 -6393 0
-296 6394 0
-6394 6403 0
-297 -6394 6395 0
-6395 6404 0
-298 -6395 6396 0
-6396 6405 0
-299 -6396 6397 0
-6397 6406 0
-300 -6397 6398 0
-6398 6407 0
-301 -6398 6399 0
-6399 6408 0
-302 -6399 6400 0
-6400 6409 0
-303 -6400 6401 0
-6401 6410 0
-304 -6401 6402 0
-6402 6411 0
-305 -6402 0
-297 6403 0
-6403 6412 0
-298 -6403 6404 0
-6404 6413 0
-299 -6404 6405 0
-6405 6414 0
-300 -6405 6406 0
-6406 6415 0
-301 -6406 6407 0
-6407 6416 0
-302 -6407 6408 0
-6408 6417 0
-303 -6408 6409 0
-6409 6418 0
-304 -6409 6410 0
-6410 6419 0
-305 -6410 6411 0
-6411 6420 0
-306 -6411 0
-298 6412 0
-6412 6421 0
-299 -6412 6413 0
-6413 6422 0
-300 -6413 6414 0
-6414 6423 0
-301 -6414 6415 0
-6415 6424 0
-302 -6415 6416 0
-6416 6425 0
-303 -6416 6417 0
-6417 6426 0
-304 -6417 6418 0
-6418 6427 0
-305 -6418 6419 0
-6419 6428 0
-306 -6419 6420 0
-6420 6429 0
-307 -6420 0
-299 6421 0
-6421 6430 0
-300 -6421 6422 0
-6422 6431 0
-301 -6422 6423 0
-6423 6432 0
-302 -6423 6424 0
-6424 6433 0
-303 -6424 6425 0
-6425 6434 0
-304 -6425 6426 0
-6426 6435 0
-305 -6426 6427 0
-6427 6436 0
-306 -6427 6428 0
-6428 6437 0
-307 -6428 6429 0
-6429 6438 0
-308 -6429 0
-300 6430 0
-6430 6439 0
-301 -6430 6431 0
-6431 6440 0
-302 -6431 6432 0
-6432 6441 0
-303 -6432 6433 0
-6433 6442 0
-304 -6433 6434 0
-6434 6443 0
-305 -6434 6435 0
-6435 6444 0
-306 -6435 6436 0
-6436 6445 0
-307 -6436 6437 0
-6437 6446 0
-308 -6437 6438 0
-6438 6447 0
-309 -6438 0
-301 6439 0
-6439 6448 0
-302 -6439 6440 0
-6440 6449 0
-303 -6440 6441 0
-6441 6450 0
-304 -6441 6442 0
-6442 6451 0
-305 -6442 6443 0
-6443 6452 0
-306 -6443 6444 0
-6444 6453 0
-307 -6444 6445 0
-6445 6454 0
-308 -6445 6446 0
-6446 6455 0
-309 -6446 6447 0
-6447 6456 0
-310 -6447 0
-302 6448 0
-6448 6457 0
-303 -6448 6449 0
-6449 6458 0
-304 -6449 6450 0
-6450 6459 0
-305 -6450 6451 0
-6451 6460 0
-306 -6451 6452 0
-6452 6461 0
-307 -6452 6453 0
-6453 6462 0
-308 -6453 6454 0
-6454 6463 0
-309 -6454 6455 0
-6455 6464 0
-310 -6455 6456 0
-6456 6465 0
-311 -6456 0
-303 6457 0
-6457 6466 0
-304 -6457 6458 0
-6458 6467 0
-305 -6458 6459 0
-6459 6468 0
-306 -6459 6460 0
-6460 6469 0
-307 -6460 6461 0
-6461 6470 0
-308 -6461 6462 0
-6462 6471 0
-309 -6462 6463 0
-6463 6472 0
-310 -6463 6464 0
-6464 6473 0
-311 -6464 6465 0
-6465 6474 0
-312 -6465 0
-304 6466 0
-6466 6475 0
-305 -6466 6467 0
-6467 6476 0
-306 -6467 6468 0
-6468 6477 0
-307 -6468 6469 0
-6469 6478 0
-308 -6469 6470 0
-6470 6479 0
-309 -6470 6471 0
-6471 6480 0
-310 -6471 6472 0
-6472 6481 0
-311 -6472 6473 0
-6473 6482 0
-312 -6473 6474 0
-6474 6483 0
-313 -6474 0
-305 6475 0
-6475 6484 0
-306 -6475 6476 0
-6476 6485 0
-307 -6476 6477 0
-6477 6486 0
-308 -6477 6478 0
-6478 6487 0
-309 -6478 6479 0
-6479 6488 0
-310 -6479 6480 0
-6480 6489 0
-311 -6480 6481 0
-6481 6490 0
-312 -6481 6482 0
-6482 6491 0
-313 -6482 6483 0
-6483 6492 0
-314 -6483 0
-306 6484 0
-6484 6493 0
-307 -6484 6485 0
-6485 6494 0
-308 -6485 6486 0
-6486 6495 0
-309 -6486 6487 0
-6487 6496 0
-310 -6487 6488 0
-6488 6497 0
-311 -6488 6489 0
-6489 6498 0
-312 -6489 6490 0
-6490 6499 0
-313 -6490 6491 0
-6491 6500 0
-314 -6491 6492 0
-6492 6501 0
-315 -6492 0
-307 6493 0
-6493 6502 0
-308 -6493 6494 0
-6494 6503 0
-309 -6494 6495 0
-6495 6504 0
-310 -6495 6496 0
-6496 6505 0
-311 -6496 6497 0
-6497 6506 0
-312 -6497 6498 0
-6498 6507 0
-313 -6498 6499 0
-6499 6508 0
-314 -6499 6500 0
-6500 6509 0
-315 -6500 6501 0
-6501 6510 0
-316 -6501 0
-308 6502 0
-6502 6511 0
-309 -6502 6503 0
-6503 6512 0
-310 -6503 6504 0
-6504 6513 0
-311 -6504 6505 0
-6505 6514 0
-312 -6505 6506 0
-6506 6515 0
-313 -6506 6507 0
-6507 6516 0
-314 -6507 6508 0
-6508 6517 0
-315 -6508 6509 0
-6509 6518 0
-316 -6509 6510 0
-6510 6519 0
-317 -6510 0
-309 6511 0
-6511 6520 0
-310 -6511 6512 0
-6512 6521 0
-311 -6512 6513 0
-6513 6522 0
-312 -6513 6514 0
-6514 6523 0
-313 -6514 6515 0
-6515 6524 0
-314 -6515 6516 0
-6516 6525 0
-315 -6516 6517 0
-6517 6526 0
-316 -6517 6518 0
-6518 6527 0
-317 -6518 6519 0
-6519 6528 0
-318 -6519 0
-310 6520 0
-6520 6529 0
-311 -6520 6521 0
-6521 6530 0
-312 -6521 6522 0
-6522 6531 0
-313 -6522 6523 0
-6523 6532 0
-314 -6523 6524 0
-6524 6533 0
-315 -6524 6525 0
-6525 6534 0
-316 -6525 6526 0
-6526 6535 0
-317 -6526 6527 0
-6527 6536 0
-318 -6527 6528 0
-6528 6537 0
-319 -6528 0
-311 6529 0
-6529 6538 0
-312 -6529 6530 0
-6530 6539 0
-313 -6530 6531 0
-6531 6540 0
-314 -6531 6532 0
-6532 6541 0
-315 -6532 6533 0
-6533 6542 0
-316 -6533 6534 0
-6534 6543 0
-317 -6534 6535 0
-6535 6544 0
-318 -6535 6536 0
-6536 6545 0
-319 -6536 6537 0
-6537 6546 0
-320 -6537 0
-312 6538 0
-6538 6547 0
-313 -6538 6539 0
-6539 6548 0
-314 -6539 6540 0
-6540 6549 0
-315 -6540 6541 0
-6541 6550 0
-316 -6541 6542 0
-6542 6551 0
-317 -6542 6543 0
-6543 6552 0
-318 -6543 6544 0
-6544 6553 0
-319 -6544 6545 0
-6545 6554 0
-320 -6545 6546 0
-6546 6555 0
-321 -6546 0
-313 6547 0
-6547 6556 0
-314 -6547 6548 0
-6548 6557 0
-315 -6548 6549 0
-6549 6558 0
-316 -6549 6550 0
-6550 6559 0
-317 -6550 6551 0
-6551 6560 0
-318 -6551 6552 0
-6552 6561 0
-319 -6552 6553 0
-6553 6562 0
-320 -6553 6554 0
-6554 6563 0
-321 -6554 6555 0
-6555 6564 0
-322 -6555 0
-314 6556 0
-6556 6565 0
-315 -6556 6557 0
-6557 6566 0
-316 -6557 6558 0
-6558 6567 0
-317 -6558 6559 0
-6559 6568 0
-318 -6559 6560 0
-6560 6569 0
-319 -6560 6561 0
-6561 6570 0
-320 -6561 6562 0
-6562 6571 0
-321 -6562 6563 0
-6563 6572 0
-322 -6563 6564 0
-6564 6573 0
-323 -6564 0
-315 6565 0
-6565 6574 0
-316 -6565 6566 0
-6566 6575 0
-317 -6566 6567 0
-6567 6576 0
-318 -6567 6568 0
-6568 6577 0
-319 -6568 6569 0
-6569 6578 0
-320 -6569 6570 0
-6570 6579 0
-321 -6570 6571 0
-6571 6580 0
-322 -6571 6572 0
-6572 6581 0
-323 -6572 6573 0
-6573 6582 0
-324 -6573 0
-316 6574 0
-6574 6583 0
-317 -6574 6575 0
-6575 6584 0
-318 -6575 6576 0
-6576 6585 0
-319 -6576 6577 0
-6577 6586 0
-320 -6577 6578 0
-6578 6587 0
-321 -6578 6579 0
-6579 6588 0
-322 -6579 6580 0
-6580 6589 0
-323 -6580 6581 0
-6581 6590 0
-324 -6581 6582 0
-6582 6591 0
-325 -6582 0
-317 6583 0
-6583 6592 0
-318 -6583 6584 0
-6584 6593 0
-319 -6584 6585 0
-6585 6594 0
-320 -6585 6586 0
-6586 6595 0
-321 -6586 6587 0
-6587 6596 0
-322 -6587 6588 0
-6588 6597 0
-323 -6588 6589 0
-6589 6598 0
-324 -6589 6590 0
-6590 6599 0
-325 -6590 6591 0
-6591 6600 0
-326 -6591 0
-318 6592 0
-6592 6601 0
-319 -6592 6593 0
-6593 6602 0
-320 -6593 6594 0
-6594 6603 0
-321 -6594 6595 0
-6595 6604 0
-322 -6595 6596 0
-6596 6605 0
-323 -6596 6597 0
-6597 6606 0
-324 -6597 6598 0
-6598 6607 0
-325 -6598 6599 0
-6599 6608 0
-326 -6599 6600 0
-6600 6609 0
-327 -6600 0
-319 6601 0
-6601 6610 0
-320 -6601 6602 0
-6602 6611 0
-321 -6602 6603 0
-6603 6612 0
-322 -6603 6604 0
-6604 6613 0
-323 -6604 6605 0
-6605 6614 0
-324 -6605 6606 0
-6606 6615 0
-325 -6606 6607 0
-6607 6616 0
-326 -6607 6608 0
-6608 6617 0
-327 -6608 6609 0
-6609 6618 0
-328 -6609 0
-320 6610 0
-6610 6619 0
-321 -6610 6611 0
-6611 6620 0
-322 -6611 6612 0
-6612 6621 0
-323 -6612 6613 0
-6613 6622 0
-324 -6613 6614 0
-6614 6623 0
-325 -6614 6615 0
-6615 6624 0
-326 -6615 6616 0
-6616 6625 0
-327 -6616 6617 0
-6617 6626 0
-328 -6617 6618 0
-6618 6627 0
-329 -6618 0
-321 6619 0
-6619 6628 0
-322 -6619 6620 0
-6620 6629 0
-323 -6620 6621 0
-6621 6630 0
-324 -6621 6622 0
-6622 6631 0
-325 -6622 6623 0
-6623 6632 0
-326 -6623 6624 0
-6624 6633 0
-327 -6624 6625 0
-6625 6634 0
-328 -6625 6626 0
-6626 6635 0
-329 -6626 6627 0
-6627 6636 0
-330 -6627 0
-322 6628 0
-6628 6637 0
-323 -6628 6629 0
-6629 6638 0
-324 -6629 6630 0
-6630 6639 0
-325 -6630 6631 0
-6631 6640 0
-326 -6631 6632 0
-6632 6641 0
-327 -6632 6633 0
-6633 6642 0
-328 -6633 6634 0
-6634 6643 0
-329 -6634 6635 0
-6635 6644 0
-330 -6635 6636 0
-6636 6645 0
-331 -6636 0
-323 6637 0
-6637 6646 0
-324 -6637 6638 0
-6638 6647 0
-325 -6638 6639 0
-6639 6648 0
-326 -6639 6640 0
-6640 6649 0
-327 -6640 6641 0
-6641 6650 0
-328 -6641 6642 0
-6642 6651 0
-329 -6642 6643 0
-6643 6652 0
-330 -6643 6644 0
-6644 6653 0
-331 -6644 6645 0
-6645 6654 0
-332 -6645 0
-324 6646 0
-6646 6655 0
-325 -6646 6647 0
-6647 6656 0
-326 -6647 6648 0
-6648 6657 0
-327 -6648 6649 0
-6649 6658 0
-328 -6649 6650 0
-6650 6659 0
-329 -6650 6651 0
-6651 6660 0
-330 -6651 6652 0
-6652 6661 0
-331 -6652 6653 0
-6653 6662 0
-332 -6653 6654 0
-6654 6663 0
-333 -6654 0
-325 6655 0
-6655 6664 0
-326 -6655 6656 0
-6656 6665 0
-327 -6656 6657 0
-6657 6666 0
-328 -6657 6658 0
-6658 6667 0
-329 -6658 6659 0
-6659 6668 0
-330 -6659 6660 0
-6660 6669 0
-331 -6660 6661 0
-6661 6670 0
-332 -6661 6662 0
-6662 6671 0
-333 -6662 6663 0
-6663 6672 0
-334 -6663 0
-326 6664 0
-6664 6673 0
-327 -6664 6665 0
-6665 6674 0
-328 -6665 6666 0
-6666 6675 0
-329 -6666 6667 0
-6667 6676 0
-330 -6667 6668 0
-6668 6677 0
-331 -6668 6669 0
-6669 6678 0
-332 -6669 6670 0
-6670 6679 0
-333 -6670 6671 0
-6671 6680 0
-334 -6671 6672 0
-6672 6681 0
-335 -6672 0
-327 6673 0
-6673 6682 0
-328 -6673 6674 0
-6674 6683 0
-329 -6674 6675 0
-6675 6684 0
-330 -6675 6676 0
-6676 6685 0
-331 -6676 6677 0
-6677 6686 0
-332 -6677 6678 0
-6678 6687 0
-333 -6678 6679 0
-6679 6688 0
-334 -6679 6680 0
-6680 6689 0
-335 -6680 6681 0
-6681 6690 0
-336 -6681 0
-328 6682 0
-6682 6691 0
-329 -6682 6683 0
-6683 6692 0
-330 -6683 6684 0
-6684 6693 0
-331 -6684 6685 0
-6685 6694 0
-332 -6685 6686 0
-6686 6695 0
-333 -6686 6687 0
-6687 6696 0
-334 -6687 6688 0
-6688 6697 0
-335 -6688 6689 0
-6689 6698 0
-336 -6689 6690 0
-6690 6699 0
-337 -6690 0
-329 6691 0
-6691 6700 0
-330 -6691 6692 0
-6692 6701 0
-331 -6692 6693 0
-6693 6702 0
-332 -6693 6694 0
-6694 6703 0
-333 -6694 6695 0
-6695 6704 0
-334 -6695 6696 0
-6696 6705 0
-335 -6696 6697 0
-6697 6706 0
-336 -6697 6698 0
-6698 6707 0
-337 -6698 6699 0
-6699 6708 0
-338 -6699 0
-330 6700 0
-6700 6709 0
-331 -6700 6701 0
-6701 6710 0
-332 -6701 6702 0
-6702 6711 0
-333 -6702 6703 0
-6703 6712 0
-334 -6703 6704 0
-6704 6713 0
-335 -6704 6705 0
-6705 6714 0
-336 -6705 6706 0
-6706 6715 0
-337 -6706 6707 0
-6707 6716 0
-338 -6707 6708 0
-6708 6717 0
-339 -6708 0
-331 6709 0
-332 -6709 6710 0
-333 -6710 6711 0
-334 -6711 6712 0
-335 -6712 6713 0
-336 -6713 6714 0
-337 -6714 6715 0
-338 -6715 6716 0
-339 -6716 6717 0
-340 -6717 0
1 86 0
