p cnf 6115 12525
-157 -1 0
-157 2 78 79 0
-2 1 157 0
-78 1 157 0
-79 1 157 0
-158 -2 0
-158 1 3 80 0
-1 2 158 0
-3 2 158 0
-80 2 158 0
-159 -3 0
-159 2 4 81 0
-2 3 159 0
-4 3 159 0
-81 3 159 0
-160 -4 0
-160 3 5 82 0
-3 4 160 0
-5 4 160 0
-82 4 160 0
-161 -5 0
-161 4 6 83 0
-4 5 161 0
-6 5 161 0
-83 5 161 0
-162 -6 0
-162 5 7 84 0
-5 6 162 0
-7 6 162 0
-84 6 162 0
-163 -7 0
-163 6 8 85 0
-6 7 163 0
-8 7 163 0
-85 7 163 0
-164 -8 0
-164 7 9 86 0
-7 8 164 0
-9 8 164 0
-86 8 164 0
-165 -9 0
-165 8 10 87 0
-8 9 165 0
-10 9 165 0
-87 9 165 0
-166 -10 0
-166 9 11 88 0
-9 10 166 0
-11 10 166 0
-88 10 166 0
-167 -11 0
-167 10 12 89 0
-10 11 167 0
-12 11 167 0
-89 11 167 0
-168 -12 0
-168 11 13 90 0
-11 12 168 0
-13 12 168 0
-90 12 168 0
-169 -13 0
-169 12 14 91 0
-12 13 169 0
-14 13 169 0
-91 13 169 0
-170 -14 0
-170 13 15 92 0
-13 14 170 0
-15 14 170 0
-92 14 170 0
-171 -15 0
-171 14 16 93 0
-14 15 171 0
-16 15 171 0
-93 15 171 0
-172 -16 0
-172 15 17 94 0
-15 16 172 0
-17 16 172 0
-94 16 172 0
-173 -17 0
-173 16 18 95 0
-16 17 173 0
-18 17 173 0
-95 17 173 0
-174 -18 0
-174 17 19 96 0
-17 18 174 0
-19 18 174 0
-96 18 174 0
-175 -19 0
-175 18 20 97 0
-18 19 175 0
-20 19 175 0
-97 19 175 0
-176 -20 0
-176 19 21 98 0
-19 20 176 0
-21 20 176 0
-98 20 176 0
-177 -21 0
-177 20 22 99 0
-20 21 177 0
-22 21 177 0
-99 21 177 0
-178 -22 0
-178 21 23 100 0
-21 22 178 0
-23 22 178 0
-100 22 178 0
-179 -23 0
-179 22 24 101 0
-22 23 179 0
-24 23 179 0
-101 23 179 0
-180 -24 0
-180 23 25 102 0
-23 24 180 0
-25 24 180 0
-102 24 180 0
-181 -25 0
-181 24 26 103 0
-24 25 181 0
-26 25 181 0
-103 25 181 0
-182 -26 0
-182 25 27 104 0
-25 26 182 0
-27 26 182 0
-104 26 182 0
-183 -27 0
-183 26 28 105 0
-26 27 183 0
-28 27 183 0
-105 27 183 0
-184 -28 0
-184 27 29 106 0
-27 28 184 0
-29 28 184 0
-106 28 184 0
-185 -29 0
-185 28 30 107 0
-28 29 185 0
-30 29 185 0
-107 29 185 0
-186 -30 0
-186 29 31 108 0
-29 30 186 0
-31 30 186 0
-108 30 186 0
-187 -31 0
-187 30 32 109 0
-30 31 187 0
-32 31 187 0
-109 31 187 0
-188 -32 0
-188 31 33 110 0
-31 32 188 0
-33 32 188 0
-110 32 188 0
-189 -33 0
-189 32 34 111 0
-32 33 189 0
-34 33 189 0
-111 33 189 0
-190 -34 0
-190 33 35 112 0
-33 34 190 0
-35 34 190 0
-112 34 190 0
-191 -35 0
-191 34 36 113 0
-34 35 191 0
-36 35 191 0
-113 35 191 0
-192 -36 0
-192 35 37 114 0
-35 36 192 0
-37 36 192 0
-114 36 192 0
-193 -37 0
-193 36 38 115 0
-36 37 193 0
-38 37 193 0
-115 37 193 0
-194 -38 0
-194 37 39 116 0
-37 38 194 0
-39 38 194 0
-116 38 194 0
-195 -39 0
-195 38 40 117 0
-38 39 195 0
-40 39 195 0
-117 39 195 0
-196 -40 0
-196 39 41 118 0
-39 40 196 0
-41 40 196 0
-118 40 196 0
-197 -41 0
-197 40 42 119 0
-40 41 197 0
-42 41 197 0
-119 41 197 0
-198 -42 0
-198 41 43 120 0
-41 42 198 0
-43 42 198 0
-120 42 198 0
-199 -43 0
-199 42 44 121 0
-42 43 199 0
-44 43 199 0
-121 43 199 0
-200 -44 0
-200 43 45 122 0
-43 44 200 0
-45 44 200 0
-122 44 200 0
-201 -45 0
-201 44 46 123 0
-44 45 201 0
-46 45 201 0
-123 45 201 0
-202 -46 0
-202 45 47 124 0
-45 46 202 0
-47 46 202 0
-124 46 202 0
-203 -47 0
-203 46 48 125 0
-46 47 203 0
-48 47 203 0
-125 47 203 0
-204 -48 0
-204 47 49 126 0
-47 48 204 0
-49 48 204 0
-126 48 204 0
-205 -49 0
-205 48 50 127 0
-48 49 205 0
-50 49 205 0
-127 49 205 0
-206 -50 0
-206 49 51 128 0
-49 50 206 0
-51 50 206 0
-128 50 206 0
-207 -51 0
-207 50 52 129 0
-50 51 207 0
-52 51 207 0
-129 51 207 0
-208 -52 0
-208 51 53 130 0
-51 52 208 0
-53 52 208 0
-130 52 208 0
-209 -53 0
-209 52 54 131 0
-52 53 209 0
-54 53 209 0
-131 53 209 0
-210 -54 0
-210 53 55 132 0
-53 54 210 0
-55 54 210 0
-132 54 210 0
-211 -55 0
-211 54 56 133 0
-54 55 211 0
-56 55 211 0
-133 55 211 0
-212 -56 0
-212 55 57 134 0
-55 56 212 0
-57 56 212 0
-134 56 212 0
-213 -57 0
-213 56 58 135 0
-56 57 213 0
-58 57 213 0
-135 57 213 0
-214 -58 0
-214 57 59 136 0
-57 58 214 0
-59 58 214 0
-136 58 214 0
-215 -59 0
-215 58 60 137 0
-58 59 215 0
-60 59 215 0
-137 59 215 0
-216 -60 0
-216 59 61 138 0
-59 60 216 0
-61 60 216 0
-138 60 216 0
-217 -61 0
-217 60 62 139 0
-60 61 217 0
-62 61 217 0
-139 61 217 0
-218 -62 0
-218 61 63 140 0
-61 62 218 0
-63 62 218 0
-140 62 218 0
-219 -63 0
-219 62 64 141 0
-62 63 219 0
-64 63 219 0
-141 63 219 0
-220 -64 0
-220 63 65 142 0
-63 64 220 0
-65 64 220 0
-142 64 220 0
-221 -65 0
-221 64 66 143 0
-64 65 221 0
-66 65 221 0
-143 65 221 0
-222 -66 0
-222 65 67 144 0
-65 66 222 0
-67 66 222 0
-144 66 222 0
-223 -67 0
-223 66 68 145 0
-66 67 223 0
-68 67 223 0
-145 67 223 0
-224 -68 0
-224 67 69 146 0
-67 68 224 0
-69 68 224 0
-146 68 224 0
-225 -69 0
-225 68 70 147 0
-68 69 225 0
-70 69 225 0
-147 69 225 0
-226 -70 0
-226 69 71 148 0
-69 70 226 0
-71 70 226 0
-148 70 226 0
-227 -71 0
-227 70 72 149 0
-70 71 227 0
-72 71 227 0
-149 71 227 0
-228 -72 0
-228 71 73 150 0
-71 72 228 0
-73 72 228 0
-150 72 228 0
-229 -73 0
-229 72 74 151 0
-72 73 229 0
-74 73 229 0
-151 73 229 0
-230 -74 0
-230 73 75 152 0
-73 74 230 0
-75 74 230 0
-152 74 230 0
-231 -75 0
-231 74 76 153 0
-74 75 231 0
-76 75 231 0
-153 75 231 0
-232 -76 0
-232 75 77 154 0
-75 76 232 0
-77 76 232 0
-154 76 232 0
-233 -77 0
-233 76 78 155 0
-76 77 233 0
-78 77 233 0
-155 77 233 0
-234 -78 0
-234 1 77 156 0
-1 78 234 0
-77 78 234 0
-156 78 234 0
-235 -79 0
-235 1 83 153 0
-1 79 235 0
-83 79 235 0
-153 79 235 0
-236 -80 0
-236 2 84 154 0
-2 80 236 0
-84 80 236 0
-154 80 236 0
-237 -81 0
-237 3 85 155 0
-3 81 237 0
-85 81 237 0
-155 81 237 0
-238 -82 0
-238 4 86 156 0
-4 82 238 0
-86 82 238 0
-156 82 238 0
-239 -83 0
-239 5 79 87 0
-5 83 239 0
-79 83 239 0
-87 83 239 0
-240 -84 0
-240 6 80 88 0
-6 84 240 0
-80 84 240 0
-88 84 240 0
-241 -85 0
-241 7 81 89 0
-7 85 241 0
-81 85 241 0
-89 85 241 0
-242 -86 0
-242 8 82 90 0
-8 86 242 0
-82 86 242 0
-90 86 242 0
-243 -87 0
-243 9 83 91 0
-9 87 243 0
-83 87 243 0
-91 87 243 0
-244 -88 0
-244 10 84 92 0
-10 88 244 0
-84 88 244 0
-92 88 244 0
-245 -89 0
-245 11 85 93 0
-11 89 245 0
-85 89 245 0
-93 89 245 0
-246 -90 0
-246 12 86 94 0
-12 90 246 0
-86 90 246 0
-94 90 246 0
-247 -91 0
-247 13 87 95 0
-13 91 247 0
-87 91 247 0
-95 91 247 0
-248 -92 0
-248 14 88 96 0
-14 92 248 0
-88 92 248 0
-96 92 248 0
-249 -93 0
-249 15 89 97 0
-15 93 249 0
-89 93 249 0
-97 93 249 0
-250 -94 0
-250 16 90 98 0
-16 94 250 0
-90 94 250 0
-98 94 250 0
-251 -95 0
-251 17 91 99 0
-17 95 251 0
-91 95 251 0
-99 95 251 0
-252 -96 0
-252 18 92 100 0
-18 96 252 0
-92 96 252 0
-100 96 252 0
-253 -97 0
-253 19 93 101 0
-19 97 253 0
-93 97 253 0
-101 97 253 0
-254 -98 0
-254 20 94 102 0
-20 98 254 0
-94 98 254 0
-102 98 254 0
-255 -99 0
-255 21 95 103 0
-21 99 255 0
-95 99 255 0
-103 99 255 0
-256 -100 0
-256 22 96 104 0
-22 100 256 0
-96 100 256 0
-104 100 256 0
-257 -101 0
-257 23 97 105 0
-23 101 257 0
-97 101 257 0
-105 101 257 0
-258 -102 0
-258 24 98 106 0
-24 102 258 0
-98 102 258 0
-106 102 258 0
-259 -103 0
-259 25 99 107 0
-25 103 259 0
-99 103 259 0
-107 103 259 0
-260 -104 0
-260 26 100 108 0
-26 104 260 0
-100 104 260 0
-108 104 260 0
-261 -105 0
-261 27 101 109 0
-27 105 261 0
-101 105 261 0
-109 105 261 0
-262 -106 0
-262 28 102 110 0
-28 106 262 0
-102 106 262 0
-110 106 262 0
-263 -107 0
-263 29 103 111 0
-29 107 263 0
-103 107 263 0
-111 107 263 0
-264 -108 0
-264 30 104 112 0
-30 108 264 0
-104 108 264 0
-112 108 264 0
-265 -109 0
-265 31 105 113 0
-31 109 265 0
-105 109 265 0
-113 109 265 0
-266 -110 0
-266 32 106 114 0
-32 110 266 0
-106 110 266 0
-114 110 266 0
-267 -111 0
-267 33 107 115 0
-33 111 267 0
-107 111 267 0
-115 111 267 0
-268 -112 0
-268 34 108 116 0
-34 112 268 0
-108 112 268 0
-116 112 268 0
-269 -113 0
-269 35 109 117 0
-35 113 269 0
-109 113 269 0
-117 113 269 0
-270 -114 0
-270 36 110 118 0
-36 114 270 0
-110 114 270 0
-118 114 270 0
-271 -115 0
-271 37 111 119 0
-37 115 271 0
-111 115 271 0
-119 115 271 0
-272 -116 0
-272 38 112 120 0
-38 116 272 0
-112 116 272 0
-120 116 272 0
-273 -117 0
-273 39 113 121 0
-39 117 273 0
-113 117 273 0
-121 117 273 0
-274 -118 0
-274 40 114 122 0
-40 118 274 0
-114 118 274 0
-122 118 274 0
-275 -119 0
-275 41 115 123 0
-41 119 275 0
-115 119 275 0
-123 119 275 0
-276 -120 0
-276 42 116 124 0
-42 120 276 0
-116 120 276 0
-124 120 276 0
-277 -121 0
-277 43 117 125 0
-43 121 277 0
-117 121 277 0
-125 121 277 0
-278 -122 0
-278 44 118 126 0
-44 122 278 0
-118 122 278 0
-126 122 278 0
-279 -123 0
-279 45 119 127 0
-45 123 279 0
-119 123 279 0
-127 123 279 0
-280 -124 0
-280 46 120 128 0
-46 124 280 0
-120 124 280 0
-128 124 280 0
-281 -125 0
-281 47 121 129 0
-47 125 281 0
-121 125 281 0
-129 125 281 0
-282 -126 0
-282 48 122 130 0
-48 126 282 0
-122 126 282 0
-130 126 282 0
-283 -127 0
-283 49 123 131 0
-49 127 283 0
-123 127 283 0
-131 127 283 0
-284 -128 0
-284 50 124 132 0
-50 128 284 0
-124 128 284 0
-132 128 284 0
-285 -129 0
-285 51 125 133 0
-51 129 285 0
-125 129 285 0
-133 129 285 0
-286 -130 0
-286 52 126 134 0
-52 130 286 0
-126 130 286 0
-134 130 286 0
-287 -131 0
-287 53 127 135 0
-53 131 287 0
-127 131 287 0
-135 131 287 0
-288 -132 0
-288 54 128 136 0
-54 132 288 0
-128 132 288 0
-136 132 288 0
-289 -133 0
-289 55 129 137 0
-55 133 289 0
-129 133 289 0
-137 133 289 0
-290 -134 0
-290 56 130 138 0
-56 134 290 0
-130 134 290 0
-138 134 290 0
-291 -135 0
-291 57 131 139 0
-57 135 291 0
-131 135 291 0
-139 135 291 0
-292 -136 0
-292 58 132 140 0
-58 136 292 0
-132 136 292 0
-140 136 292 0
-293 -137 0
-293 59 133 141 0
-59 137 293 0
-133 137 293 0
-141 137 293 0
-294 -138 0
-294 60 134 142 0
-60 138 294 0
-134 138 294 0
-142 138 294 0
-295 -139 0
-295 61 135 143 0
-61 139 295 0
-135 139 295 0
-143 139 295 0
-296 -140 0
-296 62 136 144 0
-62 140 296 0
-136 140 296 0
-144 140 296 0
-297 -141 0
-297 63 137 145 0
-63 141 297 0
-137 141 297 0
-145 141 297 0
-298 -142 0
-298 64 138 146 0
-64 142 298 0
-138 142 298 0
-146 142 298 0
-299 -143 0
-299 65 139 147 0
-65 143 299 0
-139 143 299 0
-147 143 299 0
-300 -144 0
-300 66 140 148 0
-66 144 300 0
-140 144 300 0
-148 144 300 0
-301 -145 0
-301 67 141 149 0
-67 145 301 0
-141 145 301 0
-149 145 301 0
-302 -146 0
-302 68 142 150 0
-68 146 302 0
-142 146 302 0
-150 146 302 0
-303 -147 0
-303 69 143 151 0
-69 147 303 0
-143 147 303 0
-151 147 303 0
-304 -148 0
-304 70 144 152 0
-70 148 304 0
-144 148 304 0
-152 148 304 0
-305 -149 0
-305 71 145 153 0
-71 149 305 0
-145 149 305 0
-153 149 305 0
-306 -150 0
-306 72 146 154 0
-72 150 306 0
-146 150 306 0
-154 150 306 0
-307 -151 0
-307 73 147 155 0
-73 151 307 0
-147 151 307 0
-155 151 307 0
-308 -152 0
-308 74 148 156 0
-74 152 308 0
-148 152 308 0
-156 152 308 0
-309 -153 0
-309 75 79 149 0
-75 153 309 0
-79 153 309 0
-149 153 309 0
-310 -154 0
-310 76 80 150 0
-76 154 310 0
-80 154 310 0
-150 154 310 0
-311 -155 0
-311 77 81 151 0
-77 155 311 0
-81 155 311 0
-151 155 311 0
-312 -156 0
-312 78 82 152 0
-78 156 312 0
-82 156 312 0
-152 156 312 0
1 313 0
-313 314 0
2 -313 315 0
-315 316 0
3 -315 317 0
-317 318 0
4 -317 319 0
-319 320 0
5 -319 321 0
-321 322 0
6 -321 323 0
-323 324 0
7 -323 325 0
-325 326 0
8 -325 327 0
-327 328 0
9 -327 329 0
-329 330 0
10 -329 331 0
-331 332 0
11 -331 333 0
-333 334 0
12 -333 335 0
-335 336 0
13 -335 337 0
-337 338 0
14 -337 339 0
-339 340 0
15 -339 341 0
-341 342 0
16 -341 343 0
-343 344 0
17 -343 345 0
-345 346 0
18 -345 347 0
-347 348 0
19 -347 349 0
-349 350 0
20 -349 351 0
-351 352 0
21 -351 353 0
-353 354 0
22 -353 355 0
-355 356 0
23 -355 357 0
-357 358 0
24 -357 359 0
-359 360 0
25 -359 361 0
-361 362 0
26 -361 363 0
-363 364 0
27 -363 365 0
-365 366 0
28 -365 367 0
-367 368 0
29 -367 369 0
-369 370 0
30 -369 371 0
-371 372 0
31 -371 373 0
-373 374 0
32 -373 375 0
-375 376 0
33 -375 377 0
-377 378 0
34 -377 379 0
-379 380 0
35 -379 381 0
-381 382 0
36 -381 383 0
-383 384 0
37 -383 385 0
-385 386 0
38 -385 387 0
-387 388 0
39 -387 389 0
-389 390 0
40 -389 391 0
-391 392 0
41 -391 393 0
-393 394 0
42 -393 395 0
-395 396 0
43 -395 397 0
-397 398 0
44 -397 399 0
-399 400 0
45 -399 401 0
-401 402 0
46 -401 403 0
-403 404 0
47 -403 405 0
-405 406 0
48 -405 407 0
-407 408 0
49 -407 409 0
-409 410 0
50 -409 411 0
-411 412 0
51 -411 413 0
-413 414 0
52 -413 415 0
-415 416 0
53 -415 417 0
-417 418 0
54 -417 419 0
-419 420 0
55 -419 421 0
-421 422 0
56 -421 423 0
-423 424 0
57 -423 425 0
-425 426 0
58 -425 427 0
-427 428 0
59 -427 429 0
-429 430 0
60 -429 431 0
-431 432 0
61 -431 433 0
-433 434 0
62 -433 435 0
-435 436 0
63 -435 437 0
-437 438 0
64 -437 439 0
-439 440 0
65 -439 441 0
-441 442 0
66 -441 443 0
-443 444 0
67 -443 445 0
-445 446 0
68 -445 447 0
-447 448 0
69 -447 449 0
-449 450 0
70 -449 451 0
-451 452 0
71 -451 453 0
-453 454 0
72 -453 455 0
-455 456 0
73 -455 457 0
-457 458 0
74 -457 459 0
-459 460 0
75 -459 461 0
-461 462 0
76 -461 463 0
-463 464 0
77 -463 465 0
-465 466 0
78 -465 467 0
-467 468 0
79 -467 469 0
-469 470 0
80 -469 471 0
-471 472 0
81 -471 473 0
-473 474 0
82 -473 475 0
-475 476 0
83 -475 477 0
-477 478 0
84 -477 479 0
-479 480 0
85 -479 481 0
-481 482 0
86 -481 483 0
-483 484 0
87 -483 485 0
-485 486 0
88 -485 487 0
-487 488 0
89 -487 489 0
-489 490 0
90 -489 491 0
-491 492 0
91 -491 493 0
-493 494 0
92 -493 495 0
-495 496 0
93 -495 497 0
-497 498 0
94 -497 499 0
-499 500 0
95 -499 501 0
-501 502 0
96 -501 503 0
-503 504 0
97 -503 505 0
-505 506 0
98 -505 507 0
-507 508 0
99 -507 509 0
-509 510 0
100 -509 511 0
-511 512 0
101 -511 513 0
-513 514 0
102 -513 515 0
-515 516 0
103 -515 517 0
-517 518 0
104 -517 519 0
-519 520 0
105 -519 521 0
-521 522 0
106 -521 523 0
-523 524 0
107 -523 525 0
-525 526 0
108 -525 527 0
-527 528 0
109 -527 529 0
-529 530 0
110 -529 531 0
-531 532 0
111 -531 533 0
-533 534 0
112 -533 535 0
-535 536 0
113 -535 537 0
-537 538 0
114 -537 539 0
-539 540 0
115 -539 541 0
-541 542 0
116 -541 543 0
-543 544 0
117 -543 545 0
-545 546 0
118 -545 547 0
-547 548 0
119 -547 549 0
-549 550 0
120 -549 551 0
-551 552 0
121 -551 553 0
-553 554 0
122 -553 555 0
-555 556 0
123 -555 557 0
-557 558 0
124 -557 559 0
-559 560 0
125 -559 561 0
-561 562 0
126 -561 563 0
-563 564 0
127 -563 565 0
-565 566 0
128 -565 567 0
-567 568 0
129 -567 569 0
-569 570 0
130 -569 571 0
-571 572 0
131 -571 573 0
-573 574 0
132 -573 575 0
-575 576 0
133 -575 577 0
-577 578 0
134 -577 579 0
-579 580 0
135 -579 581 0
-581 582 0
136 -581 583 0
-583 584 0
137 -583 585 0
-585 586 0
138 -585 587 0
-587 588 0
139 -587 589 0
-589 590 0
140 -589 591 0
-591 592 0
141 -591 0
2 314 0
-314 593 0
3 -314 316 0
-316 594 0
4 -316 318 0
-318 595 0
5 -318 320 0
-320 596 0
6 -320 322 0
-322 597 0
7 -322 324 0
-324 598 0
8 -324 326 0
-326 599 0
9 -326 328 0
-328 600 0
10 -328 330 0
-330 601 0
11 -330 332 0
-332 602 0
12 -332 334 0
-334 603 0
13 -334 336 0
-336 604 0
14 -336 338 0
-338 605 0
15 -338 340 0
-340 606 0
16 -340 342 0
-342 607 0
17 -342 344 0
-344 608 0
18 -344 346 0
-346 609 0
19 -346 348 0
-348 610 0
20 -348 350 0
-350 611 0
21 -350 352 0
-352 612 0
22 -352 354 0
-354 613 0
23 -354 356 0
-356 614 0
24 -356 358 0
-358 615 0
25 -358 360 0
-360 616 0
26 -360 362 0
-362 617 0
27 -362 364 0
-364 618 0
28 -364 366 0
-366 619 0
29 -366 368 0
-368 620 0
30 -368 370 0
-370 621 0
31 -370 372 0
-372 622 0
32 -372 374 0
-374 623 0
33 -374 376 0
-376 624 0
34 -376 378 0
-378 625 0
35 -378 380 0
-380 626 0
36 -380 382 0
-382 627 0
37 -382 384 0
-384 628 0
38 -384 386 0
-386 629 0
39 -386 388 0
-388 630 0
40 -388 390 0
-390 631 0
41 -390 392 0
-392 632 0
42 -392 394 0
-394 633 0
43 -394 396 0
-396 634 0
44 -396 398 0
-398 635 0
45 -398 400 0
-400 636 0
46 -400 402 0
-402 637 0
47 -402 404 0
-404 638 0
48 -404 406 0
-406 639 0
49 -406 408 0
-408 640 0
50 -408 410 0
-410 641 0
51 -410 412 0
-412 642 0
52 -412 414 0
-414 643 0
53 -414 416 0
-416 644 0
54 -416 418 0
-418 645 0
55 -418 420 0
-420 646 0
56 -420 422 0
-422 647 0
57 -422 424 0
-424 648 0
58 -424 426 0
-426 649 0
59 -426 428 0
-428 650 0
60 -428 430 0
-430 651 0
61 -430 432 0
-432 652 0
62 -432 434 0
-434 653 0
63 -434 436 0
-436 654 0
64 -436 438 0
-438 655 0
65 -438 440 0
-440 656 0
66 -440 442 0
-442 657 0
67 -442 444 0
-444 658 0
68 -444 446 0
-446 659 0
69 -446 448 0
-448 660 0
70 -448 450 0
-450 661 0
71 -450 452 0
-452 662 0
72 -452 454 0
-454 663 0
73 -454 456 0
-456 664 0
74 -456 458 0
-458 665 0
75 -458 460 0
-460 666 0
76 -460 462 0
-462 667 0
77 -462 464 0
-464 668 0
78 -464 466 0
-466 669 0
79 -466 468 0
-468 670 0
80 -468 470 0
-470 671 0
81 -470 472 0
-472 672 0
82 -472 474 0
-474 673 0
83 -474 476 0
-476 674 0
84 -476 478 0
-478 675 0
85 -478 480 0
-480 676 0
86 -480 482 0
-482 677 0
87 -482 484 0
-484 678 0
88 -484 486 0
-486 679 0
89 -486 488 0
-488 680 0
90 -488 490 0
-490 681 0
91 -490 492 0
-492 682 0
92 -492 494 0
-494 683 0
93 -494 496 0
-496 684 0
94 -496 498 0
-498 685 0
95 -498 500 0
-500 686 0
96 -500 502 0
-502 687 0
97 -502 504 0
-504 688 0
98 -504 506 0
-506 689 0
99 -506 508 0
-508 690 0
100 -508 510 0
-510 691 0
101 -510 512 0
-512 692 0
102 -512 514 0
-514 693 0
103 -514 516 0
-516 694 0
104 -516 518 0
-518 695 0
105 -518 520 0
-520 696 0
106 -520 522 0
-522 697 0
107 -522 524 0
-524 698 0
108 -524 526 0
-526 699 0
109 -526 528 0
-528 700 0
110 -528 530 0
-530 701 0
111 -530 532 0
-532 702 0
112 -532 534 0
-534 703 0
113 -534 536 0
-536 704 0
114 -536 538 0
-538 705 0
115 -538 540 0
-540 706 0
116 -540 542 0
-542 707 0
117 -542 544 0
-544 708 0
118 -544 546 0
-546 709 0
119 -546 548 0
-548 710 0
120 -548 550 0
-550 711 0
121 -550 552 0
-552 712 0
122 -552 554 0
-554 713 0
123 -554 556 0
-556 714 0
124 -556 558 0
-558 715 0
125 -558 560 0
-560 716 0
126 -560 562 0
-562 717 0
127 -562 564 0
-564 718 0
128 -564 566 0
-566 719 0
129 -566 568 0
-568 720 0
130 -568 570 0
-570 721 0
131 -570 572 0
-572 722 0
132 -572 574 0
-574 723 0
133 -574 576 0
-576 724 0
134 -576 578 0
-578 725 0
135 -578 580 0
-580 726 0
136 -580 582 0
-582 727 0
137 -582 584 0
-584 728 0
138 -584 586 0
-586 729 0
139 -586 588 0
-588 730 0
140 -588 590 0
-590 731 0
141 -590 592 0
-592 732 0
142 -592 0
3 593 0
-593 733 0
4 -593 594 0
-594 734 0
5 -594 595 0
-595 735 0
6 -595 596 0
-596 736 0
7 -596 597 0
-597 737 0
8 -597 598 0
-598 738 0
9 -598 599 0
-599 739 0
10 -599 600 0
-600 740 0
11 -600 601 0
-601 741 0
12 -601 602 0
-602 742 0
13 -602 603 0
-603 743 0
14 -603 604 0
-604 744 0
15 -604 605 0
-605 745 0
16 -605 606 0
-606 746 0
17 -606 607 0
-607 747 0
18 -607 608 0
-608 748 0
19 -608 609 0
-609 749 0
20 -609 610 0
-610 750 0
21 -610 611 0
-611 751 0
22 -611 612 0
-612 752 0
23 -612 613 0
-613 753 0
24 -613 614 0
-614 754 0
25 -614 615 0
-615 755 0
26 -615 616 0
-616 756 0
27 -616 617 0
-617 757 0
28 -617 618 0
-618 758 0
29 -618 619 0
-619 759 0
30 -619 620 0
-620 760 0
31 -620 621 0
-621 761 0
32 -621 622 0
-622 762 0
33 -622 623 0
-623 763 0
34 -623 624 0
-624 764 0
35 -624 625 0
-625 765 0
36 -625 626 0
-626 766 0
37 -626 627 0
-627 767 0
38 -627 628 0
-628 768 0
39 -628 629 0
-629 769 0
40 -629 630 0
-630 770 0
41 -630 631 0
-631 771 0
42 -631 632 0
-632 772 0
43 -632 633 0
-633 773 0
44 -633 634 0
-634 774 0
45 -634 635 0
-635 775 0
46 -635 636 0
-636 776 0
47 -636 637 0
-637 777 0
48 -637 638 0
-638 778 0
49 -638 639 0
-639 779 0
50 -639 640 0
-640 780 0
51 -640 641 0
-641 781 0
52 -641 642 0
-642 782 0
53 -642 643 0
-643 783 0
54 -643 644 0
-644 784 0
55 -644 645 0
-645 785 0
56 -645 646 0
-646 786 0
57 -646 647 0
-647 787 0
58 -647 648 0
-648 788 0
59 -648 649 0
-649 789 0
60 -649 650 0
-650 790 0
61 -650 651 0
-651 791 0
62 -651 652 0
-652 792 0
63 -652 653 0
-653 793 0
64 -653 654 0
-654 794 0
65 -654 655 0
-655 795 0
66 -655 656 0
-656 796 0
67 -656 657 0
-657 797 0
68 -657 658 0
-658 798 0
69 -658 659 0
-659 799 0
70 -659 660 0
-660 800 0
71 -660 661 0
-661 801 0
72 -661 662 0
-662 802 0
73 -662 663 0
-663 803 0
74 -663 664 0
-664 804 0
75 -664 665 0
-665 805 0
76 -665 666 0
-666 806 0
77 -666 667 0
-667 807 0
78 -667 668 0
-668 808 0
79 -668 669 0
-669 809 0
80 -669 670 0
-670 810 0
81 -670 671 0
-671 811 0
82 -671 672 0
-672 812 0
83 -672 673 0
-673 813 0
84 -673 674 0
-674 814 0
85 -674 675 0
-675 815 0
86 -675 676 0
-676 816 0
87 -676 677 0
-677 817 0
88 -677 678 0
-678 818 0
89 -678 679 0
-679 819 0
90 -679 680 0
-680 820 0
91 -680 681 0
-681 821 0
92 -681 682 0
-682 822 0
93 -682 683 0
-683 823 0
94 -683 684 0
-684 824 0
95 -684 685 0
-685 825 0
96 -685 686 0
-686 826 0
97 -686 687 0
-687 827 0
98 -687 688 0
-688 828 0
99 -688 689 0
-689 829 0
100 -689 690 0
-690 830 0
101 -690 691 0
-691 831 0
102 -691 692 0
-692 832 0
103 -692 693 0
-693 833 0
104 -693 694 0
-694 834 0
105 -694 695 0
-695 835 0
106 -695 696 0
-696 836 0
107 -696 697 0
-697 837 0
108 -697 698 0
-698 838 0
109 -698 699 0
-699 839 0
110 -699 700 0
-700 840 0
111 -700 701 0
-701 841 0
112 -701 702 0
-702 842 0
113 -702 703 0
-703 843 0
114 -703 704 0
-704 844 0
115 -704 705 0
-705 845 0
116 -705 706 0
-706 846 0
117 -706 707 0
-707 847 0
118 -707 708 0
-708 848 0
119 -708 709 0
-709 849 0
120 -709 710 0
-710 850 0
121 -710 711 0
-711 851 0
122 -711 712 0
-712 852 0
123 -712 713 0
-713 853 0
124 -713 714 0
-714 854 0
125 -714 715 0
-715 855 0
126 -715 716 0
-716 856 0
127 -716 717 0
-717 857 0
128 -717 718 0
-718 858 0
129 -718 719 0
-719 859 0
130 -719 720 0
-720 860 0
131 -720 721 0
-721 861 0
132 -721 722 0
-722 862 0
133 -722 723 0
-723 863 0
134 -723 724 0
-724 864 0
135 -724 725 0
-725 865 0
136 -725 726 0
-726 866 0
137 -726 727 0
-727 867 0
138 -727 728 0
-728 868 0
139 -728 729 0
-729 869 0
140 -729 730 0
-730 870 0
141 -730 731 0
-731 871 0
142 -731 732 0
-732 872 0
143 -732 0
4 733 0
-733 873 0
5 -733 734 0
-734 874 0
6 -734 735 0
-735 875 0
7 -735 736 0
-736 876 0
8 -736 737 0
-737 877 0
9 -737 738 0
-738 878 0
10 -738 739 0
-739 879 0
11 -739 740 0
-740 880 0
12 -740 741 0
-741 881 0
13 -741 742 0
-742 882 0
14 -742 743 0
-743 883 0
15 -743 744 0
-744 884 0
16 -744 745 0
-745 885 0
17 -745 746 0
-746 886 0
18 -746 747 0
-747 887 0
19 -747 748 0
-748 888 0
20 -748 749 0
-749 889 0
21 -749 750 0
-750 890 0
22 -750 751 0
-751 891 0
23 -751 752 0
-752 892 0
24 -752 753 0
-753 893 0
25 -753 754 0
-754 894 0
26 -754 755 0
-755 895 0
27 -755 756 0
-756 896 0
28 -756 757 0
-757 897 0
29 -757 758 0
-758 898 0
30 -758 759 0
-759 899 0
31 -759 760 0
-760 900 0
32 -760 761 0
-761 901 0
33 -761 762 0
-762 902 0
34 -762 763 0
-763 903 0
35 -763 764 0
-764 904 0
36 -764 765 0
-765 905 0
37 -765 766 0
-766 906 0
38 -766 767 0
-767 907 0
39 -767 768 0
-768 908 0
40 -768 769 0
-769 909 0
41 -769 770 0
-770 910 0
42 -770 771 0
-771 911 0
43 -771 772 0
-772 912 0
44 -772 773 0
-773 913 0
45 -773 774 0
-774 914 0
46 -774 775 0
-775 915 0
47 -775 776 0
-776 916 0
48 -776 777 0
-777 917 0
49 -777 778 0
-778 918 0
50 -778 779 0
-779 919 0
51 -779 780 0
-780 920 0
52 -780 781 0
-781 921 0
53 -781 782 0
-782 922 0
54 -782 783 0
-783 923 0
55 -783 784 0
-784 924 0
56 -784 785 0
-785 925 0
57 -785 786 0
-786 926 0
58 -786 787 0
-787 927 0
59 -787 788 0
-788 928 0
60 -788 789 0
-789 929 0
61 -789 790 0
-790 930 0
62 -790 791 0
-791 931 0
63 -791 792 0
-792 932 0
64 -792 793 0
-793 933 0
65 -793 794 0
-794 934 0
66 -794 795 0
-795 935 0
67 -795 796 0
-796 936 0
68 -796 797 0
-797 937 0
69 -797 798 0
-798 938 0
70 -798 799 0
-799 939 0
71 -799 800 0
-800 940 0
72 -800 801 0
-801 941 0
73 -801 802 0
-802 942 0
74 -802 803 0
-803 943 0
75 -803 804 0
-804 944 0
76 -804 805 0
-805 945 0
77 -805 806 0
-806 946 0
78 -806 807 0
-807 947 0
79 -807 808 0
-808 948 0
80 -808 809 0
-809 949 0
81 -809 810 0
-810 950 0
82 -810 811 0
-811 951 0
83 -811 812 0
-812 952 0
84 -812 813 0
-813 953 0
85 -813 814 0
-814 954 0
86 -814 815 0
-815 955 0
87 -815 816 0
-816 956 0
88 -816 817 0
-817 957 0
89 -817 818 0
-818 958 0
90 -818 819 0
-819 959 0
91 -819 820 0
-820 960 0
92 -820 821 0
-821 961 0
93 -821 822 0
-822 962 0
94 -822 823 0
-823 963 0
95 -823 824 0
-824 964 0
96 -824 825 0
-825 965 0
97 -825 826 0
-826 966 0
98 -826 827 0
-827 967 0
99 -827 828 0
-828 968 0
100 -828 829 0
-829 969 0
101 -829 830 0
-830 970 0
102 -830 831 0
-831 971 0
103 -831 832 0
-832 972 0
104 -832 833 0
-833 973 0
105 -833 834 0
-834 974 0
106 -834 835 0
-835 975 0
107 -835 836 0
-836 976 0
108 -836 837 0
-837 977 0
109 -837 838 0
-838 978 0
110 -838 839 0
-839 979 0
111 -839 840 0
-840 980 0
112 -840 841 0
-841 981 0
113 -841 842 0
-842 982 0
114 -842 843 0
-843 983 0
115 -843 844 0
-844 984 0
116 -844 845 0
-845 985 0
117 -845 846 0
-846 986 0
118 -846 847 0
-847 987 0
119 -847 848 0
-848 988 0
120 -848 849 0
-849 989 0
121 -849 850 0
-850 990 0
122 -850 851 0
-851 991 0
123 -851 852 0
-852 992 0
124 -852 853 0
-853 993 0
125 -853 854 0
-854 994 0
126 -854 855 0
-855 995 0
127 -855 856 0
-856 996 0
128 -856 857 0
-857 997 0
129 -857 858 0
-858 998 0
130 -858 859 0
-859 999 0
131 -859 860 0
-860 1000 0
132 -860 861 0
-861 1001 0
133 -861 862 0
-862 1002 0
134 -862 863 0
-863 1003 0
135 -863 864 0
-864 1004 0
136 -864 865 0
-865 1005 0
137 -865 866 0
-866 1006 0
138 -866 867 0
-867 1007 0
139 -867 868 0
-868 1008 0
140 -868 869 0
-869 1009 0
141 -869 870 0
-870 1010 0
142 -870 871 0
-871 1011 0
143 -871 872 0
-872 1012 0
144 -872 0
5 873 0
-873 1013 0
6 -873 874 0
-874 1014 0
7 -874 875 0
-875 1015 0
8 -875 876 0
-876 1016 0
9 -876 877 0
-877 1017 0
10 -877 878 0
-878 1018 0
11 -878 879 0
-879 1019 0
12 -879 880 0
-880 1020 0
13 -880 881 0
-881 1021 0
14 -881 882 0
-882 1022 0
15 -882 883 0
-883 1023 0
16 -883 884 0
-884 1024 0
17 -884 885 0
-885 1025 0
18 -885 886 0
-886 1026 0
19 -886 887 0
-887 1027 0
20 -887 888 0
-888 1028 0
21 -888 889 0
-889 1029 0
22 -889 890 0
-890 1030 0
23 -890 891 0
-891 1031 0
24 -891 892 0
-892 1032 0
25 -892 893 0
-893 1033 0
26 -893 894 0
-894 1034 0
27 -894 895 0
-895 1035 0
28 -895 896 0
-896 1036 0
29 -896 897 0
-897 1037 0
30 -897 898 0
-898 1038 0
31 -898 899 0
-899 1039 0
32 -899 900 0
-900 1040 0
33 -900 901 0
-901 1041 0
34 -901 902 0
-902 1042 0
35 -902 903 0
-903 1043 0
36 -903 904 0
-904 1044 0
37 -904 905 0
-905 1045 0
38 -905 906 0
-906 1046 0
39 -906 907 0
-907 1047 0
40 -907 908 0
-908 1048 0
41 -908 909 0
-909 1049 0
42 -909 910 0
-910 1050 0
43 -910 911 0
-911 1051 0
44 -911 912 0
-912 1052 0
45 -912 913 0
-913 1053 0
46 -913 914 0
-914 1054 0
47 -914 915 0
-915 1055 0
48 -915 916 0
-916 1056 0
49 -916 917 0
-917 1057 0
50 -917 918 0
-918 1058 0
51 -918 919 0
-919 1059 0
52 -919 920 0
-920 1060 0
53 -920 921 0
-921 1061 0
54 -921 922 0
-922 1062 0
55 -922 923 0
-923 1063 0
56 -923 924 0
-924 1064 0
57 -924 925 0
-925 1065 0
58 -925 926 0
-926 1066 0
59 -926 927 0
-927 1067 0
60 -927 928 0
-928 1068 0
61 -928 929 0
-929 1069 0
62 -929 930 0
-930 1070 0
63 -930 931 0
-931 1071 0
64 -931 932 0
-932 1072 0
65 -932 933 0
-933 1073 0
66 -933 934 0
-934 1074 0
67 -934 935 0
-935 1075 0
68 -935 936 0
-936 1076 0
69 -936 937 0
-937 1077 0
70 -937 938 0
-938 1078 0
71 -938 939 0
-939 1079 0
72 -939 940 0
-940 1080 0
73 -940 941 0
-941 1081 0
74 -941 942 0
-942 1082 0
75 -942 943 0
-943 1083 0
76 -943 944 0
-944 1084 0
77 -944 945 0
-945 1085 0
78 -945 946 0
-946 1086 0
79 -946 947 0
-947 1087 0
80 -947 948 0
-948 1088 0
81 -948 949 0
-949 1089 0
82 -949 950 0
-950 1090 0
83 -950 951 0
-951 1091 0
84 -951 952 0
-952 1092 0
85 -952 953 0
-953 1093 0
86 -953 954 0
-954 1094 0
87 -954 955 0
-955 1095 0
88 -955 956 0
-956 1096 0
89 -956 957 0
-957 1097 0
90 -957 958 0
-958 1098 0
91 -958 959 0
-959 1099 0
92 -959 960 0
-960 1100 0
93 -960 961 0
-961 1101 0
94 -961 962 0
-962 1102 0
95 -962 963 0
-963 1103 0
96 -963 964 0
-964 1104 0
97 -964 965 0
-965 1105 0
98 -965 966 0
-966 1106 0
99 -966 967 0
-967 1107 0
100 -967 968 0
-968 1108 0
101 -968 969 0
-969 1109 0
102 -969 970 0
-970 1110 0
103 -970 971 0
-971 1111 0
104 -971 972 0
-972 1112 0
105 -972 973 0
-973 1113 0
106 -973 974 0
-974 1114 0
107 -974 975 0
-975 1115 0
108 -975 976 0
-976 1116 0
109 -976 977 0
-977 1117 0
110 -977 978 0
-978 1118 0
111 -978 979 0
-979 1119 0
112 -979 980 0
-980 1120 0
113 -980 981 0
-981 1121 0
114 -981 982 0
-982 1122 0
115 -982 983 0
-983 1123 0
116 -983 984 0
-984 1124 0
117 -984 985 0
-985 1125 0
118 -985 986 0
-986 1126 0
119 -986 987 0
-987 1127 0
120 -987 988 0
-988 1128 0
121 -988 989 0
-989 1129 0
122 -989 990 0
-990 1130 0
123 -990 991 0
-991 1131 0
124 -991 992 0
-992 1132 0
125 -992 993 0
-993 1133 0
126 -993 994 0
-994 1134 0
127 -994 995 0
-995 1135 0
128 -995 996 0
-996 1136 0
129 -996 997 0
-997 1137 0
130 -997 998 0
-998 1138 0
131 -998 999 0
-999 1139 0
132 -999 1000 0
-1000 1140 0
133 -1000 1001 0
-1001 1141 0
134 -1001 1002 0
-1002 1142 0
135 -1002 1003 0
-1003 1143 0
136 -1003 1004 0
-1004 1144 0
137 -1004 1005 0
-1005 1145 0
138 -1005 1006 0
-1006 1146 0
139 -1006 1007 0
-1007 1147 0
140 -1007 1008 0
-1008 1148 0
141 -1008 1009 0
-1009 1149 0
142 -1009 1010 0
-1010 1150 0
143 -1010 1011 0
-1011 1151 0
144 -1011 1012 0
-1012 1152 0
145 -1012 0
6 1013 0
-1013 1153 0
7 -1013 1014 0
-1014 1154 0
8 -1014 1015 0
-1015 1155 0
9 -1015 1016 0
-1016 1156 0
10 -1016 1017 0
-1017 1157 0
11 -1017 1018 0
-1018 1158 0
12 -1018 1019 0
-1019 1159 0
13 -1019 1020 0
-1020 1160 0
14 -1020 1021 0
-1021 1161 0
15 -1021 1022 0
-1022 1162 0
16 -1022 1023 0
-1023 1163 0
17 -1023 1024 0
-1024 1164 0
18 -1024 1025 0
-1025 1165 0
19 -1025 1026 0
-1026 1166 0
20 -1026 1027 0
-1027 1167 0
21 -1027 1028 0
-1028 1168 0
22 -1028 1029 0
-1029 1169 0
23 -1029 1030 0
-1030 1170 0
24 -1030 1031 0
-1031 1171 0
25 -1031 1032 0
-1032 1172 0
26 -1032 1033 0
-1033 1173 0
27 -1033 1034 0
-1034 1174 0
28 -1034 1035 0
-1035 1175 0
29 -1035 1036 0
-1036 1176 0
30 -1036 1037 0
-1037 1177 0
31 -1037 1038 0
-1038 1178 0
32 -1038 1039 0
-1039 1179 0
33 -1039 1040 0
-1040 1180 0
34 -1040 1041 0
-1041 1181 0
35 -1041 1042 0
-1042 1182 0
36 -1042 1043 0
-1043 1183 0
37 -1043 1044 0
-1044 1184 0
38 -1044 1045 0
-1045 1185 0
39 -1045 1046 0
-1046 1186 0
40 -1046 1047 0
-1047 1187 0
41 -1047 1048 0
-1048 1188 0
42 -1048 1049 0
-1049 1189 0
43 -1049 1050 0
-1050 1190 0
44 -1050 1051 0
-1051 1191 0
45 -1051 1052 0
-1052 1192 0
46 -1052 1053 0
-1053 1193 0
47 -1053 1054 0
-1054 1194 0
48 -1054 1055 0
-1055 1195 0
49 -1055 1056 0
-1056 1196 0
50 -1056 1057 0
-1057 1197 0
51 -1057 1058 0
-1058 1198 0
52 -1058 1059 0
-1059 1199 0
53 -1059 1060 0
-1060 1200 0
54 -1060 1061 0
-1061 1201 0
55 -1061 1062 0
-1062 1202 0
56 -1062 1063 0
-1063 1203 0
57 -1063 1064 0
-1064 1204 0
58 -1064 1065 0
-1065 1205 0
59 -1065 1066 0
-1066 1206 0
60 -1066 1067 0
-1067 1207 0
61 -1067 1068 0
-1068 1208 0
62 -1068 1069 0
-1069 1209 0
63 -1069 1070 0
-1070 1210 0
64 -1070 1071 0
-1071 1211 0
65 -1071 1072 0
-1072 1212 0
66 -1072 1073 0
-1073 1213 0
67 -1073 1074 0
-1074 1214 0
68 -1074 1075 0
-1075 1215 0
69 -1075 1076 0
-1076 1216 0
70 -1076 1077 0
-1077 1217 0
71 -1077 1078 0
-1078 1218 0
72 -1078 1079 0
-1079 1219 0
73 -1079 1080 0
-1080 1220 0
74 -1080 1081 0
-1081 1221 0
75 -1081 1082 0
-1082 1222 0
76 -1082 1083 0
-1083 1223 0
77 -1083 1084 0
-1084 1224 0
78 -1084 1085 0
-1085 1225 0
79 -1085 1086 0
-1086 1226 0
80 -1086 1087 0
-1087 1227 0
81 -1087 1088 0
-1088 1228 0
82 -1088 1089 0
-1089 1229 0
83 -1089 1090 0
-1090 1230 0
84 -1090 1091 0
-1091 1231 0
85 -1091 1092 0
-1092 1232 0
86 -1092 1093 0
-1093 1233 0
87 -1093 1094 0
-1094 1234 0
88 -1094 1095 0
-1095 1235 0
89 -1095 1096 0
-1096 1236 0
90 -1096 1097 0
-1097 1237 0
91 -1097 1098 0
-1098 1238 0
92 -1098 1099 0
-1099 1239 0
93 -1099 1100 0
-1100 1240 0
94 -1100 1101 0
-1101 1241 0
95 -1101 1102 0
-1102 1242 0
96 -1102 1103 0
-1103 1243 0
97 -1103 1104 0
-1104 1244 0
98 -1104 1105 0
-1105 1245 0
99 -1105 1106 0
-1106 1246 0
100 -1106 1107 0
-1107 1247 0
101 -1107 1108 0
-1108 1248 0
102 -1108 1109 0
-1109 1249 0
103 -1109 1110 0
-1110 1250 0
104 -1110 1111 0
-1111 1251 0
105 -1111 1112 0
-1112 1252 0
106 -1112 1113 0
-1113 1253 0
107 -1113 1114 0
-1114 1254 0
108 -1114 1115 0
-1115 1255 0
109 -1115 1116 0
-1116 1256 0
110 -1116 1117 0
-1117 1257 0
111 -1117 1118 0
-1118 1258 0
112 -1118 1119 0
-1119 1259 0
113 -1119 1120 0
-1120 1260 0
114 -1120 1121 0
-1121 1261 0
115 -1121 1122 0
-1122 1262 0
116 -1122 1123 0
-1123 1263 0
117 -1123 1124 0
-1124 1264 0
118 -1124 1125 0
-1125 1265 0
119 -1125 1126 0
-1126 1266 0
120 -1126 1127 0
-1127 1267 0
121 -1127 1128 0
-1128 1268 0
122 -1128 1129 0
-1129 1269 0
123 -1129 1130 0
-1130 1270 0
124 -1130 1131 0
-1131 1271 0
125 -1131 1132 0
-1132 1272 0
126 -1132 1133 0
-1133 1273 0
127 -1133 1134 0
-1134 1274 0
128 -1134 1135 0
-1135 1275 0
129 -1135 1136 0
-1136 1276 0
130 -1136 1137 0
-1137 1277 0
131 -1137 1138 0
-1138 1278 0
132 -1138 1139 0
-1139 1279 0
133 -1139 1140 0
-1140 1280 0
134 -1140 1141 0
-1141 1281 0
135 -1141 1142 0
-1142 1282 0
136 -1142 1143 0
-1143 1283 0
137 -1143 1144 0
-1144 1284 0
138 -1144 1145 0
-1145 1285 0
139 -1145 1146 0
-1146 1286 0
140 -1146 1147 0
-1147 1287 0
141 -1147 1148 0
-1148 1288 0
142 -1148 1149 0
-1149 1289 0
143 -1149 1150 0
-1150 1290 0
144 -1150 1151 0
-1151 1291 0
145 -1151 1152 0
-1152 1292 0
146 -1152 0
7 1153 0
-1153 1293 0
8 -1153 1154 0
-1154 1294 0
9 -1154 1155 0
-1155 1295 0
10 -1155 1156 0
-1156 1296 0
11 -1156 1157 0
-1157 1297 0
12 -1157 1158 0
-1158 1298 0
13 -1158 1159 0
-1159 1299 0
14 -1159 1160 0
-1160 1300 0
15 -1160 1161 0
-1161 1301 0
16 -1161 1162 0
-1162 1302 0
17 -1162 1163 0
-1163 1303 0
18 -1163 1164 0
-1164 1304 0
19 -1164 1165 0
-1165 1305 0
20 -1165 1166 0
-1166 1306 0
21 -1166 1167 0
-1167 1307 0
22 -1167 1168 0
-1168 1308 0
23 -1168 1169 0
-1169 1309 0
24 -1169 1170 0
-1170 1310 0
25 -1170 1171 0
-1171 1311 0
26 -1171 1172 0
-1172 1312 0
27 -1172 1173 0
-1173 1313 0
28 -1173 1174 0
-1174 1314 0
29 -1174 1175 0
-1175 1315 0
30 -1175 1176 0
-1176 1316 0
31 -1176 1177 0
-1177 1317 0
32 -1177 1178 0
-1178 1318 0
33 -1178 1179 0
-1179 1319 0
34 -1179 1180 0
-1180 1320 0
35 -1180 1181 0
-1181 1321 0
36 -1181 1182 0
-1182 1322 0
37 -1182 1183 0
-1183 1323 0
38 -1183 1184 0
-1184 1324 0
39 -1184 1185 0
-1185 1325 0
40 -1185 1186 0
-1186 1326 0
41 -1186 1187 0
-1187 1327 0
42 -1187 1188 0
-1188 1328 0
43 -1188 1189 0
-1189 1329 0
44 -1189 1190 0
-1190 1330 0
45 -1190 1191 0
-1191 1331 0
46 -1191 1192 0
-1192 1332 0
47 -1192 1193 0
-1193 1333 0
48 -1193 1194 0
-1194 1334 0
49 -1194 1195 0
-1195 1335 0
50 -1195 1196 0
-1196 1336 0
51 -1196 1197 0
-1197 1337 0
52 -1197 1198 0
-1198 1338 0
53 -1198 1199 0
-1199 1339 0
54 -1199 1200 0
-1200 1340 0
55 -1200 1201 0
-1201 1341 0
56 -1201 1202 0
-1202 1342 0
57 -1202 1203 0
-1203 1343 0
58 -1203 1204 0
-1204 1344 0
59 -1204 1205 0
-1205 1345 0
60 -1205 1206 0
-1206 1346 0
61 -1206 1207 0
-1207 1347 0
62 -1207 1208 0
-1208 1348 0
63 -1208 1209 0
-1209 1349 0
64 -1209 1210 0
-1210 1350 0
65 -1210 1211 0
-1211 1351 0
66 -1211 1212 0
-1212 1352 0
67 -1212 1213 0
-1213 1353 0
68 -1213 1214 0
-1214 1354 0
69 -1214 1215 0
-1215 1355 0
70 -1215 1216 0
-1216 1356 0
71 -1216 1217 0
-1217 1357 0
72 -1217 1218 0
-1218 1358 0
73 -1218 1219 0
-1219 1359 0
74 -1219 1220 0
-1220 1360 0
75 -1220 1221 0
-1221 1361 0
76 -1221 1222 0
-1222 1362 0
77 -1222 1223 0
-1223 1363 0
78 -1223 1224 0
-1224 1364 0
79 -1224 1225 0
-1225 1365 0
80 -1225 1226 0
-1226 1366 0
81 -1226 1227 0
-1227 1367 0
82 -1227 1228 0
-1228 1368 0
83 -1228 1229 0
-1229 1369 0
84 -1229 1230 0
-1230 1370 0
85 -1230 1231 0
-1231 1371 0
86 -1231 1232 0
-1232 1372 0
87 -1232 1233 0
-1233 1373 0
88 -1233 1234 0
-1234 1374 0
89 -1234 1235 0
-1235 1375 0
90 -1235 1236 0
-1236 1376 0
91 -1236 1237 0
-1237 1377 0
92 -1237 1238 0
-1238 1378 0
93 -1238 1239 0
-1239 1379 0
94 -1239 1240 0
-1240 1380 0
95 -1240 1241 0
-1241 1381 0
96 -1241 1242 0
-1242 1382 0
97 -1242 1243 0
-1243 1383 0
98 -1243 1244 0
-1244 1384 0
99 -1244 1245 0
-1245 1385 0
100 -1245 1246 0
-1246 1386 0
101 -1246 1247 0
-1247 1387 0
102 -1247 1248 0
-1248 1388 0
103 -1248 1249 0
-1249 1389 0
104 -1249 1250 0
-1250 1390 0
105 -1250 1251 0
-1251 1391 0
106 -1251 1252 0
-1252 1392 0
107 -1252 1253 0
-1253 1393 0
108 -1253 1254 0
-1254 1394 0
109 -1254 1255 0
-1255 1395 0
110 -1255 1256 0
-1256 1396 0
111 -1256 1257 0
-1257 1397 0
112 -1257 1258 0
-1258 1398 0
113 -1258 1259 0
-1259 1399 0
114 -1259 1260 0
-1260 1400 0
115 -1260 1261 0
-1261 1401 0
116 -1261 1262 0
-1262 1402 0
117 -1262 1263 0
-1263 1403 0
118 -1263 1264 0
-1264 1404 0
119 -1264 1265 0
-1265 1405 0
120 -1265 1266 0
-1266 1406 0
121 -1266 1267 0
-1267 1407 0
122 -1267 1268 0
-1268 1408 0
123 -1268 1269 0
-1269 1409 0
124 -1269 1270 0
-1270 1410 0
125 -1270 1271 0
-1271 1411 0
126 -1271 1272 0
-1272 1412 0
127 -1272 1273 0
-1273 1413 0
128 -1273 1274 0
-1274 1414 0
129 -1274 1275 0
-1275 1415 0
130 -1275 1276 0
-1276 1416 0
131 -1276 1277 0
-1277 1417 0
132 -1277 1278 0
-1278 1418 0
133 -1278 1279 0
-1279 1419 0
134 -1279 1280 0
-1280 1420 0
135 -1280 1281 0
-1281 1421 0
136 -1281 1282 0
-1282 1422 0
137 -1282 1283 0
-1283 1423 0
138 -1283 1284 0
-1284 1424 0
139 -1284 1285 0
-1285 1425 0
140 -1285 1286 0
-1286 1426 0
141 -1286 1287 0
-1287 1427 0
142 -1287 1288 0
-1288 1428 0
143 -1288 1289 0
-1289 1429 0
144 -1289 1290 0
-1290 1430 0
145 -1290 1291 0
-1291 1431 0
146 -1291 1292 0
-1292 1432 0
147 -1292 0
8 1293 0
-1293 1433 0
9 -1293 1294 0
-1294 1434 0
10 -1294 1295 0
-1295 1435 0
11 -1295 1296 0
-1296 1436 0
12 -1296 1297 0
-1297 1437 0
13 -1297 1298 0
-1298 1438 0
14 -1298 1299 0
-1299 1439 0
15 -1299 1300 0
-1300 1440 0
16 -1300 1301 0
-1301 1441 0
17 -1301 1302 0
-1302 1442 0
18 -1302 1303 0
-1303 1443 0
19 -1303 1304 0
-1304 1444 0
20 -1304 1305 0
-1305 1445 0
21 -1305 1306 0
-1306 1446 0
22 -1306 1307 0
-1307 1447 0
23 -1307 1308 0
-1308 1448 0
24 -1308 1309 0
-1309 1449 0
25 -1309 1310 0
-1310 1450 0
26 -1310 1311 0
-1311 1451 0
27 -1311 1312 0
-1312 1452 0
28 -1312 1313 0
-1313 1453 0
29 -1313 1314 0
-1314 1454 0
30 -1314 1315 0
-1315 1455 0
31 -1315 1316 0
-1316 1456 0
32 -1316 1317 0
-1317 1457 0
33 -1317 1318 0
-1318 1458 0
34 -1318 1319 0
-1319 1459 0
35 -1319 1320 0
-1320 1460 0
36 -1320 1321 0
-1321 1461 0
37 -1321 1322 0
-1322 1462 0
38 -1322 1323 0
-1323 1463 0
39 -1323 1324 0
-1324 1464 0
40 -1324 1325 0
-1325 1465 0
41 -1325 1326 0
-1326 1466 0
42 -1326 1327 0
-1327 1467 0
43 -1327 1328 0
-1328 1468 0
44 -1328 1329 0
-1329 1469 0
45 -1329 1330 0
-1330 1470 0
46 -1330 1331 0
-1331 1471 0
47 -1331 1332 0
-1332 1472 0
48 -1332 1333 0
-1333 1473 0
49 -1333 1334 0
-1334 1474 0
50 -1334 1335 0
-1335 1475 0
51 -1335 1336 0
-1336 1476 0
52 -1336 1337 0
-1337 1477 0
53 -1337 1338 0
-1338 1478 0
54 -1338 1339 0
-1339 1479 0
55 -1339 1340 0
-1340 1480 0
56 -1340 1341 0
-1341 1481 0
57 -1341 1342 0
-1342 1482 0
58 -1342 1343 0
-1343 1483 0
59 -1343 1344 0
-1344 1484 0
60 -1344 1345 0
-1345 1485 0
61 -1345 1346 0
-1346 1486 0
62 -1346 1347 0
-1347 1487 0
63 -1347 1348 0
-1348 1488 0
64 -1348 1349 0
-1349 1489 0
65 -1349 1350 0
-1350 1490 0
66 -1350 1351 0
-1351 1491 0
67 -1351 1352 0
-1352 1492 0
68 -1352 1353 0
-1353 1493 0
69 -1353 1354 0
-1354 1494 0
70 -1354 1355 0
-1355 1495 0
71 -1355 1356 0
-1356 1496 0
72 -1356 1357 0
-1357 1497 0
73 -1357 1358 0
-1358 1498 0
74 -1358 1359 0
-1359 1499 0
75 -1359 1360 0
-1360 1500 0
76 -1360 1361 0
-1361 1501 0
77 -1361 1362 0
-1362 1502 0
78 -1362 1363 0
-1363 1503 0
79 -1363 1364 0
-1364 1504 0
80 -1364 1365 0
-1365 1505 0
81 -1365 1366 0
-1366 1506 0
82 -1366 1367 0
-1367 1507 0
83 -1367 1368 0
-1368 1508 0
84 -1368 1369 0
-1369 1509 0
85 -1369 1370 0
-1370 1510 0
86 -1370 1371 0
-1371 1511 0
87 -1371 1372 0
-1372 1512 0
88 -1372 1373 0
-1373 1513 0
89 -1373 1374 0
-1374 1514 0
90 -1374 1375 0
-1375 1515 0
91 -1375 1376 0
-1376 1516 0
92 -1376 1377 0
-1377 1517 0
93 -1377 1378 0
-1378 1518 0
94 -1378 1379 0
-1379 1519 0
95 -1379 1380 0
-1380 1520 0
96 -1380 1381 0
-1381 1521 0
97 -1381 1382 0
-1382 1522 0
98 -1382 1383 0
-1383 1523 0
99 -1383 1384 0
-1384 1524 0
100 -1384 1385 0
-1385 1525 0
101 -1385 1386 0
-1386 1526 0
102 -1386 1387 0
-1387 1527 0
103 -1387 1388 0
-1388 1528 0
104 -1388 1389 0
-1389 1529 0
105 -1389 1390 0
-1390 1530 0
106 -1390 1391 0
-1391 1531 0
107 -1391 1392 0
-1392 1532 0
108 -1392 1393 0
-1393 1533 0
109 -1393 1394 0
-1394 1534 0
110 -1394 1395 0
-1395 1535 0
111 -1395 1396 0
-1396 1536 0
112 -1396 1397 0
-1397 1537 0
113 -1397 1398 0
-1398 1538 0
114 -1398 1399 0
-1399 1539 0
115 -1399 1400 0
-1400 1540 0
116 -1400 1401 0
-1401 1541 0
117 -1401 1402 0
-1402 1542 0
118 -1402 1403 0
-1403 1543 0
119 -1403 1404 0
-1404 1544 0
120 -1404 1405 0
-1405 1545 0
121 -1405 1406 0
-1406 1546 0
122 -1406 1407 0
-1407 1547 0
123 -1407 1408 0
-1408 1548 0
124 -1408 1409 0
-1409 1549 0
125 -1409 1410 0
-1410 1550 0
126 -1410 1411 0
-1411 1551 0
127 -1411 1412 0
-1412 1552 0
128 -1412 1413 0
-1413 1553 0
129 -1413 1414 0
-1414 1554 0
130 -1414 1415 0
-1415 1555 0
131 -1415 1416 0
-1416 1556 0
132 -1416 1417 0
-1417 1557 0
133 -1417 1418 0
-1418 1558 0
134 -1418 1419 0
-1419 1559 0
135 -1419 1420 0
-1420 1560 0
136 -1420 1421 0
-1421 1561 0
137 -1421 1422 0
-1422 1562 0
138 -1422 1423 0
-1423 1563 0
139 -1423 1424 0
-1424 1564 0
140 -1424 1425 0
-1425 1565 0
141 -1425 1426 0
-1426 1566 0
142 -1426 1427 0
-1427 1567 0
143 -1427 1428 0
-1428 1568 0
144 -1428 1429 0
-1429 1569 0
145 -1429 1430 0
-1430 1570 0
146 -1430 1431 0
-1431 1571 0
147 -1431 1432 0
-1432 1572 0
148 -1432 0
9 1433 0
-1433 1573 0
10 -1433 1434 0
-1434 1574 0
11 -1434 1435 0
-1435 1575 0
12 -1435 1436 0
-1436 1576 0
13 -1436 1437 0
-1437 1577 0
14 -1437 1438 0
-1438 1578 0
15 -1438 1439 0
-1439 1579 0
16 -1439 1440 0
-1440 1580 0
17 -1440 1441 0
-1441 1581 0
18 -1441 1442 0
-1442 1582 0
19 -1442 1443 0
-1443 1583 0
20 -1443 1444 0
-1444 1584 0
21 -1444 1445 0
-1445 1585 0
22 -1445 1446 0
-1446 1586 0
23 -1446 1447 0
-1447 1587 0
24 -1447 1448 0
-1448 1588 0
25 -1448 1449 0
-1449 1589 0
26 -1449 1450 0
-1450 1590 0
27 -1450 1451 0
-1451 1591 0
28 -1451 1452 0
-1452 1592 0
29 -1452 1453 0
-1453 1593 0
30 -1453 1454 0
-1454 1594 0
31 -1454 1455 0
-1455 1595 0
32 -1455 1456 0
-1456 1596 0
33 -1456 1457 0
-1457 1597 0
34 -1457 1458 0
-1458 1598 0
35 -1458 1459 0
-1459 1599 0
36 -1459 1460 0
-1460 1600 0
37 -1460 1461 0
-1461 1601 0
38 -1461 1462 0
-1462 1602 0
39 -1462 1463 0
-1463 1603 0
40 -1463 1464 0
-1464 1604 0
41 -1464 1465 0
-1465 1605 0
42 -1465 1466 0
-1466 1606 0
43 -1466 1467 0
-1467 1607 0
44 -1467 1468 0
-1468 1608 0
45 -1468 1469 0
-1469 1609 0
46 -1469 1470 0
-1470 1610 0
47 -1470 1471 0
-1471 1611 0
48 -1471 1472 0
-1472 1612 0
49 -1472 1473 0
-1473 1613 0
50 -1473 1474 0
-1474 1614 0
51 -1474 1475 0
-1475 1615 0
52 -1475 1476 0
-1476 1616 0
53 -1476 1477 0
-1477 1617 0
54 -1477 1478 0
-1478 1618 0
55 -1478 1479 0
-1479 1619 0
56 -1479 1480 0
-1480 1620 0
57 -1480 1481 0
-1481 1621 0
58 -1481 1482 0
-1482 1622 0
59 -1482 1483 0
-1483 1623 0
60 -1483 1484 0
-1484 1624 0
61 -1484 1485 0
-1485 1625 0
62 -1485 1486 0
-1486 1626 0
63 -1486 1487 0
-1487 1627 0
64 -1487 1488 0
-1488 1628 0
65 -1488 1489 0
-1489 1629 0
66 -1489 1490 0
-1490 1630 0
67 -1490 1491 0
-1491 1631 0
68 -1491 1492 0
-1492 1632 0
69 -1492 1493 0
-1493 1633 0
70 -1493 1494 0
-1494 1634 0
71 -1494 1495 0
-1495 1635 0
72 -1495 1496 0
-1496 1636 0
73 -1496 1497 0
-1497 1637 0
74 -1497 1498 0
-1498 1638 0
75 -1498 1499 0
-1499 1639 0
76 -1499 1500 0
-1500 1640 0
77 -1500 1501 0
-1501 1641 0
78 -1501 1502 0
-1502 1642 0
79 -1502 1503 0
-1503 1643 0
80 -1503 1504 0
-1504 1644 0
81 -1504 1505 0
-1505 1645 0
82 -1505 1506 0
-1506 1646 0
83 -1506 1507 0
-1507 1647 0
84 -1507 1508 0
-1508 1648 0
85 -1508 1509 0
-1509 1649 0
86 -1509 1510 0
-1510 1650 0
87 -1510 1511 0
-1511 1651 0
88 -1511 1512 0
-1512 1652 0
89 -1512 1513 0
-1513 1653 0
90 -1513 1514 0
-1514 1654 0
91 -1514 1515 0
-1515 1655 0
92 -1515 1516 0
-1516 1656 0
93 -1516 1517 0
-1517 1657 0
94 -1517 1518 0
-1518 1658 0
95 -1518 1519 0
-1519 1659 0
96 -1519 1520 0
-1520 1660 0
97 -1520 1521 0
-1521 1661 0
98 -1521 1522 0
-1522 1662 0
99 -1522 1523 0
-1523 1663 0
100 -1523 1524 0
-1524 1664 0
101 -1524 1525 0
-1525 1665 0
102 -1525 1526 0
-1526 1666 0
103 -1526 1527 0
-1527 1667 0
104 -1527 1528 0
-1528 1668 0
105 -1528 1529 0
-1529 1669 0
106 -1529 1530 0
-1530 1670 0
107 -1530 1531 0
-1531 1671 0
108 -1531 1532 0
-1532 1672 0
109 -1532 1533 0
-1533 1673 0
110 -1533 1534 0
-1534 1674 0
111 -1534 1535 0
-1535 1675 0
112 -1535 1536 0
-1536 1676 0
113 -1536 1537 0
-1537 1677 0
114 -1537 1538 0
-1538 1678 0
115 -1538 1539 0
-1539 1679 0
116 -1539 1540 0
-1540 1680 0
117 -1540 1541 0
-1541 1681 0
118 -1541 1542 0
-1542 1682 0
119 -1542 1543 0
-1543 1683 0
120 -1543 1544 0
-1544 1684 0
121 -1544 1545 0
-1545 1685 0
122 -1545 1546 0
-1546 1686 0
123 -1546 1547 0
-1547 1687 0
124 -1547 1548 0
-1548 1688 0
125 -1548 1549 0
-1549 1689 0
126 -1549 1550 0
-1550 1690 0
127 -1550 1551 0
-1551 1691 0
128 -1551 1552 0
-1552 1692 0
129 -1552 1553 0
-1553 1693 0
130 -1553 1554 0
-1554 1694 0
131 -1554 1555 0
-1555 1695 0
132 -1555 1556 0
-1556 1696 0
133 -1556 1557 0
-1557 1697 0
134 -1557 1558 0
-1558 1698 0
135 -1558 1559 0
-1559 1699 0
136 -1559 1560 0
-1560 1700 0
137 -1560 1561 0
-1561 1701 0
138 -1561 1562 0
-1562 1702 0
139 -1562 1563 0
-1563 1703 0
140 -1563 1564 0
-1564 1704 0
141 -1564 1565 0
-1565 1705 0
142 -1565 1566 0
-1566 1706 0
143 -1566 1567 0
-1567 1707 0
144 -1567 1568 0
-1568 1708 0
145 -1568 1569 0
-1569 1709 0
146 -1569 1570 0
-1570 1710 0
147 -1570 1571 0
-1571 1711 0
148 -1571 1572 0
-1572 1712 0
149 -1572 0
10 1573 0
-1573 1713 0
11 -1573 1574 0
-1574 1714 0
12 -1574 1575 0
-1575 1715 0
13 -1575 1576 0
-1576 1716 0
14 -1576 1577 0
-1577 1717 0
15 -1577 1578 0
-1578 1718 0
16 -1578 1579 0
-1579 1719 0
17 -1579 1580 0
-1580 1720 0
18 -1580 1581 0
-1581 1721 0
19 -1581 1582 0
-1582 1722 0
20 -1582 1583 0
-1583 1723 0
21 -1583 1584 0
-1584 1724 0
22 -1584 1585 0
-1585 1725 0
23 -1585 1586 0
-1586 1726 0
24 -1586 1587 0
-1587 1727 0
25 -1587 1588 0
-1588 1728 0
26 -1588 1589 0
-1589 1729 0
27 -1589 1590 0
-1590 1730 0
28 -1590 1591 0
-1591 1731 0
29 -1591 1592 0
-1592 1732 0
30 -1592 1593 0
-1593 1733 0
31 -1593 1594 0
-1594 1734 0
32 -1594 1595 0
-1595 1735 0
33 -1595 1596 0
-1596 1736 0
34 -1596 1597 0
-1597 1737 0
35 -1597 1598 0
-1598 1738 0
36 -1598 1599 0
-1599 1739 0
37 -1599 1600 0
-1600 1740 0
38 -1600 1601 0
-1601 1741 0
39 -1601 1602 0
-1602 1742 0
40 -1602 1603 0
-1603 1743 0
41 -1603 1604 0
-1604 1744 0
42 -1604 1605 0
-1605 1745 0
43 -1605 1606 0
-1606 1746 0
44 -1606 1607 0
-1607 1747 0
45 -1607 1608 0
-1608 1748 0
46 -1608 1609 0
-1609 1749 0
47 -1609 1610 0
-1610 1750 0
48 -1610 1611 0
-1611 1751 0
49 -1611 1612 0
-1612 1752 0
50 -1612 1613 0
-1613 1753 0
51 -1613 1614 0
-1614 1754 0
52 -1614 1615 0
-1615 1755 0
53 -1615 1616 0
-1616 1756 0
54 -1616 1617 0
-1617 1757 0
55 -1617 1618 0
-1618 1758 0
56 -1618 1619 0
-1619 1759 0
57 -1619 1620 0
-1620 1760 0
58 -1620 1621 0
-1621 1761 0
59 -1621 1622 0
-1622 1762 0
60 -1622 1623 0
-1623 1763 0
61 -1623 1624 0
-1624 1764 0
62 -1624 1625 0
-1625 1765 0
63 -1625 1626 0
-1626 1766 0
64 -1626 1627 0
-1627 1767 0
65 -1627 1628 0
-1628 1768 0
66 -1628 1629 0
-1629 1769 0
67 -1629 1630 0
-1630 1770 0
68 -1630 1631 0
-1631 1771 0
69 -1631 1632 0
-1632 1772 0
70 -1632 1633 0
-1633 1773 0
71 -1633 1634 0
-1634 1774 0
72 -1634 1635 0
-1635 1775 0
73 -1635 1636 0
-1636 1776 0
74 -1636 1637 0
-1637 1777 0
75 -1637 1638 0
-1638 1778 0
76 -1638 1639 0
-1639 1779 0
77 -1639 1640 0
-1640 1780 0
78 -1640 1641 0
-1641 1781 0
79 -1641 1642 0
-1642 1782 0
80 -1642 1643 0
-1643 1783 0
81 -1643 1644 0
-1644 1784 0
82 -1644 1645 0
-1645 1785 0
83 -1645 1646 0
-1646 1786 0
84 -1646 1647 0
-1647 1787 0
85 -1647 1648 0
-1648 1788 0
86 -1648 1649 0
-1649 1789 0
87 -1649 1650 0
-1650 1790 0
88 -1650 1651 0
-1651 1791 0
89 -1651 1652 0
-1652 1792 0
90 -1652 1653 0
-1653 1793 0
91 -1653 1654 0
-1654 1794 0
92 -1654 1655 0
-1655 1795 0
93 -1655 1656 0
-1656 1796 0
94 -1656 1657 0
-1657 1797 0
95 -1657 1658 0
-1658 1798 0
96 -1658 1659 0
-1659 1799 0
97 -1659 1660 0
-1660 1800 0
98 -1660 1661 0
-1661 1801 0
99 -1661 1662 0
-1662 1802 0
100 -1662 1663 0
-1663 1803 0
101 -1663 1664 0
-1664 1804 0
102 -1664 1665 0
-1665 1805 0
103 -1665 1666 0
-1666 1806 0
104 -1666 1667 0
-1667 1807 0
105 -1667 1668 0
-1668 1808 0
106 -1668 1669 0
-1669 1809 0
107 -1669 1670 0
-1670 1810 0
108 -1670 1671 0
-1671 1811 0
109 -1671 1672 0
-1672 1812 0
110 -1672 1673 0
-1673 1813 0
111 -1673 1674 0
-1674 1814 0
112 -1674 1675 0
-1675 1815 0
113 -1675 1676 0
-1676 1816 0
114 -1676 1677 0
-1677 1817 0
115 -1677 1678 0
-1678 1818 0
116 -1678 1679 0
-1679 1819 0
117 -1679 1680 0
-1680 1820 0
118 -1680 1681 0
-1681 1821 0
119 -1681 1682 0
-1682 1822 0
120 -1682 1683 0
-1683 1823 0
121 -1683 1684 0
-1684 1824 0
122 -1684 1685 0
-1685 1825 0
123 -1685 1686 0
-1686 1826 0
124 -1686 1687 0
-1687 1827 0
125 -1687 1688 0
-1688 1828 0
126 -1688 1689 0
-1689 1829 0
127 -1689 1690 0
-1690 1830 0
128 -1690 1691 0
-1691 1831 0
129 -1691 1692 0
-1692 1832 0
130 -1692 1693 0
-1693 1833 0
131 -1693 1694 0
-1694 1834 0
132 -1694 1695 0
-1695 1835 0
133 -1695 1696 0
-1696 1836 0
134 -1696 1697 0
-1697 1837 0
135 -1697 1698 0
-1698 1838 0
136 -1698 1699 0
-1699 1839 0
137 -1699 1700 0
-1700 1840 0
138 -1700 1701 0
-1701 1841 0
139 -1701 1702 0
-1702 1842 0
140 -1702 1703 0
-1703 1843 0
141 -1703 1704 0
-1704 1844 0
142 -1704 1705 0
-1705 1845 0
143 -1705 1706 0
-1706 1846 0
144 -1706 1707 0
-1707 1847 0
145 -1707 1708 0
-1708 1848 0
146 -1708 1709 0
-1709 1849 0
147 -1709 1710 0
-1710 1850 0
148 -1710 1711 0
-1711 1851 0
149 -1711 1712 0
-1712 1852 0
150 -1712 0
11 1713 0
-1713 1853 0
12 -1713 1714 0
-1714 1854 0
13 -1714 1715 0
-1715 1855 0
14 -1715 1716 0
-1716 1856 0
15 -1716 1717 0
-1717 1857 0
16 -1717 1718 0
-1718 1858 0
17 -1718 1719 0
-1719 1859 0
18 -1719 1720 0
-1720 1860 0
19 -1720 1721 0
-1721 1861 0
20 -1721 1722 0
-1722 1862 0
21 -1722 1723 0
-1723 1863 0
22 -1723 1724 0
-1724 1864 0
23 -1724 1725 0
-1725 1865 0
24 -1725 1726 0
-1726 1866 0
25 -1726 1727 0
-1727 1867 0
26 -1727 1728 0
-1728 1868 0
27 -1728 1729 0
-1729 1869 0
28 -1729 1730 0
-1730 1870 0
29 -1730 1731 0
-1731 1871 0
30 -1731 1732 0
-1732 1872 0
31 -1732 1733 0
-1733 1873 0
32 -1733 1734 0
-1734 1874 0
33 -1734 1735 0
-1735 1875 0
34 -1735 1736 0
-1736 1876 0
35 -1736 1737 0
-1737 1877 0
36 -1737 1738 0
-1738 1878 0
37 -1738 1739 0
-1739 1879 0
38 -1739 1740 0
-1740 1880 0
39 -1740 1741 0
-1741 1881 0
40 -1741 1742 0
-1742 1882 0
41 -1742 1743 0
-1743 1883 0
42 -1743 1744 0
-1744 1884 0
43 -1744 1745 0
-1745 1885 0
44 -1745 1746 0
-1746 1886 0
45 -1746 1747 0
-1747 1887 0
46 -1747 1748 0
-1748 1888 0
47 -1748 1749 0
-1749 1889 0
48 -1749 1750 0
-1750 1890 0
49 -1750 1751 0
-1751 1891 0
50 -1751 1752 0
-1752 1892 0
51 -1752 1753 0
-1753 1893 0
52 -1753 1754 0
-1754 1894 0
53 -1754 1755 0
-1755 1895 0
54 -1755 1756 0
-1756 1896 0
55 -1756 1757 0
-1757 1897 0
56 -1757 1758 0
-1758 1898 0
57 -1758 1759 0
-1759 1899 0
58 -1759 1760 0
-1760 1900 0
59 -1760 1761 0
-1761 1901 0
60 -1761 1762 0
-1762 1902 0
61 -1762 1763 0
-1763 1903 0
62 -1763 1764 0
-1764 1904 0
63 -1764 1765 0
-1765 1905 0
64 -1765 1766 0
-1766 1906 0
65 -1766 1767 0
-1767 1907 0
66 -1767 1768 0
-1768 1908 0
67 -1768 1769 0
-1769 1909 0
68 -1769 1770 0
-1770 1910 0
69 -1770 1771 0
-1771 1911 0
70 -1771 1772 0
-1772 1912 0
71 -1772 1773 0
-1773 1913 0
72 -1773 1774 0
-1774 1914 0
73 -1774 1775 0
-1775 1915 0
74 -1775 1776 0
-1776 1916 0
75 -1776 1777 0
-1777 1917 0
76 -1777 1778 0
-1778 1918 0
77 -1778 1779 0
-1779 1919 0
78 -1779 1780 0
-1780 1920 0
79 -1780 1781 0
-1781 1921 0
80 -1781 1782 0
-1782 1922 0
81 -1782 1783 0
-1783 1923 0
82 -1783 1784 0
-1784 1924 0
83 -1784 1785 0
-1785 1925 0
84 -1785 1786 0
-1786 1926 0
85 -1786 1787 0
-1787 1927 0
86 -1787 1788 0
-1788 1928 0
87 -1788 1789 0
-1789 1929 0
88 -1789 1790 0
-1790 1930 0
89 -1790 1791 0
-1791 1931 0
90 -1791 1792 0
-1792 1932 0
91 -1792 1793 0
-1793 1933 0
92 -1793 1794 0
-1794 1934 0
93 -1794 1795 0
-1795 1935 0
94 -1795 1796 0
-1796 1936 0
95 -1796 1797 0
-1797 1937 0
96 -1797 1798 0
-1798 1938 0
97 -1798 1799 0
-1799 1939 0
98 -1799 1800 0
-1800 1940 0
99 -1800 1801 0
-1801 1941 0
100 -1801 1802 0
-1802 1942 0
101 -1802 1803 0
-1803 1943 0
102 -1803 1804 0
-1804 1944 0
103 -1804 1805 0
-1805 1945 0
104 -1805 1806 0
-1806 1946 0
105 -1806 1807 0
-1807 1947 0
106 -1807 1808 0
-1808 1948 0
107 -1808 1809 0
-1809 1949 0
108 -1809 1810 0
-1810 1950 0
109 -1810 1811 0
-1811 1951 0
110 -1811 1812 0
-1812 1952 0
111 -1812 1813 0
-1813 1953 0
112 -1813 1814 0
-1814 1954 0
113 -1814 1815 0
-1815 1955 0
114 -1815 1816 0
-1816 1956 0
115 -1816 1817 0
-1817 1957 0
116 -1817 1818 0
-1818 1958 0
117 -1818 1819 0
-1819 1959 0
118 -1819 1820 0
-1820 1960 0
119 -1820 1821 0
-1821 1961 0
120 -1821 1822 0
-1822 1962 0
121 -1822 1823 0
-1823 1963 0
122 -1823 1824 0
-1824 1964 0
123 -1824 1825 0
-1825 1965 0
124 -1825 1826 0
-1826 1966 0
125 -1826 1827 0
-1827 1967 0
126 -1827 1828 0
-1828 1968 0
127 -1828 1829 0
-1829 1969 0
128 -1829 1830 0
-1830 1970 0
129 -1830 1831 0
-1831 1971 0
130 -1831 1832 0
-1832 1972 0
131 -1832 1833 0
-1833 1973 0
132 -1833 1834 0
-1834 1974 0
133 -1834 1835 0
-1835 1975 0
134 -1835 1836 0
-1836 1976 0
135 -1836 1837 0
-1837 1977 0
136 -1837 1838 0
-1838 1978 0
137 -1838 1839 0
-1839 1979 0
138 -1839 1840 0
-1840 1980 0
139 -1840 1841 0
-1841 1981 0
140 -1841 1842 0
-1842 1982 0
141 -1842 1843 0
-1843 1983 0
142 -1843 1844 0
-1844 1984 0
143 -1844 1845 0
-1845 1985 0
144 -1845 1846 0
-1846 1986 0
145 -1846 1847 0
-1847 1987 0
146 -1847 1848 0
-1848 1988 0
147 -1848 1849 0
-1849 1989 0
148 -1849 1850 0
-1850 1990 0
149 -1850 1851 0
-1851 1991 0
150 -1851 1852 0
-1852 1992 0
151 -1852 0
12 1853 0
-1853 1993 0
13 -1853 1854 0
-1854 1994 0
14 -1854 1855 0
-1855 1995 0
15 -1855 1856 0
-1856 1996 0
16 -1856 1857 0
-1857 1997 0
17 -1857 1858 0
-1858 1998 0
18 -1858 1859 0
-1859 1999 0
19 -1859 1860 0
-1860 2000 0
20 -1860 1861 0
-1861 2001 0
21 -1861 1862 0
-1862 2002 0
22 -1862 1863 0
-1863 2003 0
23 -1863 1864 0
-1864 2004 0
24 -1864 1865 0
-1865 2005 0
25 -1865 1866 0
-1866 2006 0
26 -1866 1867 0
-1867 2007 0
27 -1867 1868 0
-1868 2008 0
28 -1868 1869 0
-1869 2009 0
29 -1869 1870 0
-1870 2010 0
30 -1870 1871 0
-1871 2011 0
31 -1871 1872 0
-1872 2012 0
32 -1872 1873 0
-1873 2013 0
33 -1873 1874 0
-1874 2014 0
34 -1874 1875 0
-1875 2015 0
35 -1875 1876 0
-1876 2016 0
36 -1876 1877 0
-1877 2017 0
37 -1877 1878 0
-1878 2018 0
38 -1878 1879 0
-1879 2019 0
39 -1879 1880 0
-1880 2020 0
40 -1880 1881 0
-1881 2021 0
41 -1881 1882 0
-1882 2022 0
42 -1882 1883 0
-1883 2023 0
43 -1883 1884 0
-1884 2024 0
44 -1884 1885 0
-1885 2025 0
45 -1885 1886 0
-1886 2026 0
46 -1886 1887 0
-1887 2027 0
47 -1887 1888 0
-1888 2028 0
48 -1888 1889 0
-1889 2029 0
49 -1889 1890 0
-1890 2030 0
50 -1890 1891 0
-1891 2031 0
51 -1891 1892 0
-1892 2032 0
52 -1892 1893 0
-1893 2033 0
53 -1893 1894 0
-1894 2034 0
54 -1894 1895 0
-1895 2035 0
55 -1895 1896 0
-1896 2036 0
56 -1896 1897 0
-1897 2037 0
57 -1897 1898 0
-1898 2038 0
58 -1898 1899 0
-1899 2039 0
59 -1899 1900 0
-1900 2040 0
60 -1900 1901 0
-1901 2041 0
61 -1901 1902 0
-1902 2042 0
62 -1902 1903 0
-1903 2043 0
63 -1903 1904 0
-1904 2044 0
64 -1904 1905 0
-1905 2045 0
65 -1905 1906 0
-1906 2046 0
66 -1906 1907 0
-1907 2047 0
67 -1907 1908 0
-1908 2048 0
68 -1908 1909 0
-1909 2049 0
69 -1909 1910 0
-1910 2050 0
70 -1910 1911 0
-1911 2051 0
71 -1911 1912 0
-1912 2052 0
72 -1912 1913 0
-1913 2053 0
73 -1913 1914 0
-1914 2054 0
74 -1914 1915 0
-1915 2055 0
75 -1915 1916 0
-1916 2056 0
76 -1916 1917 0
-1917 2057 0
77 -1917 1918 0
-1918 2058 0
78 -1918 1919 0
-1919 2059 0
79 -1919 1920 0
-1920 2060 0
80 -1920 1921 0
-1921 2061 0
81 -1921 1922 0
-1922 2062 0
82 -1922 1923 0
-1923 2063 0
83 -1923 1924 0
-1924 2064 0
84 -1924 1925 0
-1925 2065 0
85 -1925 1926 0
-1926 2066 0
86 -1926 1927 0
-1927 2067 0
87 -1927 1928 0
-1928 2068 0
88 -1928 1929 0
-1929 2069 0
89 -1929 1930 0
-1930 2070 0
90 -1930 1931 0
-1931 2071 0
91 -1931 1932 0
-1932 2072 0
92 -1932 1933 0
-1933 2073 0
93 -1933 1934 0
-1934 2074 0
94 -1934 1935 0
-1935 2075 0
95 -1935 1936 0
-1936 2076 0
96 -1936 1937 0
-1937 2077 0
97 -1937 1938 0
-1938 2078 0
98 -1938 1939 0
-1939 2079 0
99 -1939 1940 0
-1940 2080 0
100 -1940 1941 0
-1941 2081 0
101 -1941 1942 0
-1942 2082 0
102 -1942 1943 0
-1943 2083 0
103 -1943 1944 0
-1944 2084 0
104 -1944 1945 0
-1945 2085 0
105 -1945 1946 0
-1946 2086 0
106 -1946 1947 0
-1947 2087 0
107 -1947 1948 0
-1948 2088 0
108 -1948 1949 0
-1949 2089 0
109 -1949 1950 0
-1950 2090 0
110 -1950 1951 0
-1951 2091 0
111 -1951 1952 0
-1952 2092 0
112 -1952 1953 0
-1953 2093 0
113 -1953 1954 0
-1954 2094 0
114 -1954 1955 0
-1955 2095 0
115 -1955 1956 0
-1956 2096 0
116 -1956 1957 0
-1957 2097 0
117 -1957 1958 0
-1958 2098 0
118 -1958 1959 0
-1959 2099 0
119 -1959 1960 0
-1960 2100 0
120 -1960 1961 0
-1961 2101 0
121 -1961 1962 0
-1962 2102 0
122 -1962 1963 0
-1963 2103 0
123 -1963 1964 0
-1964 2104 0
124 -1964 1965 0
-1965 2105 0
125 -1965 1966 0
-1966 2106 0
126 -1966 1967 0
-1967 2107 0
127 -1967 1968 0
-1968 2108 0
128 -1968 1969 0
-1969 2109 0
129 -1969 1970 0
-1970 2110 0
130 -1970 1971 0
-1971 2111 0
131 -1971 1972 0
-1972 2112 0
132 -1972 1973 0
-1973 2113 0
133 -1973 1974 0
-1974 2114 0
134 -1974 1975 0
-1975 2115 0
135 -1975 1976 0
-1976 2116 0
136 -1976 1977 0
-1977 2117 0
137 -1977 1978 0
-1978 2118 0
138 -1978 1979 0
-1979 2119 0
139 -1979 1980 0
-1980 2120 0
140 -1980 1981 0
-1981 2121 0
141 -1981 1982 0
-1982 2122 0
142 -1982 1983 0
-1983 2123 0
143 -1983 1984 0
-1984 2124 0
144 -1984 1985 0
-1985 2125 0
145 -1985 1986 0
-1986 2126 0
146 -1986 1987 0
-1987 2127 0
147 -1987 1988 0
-1988 2128 0
148 -1988 1989 0
-1989 2129 0
149 -1989 1990 0
-1990 2130 0
150 -1990 1991 0
-1991 2131 0
151 -1991 1992 0
-1992 2132 0
152 -1992 0
13 1993 0
-1993 2133 0
14 -1993 1994 0
-1994 2134 0
15 -1994 1995 0
-1995 2135 0
16 -1995 1996 0
-1996 2136 0
17 -1996 1997 0
-1997 2137 0
18 -1997 1998 0
-1998 2138 0
19 -1998 1999 0
-1999 2139 0
20 -1999 2000 0
-2000 2140 0
21 -2000 2001 0
-2001 2141 0
22 -2001 2002 0
-2002 2142 0
23 -2002 2003 0
-2003 2143 0
24 -2003 2004 0
-2004 2144 0
25 -2004 2005 0
-2005 2145 0
26 -2005 2006 0
-2006 2146 0
27 -2006 2007 0
-2007 2147 0
28 -2007 2008 0
-2008 2148 0
29 -2008 2009 0
-2009 2149 0
30 -2009 2010 0
-2010 2150 0
31 -2010 2011 0
-2011 2151 0
32 -2011 2012 0
-2012 2152 0
33 -2012 2013 0
-2013 2153 0
34 -2013 2014 0
-2014 2154 0
35 -2014 2015 0
-2015 2155 0
36 -2015 2016 0
-2016 2156 0
37 -2016 2017 0
-2017 2157 0
38 -2017 2018 0
-2018 2158 0
39 -2018 2019 0
-2019 2159 0
40 -2019 2020 0
-2020 2160 0
41 -2020 2021 0
-2021 2161 0
42 -2021 2022 0
-2022 2162 0
43 -2022 2023 0
-2023 2163 0
44 -2023 2024 0
-2024 2164 0
45 -2024 2025 0
-2025 2165 0
46 -2025 2026 0
-2026 2166 0
47 -2026 2027 0
-2027 2167 0
48 -2027 2028 0
-2028 2168 0
49 -2028 2029 0
-2029 2169 0
50 -2029 2030 0
-2030 2170 0
51 -2030 2031 0
-2031 2171 0
52 -2031 2032 0
-2032 2172 0
53 -2032 2033 0
-2033 2173 0
54 -2033 2034 0
-2034 2174 0
55 -2034 2035 0
-2035 2175 0
56 -2035 2036 0
-2036 2176 0
57 -2036 2037 0
-2037 2177 0
58 -2037 2038 0
-2038 2178 0
59 -2038 2039 0
-2039 2179 0
60 -2039 2040 0
-2040 2180 0
61 -2040 2041 0
-2041 2181 0
62 -2041 2042 0
-2042 2182 0
63 -2042 2043 0
-2043 2183 0
64 -2043 2044 0
-2044 2184 0
65 -2044 2045 0
-2045 2185 0
66 -2045 2046 0
-2046 2186 0
67 -2046 2047 0
-2047 2187 0
68 -2047 2048 0
-2048 2188 0
69 -2048 2049 0
-2049 2189 0
70 -2049 2050 0
-2050 2190 0
71 -2050 2051 0
-2051 2191 0
72 -2051 2052 0
-2052 2192 0
73 -2052 2053 0
-2053 2193 0
74 -2053 2054 0
-2054 2194 0
75 -2054 2055 0
-2055 2195 0
76 -2055 2056 0
-2056 2196 0
77 -2056 2057 0
-2057 2197 0
78 -2057 2058 0
-2058 2198 0
79 -2058 2059 0
-2059 2199 0
80 -2059 2060 0
-2060 2200 0
81 -2060 2061 0
-2061 2201 0
82 -2061 2062 0
-2062 2202 0
83 -2062 2063 0
-2063 2203 0
84 -2063 2064 0
-2064 2204 0
85 -2064 2065 0
-2065 2205 0
86 -2065 2066 0
-2066 2206 0
87 -2066 2067 0
-2067 2207 0
88 -2067 2068 0
-2068 2208 0
89 -2068 2069 0
-2069 2209 0
90 -2069 2070 0
-2070 2210 0
91 -2070 2071 0
-2071 2211 0
92 -2071 2072 0
-2072 2212 0
93 -2072 2073 0
-2073 2213 0
94 -2073 2074 0
-2074 2214 0
95 -2074 2075 0
-2075 2215 0
96 -2075 2076 0
-2076 2216 0
97 -2076 2077 0
-2077 2217 0
98 -2077 2078 0
-2078 2218 0
99 -2078 2079 0
-2079 2219 0
100 -2079 2080 0
-2080 2220 0
101 -2080 2081 0
-2081 2221 0
102 -2081 2082 0
-2082 2222 0
103 -2082 2083 0
-2083 2223 0
104 -2083 2084 0
-2084 2224 0
105 -2084 2085 0
-2085 2225 0
106 -2085 2086 0
-2086 2226 0
107 -2086 2087 0
-2087 2227 0
108 -2087 2088 0
-2088 2228 0
109 -2088 2089 0
-2089 2229 0
110 -2089 2090 0
-2090 2230 0
111 -2090 2091 0
-2091 2231 0
112 -2091 2092 0
-2092 2232 0
113 -2092 2093 0
-2093 2233 0
114 -2093 2094 0
-2094 2234 0
115 -2094 2095 0
-2095 2235 0
116 -2095 2096 0
-2096 2236 0
117 -2096 2097 0
-2097 2237 0
118 -2097 2098 0
-2098 2238 0
119 -2098 2099 0
-2099 2239 0
120 -2099 2100 0
-2100 2240 0
121 -2100 2101 0
-2101 2241 0
122 -2101 2102 0
-2102 2242 0
123 -2102 2103 0
-2103 2243 0
124 -2103 2104 0
-2104 2244 0
125 -2104 2105 0
-2105 2245 0
126 -2105 2106 0
-2106 2246 0
127 -2106 2107 0
-2107 2247 0
128 -2107 2108 0
-2108 2248 0
129 -2108 2109 0
-2109 2249 0
130 -2109 2110 0
-2110 2250 0
131 -2110 2111 0
-2111 2251 0
132 -2111 2112 0
-2112 2252 0
133 -2112 2113 0
-2113 2253 0
134 -2113 2114 0
-2114 2254 0
135 -2114 2115 0
-2115 2255 0
136 -2115 2116 0
-2116 2256 0
137 -2116 2117 0
-2117 2257 0
138 -2117 2118 0
-2118 2258 0
139 -2118 2119 0
-2119 2259 0
140 -2119 2120 0
-2120 2260 0
141 -2120 2121 0
-2121 2261 0
142 -2121 2122 0
-2122 2262 0
143 -2122 2123 0
-2123 2263 0
144 -2123 2124 0
-2124 2264 0
145 -2124 2125 0
-2125 2265 0
146 -2125 2126 0
-2126 2266 0
147 -2126 2127 0
-2127 2267 0
148 -2127 2128 0
-2128 2268 0
149 -2128 2129 0
-2129 2269 0
150 -2129 2130 0
-2130 2270 0
151 -2130 2131 0
-2131 2271 0
152 -2131 2132 0
-2132 2272 0
153 -2132 0
14 2133 0
-2133 2273 0
15 -2133 2134 0
-2134 2274 0
16 -2134 2135 0
-2135 2275 0
17 -2135 2136 0
-2136 2276 0
18 -2136 2137 0
-2137 2277 0
19 -2137 2138 0
-2138 2278 0
20 -2138 2139 0
-2139 2279 0
21 -2139 2140 0
-2140 2280 0
22 -2140 2141 0
-2141 2281 0
23 -2141 2142 0
-2142 2282 0
24 -2142 2143 0
-2143 2283 0
25 -2143 2144 0
-2144 2284 0
26 -2144 2145 0
-2145 2285 0
27 -2145 2146 0
-2146 2286 0
28 -2146 2147 0
-2147 2287 0
29 -2147 2148 0
-2148 2288 0
30 -2148 2149 0
-2149 2289 0
31 -2149 2150 0
-2150 2290 0
32 -2150 2151 0
-2151 2291 0
33 -2151 2152 0
-2152 2292 0
34 -2152 2153 0
-2153 2293 0
35 -2153 2154 0
-2154 2294 0
36 -2154 2155 0
-2155 2295 0
37 -2155 2156 0
-2156 2296 0
38 -2156 2157 0
-2157 2297 0
39 -2157 2158 0
-2158 2298 0
40 -2158 2159 0
-2159 2299 0
41 -2159 2160 0
-2160 2300 0
42 -2160 2161 0
-2161 2301 0
43 -2161 2162 0
-2162 2302 0
44 -2162 2163 0
-2163 2303 0
45 -2163 2164 0
-2164 2304 0
46 -2164 2165 0
-2165 2305 0
47 -2165 2166 0
-2166 2306 0
48 -2166 2167 0
-2167 2307 0
49 -2167 2168 0
-2168 2308 0
50 -2168 2169 0
-2169 2309 0
51 -2169 2170 0
-2170 2310 0
52 -2170 2171 0
-2171 2311 0
53 -2171 2172 0
-2172 2312 0
54 -2172 2173 0
-2173 2313 0
55 -2173 2174 0
-2174 2314 0
56 -2174 2175 0
-2175 2315 0
57 -2175 2176 0
-2176 2316 0
58 -2176 2177 0
-2177 2317 0
59 -2177 2178 0
-2178 2318 0
60 -2178 2179 0
-2179 2319 0
61 -2179 2180 0
-2180 2320 0
62 -2180 2181 0
-2181 2321 0
63 -2181 2182 0
-2182 2322 0
64 -2182 2183 0
-2183 2323 0
65 -2183 2184 0
-2184 2324 0
66 -2184 2185 0
-2185 2325 0
67 -2185 2186 0
-2186 2326 0
68 -2186 2187 0
-2187 2327 0
69 -2187 2188 0
-2188 2328 0
70 -2188 2189 0
-2189 2329 0
71 -2189 2190 0
-2190 2330 0
72 -2190 2191 0
-2191 2331 0
73 -2191 2192 0
-2192 2332 0
74 -2192 2193 0
-2193 2333 0
75 -2193 2194 0
-2194 2334 0
76 -2194 2195 0
-2195 2335 0
77 -2195 2196 0
-2196 2336 0
78 -2196 2197 0
-2197 2337 0
79 -2197 2198 0
-2198 2338 0
80 -2198 2199 0
-2199 2339 0
81 -2199 2200 0
-2200 2340 0
82 -2200 2201 0
-2201 2341 0
83 -2201 2202 0
-2202 2342 0
84 -2202 2203 0
-2203 2343 0
85 -2203 2204 0
-2204 2344 0
86 -2204 2205 0
-2205 2345 0
87 -2205 2206 0
-2206 2346 0
88 -2206 2207 0
-2207 2347 0
89 -2207 2208 0
-2208 2348 0
90 -2208 2209 0
-2209 2349 0
91 -2209 2210 0
-2210 2350 0
92 -2210 2211 0
-2211 2351 0
93 -2211 2212 0
-2212 2352 0
94 -2212 2213 0
-2213 2353 0
95 -2213 2214 0
-2214 2354 0
96 -2214 2215 0
-2215 2355 0
97 -2215 2216 0
-2216 2356 0
98 -2216 2217 0
-2217 2357 0
99 -2217 2218 0
-2218 2358 0
100 -2218 2219 0
-2219 2359 0
101 -2219 2220 0
-2220 2360 0
102 -2220 2221 0
-2221 2361 0
103 -2221 2222 0
-2222 2362 0
104 -2222 2223 0
-2223 2363 0
105 -2223 2224 0
-2224 2364 0
106 -2224 2225 0
-2225 2365 0
107 -2225 2226 0
-2226 2366 0
108 -2226 2227 0
-2227 2367 0
109 -2227 2228 0
-2228 2368 0
110 -2228 2229 0
-2229 2369 0
111 -2229 2230 0
-2230 2370 0
112 -2230 2231 0
-2231 2371 0
113 -2231 2232 0
-2232 2372 0
114 -2232 2233 0
-2233 2373 0
115 -2233 2234 0
-2234 2374 0
116 -2234 2235 0
-2235 2375 0
117 -2235 2236 0
-2236 2376 0
118 -2236 2237 0
-2237 2377 0
119 -2237 2238 0
-2238 2378 0
120 -2238 2239 0
-2239 2379 0
121 -2239 2240 0
-2240 2380 0
122 -2240 2241 0
-2241 2381 0
123 -2241 2242 0
-2242 2382 0
124 -2242 2243 0
-2243 2383 0
125 -2243 2244 0
-2244 2384 0
126 -2244 2245 0
-2245 2385 0
127 -2245 2246 0
-2246 2386 0
128 -2246 2247 0
-2247 2387 0
129 -2247 2248 0
-2248 2388 0
130 -2248 2249 0
-2249 2389 0
131 -2249 2250 0
-2250 2390 0
132 -2250 2251 0
-2251 2391 0
133 -2251 2252 0
-2252 2392 0
134 -2252 2253 0
-2253 2393 0
135 -2253 2254 0
-2254 2394 0
136 -2254 2255 0
-2255 2395 0
137 -2255 2256 0
-2256 2396 0
138 -2256 2257 0
-2257 2397 0
139 -2257 2258 0
-2258 2398 0
140 -2258 2259 0
-2259 2399 0
141 -2259 2260 0
-2260 2400 0
142 -2260 2261 0
-2261 2401 0
143 -2261 2262 0
-2262 2402 0
144 -2262 2263 0
-2263 2403 0
145 -2263 2264 0
-2264 2404 0
146 -2264 2265 0
-2265 2405 0
147 -2265 2266 0
-2266 2406 0
148 -2266 2267 0
-2267 2407 0
149 -2267 2268 0
-2268 2408 0
150 -2268 2269 0
-2269 2409 0
151 -2269 2270 0
-2270 2410 0
152 -2270 2271 0
-2271 2411 0
153 -2271 2272 0
-2272 2412 0
154 -2272 0
15 2273 0
-2273 2413 0
16 -2273 2274 0
-2274 2414 0
17 -2274 2275 0
-2275 2415 0
18 -2275 2276 0
-2276 2416 0
19 -2276 2277 0
-2277 2417 0
20 -2277 2278 0
-2278 2418 0
21 -2278 2279 0
-2279 2419 0
22 -2279 2280 0
-2280 2420 0
23 -2280 2281 0
-2281 2421 0
24 -2281 2282 0
-2282 2422 0
25 -2282 2283 0
-2283 2423 0
26 -2283 2284 0
-2284 2424 0
27 -2284 2285 0
-2285 2425 0
28 -2285 2286 0
-2286 2426 0
29 -2286 2287 0
-2287 2427 0
30 -2287 2288 0
-2288 2428 0
31 -2288 2289 0
-2289 2429 0
32 -2289 2290 0
-2290 2430 0
33 -2290 2291 0
-2291 2431 0
34 -2291 2292 0
-2292 2432 0
35 -2292 2293 0
-2293 2433 0
36 -2293 2294 0
-2294 2434 0
37 -2294 2295 0
-2295 2435 0
38 -2295 2296 0
-2296 2436 0
39 -2296 2297 0
-2297 2437 0
40 -2297 2298 0
-2298 2438 0
41 -2298 2299 0
-2299 2439 0
42 -2299 2300 0
-2300 2440 0
43 -2300 2301 0
-2301 2441 0
44 -2301 2302 0
-2302 2442 0
45 -2302 2303 0
-2303 2443 0
46 -2303 2304 0
-2304 2444 0
47 -2304 2305 0
-2305 2445 0
48 -2305 2306 0
-2306 2446 0
49 -2306 2307 0
-2307 2447 0
50 -2307 2308 0
-2308 2448 0
51 -2308 2309 0
-2309 2449 0
52 -2309 2310 0
-2310 2450 0
53 -2310 2311 0
-2311 2451 0
54 -2311 2312 0
-2312 2452 0
55 -2312 2313 0
-2313 2453 0
56 -2313 2314 0
-2314 2454 0
57 -2314 2315 0
-2315 2455 0
58 -2315 2316 0
-2316 2456 0
59 -2316 2317 0
-2317 2457 0
60 -2317 2318 0
-2318 2458 0
61 -2318 2319 0
-2319 2459 0
62 -2319 2320 0
-2320 2460 0
63 -2320 2321 0
-2321 2461 0
64 -2321 2322 0
-2322 2462 0
65 -2322 2323 0
-2323 2463 0
66 -2323 2324 0
-2324 2464 0
67 -2324 2325 0
-2325 2465 0
68 -2325 2326 0
-2326 2466 0
69 -2326 2327 0
-2327 2467 0
70 -2327 2328 0
-2328 2468 0
71 -2328 2329 0
-2329 2469 0
72 -2329 2330 0
-2330 2470 0
73 -2330 2331 0
-2331 2471 0
74 -2331 2332 0
-2332 2472 0
75 -2332 2333 0
-2333 2473 0
76 -2333 2334 0
-2334 2474 0
77 -2334 2335 0
-2335 2475 0
78 -2335 2336 0
-2336 2476 0
79 -2336 2337 0
-2337 2477 0
80 -2337 2338 0
-2338 2478 0
81 -2338 2339 0
-2339 2479 0
82 -2339 2340 0
-2340 2480 0
83 -2340 2341 0
-2341 2481 0
84 -2341 2342 0
-2342 2482 0
85 -2342 2343 0
-2343 2483 0
86 -2343 2344 0
-2344 2484 0
87 -2344 2345 0
-2345 2485 0
88 -2345 2346 0
-2346 2486 0
89 -2346 2347 0
-2347 2487 0
90 -2347 2348 0
-2348 2488 0
91 -2348 2349 0
-2349 2489 0
92 -2349 2350 0
-2350 2490 0
93 -2350 2351 0
-2351 2491 0
94 -2351 2352 0
-2352 2492 0
95 -2352 2353 0
-2353 2493 0
96 -2353 2354 0
-2354 2494 0
97 -2354 2355 0
-2355 2495 0
98 -2355 2356 0
-2356 2496 0
99 -2356 2357 0
-2357 2497 0
100 -2357 2358 0
-2358 2498 0
101 -2358 2359 0
-2359 2499 0
102 -2359 2360 0
-2360 2500 0
103 -2360 2361 0
-2361 2501 0
104 -2361 2362 0
-2362 2502 0
105 -2362 2363 0
-2363 2503 0
106 -2363 2364 0
-2364 2504 0
107 -2364 2365 0
-2365 2505 0
108 -2365 2366 0
-2366 2506 0
109 -2366 2367 0
-2367 2507 0
110 -2367 2368 0
-2368 2508 0
111 -2368 2369 0
-2369 2509 0
112 -2369 2370 0
-2370 2510 0
113 -2370 2371 0
-2371 2511 0
114 -2371 2372 0
-2372 2512 0
115 -2372 2373 0
-2373 2513 0
116 -2373 2374 0
-2374 2514 0
117 -2374 2375 0
-2375 2515 0
118 -2375 2376 0
-2376 2516 0
119 -2376 2377 0
-2377 2517 0
120 -2377 2378 0
-2378 2518 0
121 -2378 2379 0
-2379 2519 0
122 -2379 2380 0
-2380 2520 0
123 -2380 2381 0
-2381 2521 0
124 -2381 2382 0
-2382 2522 0
125 -2382 2383 0
-2383 2523 0
126 -2383 2384 0
-2384 2524 0
127 -2384 2385 0
-2385 2525 0
128 -2385 2386 0
-2386 2526 0
129 -2386 2387 0
-2387 2527 0
130 -2387 2388 0
-2388 2528 0
131 -2388 2389 0
-2389 2529 0
132 -2389 2390 0
-2390 2530 0
133 -2390 2391 0
-2391 2531 0
134 -2391 2392 0
-2392 2532 0
135 -2392 2393 0
-2393 2533 0
136 -2393 2394 0
-2394 2534 0
137 -2394 2395 0
-2395 2535 0
138 -2395 2396 0
-2396 2536 0
139 -2396 2397 0
-2397 2537 0
140 -2397 2398 0
-2398 2538 0
141 -2398 2399 0
-2399 2539 0
142 -2399 2400 0
-2400 2540 0
143 -2400 2401 0
-2401 2541 0
144 -2401 2402 0
-2402 2542 0
145 -2402 2403 0
-2403 2543 0
146 -2403 2404 0
-2404 2544 0
147 -2404 2405 0
-2405 2545 0
148 -2405 2406 0
-2406 2546 0
149 -2406 2407 0
-2407 2547 0
150 -2407 2408 0
-2408 2548 0
151 -2408 2409 0
-2409 2549 0
152 -2409 2410 0
-2410 2550 0
153 -2410 2411 0
-2411 2551 0
154 -2411 2412 0
-2412 2552 0
155 -2412 0
16 2413 0
17 -2413 2414 0
18 -2414 2415 0
19 -2415 2416 0
20 -2416 2417 0
21 -2417 2418 0
22 -2418 2419 0
23 -2419 2420 0
24 -2420 2421 0
25 -2421 2422 0
26 -2422 2423 0
27 -2423 2424 0
28 -2424 2425 0
29 -2425 2426 0
30 -2426 2427 0
31 -2427 2428 0
32 -2428 2429 0
33 -2429 2430 0
34 -2430 2431 0
35 -2431 2432 0
36 -2432 2433 0
37 -2433 2434 0
38 -2434 2435 0
39 -2435 2436 0
40 -2436 2437 0
41 -2437 2438 0
42 -2438 2439 0
43 -2439 2440 0
44 -2440 2441 0
45 -2441 2442 0
46 -2442 2443 0
47 -2443 2444 0
48 -2444 2445 0
49 -2445 2446 0
50 -2446 2447 0
51 -2447 2448 0
52 -2448 2449 0
53 -2449 2450 0
54 -2450 2451 0
55 -2451 2452 0
56 -2452 2453 0
57 -2453 2454 0
58 -2454 2455 0
59 -2455 2456 0
60 -2456 2457 0
61 -2457 2458 0
62 -2458 2459 0
63 -2459 2460 0
64 -2460 2461 0
65 -2461 2462 0
66 -2462 2463 0
67 -2463 2464 0
68 -2464 2465 0
69 -2465 2466 0
70 -2466 2467 0
71 -2467 2468 0
72 -2468 2469 0
73 -2469 2470 0
74 -2470 2471 0
75 -2471 2472 0
76 -2472 2473 0
77 -2473 2474 0
78 -2474 2475 0
79 -2475 2476 0
80 -2476 2477 0
81 -2477 2478 0
82 -2478 2479 0
83 -2479 2480 0
84 -2480 2481 0
85 -2481 2482 0
86 -2482 2483 0
87 -2483 2484 0
88 -2484 2485 0
89 -2485 2486 0
90 -2486 2487 0
91 -2487 2488 0
92 -2488 2489 0
93 -2489 2490 0
94 -2490 2491 0
95 -2491 2492 0
96 -2492 2493 0
97 -2493 2494 0
98 -2494 2495 0
99 -2495 2496 0
100 -2496 2497 0
101 -2497 2498 0
102 -2498 2499 0
103 -2499 2500 0
104 -2500 2501 0
105 -2501 2502 0
106 -2502 2503 0
107 -2503 2504 0
108 -2504 2505 0
109 -2505 2506 0
110 -2506 2507 0
111 -2507 2508 0
112 -2508 2509 0
113 -2509 2510 0
114 -2510 2511 0
115 -2511 2512 0
116 -2512 2513 0
117 -2513 2514 0
118 -2514 2515 0
119 -2515 2516 0
120 -2516 2517 0
121 -2517 2518 0
122 -2518 2519 0
123 -2519 2520 0
124 -2520 2521 0
125 -2521 2522 0
126 -2522 2523 0
127 -2523 2524 0
128 -2524 2525 0
129 -2525 2526 0
130 -2526 2527 0
131 -2527 2528 0
132 -2528 2529 0
133 -2529 2530 0
134 -2530 2531 0
135 -2531 2532 0
136 -2532 2533 0
137 -2533 2534 0
138 -2534 2535 0
139 -2535 2536 0
140 -2536 2537 0
141 -2537 2538 0
142 -2538 2539 0
143 -2539 2540 0
144 -2540 2541 0
145 -2541 2542 0
146 -2542 2543 0
147 -2543 2544 0
148 -2544 2545 0
149 -2545 2546 0
150 -2546 2547 0
151 -2547 2548 0
152 -2548 2549 0
153 -2549 2550 0
154 -2550 2551 0
155 -2551 2552 0
156 -2552 0
-1 2553 0
-2553 2554 0
-2 -2553 2555 0
-2555 2556 0
-3 -2555 2557 0
-2557 2558 0
-4 -2557 2559 0
-2559 2560 0
-5 -2559 2561 0
-2561 2562 0
-6 -2561 2563 0
-2563 2564 0
-7 -2563 2565 0
-2565 2566 0
-8 -2565 2567 0
-2567 2568 0
-9 -2567 2569 0
-2569 2570 0
-10 -2569 2571 0
-2571 2572 0
-11 -2571 2573 0
-2573 2574 0
-12 -2573 2575 0
-2575 2576 0
-13 -2575 2577 0
-2577 2578 0
-14 -2577 2579 0
-2579 2580 0
-15 -2579 2581 0
-2581 2582 0
-16 -2581 2583 0
-2583 2584 0
-17 -2583 0
-2 2554 0
-2554 2585 0
-3 -2554 2556 0
-2556 2586 0
-4 -2556 2558 0
-2558 2587 0
-5 -2558 2560 0
-2560 2588 0
-6 -2560 2562 0
-2562 2589 0
-7 -2562 2564 0
-2564 2590 0
-8 -2564 2566 0
-2566 2591 0
-9 -2566 2568 0
-2568 2592 0
-10 -2568 2570 0
-2570 2593 0
-11 -2570 2572 0
-2572 2594 0
-12 -2572 2574 0
-2574 2595 0
-13 -2574 2576 0
-2576 2596 0
-14 -2576 2578 0
-2578 2597 0
-15 -2578 2580 0
-2580 2598 0
-16 -2580 2582 0
-2582 2599 0
-17 -2582 2584 0
-2584 2600 0
-18 -2584 0
-3 2585 0
-2585 2601 0
-4 -2585 2586 0
-2586 2602 0
-5 -2586 2587 0
-2587 2603 0
-6 -2587 2588 0
-2588 2604 0
-7 -2588 2589 0
-2589 2605 0
-8 -2589 2590 0
-2590 2606 0
-9 -2590 2591 0
-2591 2607 0
-10 -2591 2592 0
-2592 2608 0
-11 -2592 2593 0
-2593 2609 0
-12 -2593 2594 0
-2594 2610 0
-13 -2594 2595 0
-2595 2611 0
-14 -2595 2596 0
-2596 2612 0
-15 -2596 2597 0
-2597 2613 0
-16 -2597 2598 0
-2598 2614 0
-17 -2598 2599 0
-2599 2615 0
-18 -2599 2600 0
-2600 2616 0
-19 -2600 0
-4 2601 0
-2601 2617 0
-5 -2601 2602 0
-2602 2618 0
-6 -2602 2603 0
-2603 2619 0
-7 -2603 2604 0
-2604 2620 0
-8 -2604 2605 0
-2605 2621 0
-9 -2605 2606 0
-2606 2622 0
-10 -2606 2607 0
-2607 2623 0
-11 -2607 2608 0
-2608 2624 0
-12 -2608 2609 0
-2609 2625 0
-13 -2609 2610 0
-2610 2626 0
-14 -2610 2611 0
-2611 2627 0
-15 -2611 2612 0
-2612 2628 0
-16 -2612 2613 0
-2613 2629 0
-17 -2613 2614 0
-2614 2630 0
-18 -2614 2615 0
-2615 2631 0
-19 -2615 2616 0
-2616 2632 0
-20 -2616 0
-5 2617 0
-2617 2633 0
-6 -2617 2618 0
-2618 2634 0
-7 -2618 2619 0
-2619 2635 0
-8 -2619 2620 0
-2620 2636 0
-9 -2620 2621 0
-2621 2637 0
-10 -2621 2622 0
-2622 2638 0
-11 -2622 2623 0
-2623 2639 0
-12 -2623 2624 0
-2624 2640 0
-13 -2624 2625 0
-2625 2641 0
-14 -2625 2626 0
-2626 2642 0
-15 -2626 2627 0
-2627 2643 0
-16 -2627 2628 0
-2628 2644 0
-17 -2628 2629 0
-2629 2645 0
-18 -2629 2630 0
-2630 2646 0
-19 -2630 2631 0
-2631 2647 0
-20 -2631 2632 0
-2632 2648 0
-21 -2632 0
-6 2633 0
-2633 2649 0
-7 -2633 2634 0
-2634 2650 0
-8 -2634 2635 0
-2635 2651 0
-9 -2635 2636 0
-2636 2652 0
-10 -2636 2637 0
-2637 2653 0
-11 -2637 2638 0
-2638 2654 0
-12 -2638 2639 0
-2639 2655 0
-13 -2639 2640 0
-2640 2656 0
-14 -2640 2641 0
-2641 2657 0
-15 -2641 2642 0
-2642 2658 0
-16 -2642 2643 0
-2643 2659 0
-17 -2643 2644 0
-2644 2660 0
-18 -2644 2645 0
-2645 2661 0
-19 -2645 2646 0
-2646 2662 0
-20 -2646 2647 0
-2647 2663 0
-21 -2647 2648 0
-2648 2664 0
-22 -2648 0
-7 2649 0
-2649 2665 0
-8 -2649 2650 0
-2650 2666 0
-9 -2650 2651 0
-2651 2667 0
-10 -2651 2652 0
-2652 2668 0
-11 -2652 2653 0
-2653 2669 0
-12 -2653 2654 0
-2654 2670 0
-13 -2654 2655 0
-2655 2671 0
-14 -2655 2656 0
-2656 2672 0
-15 -2656 2657 0
-2657 2673 0
-16 -2657 2658 0
-2658 2674 0
-17 -2658 2659 0
-2659 2675 0
-18 -2659 2660 0
-2660 2676 0
-19 -2660 2661 0
-2661 2677 0
-20 -2661 2662 0
-2662 2678 0
-21 -2662 2663 0
-2663 2679 0
-22 -2663 2664 0
-2664 2680 0
-23 -2664 0
-8 2665 0
-2665 2681 0
-9 -2665 2666 0
-2666 2682 0
-10 -2666 2667 0
-2667 2683 0
-11 -2667 2668 0
-2668 2684 0
-12 -2668 2669 0
-2669 2685 0
-13 -2669 2670 0
-2670 2686 0
-14 -2670 2671 0
-2671 2687 0
-15 -2671 2672 0
-2672 2688 0
-16 -2672 2673 0
-2673 2689 0
-17 -2673 2674 0
-2674 2690 0
-18 -2674 2675 0
-2675 2691 0
-19 -2675 2676 0
-2676 2692 0
-20 -2676 2677 0
-2677 2693 0
-21 -2677 2678 0
-2678 2694 0
-22 -2678 2679 0
-2679 2695 0
-23 -2679 2680 0
-2680 2696 0
-24 -2680 0
-9 2681 0
-2681 2697 0
-10 -2681 2682 0
-2682 2698 0
-11 -2682 2683 0
-2683 2699 0
-12 -2683 2684 0
-2684 2700 0
-13 -2684 2685 0
-2685 2701 0
-14 -2685 2686 0
-2686 2702 0
-15 -2686 2687 0
-2687 2703 0
-16 -2687 2688 0
-2688 2704 0
-17 -2688 2689 0
-2689 2705 0
-18 -2689 2690 0
-2690 2706 0
-19 -2690 2691 0
-2691 2707 0
-20 -2691 2692 0
-2692 2708 0
-21 -2692 2693 0
-2693 2709 0
-22 -2693 2694 0
-2694 2710 0
-23 -2694 2695 0
-2695 2711 0
-24 -2695 2696 0
-2696 2712 0
-25 -2696 0
-10 2697 0
-2697 2713 0
-11 -2697 2698 0
-2698 2714 0
-12 -2698 2699 0
-2699 2715 0
-13 -2699 2700 0
-2700 2716 0
-14 -2700 2701 0
-2701 2717 0
-15 -2701 2702 0
-2702 2718 0
-16 -2702 2703 0
-2703 2719 0
-17 -2703 2704 0
-2704 2720 0
-18 -2704 2705 0
-2705 2721 0
-19 -2705 2706 0
-2706 2722 0
-20 -2706 2707 0
-2707 2723 0
-21 -2707 2708 0
-2708 2724 0
-22 -2708 2709 0
-2709 2725 0
-23 -2709 2710 0
-2710 2726 0
-24 -2710 2711 0
-2711 2727 0
-25 -2711 2712 0
-2712 2728 0
-26 -2712 0
-11 2713 0
-2713 2729 0
-12 -2713 2714 0
-2714 2730 0
-13 -2714 2715 0
-2715 2731 0
-14 -2715 2716 0
-2716 2732 0
-15 -2716 2717 0
-2717 2733 0
-16 -2717 2718 0
-2718 2734 0
-17 -2718 2719 0
-2719 2735 0
-18 -2719 2720 0
-2720 2736 0
-19 -2720 2721 0
-2721 2737 0
-20 -2721 2722 0
-2722 2738 0
-21 -2722 2723 0
-2723 2739 0
-22 -2723 2724 0
-2724 2740 0
-23 -2724 2725 0
-2725 2741 0
-24 -2725 2726 0
-2726 2742 0
-25 -2726 2727 0
-2727 2743 0
-26 -2727 2728 0
-2728 2744 0
-27 -2728 0
-12 2729 0
-2729 2745 0
-13 -2729 2730 0
-2730 2746 0
-14 -2730 2731 0
-2731 2747 0
-15 -2731 2732 0
-2732 2748 0
-16 -2732 2733 0
-2733 2749 0
-17 -2733 2734 0
-2734 2750 0
-18 -2734 2735 0
-2735 2751 0
-19 -2735 2736 0
-2736 2752 0
-20 -2736 2737 0
-2737 2753 0
-21 -2737 2738 0
-2738 2754 0
-22 -2738 2739 0
-2739 2755 0
-23 -2739 2740 0
-2740 2756 0
-24 -2740 2741 0
-2741 2757 0
-25 -2741 2742 0
-2742 2758 0
-26 -2742 2743 0
-2743 2759 0
-27 -2743 2744 0
-2744 2760 0
-28 -2744 0
-13 2745 0
-2745 2761 0
-14 -2745 2746 0
-2746 2762 0
-15 -2746 2747 0
-2747 2763 0
-16 -2747 2748 0
-2748 2764 0
-17 -2748 2749 0
-2749 2765 0
-18 -2749 2750 0
-2750 2766 0
-19 -2750 2751 0
-2751 2767 0
-20 -2751 2752 0
-2752 2768 0
-21 -2752 2753 0
-2753 2769 0
-22 -2753 2754 0
-2754 2770 0
-23 -2754 2755 0
-2755 2771 0
-24 -2755 2756 0
-2756 2772 0
-25 -2756 2757 0
-2757 2773 0
-26 -2757 2758 0
-2758 2774 0
-27 -2758 2759 0
-2759 2775 0
-28 -2759 2760 0
-2760 2776 0
-29 -2760 0
-14 2761 0
-2761 2777 0
-15 -2761 2762 0
-2762 2778 0
-16 -2762 2763 0
-2763 2779 0
-17 -2763 2764 0
-2764 2780 0
-18 -2764 2765 0
-2765 2781 0
-19 -2765 2766 0
-2766 2782 0
-20 -2766 2767 0
-2767 2783 0
-21 -2767 2768 0
-2768 2784 0
-22 -2768 2769 0
-2769 2785 0
-23 -2769 2770 0
-2770 2786 0
-24 -2770 2771 0
-2771 2787 0
-25 -2771 2772 0
-2772 2788 0
-26 -2772 2773 0
-2773 2789 0
-27 -2773 2774 0
-2774 2790 0
-28 -2774 2775 0
-2775 2791 0
-29 -2775 2776 0
-2776 2792 0
-30 -2776 0
-15 2777 0
-2777 2793 0
-16 -2777 2778 0
-2778 2794 0
-17 -2778 2779 0
-2779 2795 0
-18 -2779 2780 0
-2780 2796 0
-19 -2780 2781 0
-2781 2797 0
-20 -2781 2782 0
-2782 2798 0
-21 -2782 2783 0
-2783 2799 0
-22 -2783 2784 0
-2784 2800 0
-23 -2784 2785 0
-2785 2801 0
-24 -2785 2786 0
-2786 2802 0
-25 -2786 2787 0
-2787 2803 0
-26 -2787 2788 0
-2788 2804 0
-27 -2788 2789 0
-2789 2805 0
-28 -2789 2790 0
-2790 2806 0
-29 -2790 2791 0
-2791 2807 0
-30 -2791 2792 0
-2792 2808 0
-31 -2792 0
-16 2793 0
-2793 2809 0
-17 -2793 2794 0
-2794 2810 0
-18 -2794 2795 0
-2795 2811 0
-19 -2795 2796 0
-2796 2812 0
-20 -2796 2797 0
-2797 2813 0
-21 -2797 2798 0
-2798 2814 0
-22 -2798 2799 0
-2799 2815 0
-23 -2799 2800 0
-2800 2816 0
-24 -2800 2801 0
-2801 2817 0
-25 -2801 2802 0
-2802 2818 0
-26 -2802 2803 0
-2803 2819 0
-27 -2803 2804 0
-2804 2820 0
-28 -2804 2805 0
-2805 2821 0
-29 -2805 2806 0
-2806 2822 0
-30 -2806 2807 0
-2807 2823 0
-31 -2807 2808 0
-2808 2824 0
-32 -2808 0
-17 2809 0
-2809 2825 0
-18 -2809 2810 0
-2810 2826 0
-19 -2810 2811 0
-2811 2827 0
-20 -2811 2812 0
-2812 2828 0
-21 -2812 2813 0
-2813 2829 0
-22 -2813 2814 0
-2814 2830 0
-23 -2814 2815 0
-2815 2831 0
-24 -2815 2816 0
-2816 2832 0
-25 -2816 2817 0
-2817 2833 0
-26 -2817 2818 0
-2818 2834 0
-27 -2818 2819 0
-2819 2835 0
-28 -2819 2820 0
-2820 2836 0
-29 -2820 2821 0
-2821 2837 0
-30 -2821 2822 0
-2822 2838 0
-31 -2822 2823 0
-2823 2839 0
-32 -2823 2824 0
-2824 2840 0
-33 -2824 0
-18 2825 0
-2825 2841 0
-19 -2825 2826 0
-2826 2842 0
-20 -2826 2827 0
-2827 2843 0
-21 -2827 2828 0
-2828 2844 0
-22 -2828 2829 0
-2829 2845 0
-23 -2829 2830 0
-2830 2846 0
-24 -2830 2831 0
-2831 2847 0
-25 -2831 2832 0
-2832 2848 0
-26 -2832 2833 0
-2833 2849 0
-27 -2833 2834 0
-2834 2850 0
-28 -2834 2835 0
-2835 2851 0
-29 -2835 2836 0
-2836 2852 0
-30 -2836 2837 0
-2837 2853 0
-31 -2837 2838 0
-2838 2854 0
-32 -2838 2839 0
-2839 2855 0
-33 -2839 2840 0
-2840 2856 0
-34 -2840 0
-19 2841 0
-2841 2857 0
-20 -2841 2842 0
-2842 2858 0
-21 -2842 2843 0
-2843 2859 0
-22 -2843 2844 0
-2844 2860 0
-23 -2844 2845 0
-2845 2861 0
-24 -2845 2846 0
-2846 2862 0
-25 -2846 2847 0
-2847 2863 0
-26 -2847 2848 0
-2848 2864 0
-27 -2848 2849 0
-2849 2865 0
-28 -2849 2850 0
-2850 2866 0
-29 -2850 2851 0
-2851 2867 0
-30 -2851 2852 0
-2852 2868 0
-31 -2852 2853 0
-2853 2869 0
-32 -2853 2854 0
-2854 2870 0
-33 -2854 2855 0
-2855 2871 0
-34 -2855 2856 0
-2856 2872 0
-35 -2856 0
-20 2857 0
-2857 2873 0
-21 -2857 2858 0
-2858 2874 0
-22 -2858 2859 0
-2859 2875 0
-23 -2859 2860 0
-2860 2876 0
-24 -2860 2861 0
-2861 2877 0
-25 -2861 2862 0
-2862 2878 0
-26 -2862 2863 0
-2863 2879 0
-27 -2863 2864 0
-2864 2880 0
-28 -2864 2865 0
-2865 2881 0
-29 -2865 2866 0
-2866 2882 0
-30 -2866 2867 0
-2867 2883 0
-31 -2867 2868 0
-2868 2884 0
-32 -2868 2869 0
-2869 2885 0
-33 -2869 2870 0
-2870 2886 0
-34 -2870 2871 0
-2871 2887 0
-35 -2871 2872 0
-2872 2888 0
-36 -2872 0
-21 2873 0
-2873 2889 0
-22 -2873 2874 0
-2874 2890 0
-23 -2874 2875 0
-2875 2891 0
-24 -2875 2876 0
-2876 2892 0
-25 -2876 2877 0
-2877 2893 0
-26 -2877 2878 0
-2878 2894 0
-27 -2878 2879 0
-2879 2895 0
-28 -2879 2880 0
-2880 2896 0
-29 -2880 2881 0
-2881 2897 0
-30 -2881 2882 0
-2882 2898 0
-31 -2882 2883 0
-2883 2899 0
-32 -2883 2884 0
-2884 2900 0
-33 -2884 2885 0
-2885 2901 0
-34 -2885 2886 0
-2886 2902 0
-35 -2886 2887 0
-2887 2903 0
-36 -2887 2888 0
-2888 2904 0
-37 -2888 0
-22 2889 0
-2889 2905 0
-23 -2889 2890 0
-2890 2906 0
-24 -2890 2891 0
-2891 2907 0
-25 -2891 2892 0
-2892 2908 0
-26 -2892 2893 0
-2893 2909 0
-27 -2893 2894 0
-2894 2910 0
-28 -2894 2895 0
-2895 2911 0
-29 -2895 2896 0
-2896 2912 0
-30 -2896 2897 0
-2897 2913 0
-31 -2897 2898 0
-2898 2914 0
-32 -2898 2899 0
-2899 2915 0
-33 -2899 2900 0
-2900 2916 0
-34 -2900 2901 0
-2901 2917 0
-35 -2901 2902 0
-2902 2918 0
-36 -2902 2903 0
-2903 2919 0
-37 -2903 2904 0
-2904 2920 0
-38 -2904 0
-23 2905 0
-2905 2921 0
-24 -2905 2906 0
-2906 2922 0
-25 -2906 2907 0
-2907 2923 0
-26 -2907 2908 0
-2908 2924 0
-27 -2908 2909 0
-2909 2925 0
-28 -2909 2910 0
-2910 2926 0
-29 -2910 2911 0
-2911 2927 0
-30 -2911 2912 0
-2912 2928 0
-31 -2912 2913 0
-2913 2929 0
-32 -2913 2914 0
-2914 2930 0
-33 -2914 2915 0
-2915 2931 0
-34 -2915 2916 0
-2916 2932 0
-35 -2916 2917 0
-2917 2933 0
-36 -2917 2918 0
-2918 2934 0
-37 -2918 2919 0
-2919 2935 0
-38 -2919 2920 0
-2920 2936 0
-39 -2920 0
-24 2921 0
-2921 2937 0
-25 -2921 2922 0
-2922 2938 0
-26 -2922 2923 0
-2923 2939 0
-27 -2923 2924 0
-2924 2940 0
-28 -2924 2925 0
-2925 2941 0
-29 -2925 2926 0
-2926 2942 0
-30 -2926 2927 0
-2927 2943 0
-31 -2927 2928 0
-2928 2944 0
-32 -2928 2929 0
-2929 2945 0
-33 -2929 2930 0
-2930 2946 0
-34 -2930 2931 0
-2931 2947 0
-35 -2931 2932 0
-2932 2948 0
-36 -2932 2933 0
-2933 2949 0
-37 -2933 2934 0
-2934 2950 0
-38 -2934 2935 0
-2935 2951 0
-39 -2935 2936 0
-2936 2952 0
-40 -2936 0
-25 2937 0
-2937 2953 0
-26 -2937 2938 0
-2938 2954 0
-27 -2938 2939 0
-2939 2955 0
-28 -2939 2940 0
-2940 2956 0
-29 -2940 2941 0
-2941 2957 0
-30 -2941 2942 0
-2942 2958 0
-31 -2942 2943 0
-2943 2959 0
-32 -2943 2944 0
-2944 2960 0
-33 -2944 2945 0
-2945 2961 0
-34 -2945 2946 0
-2946 2962 0
-35 -2946 2947 0
-2947 2963 0
-36 -2947 2948 0
-2948 2964 0
-37 -2948 2949 0
-2949 2965 0
-38 -2949 2950 0
-2950 2966 0
-39 -2950 2951 0
-2951 2967 0
-40 -2951 2952 0
-2952 2968 0
-41 -2952 0
-26 2953 0
-2953 2969 0
-27 -2953 2954 0
-2954 2970 0
-28 -2954 2955 0
-2955 2971 0
-29 -2955 2956 0
-2956 2972 0
-30 -2956 2957 0
-2957 2973 0
-31 -2957 2958 0
-2958 2974 0
-32 -2958 2959 0
-2959 2975 0
-33 -2959 2960 0
-2960 2976 0
-34 -2960 2961 0
-2961 2977 0
-35 -2961 2962 0
-2962 2978 0
-36 -2962 2963 0
-2963 2979 0
-37 -2963 2964 0
-2964 2980 0
-38 -2964 2965 0
-2965 2981 0
-39 -2965 2966 0
-2966 2982 0
-40 -2966 2967 0
-2967 2983 0
-41 -2967 2968 0
-2968 2984 0
-42 -2968 0
-27 2969 0
-2969 2985 0
-28 -2969 2970 0
-2970 2986 0
-29 -2970 2971 0
-2971 2987 0
-30 -2971 2972 0
-2972 2988 0
-31 -2972 2973 0
-2973 2989 0
-32 -2973 2974 0
-2974 2990 0
-33 -2974 2975 0
-2975 2991 0
-34 -2975 2976 0
-2976 2992 0
-35 -2976 2977 0
-2977 2993 0
-36 -2977 2978 0
-2978 2994 0
-37 -2978 2979 0
-2979 2995 0
-38 -2979 2980 0
-2980 2996 0
-39 -2980 2981 0
-2981 2997 0
-40 -2981 2982 0
-2982 2998 0
-41 -2982 2983 0
-2983 2999 0
-42 -2983 2984 0
-2984 3000 0
-43 -2984 0
-28 2985 0
-2985 3001 0
-29 -2985 2986 0
-2986 3002 0
-30 -2986 2987 0
-2987 3003 0
-31 -2987 2988 0
-2988 3004 0
-32 -2988 2989 0
-2989 3005 0
-33 -2989 2990 0
-2990 3006 0
-34 -2990 2991 0
-2991 3007 0
-35 -2991 2992 0
-2992 3008 0
-36 -2992 2993 0
-2993 3009 0
-37 -2993 2994 0
-2994 3010 0
-38 -2994 2995 0
-2995 3011 0
-39 -2995 2996 0
-2996 3012 0
-40 -2996 2997 0
-2997 3013 0
-41 -2997 2998 0
-2998 3014 0
-42 -2998 2999 0
-2999 3015 0
-43 -2999 3000 0
-3000 3016 0
-44 -3000 0
-29 3001 0
-3001 3017 0
-30 -3001 3002 0
-3002 3018 0
-31 -3002 3003 0
-3003 3019 0
-32 -3003 3004 0
-3004 3020 0
-33 -3004 3005 0
-3005 3021 0
-34 -3005 3006 0
-3006 3022 0
-35 -3006 3007 0
-3007 3023 0
-36 -3007 3008 0
-3008 3024 0
-37 -3008 3009 0
-3009 3025 0
-38 -3009 3010 0
-3010 3026 0
-39 -3010 3011 0
-3011 3027 0
-40 -3011 3012 0
-3012 3028 0
-41 -3012 3013 0
-3013 3029 0
-42 -3013 3014 0
-3014 3030 0
-43 -3014 3015 0
-3015 3031 0
-44 -3015 3016 0
-3016 3032 0
-45 -3016 0
-30 3017 0
-3017 3033 0
-31 -3017 3018 0
-3018 3034 0
-32 -3018 3019 0
-3019 3035 0
-33 -3019 3020 0
-3020 3036 0
-34 -3020 3021 0
-3021 3037 0
-35 -3021 3022 0
-3022 3038 0
-36 -3022 3023 0
-3023 3039 0
-37 -3023 3024 0
-3024 3040 0
-38 -3024 3025 0
-3025 3041 0
-39 -3025 3026 0
-3026 3042 0
-40 -3026 3027 0
-3027 3043 0
-41 -3027 3028 0
-3028 3044 0
-42 -3028 3029 0
-3029 3045 0
-43 -3029 3030 0
-3030 3046 0
-44 -3030 3031 0
-3031 3047 0
-45 -3031 3032 0
-3032 3048 0
-46 -3032 0
-31 3033 0
-3033 3049 0
-32 -3033 3034 0
-3034 3050 0
-33 -3034 3035 0
-3035 3051 0
-34 -3035 3036 0
-3036 3052 0
-35 -3036 3037 0
-3037 3053 0
-36 -3037 3038 0
-3038 3054 0
-37 -3038 3039 0
-3039 3055 0
-38 -3039 3040 0
-3040 3056 0
-39 -3040 3041 0
-3041 3057 0
-40 -3041 3042 0
-3042 3058 0
-41 -3042 3043 0
-3043 3059 0
-42 -3043 3044 0
-3044 3060 0
-43 -3044 3045 0
-3045 3061 0
-44 -3045 3046 0
-3046 3062 0
-45 -3046 3047 0
-3047 3063 0
-46 -3047 3048 0
-3048 3064 0
-47 -3048 0
-32 3049 0
-3049 3065 0
-33 -3049 3050 0
-3050 3066 0
-34 -3050 3051 0
-3051 3067 0
-35 -3051 3052 0
-3052 3068 0
-36 -3052 3053 0
-3053 3069 0
-37 -3053 3054 0
-3054 3070 0
-38 -3054 3055 0
-3055 3071 0
-39 -3055 3056 0
-3056 3072 0
-40 -3056 3057 0
-3057 3073 0
-41 -3057 3058 0
-3058 3074 0
-42 -3058 3059 0
-3059 3075 0
-43 -3059 3060 0
-3060 3076 0
-44 -3060 3061 0
-3061 3077 0
-45 -3061 3062 0
-3062 3078 0
-46 -3062 3063 0
-3063 3079 0
-47 -3063 3064 0
-3064 3080 0
-48 -3064 0
-33 3065 0
-3065 3081 0
-34 -3065 3066 0
-3066 3082 0
-35 -3066 3067 0
-3067 3083 0
-36 -3067 3068 0
-3068 3084 0
-37 -3068 3069 0
-3069 3085 0
-38 -3069 3070 0
-3070 3086 0
-39 -3070 3071 0
-3071 3087 0
-40 -3071 3072 0
-3072 3088 0
-41 -3072 3073 0
-3073 3089 0
-42 -3073 3074 0
-3074 3090 0
-43 -3074 3075 0
-3075 3091 0
-44 -3075 3076 0
-3076 3092 0
-45 -3076 3077 0
-3077 3093 0
-46 -3077 3078 0
-3078 3094 0
-47 -3078 3079 0
-3079 3095 0
-48 -3079 3080 0
-3080 3096 0
-49 -3080 0
-34 3081 0
-3081 3097 0
-35 -3081 3082 0
-3082 3098 0
-36 -3082 3083 0
-3083 3099 0
-37 -3083 3084 0
-3084 3100 0
-38 -3084 3085 0
-3085 3101 0
-39 -3085 3086 0
-3086 3102 0
-40 -3086 3087 0
-3087 3103 0
-41 -3087 3088 0
-3088 3104 0
-42 -3088 3089 0
-3089 3105 0
-43 -3089 3090 0
-3090 3106 0
-44 -3090 3091 0
-3091 3107 0
-45 -3091 3092 0
-3092 3108 0
-46 -3092 3093 0
-3093 3109 0
-47 -3093 3094 0
-3094 3110 0
-48 -3094 3095 0
-3095 3111 0
-49 -3095 3096 0
-3096 3112 0
-50 -3096 0
-35 3097 0
-3097 3113 0
-36 -3097 3098 0
-3098 3114 0
-37 -3098 3099 0
-3099 3115 0
-38 -3099 3100 0
-3100 3116 0
-39 -3100 3101 0
-3101 3117 0
-40 -3101 3102 0
-3102 3118 0
-41 -3102 3103 0
-3103 3119 0
-42 -3103 3104 0
-3104 3120 0
-43 -3104 3105 0
-3105 3121 0
-44 -3105 3106 0
-3106 3122 0
-45 -3106 3107 0
-3107 3123 0
-46 -3107 3108 0
-3108 3124 0
-47 -3108 3109 0
-3109 3125 0
-48 -3109 3110 0
-3110 3126 0
-49 -3110 3111 0
-3111 3127 0
-50 -3111 3112 0
-3112 3128 0
-51 -3112 0
-36 3113 0
-3113 3129 0
-37 -3113 3114 0
-3114 3130 0
-38 -3114 3115 0
-3115 3131 0
-39 -3115 3116 0
-3116 3132 0
-40 -3116 3117 0
-3117 3133 0
-41 -3117 3118 0
-3118 3134 0
-42 -3118 3119 0
-3119 3135 0
-43 -3119 3120 0
-3120 3136 0
-44 -3120 3121 0
-3121 3137 0
-45 -3121 3122 0
-3122 3138 0
-46 -3122 3123 0
-3123 3139 0
-47 -3123 3124 0
-3124 3140 0
-48 -3124 3125 0
-3125 3141 0
-49 -3125 3126 0
-3126 3142 0
-50 -3126 3127 0
-3127 3143 0
-51 -3127 3128 0
-3128 3144 0
-52 -3128 0
-37 3129 0
-3129 3145 0
-38 -3129 3130 0
-3130 3146 0
-39 -3130 3131 0
-3131 3147 0
-40 -3131 3132 0
-3132 3148 0
-41 -3132 3133 0
-3133 3149 0
-42 -3133 3134 0
-3134 3150 0
-43 -3134 3135 0
-3135 3151 0
-44 -3135 3136 0
-3136 3152 0
-45 -3136 3137 0
-3137 3153 0
-46 -3137 3138 0
-3138 3154 0
-47 -3138 3139 0
-3139 3155 0
-48 -3139 3140 0
-3140 3156 0
-49 -3140 3141 0
-3141 3157 0
-50 -3141 3142 0
-3142 3158 0
-51 -3142 3143 0
-3143 3159 0
-52 -3143 3144 0
-3144 3160 0
-53 -3144 0
-38 3145 0
-3145 3161 0
-39 -3145 3146 0
-3146 3162 0
-40 -3146 3147 0
-3147 3163 0
-41 -3147 3148 0
-3148 3164 0
-42 -3148 3149 0
-3149 3165 0
-43 -3149 3150 0
-3150 3166 0
-44 -3150 3151 0
-3151 3167 0
-45 -3151 3152 0
-3152 3168 0
-46 -3152 3153 0
-3153 3169 0
-47 -3153 3154 0
-3154 3170 0
-48 -3154 3155 0
-3155 3171 0
-49 -3155 3156 0
-3156 3172 0
-50 -3156 3157 0
-3157 3173 0
-51 -3157 3158 0
-3158 3174 0
-52 -3158 3159 0
-3159 3175 0
-53 -3159 3160 0
-3160 3176 0
-54 -3160 0
-39 3161 0
-3161 3177 0
-40 -3161 3162 0
-3162 3178 0
-41 -3162 3163 0
-3163 3179 0
-42 -3163 3164 0
-3164 3180 0
-43 -3164 3165 0
-3165 3181 0
-44 -3165 3166 0
-3166 3182 0
-45 -3166 3167 0
-3167 3183 0
-46 -3167 3168 0
-3168 3184 0
-47 -3168 3169 0
-3169 3185 0
-48 -3169 3170 0
-3170 3186 0
-49 -3170 3171 0
-3171 3187 0
-50 -3171 3172 0
-3172 3188 0
-51 -3172 3173 0
-3173 3189 0
-52 -3173 3174 0
-3174 3190 0
-53 -3174 3175 0
-3175 3191 0
-54 -3175 3176 0
-3176 3192 0
-55 -3176 0
-40 3177 0
-3177 3193 0
-41 -3177 3178 0
-3178 3194 0
-42 -3178 3179 0
-3179 3195 0
-43 -3179 3180 0
-3180 3196 0
-44 -3180 3181 0
-3181 3197 0
-45 -3181 3182 0
-3182 3198 0
-46 -3182 3183 0
-3183 3199 0
-47 -3183 3184 0
-3184 3200 0
-48 -3184 3185 0
-3185 3201 0
-49 -3185 3186 0
-3186 3202 0
-50 -3186 3187 0
-3187 3203 0
-51 -3187 3188 0
-3188 3204 0
-52 -3188 3189 0
-3189 3205 0
-53 -3189 3190 0
-3190 3206 0
-54 -3190 3191 0
-3191 3207 0
-55 -3191 3192 0
-3192 3208 0
-56 -3192 0
-41 3193 0
-3193 3209 0
-42 -3193 3194 0
-3194 3210 0
-43 -3194 3195 0
-3195 3211 0
-44 -3195 3196 0
-3196 3212 0
-45 -3196 3197 0
-3197 3213 0
-46 -3197 3198 0
-3198 3214 0
-47 -3198 3199 0
-3199 3215 0
-48 -3199 3200 0
-3200 3216 0
-49 -3200 3201 0
-3201 3217 0
-50 -3201 3202 0
-3202 3218 0
-51 -3202 3203 0
-3203 3219 0
-52 -3203 3204 0
-3204 3220 0
-53 -3204 3205 0
-3205 3221 0
-54 -3205 3206 0
-3206 3222 0
-55 -3206 3207 0
-3207 3223 0
-56 -3207 3208 0
-3208 3224 0
-57 -3208 0
-42 3209 0
-3209 3225 0
-43 -3209 3210 0
-3210 3226 0
-44 -3210 3211 0
-3211 3227 0
-45 -3211 3212 0
-3212 3228 0
-46 -3212 3213 0
-3213 3229 0
-47 -3213 3214 0
-3214 3230 0
-48 -3214 3215 0
-3215 3231 0
-49 -3215 3216 0
-3216 3232 0
-50 -3216 3217 0
-3217 3233 0
-51 -3217 3218 0
-3218 3234 0
-52 -3218 3219 0
-3219 3235 0
-53 -3219 3220 0
-3220 3236 0
-54 -3220 3221 0
-3221 3237 0
-55 -3221 3222 0
-3222 3238 0
-56 -3222 3223 0
-3223 3239 0
-57 -3223 3224 0
-3224 3240 0
-58 -3224 0
-43 3225 0
-3225 3241 0
-44 -3225 3226 0
-3226 3242 0
-45 -3226 3227 0
-3227 3243 0
-46 -3227 3228 0
-3228 3244 0
-47 -3228 3229 0
-3229 3245 0
-48 -3229 3230 0
-3230 3246 0
-49 -3230 3231 0
-3231 3247 0
-50 -3231 3232 0
-3232 3248 0
-51 -3232 3233 0
-3233 3249 0
-52 -3233 3234 0
-3234 3250 0
-53 -3234 3235 0
-3235 3251 0
-54 -3235 3236 0
-3236 3252 0
-55 -3236 3237 0
-3237 3253 0
-56 -3237 3238 0
-3238 3254 0
-57 -3238 3239 0
-3239 3255 0
-58 -3239 3240 0
-3240 3256 0
-59 -3240 0
-44 3241 0
-3241 3257 0
-45 -3241 3242 0
-3242 3258 0
-46 -3242 3243 0
-3243 3259 0
-47 -3243 3244 0
-3244 3260 0
-48 -3244 3245 0
-3245 3261 0
-49 -3245 3246 0
-3246 3262 0
-50 -3246 3247 0
-3247 3263 0
-51 -3247 3248 0
-3248 3264 0
-52 -3248 3249 0
-3249 3265 0
-53 -3249 3250 0
-3250 3266 0
-54 -3250 3251 0
-3251 3267 0
-55 -3251 3252 0
-3252 3268 0
-56 -3252 3253 0
-3253 3269 0
-57 -3253 3254 0
-3254 3270 0
-58 -3254 3255 0
-3255 3271 0
-59 -3255 3256 0
-3256 3272 0
-60 -3256 0
-45 3257 0
-3257 3273 0
-46 -3257 3258 0
-3258 3274 0
-47 -3258 3259 0
-3259 3275 0
-48 -3259 3260 0
-3260 3276 0
-49 -3260 3261 0
-3261 3277 0
-50 -3261 3262 0
-3262 3278 0
-51 -3262 3263 0
-3263 3279 0
-52 -3263 3264 0
-3264 3280 0
-53 -3264 3265 0
-3265 3281 0
-54 -3265 3266 0
-3266 3282 0
-55 -3266 3267 0
-3267 3283 0
-56 -3267 3268 0
-3268 3284 0
-57 -3268 3269 0
-3269 3285 0
-58 -3269 3270 0
-3270 3286 0
-59 -3270 3271 0
-3271 3287 0
-60 -3271 3272 0
-3272 3288 0
-61 -3272 0
-46 3273 0
-3273 3289 0
-47 -3273 3274 0
-3274 3290 0
-48 -3274 3275 0
-3275 3291 0
-49 -3275 3276 0
-3276 3292 0
-50 -3276 3277 0
-3277 3293 0
-51 -3277 3278 0
-3278 3294 0
-52 -3278 3279 0
-3279 3295 0
-53 -3279 3280 0
-3280 3296 0
-54 -3280 3281 0
-3281 3297 0
-55 -3281 3282 0
-3282 3298 0
-56 -3282 3283 0
-3283 3299 0
-57 -3283 3284 0
-3284 3300 0
-58 -3284 3285 0
-3285 3301 0
-59 -3285 3286 0
-3286 3302 0
-60 -3286 3287 0
-3287 3303 0
-61 -3287 3288 0
-3288 3304 0
-62 -3288 0
-47 3289 0
-3289 3305 0
-48 -3289 3290 0
-3290 3306 0
-49 -3290 3291 0
-3291 3307 0
-50 -3291 3292 0
-3292 3308 0
-51 -3292 3293 0
-3293 3309 0
-52 -3293 3294 0
-3294 3310 0
-53 -3294 3295 0
-3295 3311 0
-54 -3295 3296 0
-3296 3312 0
-55 -3296 3297 0
-3297 3313 0
-56 -3297 3298 0
-3298 3314 0
-57 -3298 3299 0
-3299 3315 0
-58 -3299 3300 0
-3300 3316 0
-59 -3300 3301 0
-3301 3317 0
-60 -3301 3302 0
-3302 3318 0
-61 -3302 3303 0
-3303 3319 0
-62 -3303 3304 0
-3304 3320 0
-63 -3304 0
-48 3305 0
-3305 3321 0
-49 -3305 3306 0
-3306 3322 0
-50 -3306 3307 0
-3307 3323 0
-51 -3307 3308 0
-3308 3324 0
-52 -3308 3309 0
-3309 3325 0
-53 -3309 3310 0
-3310 3326 0
-54 -3310 3311 0
-3311 3327 0
-55 -3311 3312 0
-3312 3328 0
-56 -3312 3313 0
-3313 3329 0
-57 -3313 3314 0
-3314 3330 0
-58 -3314 3315 0
-3315 3331 0
-59 -3315 3316 0
-3316 3332 0
-60 -3316 3317 0
-3317 3333 0
-61 -3317 3318 0
-3318 3334 0
-62 -3318 3319 0
-3319 3335 0
-63 -3319 3320 0
-3320 3336 0
-64 -3320 0
-49 3321 0
-3321 3337 0
-50 -3321 3322 0
-3322 3338 0
-51 -3322 3323 0
-3323 3339 0
-52 -3323 3324 0
-3324 3340 0
-53 -3324 3325 0
-3325 3341 0
-54 -3325 3326 0
-3326 3342 0
-55 -3326 3327 0
-3327 3343 0
-56 -3327 3328 0
-3328 3344 0
-57 -3328 3329 0
-3329 3345 0
-58 -3329 3330 0
-3330 3346 0
-59 -3330 3331 0
-3331 3347 0
-60 -3331 3332 0
-3332 3348 0
-61 -3332 3333 0
-3333 3349 0
-62 -3333 3334 0
-3334 3350 0
-63 -3334 3335 0
-3335 3351 0
-64 -3335 3336 0
-3336 3352 0
-65 -3336 0
-50 3337 0
-3337 3353 0
-51 -3337 3338 0
-3338 3354 0
-52 -3338 3339 0
-3339 3355 0
-53 -3339 3340 0
-3340 3356 0
-54 -3340 3341 0
-3341 3357 0
-55 -3341 3342 0
-3342 3358 0
-56 -3342 3343 0
-3343 3359 0
-57 -3343 3344 0
-3344 3360 0
-58 -3344 3345 0
-3345 3361 0
-59 -3345 3346 0
-3346 3362 0
-60 -3346 3347 0
-3347 3363 0
-61 -3347 3348 0
-3348 3364 0
-62 -3348 3349 0
-3349 3365 0
-63 -3349 3350 0
-3350 3366 0
-64 -3350 3351 0
-3351 3367 0
-65 -3351 3352 0
-3352 3368 0
-66 -3352 0
-51 3353 0
-3353 3369 0
-52 -3353 3354 0
-3354 3370 0
-53 -3354 3355 0
-3355 3371 0
-54 -3355 3356 0
-3356 3372 0
-55 -3356 3357 0
-3357 3373 0
-56 -3357 3358 0
-3358 3374 0
-57 -3358 3359 0
-3359 3375 0
-58 -3359 3360 0
-3360 3376 0
-59 -3360 3361 0
-3361 3377 0
-60 -3361 3362 0
-3362 3378 0
-61 -3362 3363 0
-3363 3379 0
-62 -3363 3364 0
-3364 3380 0
-63 -3364 3365 0
-3365 3381 0
-64 -3365 3366 0
-3366 3382 0
-65 -3366 3367 0
-3367 3383 0
-66 -3367 3368 0
-3368 3384 0
-67 -3368 0
-52 3369 0
-3369 3385 0
-53 -3369 3370 0
-3370 3386 0
-54 -3370 3371 0
-3371 3387 0
-55 -3371 3372 0
-3372 3388 0
-56 -3372 3373 0
-3373 3389 0
-57 -3373 3374 0
-3374 3390 0
-58 -3374 3375 0
-3375 3391 0
-59 -3375 3376 0
-3376 3392 0
-60 -3376 3377 0
-3377 3393 0
-61 -3377 3378 0
-3378 3394 0
-62 -3378 3379 0
-3379 3395 0
-63 -3379 3380 0
-3380 3396 0
-64 -3380 3381 0
-3381 3397 0
-65 -3381 3382 0
-3382 3398 0
-66 -3382 3383 0
-3383 3399 0
-67 -3383 3384 0
-3384 3400 0
-68 -3384 0
-53 3385 0
-3385 3401 0
-54 -3385 3386 0
-3386 3402 0
-55 -3386 3387 0
-3387 3403 0
-56 -3387 3388 0
-3388 3404 0
-57 -3388 3389 0
-3389 3405 0
-58 -3389 3390 0
-3390 3406 0
-59 -3390 3391 0
-3391 3407 0
-60 -3391 3392 0
-3392 3408 0
-61 -3392 3393 0
-3393 3409 0
-62 -3393 3394 0
-3394 3410 0
-63 -3394 3395 0
-3395 3411 0
-64 -3395 3396 0
-3396 3412 0
-65 -3396 3397 0
-3397 3413 0
-66 -3397 3398 0
-3398 3414 0
-67 -3398 3399 0
-3399 3415 0
-68 -3399 3400 0
-3400 3416 0
-69 -3400 0
-54 3401 0
-3401 3417 0
-55 -3401 3402 0
-3402 3418 0
-56 -3402 3403 0
-3403 3419 0
-57 -3403 3404 0
-3404 3420 0
-58 -3404 3405 0
-3405 3421 0
-59 -3405 3406 0
-3406 3422 0
-60 -3406 3407 0
-3407 3423 0
-61 -3407 3408 0
-3408 3424 0
-62 -3408 3409 0
-3409 3425 0
-63 -3409 3410 0
-3410 3426 0
-64 -3410 3411 0
-3411 3427 0
-65 -3411 3412 0
-3412 3428 0
-66 -3412 3413 0
-3413 3429 0
-67 -3413 3414 0
-3414 3430 0
-68 -3414 3415 0
-3415 3431 0
-69 -3415 3416 0
-3416 3432 0
-70 -3416 0
-55 3417 0
-3417 3433 0
-56 -3417 3418 0
-3418 3434 0
-57 -3418 3419 0
-3419 3435 0
-58 -3419 3420 0
-3420 3436 0
-59 -3420 3421 0
-3421 3437 0
-60 -3421 3422 0
-3422 3438 0
-61 -3422 3423 0
-3423 3439 0
-62 -3423 3424 0
-3424 3440 0
-63 -3424 3425 0
-3425 3441 0
-64 -3425 3426 0
-3426 3442 0
-65 -3426 3427 0
-3427 3443 0
-66 -3427 3428 0
-3428 3444 0
-67 -3428 3429 0
-3429 3445 0
-68 -3429 3430 0
-3430 3446 0
-69 -3430 3431 0
-3431 3447 0
-70 -3431 3432 0
-3432 3448 0
-71 -3432 0
-56 3433 0
-3433 3449 0
-57 -3433 3434 0
-3434 3450 0
-58 -3434 3435 0
-3435 3451 0
-59 -3435 3436 0
-3436 3452 0
-60 -3436 3437 0
-3437 3453 0
-61 -3437 3438 0
-3438 3454 0
-62 -3438 3439 0
-3439 3455 0
-63 -3439 3440 0
-3440 3456 0
-64 -3440 3441 0
-3441 3457 0
-65 -3441 3442 0
-3442 3458 0
-66 -3442 3443 0
-3443 3459 0
-67 -3443 3444 0
-3444 3460 0
-68 -3444 3445 0
-3445 3461 0
-69 -3445 3446 0
-3446 3462 0
-70 -3446 3447 0
-3447 3463 0
-71 -3447 3448 0
-3448 3464 0
-72 -3448 0
-57 3449 0
-3449 3465 0
-58 -3449 3450 0
-3450 3466 0
-59 -3450 3451 0
-3451 3467 0
-60 -3451 3452 0
-3452 3468 0
-61 -3452 3453 0
-3453 3469 0
-62 -3453 3454 0
-3454 3470 0
-63 -3454 3455 0
-3455 3471 0
-64 -3455 3456 0
-3456 3472 0
-65 -3456 3457 0
-3457 3473 0
-66 -3457 3458 0
-3458 3474 0
-67 -3458 3459 0
-3459 3475 0
-68 -3459 3460 0
-3460 3476 0
-69 -3460 3461 0
-3461 3477 0
-70 -3461 3462 0
-3462 3478 0
-71 -3462 3463 0
-3463 3479 0
-72 -3463 3464 0
-3464 3480 0
-73 -3464 0
-58 3465 0
-3465 3481 0
-59 -3465 3466 0
-3466 3482 0
-60 -3466 3467 0
-3467 3483 0
-61 -3467 3468 0
-3468 3484 0
-62 -3468 3469 0
-3469 3485 0
-63 -3469 3470 0
-3470 3486 0
-64 -3470 3471 0
-3471 3487 0
-65 -3471 3472 0
-3472 3488 0
-66 -3472 3473 0
-3473 3489 0
-67 -3473 3474 0
-3474 3490 0
-68 -3474 3475 0
-3475 3491 0
-69 -3475 3476 0
-3476 3492 0
-70 -3476 3477 0
-3477 3493 0
-71 -3477 3478 0
-3478 3494 0
-72 -3478 3479 0
-3479 3495 0
-73 -3479 3480 0
-3480 3496 0
-74 -3480 0
-59 3481 0
-3481 3497 0
-60 -3481 3482 0
-3482 3498 0
-61 -3482 3483 0
-3483 3499 0
-62 -3483 3484 0
-3484 3500 0
-63 -3484 3485 0
-3485 3501 0
-64 -3485 3486 0
-3486 3502 0
-65 -3486 3487 0
-3487 3503 0
-66 -3487 3488 0
-3488 3504 0
-67 -3488 3489 0
-3489 3505 0
-68 -3489 3490 0
-3490 3506 0
-69 -3490 3491 0
-3491 3507 0
-70 -3491 3492 0
-3492 3508 0
-71 -3492 3493 0
-3493 3509 0
-72 -3493 3494 0
-3494 3510 0
-73 -3494 3495 0
-3495 3511 0
-74 -3495 3496 0
-3496 3512 0
-75 -3496 0
-60 3497 0
-3497 3513 0
-61 -3497 3498 0
-3498 3514 0
-62 -3498 3499 0
-3499 3515 0
-63 -3499 3500 0
-3500 3516 0
-64 -3500 3501 0
-3501 3517 0
-65 -3501 3502 0
-3502 3518 0
-66 -3502 3503 0
-3503 3519 0
-67 -3503 3504 0
-3504 3520 0
-68 -3504 3505 0
-3505 3521 0
-69 -3505 3506 0
-3506 3522 0
-70 -3506 3507 0
-3507 3523 0
-71 -3507 3508 0
-3508 3524 0
-72 -3508 3509 0
-3509 3525 0
-73 -3509 3510 0
-3510 3526 0
-74 -3510 3511 0
-3511 3527 0
-75 -3511 3512 0
-3512 3528 0
-76 -3512 0
-61 3513 0
-3513 3529 0
-62 -3513 3514 0
-3514 3530 0
-63 -3514 3515 0
-3515 3531 0
-64 -3515 3516 0
-3516 3532 0
-65 -3516 3517 0
-3517 3533 0
-66 -3517 3518 0
-3518 3534 0
-67 -3518 3519 0
-3519 3535 0
-68 -3519 3520 0
-3520 3536 0
-69 -3520 3521 0
-3521 3537 0
-70 -3521 3522 0
-3522 3538 0
-71 -3522 3523 0
-3523 3539 0
-72 -3523 3524 0
-3524 3540 0
-73 -3524 3525 0
-3525 3541 0
-74 -3525 3526 0
-3526 3542 0
-75 -3526 3527 0
-3527 3543 0
-76 -3527 3528 0
-3528 3544 0
-77 -3528 0
-62 3529 0
-3529 3545 0
-63 -3529 3530 0
-3530 3546 0
-64 -3530 3531 0
-3531 3547 0
-65 -3531 3532 0
-3532 3548 0
-66 -3532 3533 0
-3533 3549 0
-67 -3533 3534 0
-3534 3550 0
-68 -3534 3535 0
-3535 3551 0
-69 -3535 3536 0
-3536 3552 0
-70 -3536 3537 0
-3537 3553 0
-71 -3537 3538 0
-3538 3554 0
-72 -3538 3539 0
-3539 3555 0
-73 -3539 3540 0
-3540 3556 0
-74 -3540 3541 0
-3541 3557 0
-75 -3541 3542 0
-3542 3558 0
-76 -3542 3543 0
-3543 3559 0
-77 -3543 3544 0
-3544 3560 0
-78 -3544 0
-63 3545 0
-3545 3561 0
-64 -3545 3546 0
-3546 3562 0
-65 -3546 3547 0
-3547 3563 0
-66 -3547 3548 0
-3548 3564 0
-67 -3548 3549 0
-3549 3565 0
-68 -3549 3550 0
-3550 3566 0
-69 -3550 3551 0
-3551 3567 0
-70 -3551 3552 0
-3552 3568 0
-71 -3552 3553 0
-3553 3569 0
-72 -3553 3554 0
-3554 3570 0
-73 -3554 3555 0
-3555 3571 0
-74 -3555 3556 0
-3556 3572 0
-75 -3556 3557 0
-3557 3573 0
-76 -3557 3558 0
-3558 3574 0
-77 -3558 3559 0
-3559 3575 0
-78 -3559 3560 0
-3560 3576 0
-79 -3560 0
-64 3561 0
-3561 3577 0
-65 -3561 3562 0
-3562 3578 0
-66 -3562 3563 0
-3563 3579 0
-67 -3563 3564 0
-3564 3580 0
-68 -3564 3565 0
-3565 3581 0
-69 -3565 3566 0
-3566 3582 0
-70 -3566 3567 0
-3567 3583 0
-71 -3567 3568 0
-3568 3584 0
-72 -3568 3569 0
-3569 3585 0
-73 -3569 3570 0
-3570 3586 0
-74 -3570 3571 0
-3571 3587 0
-75 -3571 3572 0
-3572 3588 0
-76 -3572 3573 0
-3573 3589 0
-77 -3573 3574 0
-3574 3590 0
-78 -3574 3575 0
-3575 3591 0
-79 -3575 3576 0
-3576 3592 0
-80 -3576 0
-65 3577 0
-3577 3593 0
-66 -3577 3578 0
-3578 3594 0
-67 -3578 3579 0
-3579 3595 0
-68 -3579 3580 0
-3580 3596 0
-69 -3580 3581 0
-3581 3597 0
-70 -3581 3582 0
-3582 3598 0
-71 -3582 3583 0
-3583 3599 0
-72 -3583 3584 0
-3584 3600 0
-73 -3584 3585 0
-3585 3601 0
-74 -3585 3586 0
-3586 3602 0
-75 -3586 3587 0
-3587 3603 0
-76 -3587 3588 0
-3588 3604 0
-77 -3588 3589 0
-3589 3605 0
-78 -3589 3590 0
-3590 3606 0
-79 -3590 3591 0
-3591 3607 0
-80 -3591 3592 0
-3592 3608 0
-81 -3592 0
-66 3593 0
-3593 3609 0
-67 -3593 3594 0
-3594 3610 0
-68 -3594 3595 0
-3595 3611 0
-69 -3595 3596 0
-3596 3612 0
-70 -3596 3597 0
-3597 3613 0
-71 -3597 3598 0
-3598 3614 0
-72 -3598 3599 0
-3599 3615 0
-73 -3599 3600 0
-3600 3616 0
-74 -3600 3601 0
-3601 3617 0
-75 -3601 3602 0
-3602 3618 0
-76 -3602 3603 0
-3603 3619 0
-77 -3603 3604 0
-3604 3620 0
-78 -3604 3605 0
-3605 3621 0
-79 -3605 3606 0
-3606 3622 0
-80 -3606 3607 0
-3607 3623 0
-81 -3607 3608 0
-3608 3624 0
-82 -3608 0
-67 3609 0
-3609 3625 0
-68 -3609 3610 0
-3610 3626 0
-69 -3610 3611 0
-3611 3627 0
-70 -3611 3612 0
-3612 3628 0
-71 -3612 3613 0
-3613 3629 0
-72 -3613 3614 0
-3614 3630 0
-73 -3614 3615 0
-3615 3631 0
-74 -3615 3616 0
-3616 3632 0
-75 -3616 3617 0
-3617 3633 0
-76 -3617 3618 0
-3618 3634 0
-77 -3618 3619 0
-3619 3635 0
-78 -3619 3620 0
-3620 3636 0
-79 -3620 3621 0
-3621 3637 0
-80 -3621 3622 0
-3622 3638 0
-81 -3622 3623 0
-3623 3639 0
-82 -3623 3624 0
-3624 3640 0
-83 -3624 0
-68 3625 0
-3625 3641 0
-69 -3625 3626 0
-3626 3642 0
-70 -3626 3627 0
-3627 3643 0
-71 -3627 3628 0
-3628 3644 0
-72 -3628 3629 0
-3629 3645 0
-73 -3629 3630 0
-3630 3646 0
-74 -3630 3631 0
-3631 3647 0
-75 -3631 3632 0
-3632 3648 0
-76 -3632 3633 0
-3633 3649 0
-77 -3633 3634 0
-3634 3650 0
-78 -3634 3635 0
-3635 3651 0
-79 -3635 3636 0
-3636 3652 0
-80 -3636 3637 0
-3637 3653 0
-81 -3637 3638 0
-3638 3654 0
-82 -3638 3639 0
-3639 3655 0
-83 -3639 3640 0
-3640 3656 0
-84 -3640 0
-69 3641 0
-3641 3657 0
-70 -3641 3642 0
-3642 3658 0
-71 -3642 3643 0
-3643 3659 0
-72 -3643 3644 0
-3644 3660 0
-73 -3644 3645 0
-3645 3661 0
-74 -3645 3646 0
-3646 3662 0
-75 -3646 3647 0
-3647 3663 0
-76 -3647 3648 0
-3648 3664 0
-77 -3648 3649 0
-3649 3665 0
-78 -3649 3650 0
-3650 3666 0
-79 -3650 3651 0
-3651 3667 0
-80 -3651 3652 0
-3652 3668 0
-81 -3652 3653 0
-3653 3669 0
-82 -3653 3654 0
-3654 3670 0
-83 -3654 3655 0
-3655 3671 0
-84 -3655 3656 0
-3656 3672 0
-85 -3656 0
-70 3657 0
-3657 3673 0
-71 -3657 3658 0
-3658 3674 0
-72 -3658 3659 0
-3659 3675 0
-73 -3659 3660 0
-3660 3676 0
-74 -3660 3661 0
-3661 3677 0
-75 -3661 3662 0
-3662 3678 0
-76 -3662 3663 0
-3663 3679 0
-77 -3663 3664 0
-3664 3680 0
-78 -3664 3665 0
-3665 3681 0
-79 -3665 3666 0
-3666 3682 0
-80 -3666 3667 0
-3667 3683 0
-81 -3667 3668 0
-3668 3684 0
-82 -3668 3669 0
-3669 3685 0
-83 -3669 3670 0
-3670 3686 0
-84 -3670 3671 0
-3671 3687 0
-85 -3671 3672 0
-3672 3688 0
-86 -3672 0
-71 3673 0
-3673 3689 0
-72 -3673 3674 0
-3674 3690 0
-73 -3674 3675 0
-3675 3691 0
-74 -3675 3676 0
-3676 3692 0
-75 -3676 3677 0
-3677 3693 0
-76 -3677 3678 0
-3678 3694 0
-77 -3678 3679 0
-3679 3695 0
-78 -3679 3680 0
-3680 3696 0
-79 -3680 3681 0
-3681 3697 0
-80 -3681 3682 0
-3682 3698 0
-81 -3682 3683 0
-3683 3699 0
-82 -3683 3684 0
-3684 3700 0
-83 -3684 3685 0
-3685 3701 0
-84 -3685 3686 0
-3686 3702 0
-85 -3686 3687 0
-3687 3703 0
-86 -3687 3688 0
-3688 3704 0
-87 -3688 0
-72 3689 0
-3689 3705 0
-73 -3689 3690 0
-3690 3706 0
-74 -3690 3691 0
-3691 3707 0
-75 -3691 3692 0
-3692 3708 0
-76 -3692 3693 0
-3693 3709 0
-77 -3693 3694 0
-3694 3710 0
-78 -3694 3695 0
-3695 3711 0
-79 -3695 3696 0
-3696 3712 0
-80 -3696 3697 0
-3697 3713 0
-81 -3697 3698 0
-3698 3714 0
-82 -3698 3699 0
-3699 3715 0
-83 -3699 3700 0
-3700 3716 0
-84 -3700 3701 0
-3701 3717 0
-85 -3701 3702 0
-3702 3718 0
-86 -3702 3703 0
-3703 3719 0
-87 -3703 3704 0
-3704 3720 0
-88 -3704 0
-73 3705 0
-3705 3721 0
-74 -3705 3706 0
-3706 3722 0
-75 -3706 3707 0
-3707 3723 0
-76 -3707 3708 0
-3708 3724 0
-77 -3708 3709 0
-3709 3725 0
-78 -3709 3710 0
-3710 3726 0
-79 -3710 3711 0
-3711 3727 0
-80 -3711 3712 0
-3712 3728 0
-81 -3712 3713 0
-3713 3729 0
-82 -3713 3714 0
-3714 3730 0
-83 -3714 3715 0
-3715 3731 0
-84 -3715 3716 0
-3716 3732 0
-85 -3716 3717 0
-3717 3733 0
-86 -3717 3718 0
-3718 3734 0
-87 -3718 3719 0
-3719 3735 0
-88 -3719 3720 0
-3720 3736 0
-89 -3720 0
-74 3721 0
-3721 3737 0
-75 -3721 3722 0
-3722 3738 0
-76 -3722 3723 0
-3723 3739 0
-77 -3723 3724 0
-3724 3740 0
-78 -3724 3725 0
-3725 3741 0
-79 -3725 3726 0
-3726 3742 0
-80 -3726 3727 0
-3727 3743 0
-81 -3727 3728 0
-3728 3744 0
-82 -3728 3729 0
-3729 3745 0
-83 -3729 3730 0
-3730 3746 0
-84 -3730 3731 0
-3731 3747 0
-85 -3731 3732 0
-3732 3748 0
-86 -3732 3733 0
-3733 3749 0
-87 -3733 3734 0
-3734 3750 0
-88 -3734 3735 0
-3735 3751 0
-89 -3735 3736 0
-3736 3752 0
-90 -3736 0
-75 3737 0
-3737 3753 0
-76 -3737 3738 0
-3738 3754 0
-77 -3738 3739 0
-3739 3755 0
-78 -3739 3740 0
-3740 3756 0
-79 -3740 3741 0
-3741 3757 0
-80 -3741 3742 0
-3742 3758 0
-81 -3742 3743 0
-3743 3759 0
-82 -3743 3744 0
-3744 3760 0
-83 -3744 3745 0
-3745 3761 0
-84 -3745 3746 0
-3746 3762 0
-85 -3746 3747 0
-3747 3763 0
-86 -3747 3748 0
-3748 3764 0
-87 -3748 3749 0
-3749 3765 0
-88 -3749 3750 0
-3750 3766 0
-89 -3750 3751 0
-3751 3767 0
-90 -3751 3752 0
-3752 3768 0
-91 -3752 0
-76 3753 0
-3753 3769 0
-77 -3753 3754 0
-3754 3770 0
-78 -3754 3755 0
-3755 3771 0
-79 -3755 3756 0
-3756 3772 0
-80 -3756 3757 0
-3757 3773 0
-81 -3757 3758 0
-3758 3774 0
-82 -3758 3759 0
-3759 3775 0
-83 -3759 3760 0
-3760 3776 0
-84 -3760 3761 0
-3761 3777 0
-85 -3761 3762 0
-3762 3778 0
-86 -3762 3763 0
-3763 3779 0
-87 -3763 3764 0
-3764 3780 0
-88 -3764 3765 0
-3765 3781 0
-89 -3765 3766 0
-3766 3782 0
-90 -3766 3767 0
-3767 3783 0
-91 -3767 3768 0
-3768 3784 0
-92 -3768 0
-77 3769 0
-3769 3785 0
-78 -3769 3770 0
-3770 3786 0
-79 -3770 3771 0
-3771 3787 0
-80 -3771 3772 0
-3772 3788 0
-81 -3772 3773 0
-3773 3789 0
-82 -3773 3774 0
-3774 3790 0
-83 -3774 3775 0
-3775 3791 0
-84 -3775 3776 0
-3776 3792 0
-85 -3776 3777 0
-3777 3793 0
-86 -3777 3778 0
-3778 3794 0
-87 -3778 3779 0
-3779 3795 0
-88 -3779 3780 0
-3780 3796 0
-89 -3780 3781 0
-3781 3797 0
-90 -3781 3782 0
-3782 3798 0
-91 -3782 3783 0
-3783 3799 0
-92 -3783 3784 0
-3784 3800 0
-93 -3784 0
-78 3785 0
-3785 3801 0
-79 -3785 3786 0
-3786 3802 0
-80 -3786 3787 0
-3787 3803 0
-81 -3787 3788 0
-3788 3804 0
-82 -3788 3789 0
-3789 3805 0
-83 -3789 3790 0
-3790 3806 0
-84 -3790 3791 0
-3791 3807 0
-85 -3791 3792 0
-3792 3808 0
-86 -3792 3793 0
-3793 3809 0
-87 -3793 3794 0
-3794 3810 0
-88 -3794 3795 0
-3795 3811 0
-89 -3795 3796 0
-3796 3812 0
-90 -3796 3797 0
-3797 3813 0
-91 -3797 3798 0
-3798 3814 0
-92 -3798 3799 0
-3799 3815 0
-93 -3799 3800 0
-3800 3816 0
-94 -3800 0
-79 3801 0
-3801 3817 0
-80 -3801 3802 0
-3802 3818 0
-81 -3802 3803 0
-3803 3819 0
-82 -3803 3804 0
-3804 3820 0
-83 -3804 3805 0
-3805 3821 0
-84 -3805 3806 0
-3806 3822 0
-85 -3806 3807 0
-3807 3823 0
-86 -3807 3808 0
-3808 3824 0
-87 -3808 3809 0
-3809 3825 0
-88 -3809 3810 0
-3810 3826 0
-89 -3810 3811 0
-3811 3827 0
-90 -3811 3812 0
-3812 3828 0
-91 -3812 3813 0
-3813 3829 0
-92 -3813 3814 0
-3814 3830 0
-93 -3814 3815 0
-3815 3831 0
-94 -3815 3816 0
-3816 3832 0
-95 -3816 0
-80 3817 0
-3817 3833 0
-81 -3817 3818 0
-3818 3834 0
-82 -3818 3819 0
-3819 3835 0
-83 -3819 3820 0
-3820 3836 0
-84 -3820 3821 0
-3821 3837 0
-85 -3821 3822 0
-3822 3838 0
-86 -3822 3823 0
-3823 3839 0
-87 -3823 3824 0
-3824 3840 0
-88 -3824 3825 0
-3825 3841 0
-89 -3825 3826 0
-3826 3842 0
-90 -3826 3827 0
-3827 3843 0
-91 -3827 3828 0
-3828 3844 0
-92 -3828 3829 0
-3829 3845 0
-93 -3829 3830 0
-3830 3846 0
-94 -3830 3831 0
-3831 3847 0
-95 -3831 3832 0
-3832 3848 0
-96 -3832 0
-81 3833 0
-3833 3849 0
-82 -3833 3834 0
-3834 3850 0
-83 -3834 3835 0
-3835 3851 0
-84 -3835 3836 0
-3836 3852 0
-85 -3836 3837 0
-3837 3853 0
-86 -3837 3838 0
-3838 3854 0
-87 -3838 3839 0
-3839 3855 0
-88 -3839 3840 0
-3840 3856 0
-89 -3840 3841 0
-3841 3857 0
-90 -3841 3842 0
-3842 3858 0
-91 -3842 3843 0
-3843 3859 0
-92 -3843 3844 0
-3844 3860 0
-93 -3844 3845 0
-3845 3861 0
-94 -3845 3846 0
-3846 3862 0
-95 -3846 3847 0
-3847 3863 0
-96 -3847 3848 0
-3848 3864 0
-97 -3848 0
-82 3849 0
-3849 3865 0
-83 -3849 3850 0
-3850 3866 0
-84 -3850 3851 0
-3851 3867 0
-85 -3851 3852 0
-3852 3868 0
-86 -3852 3853 0
-3853 3869 0
-87 -3853 3854 0
-3854 3870 0
-88 -3854 3855 0
-3855 3871 0
-89 -3855 3856 0
-3856 3872 0
-90 -3856 3857 0
-3857 3873 0
-91 -3857 3858 0
-3858 3874 0
-92 -3858 3859 0
-3859 3875 0
-93 -3859 3860 0
-3860 3876 0
-94 -3860 3861 0
-3861 3877 0
-95 -3861 3862 0
-3862 3878 0
-96 -3862 3863 0
-3863 3879 0
-97 -3863 3864 0
-3864 3880 0
-98 -3864 0
-83 3865 0
-3865 3881 0
-84 -3865 3866 0
-3866 3882 0
-85 -3866 3867 0
-3867 3883 0
-86 -3867 3868 0
-3868 3884 0
-87 -3868 3869 0
-3869 3885 0
-88 -3869 3870 0
-3870 3886 0
-89 -3870 3871 0
-3871 3887 0
-90 -3871 3872 0
-3872 3888 0
-91 -3872 3873 0
-3873 3889 0
-92 -3873 3874 0
-3874 3890 0
-93 -3874 3875 0
-3875 3891 0
-94 -3875 3876 0
-3876 3892 0
-95 -3876 3877 0
-3877 3893 0
-96 -3877 3878 0
-3878 3894 0
-97 -3878 3879 0
-3879 3895 0
-98 -3879 3880 0
-3880 3896 0
-99 -3880 0
-84 3881 0
-3881 3897 0
-85 -3881 3882 0
-3882 3898 0
-86 -3882 3883 0
-3883 3899 0
-87 -3883 3884 0
-3884 3900 0
-88 -3884 3885 0
-3885 3901 0
-89 -3885 3886 0
-3886 3902 0
-90 -3886 3887 0
-3887 3903 0
-91 -3887 3888 0
-3888 3904 0
-92 -3888 3889 0
-3889 3905 0
-93 -3889 3890 0
-3890 3906 0
-94 -3890 3891 0
-3891 3907 0
-95 -3891 3892 0
-3892 3908 0
-96 -3892 3893 0
-3893 3909 0
-97 -3893 3894 0
-3894 3910 0
-98 -3894 3895 0
-3895 3911 0
-99 -3895 3896 0
-3896 3912 0
-100 -3896 0
-85 3897 0
-3897 3913 0
-86 -3897 3898 0
-3898 3914 0
-87 -3898 3899 0
-3899 3915 0
-88 -3899 3900 0
-3900 3916 0
-89 -3900 3901 0
-3901 3917 0
-90 -3901 3902 0
-3902 3918 0
-91 -3902 3903 0
-3903 3919 0
-92 -3903 3904 0
-3904 3920 0
-93 -3904 3905 0
-3905 3921 0
-94 -3905 3906 0
-3906 3922 0
-95 -3906 3907 0
-3907 3923 0
-96 -3907 3908 0
-3908 3924 0
-97 -3908 3909 0
-3909 3925 0
-98 -3909 3910 0
-3910 3926 0
-99 -3910 3911 0
-3911 3927 0
-100 -3911 3912 0
-3912 3928 0
-101 -3912 0
-86 3913 0
-3913 3929 0
-87 -3913 3914 0
-3914 3930 0
-88 -3914 3915 0
-3915 3931 0
-89 -3915 3916 0
-3916 3932 0
-90 -3916 3917 0
-3917 3933 0
-91 -3917 3918 0
-3918 3934 0
-92 -3918 3919 0
-3919 3935 0
-93 -3919 3920 0
-3920 3936 0
-94 -3920 3921 0
-3921 3937 0
-95 -3921 3922 0
-3922 3938 0
-96 -3922 3923 0
-3923 3939 0
-97 -3923 3924 0
-3924 3940 0
-98 -3924 3925 0
-3925 3941 0
-99 -3925 3926 0
-3926 3942 0
-100 -3926 3927 0
-3927 3943 0
-101 -3927 3928 0
-3928 3944 0
-102 -3928 0
-87 3929 0
-3929 3945 0
-88 -3929 3930 0
-3930 3946 0
-89 -3930 3931 0
-3931 3947 0
-90 -3931 3932 0
-3932 3948 0
-91 -3932 3933 0
-3933 3949 0
-92 -3933 3934 0
-3934 3950 0
-93 -3934 3935 0
-3935 3951 0
-94 -3935 3936 0
-3936 3952 0
-95 -3936 3937 0
-3937 3953 0
-96 -3937 3938 0
-3938 3954 0
-97 -3938 3939 0
-3939 3955 0
-98 -3939 3940 0
-3940 3956 0
-99 -3940 3941 0
-3941 3957 0
-100 -3941 3942 0
-3942 3958 0
-101 -3942 3943 0
-3943 3959 0
-102 -3943 3944 0
-3944 3960 0
-103 -3944 0
-88 3945 0
-3945 3961 0
-89 -3945 3946 0
-3946 3962 0
-90 -3946 3947 0
-3947 3963 0
-91 -3947 3948 0
-3948 3964 0
-92 -3948 3949 0
-3949 3965 0
-93 -3949 3950 0
-3950 3966 0
-94 -3950 3951 0
-3951 3967 0
-95 -3951 3952 0
-3952 3968 0
-96 -3952 3953 0
-3953 3969 0
-97 -3953 3954 0
-3954 3970 0
-98 -3954 3955 0
-3955 3971 0
-99 -3955 3956 0
-3956 3972 0
-100 -3956 3957 0
-3957 3973 0
-101 -3957 3958 0
-3958 3974 0
-102 -3958 3959 0
-3959 3975 0
-103 -3959 3960 0
-3960 3976 0
-104 -3960 0
-89 3961 0
-3961 3977 0
-90 -3961 3962 0
-3962 3978 0
-91 -3962 3963 0
-3963 3979 0
-92 -3963 3964 0
-3964 3980 0
-93 -3964 3965 0
-3965 3981 0
-94 -3965 3966 0
-3966 3982 0
-95 -3966 3967 0
-3967 3983 0
-96 -3967 3968 0
-3968 3984 0
-97 -3968 3969 0
-3969 3985 0
-98 -3969 3970 0
-3970 3986 0
-99 -3970 3971 0
-3971 3987 0
-100 -3971 3972 0
-3972 3988 0
-101 -3972 3973 0
-3973 3989 0
-102 -3973 3974 0
-3974 3990 0
-103 -3974 3975 0
-3975 3991 0
-104 -3975 3976 0
-3976 3992 0
-105 -3976 0
-90 3977 0
-3977 3993 0
-91 -3977 3978 0
-3978 3994 0
-92 -3978 3979 0
-3979 3995 0
-93 -3979 3980 0
-3980 3996 0
-94 -3980 3981 0
-3981 3997 0
-95 -3981 3982 0
-3982 3998 0
-96 -3982 3983 0
-3983 3999 0
-97 -3983 3984 0
-3984 4000 0
-98 -3984 3985 0
-3985 4001 0
-99 -3985 3986 0
-3986 4002 0
-100 -3986 3987 0
-3987 4003 0
-101 -3987 3988 0
-3988 4004 0
-102 -3988 3989 0
-3989 4005 0
-103 -3989 3990 0
-3990 4006 0
-104 -3990 3991 0
-3991 4007 0
-105 -3991 3992 0
-3992 4008 0
-106 -3992 0
-91 3993 0
-3993 4009 0
-92 -3993 3994 0
-3994 4010 0
-93 -3994 3995 0
-3995 4011 0
-94 -3995 3996 0
-3996 4012 0
-95 -3996 3997 0
-3997 4013 0
-96 -3997 3998 0
-3998 4014 0
-97 -3998 3999 0
-3999 4015 0
-98 -3999 4000 0
-4000 4016 0
-99 -4000 4001 0
-4001 4017 0
-100 -4001 4002 0
-4002 4018 0
-101 -4002 4003 0
-4003 4019 0
-102 -4003 4004 0
-4004 4020 0
-103 -4004 4005 0
-4005 4021 0
-104 -4005 4006 0
-4006 4022 0
-105 -4006 4007 0
-4007 4023 0
-106 -4007 4008 0
-4008 4024 0
-107 -4008 0
-92 4009 0
-4009 4025 0
-93 -4009 4010 0
-4010 4026 0
-94 -4010 4011 0
-4011 4027 0
-95 -4011 4012 0
-4012 4028 0
-96 -4012 4013 0
-4013 4029 0
-97 -4013 4014 0
-4014 4030 0
-98 -4014 4015 0
-4015 4031 0
-99 -4015 4016 0
-4016 4032 0
-100 -4016 4017 0
-4017 4033 0
-101 -4017 4018 0
-4018 4034 0
-102 -4018 4019 0
-4019 4035 0
-103 -4019 4020 0
-4020 4036 0
-104 -4020 4021 0
-4021 4037 0
-105 -4021 4022 0
-4022 4038 0
-106 -4022 4023 0
-4023 4039 0
-107 -4023 4024 0
-4024 4040 0
-108 -4024 0
-93 4025 0
-4025 4041 0
-94 -4025 4026 0
-4026 4042 0
-95 -4026 4027 0
-4027 4043 0
-96 -4027 4028 0
-4028 4044 0
-97 -4028 4029 0
-4029 4045 0
-98 -4029 4030 0
-4030 4046 0
-99 -4030 4031 0
-4031 4047 0
-100 -4031 4032 0
-4032 4048 0
-101 -4032 4033 0
-4033 4049 0
-102 -4033 4034 0
-4034 4050 0
-103 -4034 4035 0
-4035 4051 0
-104 -4035 4036 0
-4036 4052 0
-105 -4036 4037 0
-4037 4053 0
-106 -4037 4038 0
-4038 4054 0
-107 -4038 4039 0
-4039 4055 0
-108 -4039 4040 0
-4040 4056 0
-109 -4040 0
-94 4041 0
-4041 4057 0
-95 -4041 4042 0
-4042 4058 0
-96 -4042 4043 0
-4043 4059 0
-97 -4043 4044 0
-4044 4060 0
-98 -4044 4045 0
-4045 4061 0
-99 -4045 4046 0
-4046 4062 0
-100 -4046 4047 0
-4047 4063 0
-101 -4047 4048 0
-4048 4064 0
-102 -4048 4049 0
-4049 4065 0
-103 -4049 4050 0
-4050 4066 0
-104 -4050 4051 0
-4051 4067 0
-105 -4051 4052 0
-4052 4068 0
-106 -4052 4053 0
-4053 4069 0
-107 -4053 4054 0
-4054 4070 0
-108 -4054 4055 0
-4055 4071 0
-109 -4055 4056 0
-4056 4072 0
-110 -4056 0
-95 4057 0
-4057 4073 0
-96 -4057 4058 0
-4058 4074 0
-97 -4058 4059 0
-4059 4075 0
-98 -4059 4060 0
-4060 4076 0
-99 -4060 4061 0
-4061 4077 0
-100 -4061 4062 0
-4062 4078 0
-101 -4062 4063 0
-4063 4079 0
-102 -4063 4064 0
-4064 4080 0
-103 -4064 4065 0
-4065 4081 0
-104 -4065 4066 0
-4066 4082 0
-105 -4066 4067 0
-4067 4083 0
-106 -4067 4068 0
-4068 4084 0
-107 -4068 4069 0
-4069 4085 0
-108 -4069 4070 0
-4070 4086 0
-109 -4070 4071 0
-4071 4087 0
-110 -4071 4072 0
-4072 4088 0
-111 -4072 0
-96 4073 0
-4073 4089 0
-97 -4073 4074 0
-4074 4090 0
-98 -4074 4075 0
-4075 4091 0
-99 -4075 4076 0
-4076 4092 0
-100 -4076 4077 0
-4077 4093 0
-101 -4077 4078 0
-4078 4094 0
-102 -4078 4079 0
-4079 4095 0
-103 -4079 4080 0
-4080 4096 0
-104 -4080 4081 0
-4081 4097 0
-105 -4081 4082 0
-4082 4098 0
-106 -4082 4083 0
-4083 4099 0
-107 -4083 4084 0
-4084 4100 0
-108 -4084 4085 0
-4085 4101 0
-109 -4085 4086 0
-4086 4102 0
-110 -4086 4087 0
-4087 4103 0
-111 -4087 4088 0
-4088 4104 0
-112 -4088 0
-97 4089 0
-4089 4105 0
-98 -4089 4090 0
-4090 4106 0
-99 -4090 4091 0
-4091 4107 0
-100 -4091 4092 0
-4092 4108 0
-101 -4092 4093 0
-4093 4109 0
-102 -4093 4094 0
-4094 4110 0
-103 -4094 4095 0
-4095 4111 0
-104 -4095 4096 0
-4096 4112 0
-105 -4096 4097 0
-4097 4113 0
-106 -4097 4098 0
-4098 4114 0
-107 -4098 4099 0
-4099 4115 0
-108 -4099 4100 0
-4100 4116 0
-109 -4100 4101 0
-4101 4117 0
-110 -4101 4102 0
-4102 4118 0
-111 -4102 4103 0
-4103 4119 0
-112 -4103 4104 0
-4104 4120 0
-113 -4104 0
-98 4105 0
-4105 4121 0
-99 -4105 4106 0
-4106 4122 0
-100 -4106 4107 0
-4107 4123 0
-101 -4107 4108 0
-4108 4124 0
-102 -4108 4109 0
-4109 4125 0
-103 -4109 4110 0
-4110 4126 0
-104 -4110 4111 0
-4111 4127 0
-105 -4111 4112 0
-4112 4128 0
-106 -4112 4113 0
-4113 4129 0
-107 -4113 4114 0
-4114 4130 0
-108 -4114 4115 0
-4115 4131 0
-109 -4115 4116 0
-4116 4132 0
-110 -4116 4117 0
-4117 4133 0
-111 -4117 4118 0
-4118 4134 0
-112 -4118 4119 0
-4119 4135 0
-113 -4119 4120 0
-4120 4136 0
-114 -4120 0
-99 4121 0
-4121 4137 0
-100 -4121 4122 0
-4122 4138 0
-101 -4122 4123 0
-4123 4139 0
-102 -4123 4124 0
-4124 4140 0
-103 -4124 4125 0
-4125 4141 0
-104 -4125 4126 0
-4126 4142 0
-105 -4126 4127 0
-4127 4143 0
-106 -4127 4128 0
-4128 4144 0
-107 -4128 4129 0
-4129 4145 0
-108 -4129 4130 0
-4130 4146 0
-109 -4130 4131 0
-4131 4147 0
-110 -4131 4132 0
-4132 4148 0
-111 -4132 4133 0
-4133 4149 0
-112 -4133 4134 0
-4134 4150 0
-113 -4134 4135 0
-4135 4151 0
-114 -4135 4136 0
-4136 4152 0
-115 -4136 0
-100 4137 0
-4137 4153 0
-101 -4137 4138 0
-4138 4154 0
-102 -4138 4139 0
-4139 4155 0
-103 -4139 4140 0
-4140 4156 0
-104 -4140 4141 0
-4141 4157 0
-105 -4141 4142 0
-4142 4158 0
-106 -4142 4143 0
-4143 4159 0
-107 -4143 4144 0
-4144 4160 0
-108 -4144 4145 0
-4145 4161 0
-109 -4145 4146 0
-4146 4162 0
-110 -4146 4147 0
-4147 4163 0
-111 -4147 4148 0
-4148 4164 0
-112 -4148 4149 0
-4149 4165 0
-113 -4149 4150 0
-4150 4166 0
-114 -4150 4151 0
-4151 4167 0
-115 -4151 4152 0
-4152 4168 0
-116 -4152 0
-101 4153 0
-4153 4169 0
-102 -4153 4154 0
-4154 4170 0
-103 -4154 4155 0
-4155 4171 0
-104 -4155 4156 0
-4156 4172 0
-105 -4156 4157 0
-4157 4173 0
-106 -4157 4158 0
-4158 4174 0
-107 -4158 4159 0
-4159 4175 0
-108 -4159 4160 0
-4160 4176 0
-109 -4160 4161 0
-4161 4177 0
-110 -4161 4162 0
-4162 4178 0
-111 -4162 4163 0
-4163 4179 0
-112 -4163 4164 0
-4164 4180 0
-113 -4164 4165 0
-4165 4181 0
-114 -4165 4166 0
-4166 4182 0
-115 -4166 4167 0
-4167 4183 0
-116 -4167 4168 0
-4168 4184 0
-117 -4168 0
-102 4169 0
-4169 4185 0
-103 -4169 4170 0
-4170 4186 0
-104 -4170 4171 0
-4171 4187 0
-105 -4171 4172 0
-4172 4188 0
-106 -4172 4173 0
-4173 4189 0
-107 -4173 4174 0
-4174 4190 0
-108 -4174 4175 0
-4175 4191 0
-109 -4175 4176 0
-4176 4192 0
-110 -4176 4177 0
-4177 4193 0
-111 -4177 4178 0
-4178 4194 0
-112 -4178 4179 0
-4179 4195 0
-113 -4179 4180 0
-4180 4196 0
-114 -4180 4181 0
-4181 4197 0
-115 -4181 4182 0
-4182 4198 0
-116 -4182 4183 0
-4183 4199 0
-117 -4183 4184 0
-4184 4200 0
-118 -4184 0
-103 4185 0
-4185 4201 0
-104 -4185 4186 0
-4186 4202 0
-105 -4186 4187 0
-4187 4203 0
-106 -4187 4188 0
-4188 4204 0
-107 -4188 4189 0
-4189 4205 0
-108 -4189 4190 0
-4190 4206 0
-109 -4190 4191 0
-4191 4207 0
-110 -4191 4192 0
-4192 4208 0
-111 -4192 4193 0
-4193 4209 0
-112 -4193 4194 0
-4194 4210 0
-113 -4194 4195 0
-4195 4211 0
-114 -4195 4196 0
-4196 4212 0
-115 -4196 4197 0
-4197 4213 0
-116 -4197 4198 0
-4198 4214 0
-117 -4198 4199 0
-4199 4215 0
-118 -4199 4200 0
-4200 4216 0
-119 -4200 0
-104 4201 0
-4201 4217 0
-105 -4201 4202 0
-4202 4218 0
-106 -4202 4203 0
-4203 4219 0
-107 -4203 4204 0
-4204 4220 0
-108 -4204 4205 0
-4205 4221 0
-109 -4205 4206 0
-4206 4222 0
-110 -4206 4207 0
-4207 4223 0
-111 -4207 4208 0
-4208 4224 0
-112 -4208 4209 0
-4209 4225 0
-113 -4209 4210 0
-4210 4226 0
-114 -4210 4211 0
-4211 4227 0
-115 -4211 4212 0
-4212 4228 0
-116 -4212 4213 0
-4213 4229 0
-117 -4213 4214 0
-4214 4230 0
-118 -4214 4215 0
-4215 4231 0
-119 -4215 4216 0
-4216 4232 0
-120 -4216 0
-105 4217 0
-4217 4233 0
-106 -4217 4218 0
-4218 4234 0
-107 -4218 4219 0
-4219 4235 0
-108 -4219 4220 0
-4220 4236 0
-109 -4220 4221 0
-4221 4237 0
-110 -4221 4222 0
-4222 4238 0
-111 -4222 4223 0
-4223 4239 0
-112 -4223 4224 0
-4224 4240 0
-113 -4224 4225 0
-4225 4241 0
-114 -4225 4226 0
-4226 4242 0
-115 -4226 4227 0
-4227 4243 0
-116 -4227 4228 0
-4228 4244 0
-117 -4228 4229 0
-4229 4245 0
-118 -4229 4230 0
-4230 4246 0
-119 -4230 4231 0
-4231 4247 0
-120 -4231 4232 0
-4232 4248 0
-121 -4232 0
-106 4233 0
-4233 4249 0
-107 -4233 4234 0
-4234 4250 0
-108 -4234 4235 0
-4235 4251 0
-109 -4235 4236 0
-4236 4252 0
-110 -4236 4237 0
-4237 4253 0
-111 -4237 4238 0
-4238 4254 0
-112 -4238 4239 0
-4239 4255 0
-113 -4239 4240 0
-4240 4256 0
-114 -4240 4241 0
-4241 4257 0
-115 -4241 4242 0
-4242 4258 0
-116 -4242 4243 0
-4243 4259 0
-117 -4243 4244 0
-4244 4260 0
-118 -4244 4245 0
-4245 4261 0
-119 -4245 4246 0
-4246 4262 0
-120 -4246 4247 0
-4247 4263 0
-121 -4247 4248 0
-4248 4264 0
-122 -4248 0
-107 4249 0
-4249 4265 0
-108 -4249 4250 0
-4250 4266 0
-109 -4250 4251 0
-4251 4267 0
-110 -4251 4252 0
-4252 4268 0
-111 -4252 4253 0
-4253 4269 0
-112 -4253 4254 0
-4254 4270 0
-113 -4254 4255 0
-4255 4271 0
-114 -4255 4256 0
-4256 4272 0
-115 -4256 4257 0
-4257 4273 0
-116 -4257 4258 0
-4258 4274 0
-117 -4258 4259 0
-4259 4275 0
-118 -4259 4260 0
-4260 4276 0
-119 -4260 4261 0
-4261 4277 0
-120 -4261 4262 0
-4262 4278 0
-121 -4262 4263 0
-4263 4279 0
-122 -4263 4264 0
-4264 4280 0
-123 -4264 0
-108 4265 0
-4265 4281 0
-109 -4265 4266 0
-4266 4282 0
-110 -4266 4267 0
-4267 4283 0
-111 -4267 4268 0
-4268 4284 0
-112 -4268 4269 0
-4269 4285 0
-113 -4269 4270 0
-4270 4286 0
-114 -4270 4271 0
-4271 4287 0
-115 -4271 4272 0
-4272 4288 0
-116 -4272 4273 0
-4273 4289 0
-117 -4273 4274 0
-4274 4290 0
-118 -4274 4275 0
-4275 4291 0
-119 -4275 4276 0
-4276 4292 0
-120 -4276 4277 0
-4277 4293 0
-121 -4277 4278 0
-4278 4294 0
-122 -4278 4279 0
-4279 4295 0
-123 -4279 4280 0
-4280 4296 0
-124 -4280 0
-109 4281 0
-4281 4297 0
-110 -4281 4282 0
-4282 4298 0
-111 -4282 4283 0
-4283 4299 0
-112 -4283 4284 0
-4284 4300 0
-113 -4284 4285 0
-4285 4301 0
-114 -4285 4286 0
-4286 4302 0
-115 -4286 4287 0
-4287 4303 0
-116 -4287 4288 0
-4288 4304 0
-117 -4288 4289 0
-4289 4305 0
-118 -4289 4290 0
-4290 4306 0
-119 -4290 4291 0
-4291 4307 0
-120 -4291 4292 0
-4292 4308 0
-121 -4292 4293 0
-4293 4309 0
-122 -4293 4294 0
-4294 4310 0
-123 -4294 4295 0
-4295 4311 0
-124 -4295 4296 0
-4296 4312 0
-125 -4296 0
-110 4297 0
-4297 4313 0
-111 -4297 4298 0
-4298 4314 0
-112 -4298 4299 0
-4299 4315 0
-113 -4299 4300 0
-4300 4316 0
-114 -4300 4301 0
-4301 4317 0
-115 -4301 4302 0
-4302 4318 0
-116 -4302 4303 0
-4303 4319 0
-117 -4303 4304 0
-4304 4320 0
-118 -4304 4305 0
-4305 4321 0
-119 -4305 4306 0
-4306 4322 0
-120 -4306 4307 0
-4307 4323 0
-121 -4307 4308 0
-4308 4324 0
-122 -4308 4309 0
-4309 4325 0
-123 -4309 4310 0
-4310 4326 0
-124 -4310 4311 0
-4311 4327 0
-125 -4311 4312 0
-4312 4328 0
-126 -4312 0
-111 4313 0
-4313 4329 0
-112 -4313 4314 0
-4314 4330 0
-113 -4314 4315 0
-4315 4331 0
-114 -4315 4316 0
-4316 4332 0
-115 -4316 4317 0
-4317 4333 0
-116 -4317 4318 0
-4318 4334 0
-117 -4318 4319 0
-4319 4335 0
-118 -4319 4320 0
-4320 4336 0
-119 -4320 4321 0
-4321 4337 0
-120 -4321 4322 0
-4322 4338 0
-121 -4322 4323 0
-4323 4339 0
-122 -4323 4324 0
-4324 4340 0
-123 -4324 4325 0
-4325 4341 0
-124 -4325 4326 0
-4326 4342 0
-125 -4326 4327 0
-4327 4343 0
-126 -4327 4328 0
-4328 4344 0
-127 -4328 0
-112 4329 0
-4329 4345 0
-113 -4329 4330 0
-4330 4346 0
-114 -4330 4331 0
-4331 4347 0
-115 -4331 4332 0
-4332 4348 0
-116 -4332 4333 0
-4333 4349 0
-117 -4333 4334 0
-4334 4350 0
-118 -4334 4335 0
-4335 4351 0
-119 -4335 4336 0
-4336 4352 0
-120 -4336 4337 0
-4337 4353 0
-121 -4337 4338 0
-4338 4354 0
-122 -4338 4339 0
-4339 4355 0
-123 -4339 4340 0
-4340 4356 0
-124 -4340 4341 0
-4341 4357 0
-125 -4341 4342 0
-4342 4358 0
-126 -4342 4343 0
-4343 4359 0
-127 -4343 4344 0
-4344 4360 0
-128 -4344 0
-113 4345 0
-4345 4361 0
-114 -4345 4346 0
-4346 4362 0
-115 -4346 4347 0
-4347 4363 0
-116 -4347 4348 0
-4348 4364 0
-117 -4348 4349 0
-4349 4365 0
-118 -4349 4350 0
-4350 4366 0
-119 -4350 4351 0
-4351 4367 0
-120 -4351 4352 0
-4352 4368 0
-121 -4352 4353 0
-4353 4369 0
-122 -4353 4354 0
-4354 4370 0
-123 -4354 4355 0
-4355 4371 0
-124 -4355 4356 0
-4356 4372 0
-125 -4356 4357 0
-4357 4373 0
-126 -4357 4358 0
-4358 4374 0
-127 -4358 4359 0
-4359 4375 0
-128 -4359 4360 0
-4360 4376 0
-129 -4360 0
-114 4361 0
-4361 4377 0
-115 -4361 4362 0
-4362 4378 0
-116 -4362 4363 0
-4363 4379 0
-117 -4363 4364 0
-4364 4380 0
-118 -4364 4365 0
-4365 4381 0
-119 -4365 4366 0
-4366 4382 0
-120 -4366 4367 0
-4367 4383 0
-121 -4367 4368 0
-4368 4384 0
-122 -4368 4369 0
-4369 4385 0
-123 -4369 4370 0
-4370 4386 0
-124 -4370 4371 0
-4371 4387 0
-125 -4371 4372 0
-4372 4388 0
-126 -4372 4373 0
-4373 4389 0
-127 -4373 4374 0
-4374 4390 0
-128 -4374 4375 0
-4375 4391 0
-129 -4375 4376 0
-4376 4392 0
-130 -4376 0
-115 4377 0
-4377 4393 0
-116 -4377 4378 0
-4378 4394 0
-117 -4378 4379 0
-4379 4395 0
-118 -4379 4380 0
-4380 4396 0
-119 -4380 4381 0
-4381 4397 0
-120 -4381 4382 0
-4382 4398 0
-121 -4382 4383 0
-4383 4399 0
-122 -4383 4384 0
-4384 4400 0
-123 -4384 4385 0
-4385 4401 0
-124 -4385 4386 0
-4386 4402 0
-125 -4386 4387 0
-4387 4403 0
-126 -4387 4388 0
-4388 4404 0
-127 -4388 4389 0
-4389 4405 0
-128 -4389 4390 0
-4390 4406 0
-129 -4390 4391 0
-4391 4407 0
-130 -4391 4392 0
-4392 4408 0
-131 -4392 0
-116 4393 0
-4393 4409 0
-117 -4393 4394 0
-4394 4410 0
-118 -4394 4395 0
-4395 4411 0
-119 -4395 4396 0
-4396 4412 0
-120 -4396 4397 0
-4397 4413 0
-121 -4397 4398 0
-4398 4414 0
-122 -4398 4399 0
-4399 4415 0
-123 -4399 4400 0
-4400 4416 0
-124 -4400 4401 0
-4401 4417 0
-125 -4401 4402 0
-4402 4418 0
-126 -4402 4403 0
-4403 4419 0
-127 -4403 4404 0
-4404 4420 0
-128 -4404 4405 0
-4405 4421 0
-129 -4405 4406 0
-4406 4422 0
-130 -4406 4407 0
-4407 4423 0
-131 -4407 4408 0
-4408 4424 0
-132 -4408 0
-117 4409 0
-4409 4425 0
-118 -4409 4410 0
-4410 4426 0
-119 -4410 4411 0
-4411 4427 0
-120 -4411 4412 0
-4412 4428 0
-121 -4412 4413 0
-4413 4429 0
-122 -4413 4414 0
-4414 4430 0
-123 -4414 4415 0
-4415 4431 0
-124 -4415 4416 0
-4416 4432 0
-125 -4416 4417 0
-4417 4433 0
-126 -4417 4418 0
-4418 4434 0
-127 -4418 4419 0
-4419 4435 0
-128 -4419 4420 0
-4420 4436 0
-129 -4420 4421 0
-4421 4437 0
-130 -4421 4422 0
-4422 4438 0
-131 -4422 4423 0
-4423 4439 0
-132 -4423 4424 0
-4424 4440 0
-133 -4424 0
-118 4425 0
-4425 4441 0
-119 -4425 4426 0
-4426 4442 0
-120 -4426 4427 0
-4427 4443 0
-121 -4427 4428 0
-4428 4444 0
-122 -4428 4429 0
-4429 4445 0
-123 -4429 4430 0
-4430 4446 0
-124 -4430 4431 0
-4431 4447 0
-125 -4431 4432 0
-4432 4448 0
-126 -4432 4433 0
-4433 4449 0
-127 -4433 4434 0
-4434 4450 0
-128 -4434 4435 0
-4435 4451 0
-129 -4435 4436 0
-4436 4452 0
-130 -4436 4437 0
-4437 4453 0
-131 -4437 4438 0
-4438 4454 0
-132 -4438 4439 0
-4439 4455 0
-133 -4439 4440 0
-4440 4456 0
-134 -4440 0
-119 4441 0
-4441 4457 0
-120 -4441 4442 0
-4442 4458 0
-121 -4442 4443 0
-4443 4459 0
-122 -4443 4444 0
-4444 4460 0
-123 -4444 4445 0
-4445 4461 0
-124 -4445 4446 0
-4446 4462 0
-125 -4446 4447 0
-4447 4463 0
-126 -4447 4448 0
-4448 4464 0
-127 -4448 4449 0
-4449 4465 0
-128 -4449 4450 0
-4450 4466 0
-129 -4450 4451 0
-4451 4467 0
-130 -4451 4452 0
-4452 4468 0
-131 -4452 4453 0
-4453 4469 0
-132 -4453 4454 0
-4454 4470 0
-133 -4454 4455 0
-4455 4471 0
-134 -4455 4456 0
-4456 4472 0
-135 -4456 0
-120 4457 0
-4457 4473 0
-121 -4457 4458 0
-4458 4474 0
-122 -4458 4459 0
-4459 4475 0
-123 -4459 4460 0
-4460 4476 0
-124 -4460 4461 0
-4461 4477 0
-125 -4461 4462 0
-4462 4478 0
-126 -4462 4463 0
-4463 4479 0
-127 -4463 4464 0
-4464 4480 0
-128 -4464 4465 0
-4465 4481 0
-129 -4465 4466 0
-4466 4482 0
-130 -4466 4467 0
-4467 4483 0
-131 -4467 4468 0
-4468 4484 0
-132 -4468 4469 0
-4469 4485 0
-133 -4469 4470 0
-4470 4486 0
-134 -4470 4471 0
-4471 4487 0
-135 -4471 4472 0
-4472 4488 0
-136 -4472 0
-121 4473 0
-4473 4489 0
-122 -4473 4474 0
-4474 4490 0
-123 -4474 4475 0
-4475 4491 0
-124 -4475 4476 0
-4476 4492 0
-125 -4476 4477 0
-4477 4493 0
-126 -4477 4478 0
-4478 4494 0
-127 -4478 4479 0
-4479 4495 0
-128 -4479 4480 0
-4480 4496 0
-129 -4480 4481 0
-4481 4497 0
-130 -4481 4482 0
-4482 4498 0
-131 -4482 4483 0
-4483 4499 0
-132 -4483 4484 0
-4484 4500 0
-133 -4484 4485 0
-4485 4501 0
-134 -4485 4486 0
-4486 4502 0
-135 -4486 4487 0
-4487 4503 0
-136 -4487 4488 0
-4488 4504 0
-137 -4488 0
-122 4489 0
-4489 4505 0
-123 -4489 4490 0
-4490 4506 0
-124 -4490 4491 0
-4491 4507 0
-125 -4491 4492 0
-4492 4508 0
-126 -4492 4493 0
-4493 4509 0
-127 -4493 4494 0
-4494 4510 0
-128 -4494 4495 0
-4495 4511 0
-129 -4495 4496 0
-4496 4512 0
-130 -4496 4497 0
-4497 4513 0
-131 -4497 4498 0
-4498 4514 0
-132 -4498 4499 0
-4499 4515 0
-133 -4499 4500 0
-4500 4516 0
-134 -4500 4501 0
-4501 4517 0
-135 -4501 4502 0
-4502 4518 0
-136 -4502 4503 0
-4503 4519 0
-137 -4503 4504 0
-4504 4520 0
-138 -4504 0
-123 4505 0
-4505 4521 0
-124 -4505 4506 0
-4506 4522 0
-125 -4506 4507 0
-4507 4523 0
-126 -4507 4508 0
-4508 4524 0
-127 -4508 4509 0
-4509 4525 0
-128 -4509 4510 0
-4510 4526 0
-129 -4510 4511 0
-4511 4527 0
-130 -4511 4512 0
-4512 4528 0
-131 -4512 4513 0
-4513 4529 0
-132 -4513 4514 0
-4514 4530 0
-133 -4514 4515 0
-4515 4531 0
-134 -4515 4516 0
-4516 4532 0
-135 -4516 4517 0
-4517 4533 0
-136 -4517 4518 0
-4518 4534 0
-137 -4518 4519 0
-4519 4535 0
-138 -4519 4520 0
-4520 4536 0
-139 -4520 0
-124 4521 0
-4521 4537 0
-125 -4521 4522 0
-4522 4538 0
-126 -4522 4523 0
-4523 4539 0
-127 -4523 4524 0
-4524 4540 0
-128 -4524 4525 0
-4525 4541 0
-129 -4525 4526 0
-4526 4542 0
-130 -4526 4527 0
-4527 4543 0
-131 -4527 4528 0
-4528 4544 0
-132 -4528 4529 0
-4529 4545 0
-133 -4529 4530 0
-4530 4546 0
-134 -4530 4531 0
-4531 4547 0
-135 -4531 4532 0
-4532 4548 0
-136 -4532 4533 0
-4533 4549 0
-137 -4533 4534 0
-4534 4550 0
-138 -4534 4535 0
-4535 4551 0
-139 -4535 4536 0
-4536 4552 0
-140 -4536 0
-125 4537 0
-4537 4553 0
-126 -4537 4538 0
-4538 4554 0
-127 -4538 4539 0
-4539 4555 0
-128 -4539 4540 0
-4540 4556 0
-129 -4540 4541 0
-4541 4557 0
-130 -4541 4542 0
-4542 4558 0
-131 -4542 4543 0
-4543 4559 0
-132 -4543 4544 0
-4544 4560 0
-133 -4544 4545 0
-4545 4561 0
-134 -4545 4546 0
-4546 4562 0
-135 -4546 4547 0
-4547 4563 0
-136 -4547 4548 0
-4548 4564 0
-137 -4548 4549 0
-4549 4565 0
-138 -4549 4550 0
-4550 4566 0
-139 -4550 4551 0
-4551 4567 0
-140 -4551 4552 0
-4552 4568 0
-141 -4552 0
-126 4553 0
-4553 4569 0
-127 -4553 4554 0
-4554 4570 0
-128 -4554 4555 0
-4555 4571 0
-129 -4555 4556 0
-4556 4572 0
-130 -4556 4557 0
-4557 4573 0
-131 -4557 4558 0
-4558 4574 0
-132 -4558 4559 0
-4559 4575 0
-133 -4559 4560 0
-4560 4576 0
-134 -4560 4561 0
-4561 4577 0
-135 -4561 4562 0
-4562 4578 0
-136 -4562 4563 0
-4563 4579 0
-137 -4563 4564 0
-4564 4580 0
-138 -4564 4565 0
-4565 4581 0
-139 -4565 4566 0
-4566 4582 0
-140 -4566 4567 0
-4567 4583 0
-141 -4567 4568 0
-4568 4584 0
-142 -4568 0
-127 4569 0
-4569 4585 0
-128 -4569 4570 0
-4570 4586 0
-129 -4570 4571 0
-4571 4587 0
-130 -4571 4572 0
-4572 4588 0
-131 -4572 4573 0
-4573 4589 0
-132 -4573 4574 0
-4574 4590 0
-133 -4574 4575 0
-4575 4591 0
-134 -4575 4576 0
-4576 4592 0
-135 -4576 4577 0
-4577 4593 0
-136 -4577 4578 0
-4578 4594 0
-137 -4578 4579 0
-4579 4595 0
-138 -4579 4580 0
-4580 4596 0
-139 -4580 4581 0
-4581 4597 0
-140 -4581 4582 0
-4582 4598 0
-141 -4582 4583 0
-4583 4599 0
-142 -4583 4584 0
-4584 4600 0
-143 -4584 0
-128 4585 0
-4585 4601 0
-129 -4585 4586 0
-4586 4602 0
-130 -4586 4587 0
-4587 4603 0
-131 -4587 4588 0
-4588 4604 0
-132 -4588 4589 0
-4589 4605 0
-133 -4589 4590 0
-4590 4606 0
-134 -4590 4591 0
-4591 4607 0
-135 -4591 4592 0
-4592 4608 0
-136 -4592 4593 0
-4593 4609 0
-137 -4593 4594 0
-4594 4610 0
-138 -4594 4595 0
-4595 4611 0
-139 -4595 4596 0
-4596 4612 0
-140 -4596 4597 0
-4597 4613 0
-141 -4597 4598 0
-4598 4614 0
-142 -4598 4599 0
-4599 4615 0
-143 -4599 4600 0
-4600 4616 0
-144 -4600 0
-129 4601 0
-4601 4617 0
-130 -4601 4602 0
-4602 4618 0
-131 -4602 4603 0
-4603 4619 0
-132 -4603 4604 0
-4604 4620 0
-133 -4604 4605 0
-4605 4621 0
-134 -4605 4606 0
-4606 4622 0
-135 -4606 4607 0
-4607 4623 0
-136 -4607 4608 0
-4608 4624 0
-137 -4608 4609 0
-4609 4625 0
-138 -4609 4610 0
-4610 4626 0
-139 -4610 4611 0
-4611 4627 0
-140 -4611 4612 0
-4612 4628 0
-141 -4612 4613 0
-4613 4629 0
-142 -4613 4614 0
-4614 4630 0
-143 -4614 4615 0
-4615 4631 0
-144 -4615 4616 0
-4616 4632 0
-145 -4616 0
-130 4617 0
-4617 4633 0
-131 -4617 4618 0
-4618 4634 0
-132 -4618 4619 0
-4619 4635 0
-133 -4619 4620 0
-4620 4636 0
-134 -4620 4621 0
-4621 4637 0
-135 -4621 4622 0
-4622 4638 0
-136 -4622 4623 0
-4623 4639 0
-137 -4623 4624 0
-4624 4640 0
-138 -4624 4625 0
-4625 4641 0
-139 -4625 4626 0
-4626 4642 0
-140 -4626 4627 0
-4627 4643 0
-141 -4627 4628 0
-4628 4644 0
-142 -4628 4629 0
-4629 4645 0
-143 -4629 4630 0
-4630 4646 0
-144 -4630 4631 0
-4631 4647 0
-145 -4631 4632 0
-4632 4648 0
-146 -4632 0
-131 4633 0
-4633 4649 0
-132 -4633 4634 0
-4634 4650 0
-133 -4634 4635 0
-4635 4651 0
-134 -4635 4636 0
-4636 4652 0
-135 -4636 4637 0
-4637 4653 0
-136 -4637 4638 0
-4638 4654 0
-137 -4638 4639 0
-4639 4655 0
-138 -4639 4640 0
-4640 4656 0
-139 -4640 4641 0
-4641 4657 0
-140 -4641 4642 0
-4642 4658 0
-141 -4642 4643 0
-4643 4659 0
-142 -4643 4644 0
-4644 4660 0
-143 -4644 4645 0
-4645 4661 0
-144 -4645 4646 0
-4646 4662 0
-145 -4646 4647 0
-4647 4663 0
-146 -4647 4648 0
-4648 4664 0
-147 -4648 0
-132 4649 0
-4649 4665 0
-133 -4649 4650 0
-4650 4666 0
-134 -4650 4651 0
-4651 4667 0
-135 -4651 4652 0
-4652 4668 0
-136 -4652 4653 0
-4653 4669 0
-137 -4653 4654 0
-4654 4670 0
-138 -4654 4655 0
-4655 4671 0
-139 -4655 4656 0
-4656 4672 0
-140 -4656 4657 0
-4657 4673 0
-141 -4657 4658 0
-4658 4674 0
-142 -4658 4659 0
-4659 4675 0
-143 -4659 4660 0
-4660 4676 0
-144 -4660 4661 0
-4661 4677 0
-145 -4661 4662 0
-4662 4678 0
-146 -4662 4663 0
-4663 4679 0
-147 -4663 4664 0
-4664 4680 0
-148 -4664 0
-133 4665 0
-4665 4681 0
-134 -4665 4666 0
-4666 4682 0
-135 -4666 4667 0
-4667 4683 0
-136 -4667 4668 0
-4668 4684 0
-137 -4668 4669 0
-4669 4685 0
-138 -4669 4670 0
-4670 4686 0
-139 -4670 4671 0
-4671 4687 0
-140 -4671 4672 0
-4672 4688 0
-141 -4672 4673 0
-4673 4689 0
-142 -4673 4674 0
-4674 4690 0
-143 -4674 4675 0
-4675 4691 0
-144 -4675 4676 0
-4676 4692 0
-145 -4676 4677 0
-4677 4693 0
-146 -4677 4678 0
-4678 4694 0
-147 -4678 4679 0
-4679 4695 0
-148 -4679 4680 0
-4680 4696 0
-149 -4680 0
-134 4681 0
-4681 4697 0
-135 -4681 4682 0
-4682 4698 0
-136 -4682 4683 0
-4683 4699 0
-137 -4683 4684 0
-4684 4700 0
-138 -4684 4685 0
-4685 4701 0
-139 -4685 4686 0
-4686 4702 0
-140 -4686 4687 0
-4687 4703 0
-141 -4687 4688 0
-4688 4704 0
-142 -4688 4689 0
-4689 4705 0
-143 -4689 4690 0
-4690 4706 0
-144 -4690 4691 0
-4691 4707 0
-145 -4691 4692 0
-4692 4708 0
-146 -4692 4693 0
-4693 4709 0
-147 -4693 4694 0
-4694 4710 0
-148 -4694 4695 0
-4695 4711 0
-149 -4695 4696 0
-4696 4712 0
-150 -4696 0
-135 4697 0
-4697 4713 0
-136 -4697 4698 0
-4698 4714 0
-137 -4698 4699 0
-4699 4715 0
-138 -4699 4700 0
-4700 4716 0
-139 -4700 4701 0
-4701 4717 0
-140 -4701 4702 0
-4702 4718 0
-141 -4702 4703 0
-4703 4719 0
-142 -4703 4704 0
-4704 4720 0
-143 -4704 4705 0
-4705 4721 0
-144 -4705 4706 0
-4706 4722 0
-145 -4706 4707 0
-4707 4723 0
-146 -4707 4708 0
-4708 4724 0
-147 -4708 4709 0
-4709 4725 0
-148 -4709 4710 0
-4710 4726 0
-149 -4710 4711 0
-4711 4727 0
-150 -4711 4712 0
-4712 4728 0
-151 -4712 0
-136 4713 0
-4713 4729 0
-137 -4713 4714 0
-4714 4730 0
-138 -4714 4715 0
-4715 4731 0
-139 -4715 4716 0
-4716 4732 0
-140 -4716 4717 0
-4717 4733 0
-141 -4717 4718 0
-4718 4734 0
-142 -4718 4719 0
-4719 4735 0
-143 -4719 4720 0
-4720 4736 0
-144 -4720 4721 0
-4721 4737 0
-145 -4721 4722 0
-4722 4738 0
-146 -4722 4723 0
-4723 4739 0
-147 -4723 4724 0
-4724 4740 0
-148 -4724 4725 0
-4725 4741 0
-149 -4725 4726 0
-4726 4742 0
-150 -4726 4727 0
-4727 4743 0
-151 -4727 4728 0
-4728 4744 0
-152 -4728 0
-137 4729 0
-4729 4745 0
-138 -4729 4730 0
-4730 4746 0
-139 -4730 4731 0
-4731 4747 0
-140 -4731 4732 0
-4732 4748 0
-141 -4732 4733 0
-4733 4749 0
-142 -4733 4734 0
-4734 4750 0
-143 -4734 4735 0
-4735 4751 0
-144 -4735 4736 0
-4736 4752 0
-145 -4736 4737 0
-4737 4753 0
-146 -4737 4738 0
-4738 4754 0
-147 -4738 4739 0
-4739 4755 0
-148 -4739 4740 0
-4740 4756 0
-149 -4740 4741 0
-4741 4757 0
-150 -4741 4742 0
-4742 4758 0
-151 -4742 4743 0
-4743 4759 0
-152 -4743 4744 0
-4744 4760 0
-153 -4744 0
-138 4745 0
-4745 4761 0
-139 -4745 4746 0
-4746 4762 0
-140 -4746 4747 0
-4747 4763 0
-141 -4747 4748 0
-4748 4764 0
-142 -4748 4749 0
-4749 4765 0
-143 -4749 4750 0
-4750 4766 0
-144 -4750 4751 0
-4751 4767 0
-145 -4751 4752 0
-4752 4768 0
-146 -4752 4753 0
-4753 4769 0
-147 -4753 4754 0
-4754 4770 0
-148 -4754 4755 0
-4755 4771 0
-149 -4755 4756 0
-4756 4772 0
-150 -4756 4757 0
-4757 4773 0
-151 -4757 4758 0
-4758 4774 0
-152 -4758 4759 0
-4759 4775 0
-153 -4759 4760 0
-4760 4776 0
-154 -4760 0
-139 4761 0
-4761 4777 0
-140 -4761 4762 0
-4762 4778 0
-141 -4762 4763 0
-4763 4779 0
-142 -4763 4764 0
-4764 4780 0
-143 -4764 4765 0
-4765 4781 0
-144 -4765 4766 0
-4766 4782 0
-145 -4766 4767 0
-4767 4783 0
-146 -4767 4768 0
-4768 4784 0
-147 -4768 4769 0
-4769 4785 0
-148 -4769 4770 0
-4770 4786 0
-149 -4770 4771 0
-4771 4787 0
-150 -4771 4772 0
-4772 4788 0
-151 -4772 4773 0
-4773 4789 0
-152 -4773 4774 0
-4774 4790 0
-153 -4774 4775 0
-4775 4791 0
-154 -4775 4776 0
-4776 4792 0
-155 -4776 0
-140 4777 0
-141 -4777 4778 0
-142 -4778 4779 0
-143 -4779 4780 0
-144 -4780 4781 0
-145 -4781 4782 0
-146 -4782 4783 0
-147 -4783 4784 0
-148 -4784 4785 0
-149 -4785 4786 0
-150 -4786 4787 0
-151 -4787 4788 0
-152 -4788 4789 0
-153 -4789 4790 0
-154 -4790 4791 0
-155 -4791 4792 0
-156 -4792 0
-157 4793 0
-4793 4794 0
-158 -4793 4795 0
-4795 4796 0
-159 -4795 4797 0
-4797 4798 0
-160 -4797 4799 0
-4799 4800 0
-161 -4799 4801 0
-4801 4802 0
-162 -4801 4803 0
-4803 4804 0
-163 -4803 4805 0
-4805 4806 0
-164 -4805 4807 0
-4807 4808 0
-165 -4807 4809 0
-4809 4810 0
-166 -4809 0
-158 4794 0
-4794 4811 0
-159 -4794 4796 0
-4796 4812 0
-160 -4796 4798 0
-4798 4813 0
-161 -4798 4800 0
-4800 4814 0
-162 -4800 4802 0
-4802 4815 0
-163 -4802 4804 0
-4804 4816 0
-164 -4804 4806 0
-4806 4817 0
-165 -4806 4808 0
-4808 4818 0
-166 -4808 4810 0
-4810 4819 0
-167 -4810 0
-159 4811 0
-4811 4820 0
-160 -4811 4812 0
-4812 4821 0
-161 -4812 4813 0
-4813 4822 0
-162 -4813 4814 0
-4814 4823 0
-163 -4814 4815 0
-4815 4824 0
-164 -4815 4816 0
-4816 4825 0
-165 -4816 4817 0
-4817 4826 0
-166 -4817 4818 0
-4818 4827 0
-167 -4818 4819 0
-4819 4828 0
-168 -4819 0
-160 4820 0
-4820 4829 0
-161 -4820 4821 0
-4821 4830 0
-162 -4821 4822 0
-4822 4831 0
-163 -4822 4823 0
-4823 4832 0
-164 -4823 4824 0
-4824 4833 0
-165 -4824 4825 0
-4825 4834 0
-166 -4825 4826 0
-4826 4835 0
-167 -4826 4827 0
-4827 4836 0
-168 -4827 4828 0
-4828 4837 0
-169 -4828 0
-161 4829 0
-4829 4838 0
-162 -4829 4830 0
-4830 4839 0
-163 -4830 4831 0
-4831 4840 0
-164 -4831 4832 0
-4832 4841 0
-165 -4832 4833 0
-4833 4842 0
-166 -4833 4834 0
-4834 4843 0
-167 -4834 4835 0
-4835 4844 0
-168 -4835 4836 0
-4836 4845 0
-169 -4836 4837 0
-4837 4846 0
-170 -4837 0
-162 4838 0
-4838 4847 0
-163 -4838 4839 0
-4839 4848 0
-164 -4839 4840 0
-4840 4849 0
-165 -4840 4841 0
-4841 4850 0
-166 -4841 4842 0
-4842 4851 0
-167 -4842 4843 0
-4843 4852 0
-168 -4843 4844 0
-4844 4853 0
-169 -4844 4845 0
-4845 4854 0
-170 -4845 4846 0
-4846 4855 0
-171 -4846 0
-163 4847 0
-4847 4856 0
-164 -4847 4848 0
-4848 4857 0
-165 -4848 4849 0
-4849 4858 0
-166 -4849 4850 0
-4850 4859 0
-167 -4850 4851 0
-4851 4860 0
-168 -4851 4852 0
-4852 4861 0
-169 -4852 4853 0
-4853 4862 0
-170 -4853 4854 0
-4854 4863 0
-171 -4854 4855 0
-4855 4864 0
-172 -4855 0
-164 4856 0
-4856 4865 0
-165 -4856 4857 0
-4857 4866 0
-166 -4857 4858 0
-4858 4867 0
-167 -4858 4859 0
-4859 4868 0
-168 -4859 4860 0
-4860 4869 0
-169 -4860 4861 0
-4861 4870 0
-170 -4861 4862 0
-4862 4871 0
-171 -4862 4863 0
-4863 4872 0
-172 -4863 4864 0
-4864 4873 0
-173 -4864 0
-165 4865 0
-4865 4874 0
-166 -4865 4866 0
-4866 4875 0
-167 -4866 4867 0
-4867 4876 0
-168 -4867 4868 0
-4868 4877 0
-169 -4868 4869 0
-4869 4878 0
-170 -4869 4870 0
-4870 4879 0
-171 -4870 4871 0
-4871 4880 0
-172 -4871 4872 0
-4872 4881 0
-173 -4872 4873 0
-4873 4882 0
-174 -4873 0
-166 4874 0
-4874 4883 0
-167 -4874 4875 0
-4875 4884 0
-168 -4875 4876 0
-4876 4885 0
-169 -4876 4877 0
-4877 4886 0
-170 -4877 4878 0
-4878 4887 0
-171 -4878 4879 0
-4879 4888 0
-172 -4879 4880 0
-4880 4889 0
-173 -4880 4881 0
-4881 4890 0
-174 -4881 4882 0
-4882 4891 0
-175 -4882 0
-167 4883 0
-4883 4892 0
-168 -4883 4884 0
-4884 4893 0
-169 -4884 4885 0
-4885 4894 0
-170 -4885 4886 0
-4886 4895 0
-171 -4886 4887 0
-4887 4896 0
-172 -4887 4888 0
-4888 4897 0
-173 -4888 4889 0
-4889 4898 0
-174 -4889 4890 0
-4890 4899 0
-175 -4890 4891 0
-4891 4900 0
-176 -4891 0
-168 4892 0
-4892 4901 0
-169 -4892 4893 0
-4893 4902 0
-170 -4893 4894 0
-4894 4903 0
-171 -4894 4895 0
-4895 4904 0
-172 -4895 4896 0
-4896 4905 0
-173 -4896 4897 0
-4897 4906 0
-174 -4897 4898 0
-4898 4907 0
-175 -4898 4899 0
-4899 4908 0
-176 -4899 4900 0
-4900 4909 0
-177 -4900 0
-169 4901 0
-4901 4910 0
-170 -4901 4902 0
-4902 4911 0
-171 -4902 4903 0
-4903 4912 0
-172 -4903 4904 0
-4904 4913 0
-173 -4904 4905 0
-4905 4914 0
-174 -4905 4906 0
-4906 4915 0
-175 -4906 4907 0
-4907 4916 0
-176 -4907 4908 0
-4908 4917 0
-177 -4908 4909 0
-4909 4918 0
-178 -4909 0
-170 4910 0
-4910 4919 0
-171 -4910 4911 0
-4911 4920 0
-172 -4911 4912 0
-4912 4921 0
-173 -4912 4913 0
-4913 4922 0
-174 -4913 4914 0
-4914 4923 0
-175 -4914 4915 0
-4915 4924 0
-176 -4915 4916 0
-4916 4925 0
-177 -4916 4917 0
-4917 4926 0
-178 -4917 4918 0
-4918 4927 0
-179 -4918 0
-171 4919 0
-4919 4928 0
-172 -4919 4920 0
-4920 4929 0
-173 -4920 4921 0
-4921 4930 0
-174 -4921 4922 0
-4922 4931 0
-175 -4922 4923 0
-4923 4932 0
-176 -4923 4924 0
-4924 4933 0
-177 -4924 4925 0
-4925 4934 0
-178 -4925 4926 0
-4926 4935 0
-179 -4926 4927 0
-4927 4936 0
-180 -4927 0
-172 4928 0
-4928 4937 0
-173 -4928 4929 0
-4929 4938 0
-174 -4929 4930 0
-4930 4939 0
-175 -4930 4931 0
-4931 4940 0
-176 -4931 4932 0
-4932 4941 0
-177 -4932 4933 0
-4933 4942 0
-178 -4933 4934 0
-4934 4943 0
-179 -4934 4935 0
-4935 4944 0
-180 -4935 4936 0
-4936 4945 0
-181 -4936 0
-173 4937 0
-4937 4946 0
-174 -4937 4938 0
-4938 4947 0
-175 -4938 4939 0
-4939 4948 0
-176 -4939 4940 0
-4940 4949 0
-177 -4940 4941 0
-4941 4950 0
-178 -4941 4942 0
-4942 4951 0
-179 -4942 4943 0
-4943 4952 0
-180 -4943 4944 0
-4944 4953 0
-181 -4944 4945 0
-4945 4954 0
-182 -4945 0
-174 4946 0
-4946 4955 0
-175 -4946 4947 0
-4947 4956 0
-176 -4947 4948 0
-4948 4957 0
-177 -4948 4949 0
-4949 4958 0
-178 -4949 4950 0
-4950 4959 0
-179 -4950 4951 0
-4951 4960 0
-180 -4951 4952 0
-4952 4961 0
-181 -4952 4953 0
-4953 4962 0
-182 -4953 4954 0
-4954 4963 0
-183 -4954 0
-175 4955 0
-4955 4964 0
-176 -4955 4956 0
-4956 4965 0
-177 -4956 4957 0
-4957 4966 0
-178 -4957 4958 0
-4958 4967 0
-179 -4958 4959 0
-4959 4968 0
-180 -4959 4960 0
-4960 4969 0
-181 -4960 4961 0
-4961 4970 0
-182 -4961 4962 0
-4962 4971 0
-183 -4962 4963 0
-4963 4972 0
-184 -4963 0
-176 4964 0
-4964 4973 0
-177 -4964 4965 0
-4965 4974 0
-178 -4965 4966 0
-4966 4975 0
-179 -4966 4967 0
-4967 4976 0
-180 -4967 4968 0
-4968 4977 0
-181 -4968 4969 0
-4969 4978 0
-182 -4969 4970 0
-4970 4979 0
-183 -4970 4971 0
-4971 4980 0
-184 -4971 4972 0
-4972 4981 0
-185 -4972 0
-177 4973 0
-4973 4982 0
-178 -4973 4974 0
-4974 4983 0
-179 -4974 4975 0
-4975 4984 0
-180 -4975 4976 0
-4976 4985 0
-181 -4976 4977 0
-4977 4986 0
-182 -4977 4978 0
-4978 4987 0
-183 -4978 4979 0
-4979 4988 0
-184 -4979 4980 0
-4980 4989 0
-185 -4980 4981 0
-4981 4990 0
-186 -4981 0
-178 4982 0
-4982 4991 0
-179 -4982 4983 0
-4983 4992 0
-180 -4983 4984 0
-4984 4993 0
-181 -4984 4985 0
-4985 4994 0
-182 -4985 4986 0
-4986 4995 0
-183 -4986 4987 0
-4987 4996 0
-184 -4987 4988 0
-4988 4997 0
-185 -4988 4989 0
-4989 4998 0
-186 -4989 4990 0
-4990 4999 0
-187 -4990 0
-179 4991 0
-4991 5000 0
-180 -4991 4992 0
-4992 5001 0
-181 -4992 4993 0
-4993 5002 0
-182 -4993 4994 0
-4994 5003 0
-183 -4994 4995 0
-4995 5004 0
-184 -4995 4996 0
-4996 5005 0
-185 -4996 4997 0
-4997 5006 0
-186 -4997 4998 0
-4998 5007 0
-187 -4998 4999 0
-4999 5008 0
-188 -4999 0
-180 5000 0
-5000 5009 0
-181 -5000 5001 0
-5001 5010 0
-182 -5001 5002 0
-5002 5011 0
-183 -5002 5003 0
-5003 5012 0
-184 -5003 5004 0
-5004 5013 0
-185 -5004 5005 0
-5005 5014 0
-186 -5005 5006 0
-5006 5015 0
-187 -5006 5007 0
-5007 5016 0
-188 -5007 5008 0
-5008 5017 0
-189 -5008 0
-181 5009 0
-5009 5018 0
-182 -5009 5010 0
-5010 5019 0
-183 -5010 5011 0
-5011 5020 0
-184 -5011 5012 0
-5012 5021 0
-185 -5012 5013 0
-5013 5022 0
-186 -5013 5014 0
-5014 5023 0
-187 -5014 5015 0
-5015 5024 0
-188 -5015 5016 0
-5016 5025 0
-189 -5016 5017 0
-5017 5026 0
-190 -5017 0
-182 5018 0
-5018 5027 0
-183 -5018 5019 0
-5019 5028 0
-184 -5019 5020 0
-5020 5029 0
-185 -5020 5021 0
-5021 5030 0
-186 -5021 5022 0
-5022 5031 0
-187 -5022 5023 0
-5023 5032 0
-188 -5023 5024 0
-5024 5033 0
-189 -5024 5025 0
-5025 5034 0
-190 -5025 5026 0
-5026 5035 0
-191 -5026 0
-183 5027 0
-5027 5036 0
-184 -5027 5028 0
-5028 5037 0
-185 -5028 5029 0
-5029 5038 0
-186 -5029 5030 0
-5030 5039 0
-187 -5030 5031 0
-5031 5040 0
-188 -5031 5032 0
-5032 5041 0
-189 -5032 5033 0
-5033 5042 0
-190 -5033 5034 0
-5034 5043 0
-191 -5034 5035 0
-5035 5044 0
-192 -5035 0
-184 5036 0
-5036 5045 0
-185 -5036 5037 0
-5037 5046 0
-186 -5037 5038 0
-5038 5047 0
-187 -5038 5039 0
-5039 5048 0
-188 -5039 5040 0
-5040 5049 0
-189 -5040 5041 0
-5041 5050 0
-190 -5041 5042 0
-5042 5051 0
-191 -5042 5043 0
-5043 5052 0
-192 -5043 5044 0
-5044 5053 0
-193 -5044 0
-185 5045 0
-5045 5054 0
-186 -5045 5046 0
-5046 5055 0
-187 -5046 5047 0
-5047 5056 0
-188 -5047 5048 0
-5048 5057 0
-189 -5048 5049 0
-5049 5058 0
-190 -5049 5050 0
-5050 5059 0
-191 -5050 5051 0
-5051 5060 0
-192 -5051 5052 0
-5052 5061 0
-193 -5052 5053 0
-5053 5062 0
-194 -5053 0
-186 5054 0
-5054 5063 0
-187 -5054 5055 0
-5055 5064 0
-188 -5055 5056 0
-5056 5065 0
-189 -5056 5057 0
-5057 5066 0
-190 -5057 5058 0
-5058 5067 0
-191 -5058 5059 0
-5059 5068 0
-192 -5059 5060 0
-5060 5069 0
-193 -5060 5061 0
-5061 5070 0
-194 -5061 5062 0
-5062 5071 0
-195 -5062 0
-187 5063 0
-5063 5072 0
-188 -5063 5064 0
-5064 5073 0
-189 -5064 5065 0
-5065 5074 0
-190 -5065 5066 0
-5066 5075 0
-191 -5066 5067 0
-5067 5076 0
-192 -5067 5068 0
-5068 5077 0
-193 -5068 5069 0
-5069 5078 0
-194 -5069 5070 0
-5070 5079 0
-195 -5070 5071 0
-5071 5080 0
-196 -5071 0
-188 5072 0
-5072 5081 0
-189 -5072 5073 0
-5073 5082 0
-190 -5073 5074 0
-5074 5083 0
-191 -5074 5075 0
-5075 5084 0
-192 -5075 5076 0
-5076 5085 0
-193 -5076 5077 0
-5077 5086 0
-194 -5077 5078 0
-5078 5087 0
-195 -5078 5079 0
-5079 5088 0
-196 -5079 5080 0
-5080 5089 0
-197 -5080 0
-189 5081 0
-5081 5090 0
-190 -5081 5082 0
-5082 5091 0
-191 -5082 5083 0
-5083 5092 0
-192 -5083 5084 0
-5084 5093 0
-193 -5084 5085 0
-5085 5094 0
-194 -5085 5086 0
-5086 5095 0
-195 -5086 5087 0
-5087 5096 0
-196 -5087 5088 0
-5088 5097 0
-197 -5088 5089 0
-5089 5098 0
-198 -5089 0
-190 5090 0
-5090 5099 0
-191 -5090 5091 0
-5091 5100 0
-192 -5091 5092 0
-5092 5101 0
-193 -5092 5093 0
-5093 5102 0
-194 -5093 5094 0
-5094 5103 0
-195 -5094 5095 0
-5095 5104 0
-196 -5095 5096 0
-5096 5105 0
-197 -5096 5097 0
-5097 5106 0
-198 -5097 5098 0
-5098 5107 0
-199 -5098 0
-191 5099 0
-5099 5108 0
-192 -5099 5100 0
-5100 5109 0
-193 -5100 5101 0
-5101 5110 0
-194 -5101 5102 0
-5102 5111 0
-195 -5102 5103 0
-5103 5112 0
-196 -5103 5104 0
-5104 5113 0
-197 -5104 5105 0
-5105 5114 0
-198 -5105 5106 0
-5106 5115 0
-199 -5106 5107 0
-5107 5116 0
-200 -5107 0
-192 5108 0
-5108 5117 0
-193 -5108 5109 0
-5109 5118 0
-194 -5109 5110 0
-5110 5119 0
-195 -5110 5111 0
-5111 5120 0
-196 -5111 5112 0
-5112 5121 0
-197 -5112 5113 0
-5113 5122 0
-198 -5113 5114 0
-5114 5123 0
-199 -5114 5115 0
-5115 5124 0
-200 -5115 5116 0
-5116 5125 0
-201 -5116 0
-193 5117 0
-5117 5126 0
-194 -5117 5118 0
-5118 5127 0
-195 -5118 5119 0
-5119 5128 0
-196 -5119 5120 0
-5120 5129 0
-197 -5120 5121 0
-5121 5130 0
-198 -5121 5122 0
-5122 5131 0
-199 -5122 5123 0
-5123 5132 0
-200 -5123 5124 0
-5124 5133 0
-201 -5124 5125 0
-5125 5134 0
-202 -5125 0
-194 5126 0
-5126 5135 0
-195 -5126 5127 0
-5127 5136 0
-196 -5127 5128 0
-5128 5137 0
-197 -5128 5129 0
-5129 5138 0
-198 -5129 5130 0
-5130 5139 0
-199 -5130 5131 0
-5131 5140 0
-200 -5131 5132 0
-5132 5141 0
-201 -5132 5133 0
-5133 5142 0
-202 -5133 5134 0
-5134 5143 0
-203 -5134 0
-195 5135 0
-5135 5144 0
-196 -5135 5136 0
-5136 5145 0
-197 -5136 5137 0
-5137 5146 0
-198 -5137 5138 0
-5138 5147 0
-199 -5138 5139 0
-5139 5148 0
-200 -5139 5140 0
-5140 5149 0
-201 -5140 5141 0
-5141 5150 0
-202 -5141 5142 0
-5142 5151 0
-203 -5142 5143 0
-5143 5152 0
-204 -5143 0
-196 5144 0
-5144 5153 0
-197 -5144 5145 0
-5145 5154 0
-198 -5145 5146 0
-5146 5155 0
-199 -5146 5147 0
-5147 5156 0
-200 -5147 5148 0
-5148 5157 0
-201 -5148 5149 0
-5149 5158 0
-202 -5149 5150 0
-5150 5159 0
-203 -5150 5151 0
-5151 5160 0
-204 -5151 5152 0
-5152 5161 0
-205 -5152 0
-197 5153 0
-5153 5162 0
-198 -5153 5154 0
-5154 5163 0
-199 -5154 5155 0
-5155 5164 0
-200 -5155 5156 0
-5156 5165 0
-201 -5156 5157 0
-5157 5166 0
-202 -5157 5158 0
-5158 5167 0
-203 -5158 5159 0
-5159 5168 0
-204 -5159 5160 0
-5160 5169 0
-205 -5160 5161 0
-5161 5170 0
-206 -5161 0
-198 5162 0
-5162 5171 0
-199 -5162 5163 0
-5163 5172 0
-200 -5163 5164 0
-5164 5173 0
-201 -5164 5165 0
-5165 5174 0
-202 -5165 5166 0
-5166 5175 0
-203 -5166 5167 0
-5167 5176 0
-204 -5167 5168 0
-5168 5177 0
-205 -5168 5169 0
-5169 5178 0
-206 -5169 5170 0
-5170 5179 0
-207 -5170 0
-199 5171 0
-5171 5180 0
-200 -5171 5172 0
-5172 5181 0
-201 -5172 5173 0
-5173 5182 0
-202 -5173 5174 0
-5174 5183 0
-203 -5174 5175 0
-5175 5184 0
-204 -5175 5176 0
-5176 5185 0
-205 -5176 5177 0
-5177 5186 0
-206 -5177 5178 0
-5178 5187 0
-207 -5178 5179 0
-5179 5188 0
-208 -5179 0
-200 5180 0
-5180 5189 0
-201 -5180 5181 0
-5181 5190 0
-202 -5181 5182 0
-5182 5191 0
-203 -5182 5183 0
-5183 5192 0
-204 -5183 5184 0
-5184 5193 0
-205 -5184 5185 0
-5185 5194 0
-206 -5185 5186 0
-5186 5195 0
-207 -5186 5187 0
-5187 5196 0
-208 -5187 5188 0
-5188 5197 0
-209 -5188 0
-201 5189 0
-5189 5198 0
-202 -5189 5190 0
-5190 5199 0
-203 -5190 5191 0
-5191 5200 0
-204 -5191 5192 0
-5192 5201 0
-205 -5192 5193 0
-5193 5202 0
-206 -5193 5194 0
-5194 5203 0
-207 -5194 5195 0
-5195 5204 0
-208 -5195 5196 0
-5196 5205 0
-209 -5196 5197 0
-5197 5206 0
-210 -5197 0
-202 5198 0
-5198 5207 0
-203 -5198 5199 0
-5199 5208 0
-204 -5199 5200 0
-5200 5209 0
-205 -5200 5201 0
-5201 5210 0
-206 -5201 5202 0
-5202 5211 0
-207 -5202 5203 0
-5203 5212 0
-208 -5203 5204 0
-5204 5213 0
-209 -5204 5205 0
-5205 5214 0
-210 -5205 5206 0
-5206 5215 0
-211 -5206 0
-203 5207 0
-5207 5216 0
-204 -5207 5208 0
-5208 5217 0
-205 -5208 5209 0
-5209 5218 0
-206 -5209 5210 0
-5210 5219 0
-207 -5210 5211 0
-5211 5220 0
-208 -5211 5212 0
-5212 5221 0
-209 -5212 5213 0
-5213 5222 0
-210 -5213 5214 0
-5214 5223 0
-211 -5214 5215 0
-5215 5224 0
-212 -5215 0
-204 5216 0
-5216 5225 0
-205 -5216 5217 0
-5217 5226 0
-206 -5217 5218 0
-5218 5227 0
-207 -5218 5219 0
-5219 5228 0
-208 -5219 5220 0
-5220 5229 0
-209 -5220 5221 0
-5221 5230 0
-210 -5221 5222 0
-5222 5231 0
-211 -5222 5223 0
-5223 5232 0
-212 -5223 5224 0
-5224 5233 0
-213 -5224 0
-205 5225 0
-5225 5234 0
-206 -5225 5226 0
-5226 5235 0
-207 -5226 5227 0
-5227 5236 0
-208 -5227 5228 0
-5228 5237 0
-209 -5228 5229 0
-5229 5238 0
-210 -5229 5230 0
-5230 5239 0
-211 -5230 5231 0
-5231 5240 0
-212 -5231 5232 0
-5232 5241 0
-213 -5232 5233 0
-5233 5242 0
-214 -5233 0
-206 5234 0
-5234 5243 0
-207 -5234 5235 0
-5235 5244 0
-208 -5235 5236 0
-5236 5245 0
-209 -5236 5237 0
-5237 5246 0
-210 -5237 5238 0
-5238 5247 0
-211 -5238 5239 0
-5239 5248 0
-212 -5239 5240 0
-5240 5249 0
-213 -5240 5241 0
-5241 5250 0
-214 -5241 5242 0
-5242 5251 0
-215 -5242 0
-207 5243 0
-5243 5252 0
-208 -5243 5244 0
-5244 5253 0
-209 -5244 5245 0
-5245 5254 0
-210 -5245 5246 0
-5246 5255 0
-211 -5246 5247 0
-5247 5256 0
-212 -5247 5248 0
-5248 5257 0
-213 -5248 5249 0
-5249 5258 0
-214 -5249 5250 0
-5250 5259 0
-215 -5250 5251 0
-5251 5260 0
-216 -5251 0
-208 5252 0
-5252 5261 0
-209 -5252 5253 0
-5253 5262 0
-210 -5253 5254 0
-5254 5263 0
-211 -5254 5255 0
-5255 5264 0
-212 -5255 5256 0
-5256 5265 0
-213 -5256 5257 0
-5257 5266 0
-214 -5257 5258 0
-5258 5267 0
-215 -5258 5259 0
-5259 5268 0
-216 -5259 5260 0
-5260 5269 0
-217 -5260 0
-209 5261 0
-5261 5270 0
-210 -5261 5262 0
-5262 5271 0
-211 -5262 5263 0
-5263 5272 0
-212 -5263 5264 0
-5264 5273 0
-213 -5264 5265 0
-5265 5274 0
-214 -5265 5266 0
-5266 5275 0
-215 -5266 5267 0
-5267 5276 0
-216 -5267 5268 0
-5268 5277 0
-217 -5268 5269 0
-5269 5278 0
-218 -5269 0
-210 5270 0
-5270 5279 0
-211 -5270 5271 0
-5271 5280 0
-212 -5271 5272 0
-5272 5281 0
-213 -5272 5273 0
-5273 5282 0
-214 -5273 5274 0
-5274 5283 0
-215 -5274 5275 0
-5275 5284 0
-216 -5275 5276 0
-5276 5285 0
-217 -5276 5277 0
-5277 5286 0
-218 -5277 5278 0
-5278 5287 0
-219 -5278 0
-211 5279 0
-5279 5288 0
-212 -5279 5280 0
-5280 5289 0
-213 -5280 5281 0
-5281 5290 0
-214 -5281 5282 0
-5282 5291 0
-215 -5282 5283 0
-5283 5292 0
-216 -5283 5284 0
-5284 5293 0
-217 -5284 5285 0
-5285 5294 0
-218 -5285 5286 0
-5286 5295 0
-219 -5286 5287 0
-5287 5296 0
-220 -5287 0
-212 5288 0
-5288 5297 0
-213 -5288 5289 0
-5289 5298 0
-214 -5289 5290 0
-5290 5299 0
-215 -5290 5291 0
-5291 5300 0
-216 -5291 5292 0
-5292 5301 0
-217 -5292 5293 0
-5293 5302 0
-218 -5293 5294 0
-5294 5303 0
-219 -5294 5295 0
-5295 5304 0
-220 -5295 5296 0
-5296 5305 0
-221 -5296 0
-213 5297 0
-5297 5306 0
-214 -5297 5298 0
-5298 5307 0
-215 -5298 5299 0
-5299 5308 0
-216 -5299 5300 0
-5300 5309 0
-217 -5300 5301 0
-5301 5310 0
-218 -5301 5302 0
-5302 5311 0
-219 -5302 5303 0
-5303 5312 0
-220 -5303 5304 0
-5304 5313 0
-221 -5304 5305 0
-5305 5314 0
-222 -5305 0
-214 5306 0
-5306 5315 0
-215 -5306 5307 0
-5307 5316 0
-216 -5307 5308 0
-5308 5317 0
-217 -5308 5309 0
-5309 5318 0
-218 -5309 5310 0
-5310 5319 0
-219 -5310 5311 0
-5311 5320 0
-220 -5311 5312 0
-5312 5321 0
-221 -5312 5313 0
-5313 5322 0
-222 -5313 5314 0
-5314 5323 0
-223 -5314 0
-215 5315 0
-5315 5324 0
-216 -5315 5316 0
-5316 5325 0
-217 -5316 5317 0
-5317 5326 0
-218 -5317 5318 0
-5318 5327 0
-219 -5318 5319 0
-5319 5328 0
-220 -5319 5320 0
-5320 5329 0
-221 -5320 5321 0
-5321 5330 0
-222 -5321 5322 0
-5322 5331 0
-223 -5322 5323 0
-5323 5332 0
-224 -5323 0
-216 5324 0
-5324 5333 0
-217 -5324 5325 0
-5325 5334 0
-218 -5325 5326 0
-5326 5335 0
-219 -5326 5327 0
-5327 5336 0
-220 -5327 5328 0
-5328 5337 0
-221 -5328 5329 0
-5329 5338 0
-222 -5329 5330 0
-5330 5339 0
-223 -5330 5331 0
-5331 5340 0
-224 -5331 5332 0
-5332 5341 0
-225 -5332 0
-217 5333 0
-5333 5342 0
-218 -5333 5334 0
-5334 5343 0
-219 -5334 5335 0
-5335 5344 0
-220 -5335 5336 0
-5336 5345 0
-221 -5336 5337 0
-5337 5346 0
-222 -5337 5338 0
-5338 5347 0
-223 -5338 5339 0
-5339 5348 0
-224 -5339 5340 0
-5340 5349 0
-225 -5340 5341 0
-5341 5350 0
-226 -5341 0
-218 5342 0
-5342 5351 0
-219 -5342 5343 0
-5343 5352 0
-220 -5343 5344 0
-5344 5353 0
-221 -5344 5345 0
-5345 5354 0
-222 -5345 5346 0
-5346 5355 0
-223 -5346 5347 0
-5347 5356 0
-224 -5347 5348 0
-5348 5357 0
-225 -5348 5349 0
-5349 5358 0
-226 -5349 5350 0
-5350 5359 0
-227 -5350 0
-219 5351 0
-5351 5360 0
-220 -5351 5352 0
-5352 5361 0
-221 -5352 5353 0
-5353 5362 0
-222 -5353 5354 0
-5354 5363 0
-223 -5354 5355 0
-5355 5364 0
-224 -5355 5356 0
-5356 5365 0
-225 -5356 5357 0
-5357 5366 0
-226 -5357 5358 0
-5358 5367 0
-227 -5358 5359 0
-5359 5368 0
-228 -5359 0
-220 5360 0
-5360 5369 0
-221 -5360 5361 0
-5361 5370 0
-222 -5361 5362 0
-5362 5371 0
-223 -5362 5363 0
-5363 5372 0
-224 -5363 5364 0
-5364 5373 0
-225 -5364 5365 0
-5365 5374 0
-226 -5365 5366 0
-5366 5375 0
-227 -5366 5367 0
-5367 5376 0
-228 -5367 5368 0
-5368 5377 0
-229 -5368 0
-221 5369 0
-5369 5378 0
-222 -5369 5370 0
-5370 5379 0
-223 -5370 5371 0
-5371 5380 0
-224 -5371 5372 0
-5372 5381 0
-225 -5372 5373 0
-5373 5382 0
-226 -5373 5374 0
-5374 5383 0
-227 -5374 5375 0
-5375 5384 0
-228 -5375 5376 0
-5376 5385 0
-229 -5376 5377 0
-5377 5386 0
-230 -5377 0
-222 5378 0
-5378 5387 0
-223 -5378 5379 0
-5379 5388 0
-224 -5379 5380 0
-5380 5389 0
-225 -5380 5381 0
-5381 5390 0
-226 -5381 5382 0
-5382 5391 0
-227 -5382 5383 0
-5383 5392 0
-228 -5383 5384 0
-5384 5393 0
-229 -5384 5385 0
-5385 5394 0
-230 -5385 5386 0
-5386 5395 0
-231 -5386 0
-223 5387 0
-5387 5396 0
-224 -5387 5388 0
-5388 5397 0
-225 -5388 5389 0
-5389 5398 0
-226 -5389 5390 0
-5390 5399 0
-227 -5390 5391 0
-5391 5400 0
-228 -5391 5392 0
-5392 5401 0
-229 -5392 5393 0
-5393 5402 0
-230 -5393 5394 0
-5394 5403 0
-231 -5394 5395 0
-5395 5404 0
-232 -5395 0
-224 5396 0
-5396 5405 0
-225 -5396 5397 0
-5397 5406 0
-226 -5397 5398 0
-5398 5407 0
-227 -5398 5399 0
-5399 5408 0
-228 -5399 5400 0
-5400 5409 0
-229 -5400 5401 0
-5401 5410 0
-230 -5401 5402 0
-5402 5411 0
-231 -5402 5403 0
-5403 5412 0
-232 -5403 5404 0
-5404 5413 0
-233 -5404 0
-225 5405 0
-5405 5414 0
-226 -5405 5406 0
-5406 5415 0
-227 -5406 5407 0
-5407 5416 0
-228 -5407 5408 0
-5408 5417 0
-229 -5408 5409 0
-5409 5418 0
-230 -5409 5410 0
-5410 5419 0
-231 -5410 5411 0
-5411 5420 0
-232 -5411 5412 0
-5412 5421 0
-233 -5412 5413 0
-5413 5422 0
-234 -5413 0
-226 5414 0
-5414 5423 0
-227 -5414 5415 0
-5415 5424 0
-228 -5415 5416 0
-5416 5425 0
-229 -5416 5417 0
-5417 5426 0
-230 -5417 5418 0
-5418 5427 0
-231 -5418 5419 0
-5419 5428 0
-232 -5419 5420 0
-5420 5429 0
-233 -5420 5421 0
-5421 5430 0
-234 -5421 5422 0
-5422 5431 0
-235 -5422 0
-227 5423 0
-5423 5432 0
-228 -5423 5424 0
-5424 5433 0
-229 -5424 5425 0
-5425 5434 0
-230 -5425 5426 0
-5426 5435 0
-231 -5426 5427 0
-5427 5436 0
-232 -5427 5428 0
-5428 5437 0
-233 -5428 5429 0
-5429 5438 0
-234 -5429 5430 0
-5430 5439 0
-235 -5430 5431 0
-5431 5440 0
-236 -5431 0
-228 5432 0
-5432 5441 0
-229 -5432 5433 0
-5433 5442 0
-230 -5433 5434 0
-5434 5443 0
-231 -5434 5435 0
-5435 5444 0
-232 -5435 5436 0
-5436 5445 0
-233 -5436 5437 0
-5437 5446 0
-234 -5437 5438 0
-5438 5447 0
-235 -5438 5439 0
-5439 5448 0
-236 -5439 5440 0
-5440 5449 0
-237 -5440 0
-229 5441 0
-5441 5450 0
-230 -5441 5442 0
-5442 5451 0
-231 -5442 5443 0
-5443 5452 0
-232 -5443 5444 0
-5444 5453 0
-233 -5444 5445 0
-5445 5454 0
-234 -5445 5446 0
-5446 5455 0
-235 -5446 5447 0
-5447 5456 0
-236 -5447 5448 0
-5448 5457 0
-237 -5448 5449 0
-5449 5458 0
-238 -5449 0
-230 5450 0
-5450 5459 0
-231 -5450 5451 0
-5451 5460 0
-232 -5451 5452 0
-5452 5461 0
-233 -5452 5453 0
-5453 5462 0
-234 -5453 5454 0
-5454 5463 0
-235 -5454 5455 0
-5455 5464 0
-236 -5455 5456 0
-5456 5465 0
-237 -5456 5457 0
-5457 5466 0
-238 -5457 5458 0
-5458 5467 0
-239 -5458 0
-231 5459 0
-5459 5468 0
-232 -5459 5460 0
-5460 5469 0
-233 -5460 5461 0
-5461 5470 0
-234 -5461 5462 0
-5462 5471 0
-235 -5462 5463 0
-5463 5472 0
-236 -5463 5464 0
-5464 5473 0
-237 -5464 5465 0
-5465 5474 0
-238 -5465 5466 0
-5466 5475 0
-239 -5466 5467 0
-5467 5476 0
-240 -5467 0
-232 5468 0
-5468 5477 0
-233 -5468 5469 0
-5469 5478 0
-234 -5469 5470 0
-5470 5479 0
-235 -5470 5471 0
-5471 5480 0
-236 -5471 5472 0
-5472 5481 0
-237 -5472 5473 0
-5473 5482 0
-238 -5473 5474 0
-5474 5483 0
-239 -5474 5475 0
-5475 5484 0
-240 -5475 5476 0
-5476 5485 0
-241 -5476 0
-233 5477 0
-5477 5486 0
-234 -5477 5478 0
-5478 5487 0
-235 -5478 5479 0
-5479 5488 0
-236 -5479 5480 0
-5480 5489 0
-237 -5480 5481 0
-5481 5490 0
-238 -5481 5482 0
-5482 5491 0
-239 -5482 5483 0
-5483 5492 0
-240 -5483 5484 0
-5484 5493 0
-241 -5484 5485 0
-5485 5494 0
-242 -5485 0
-234 5486 0
-5486 5495 0
-235 -5486 5487 0
-5487 5496 0
-236 -5487 5488 0
-5488 5497 0
-237 -5488 5489 0
-5489 5498 0
-238 -5489 5490 0
-5490 5499 0
-239 -5490 5491 0
-5491 5500 0
-240 -5491 5492 0
-5492 5501 0
-241 -5492 5493 0
-5493 5502 0
-242 -5493 5494 0
-5494 5503 0
-243 -5494 0
-235 5495 0
-5495 5504 0
-236 -5495 5496 0
-5496 5505 0
-237 -5496 5497 0
-5497 5506 0
-238 -5497 5498 0
-5498 5507 0
-239 -5498 5499 0
-5499 5508 0
-240 -5499 5500 0
-5500 5509 0
-241 -5500 5501 0
-5501 5510 0
-242 -5501 5502 0
-5502 5511 0
-243 -5502 5503 0
-5503 5512 0
-244 -5503 0
-236 5504 0
-5504 5513 0
-237 -5504 5505 0
-5505 5514 0
-238 -5505 5506 0
-5506 5515 0
-239 -5506 5507 0
-5507 5516 0
-240 -5507 5508 0
-5508 5517 0
-241 -5508 5509 0
-5509 5518 0
-242 -5509 5510 0
-5510 5519 0
-243 -5510 5511 0
-5511 5520 0
-244 -5511 5512 0
-5512 5521 0
-245 -5512 0
-237 5513 0
-5513 5522 0
-238 -5513 5514 0
-5514 5523 0
-239 -5514 5515 0
-5515 5524 0
-240 -5515 5516 0
-5516 5525 0
-241 -5516 5517 0
-5517 5526 0
-242 -5517 5518 0
-5518 5527 0
-243 -5518 5519 0
-5519 5528 0
-244 -5519 5520 0
-5520 5529 0
-245 -5520 5521 0
-5521 5530 0
-246 -5521 0
-238 5522 0
-5522 5531 0
-239 -5522 5523 0
-5523 5532 0
-240 -5523 5524 0
-5524 5533 0
-241 -5524 5525 0
-5525 5534 0
-242 -5525 5526 0
-5526 5535 0
-243 -5526 5527 0
-5527 5536 0
-244 -5527 5528 0
-5528 5537 0
-245 -5528 5529 0
-5529 5538 0
-246 -5529 5530 0
-5530 5539 0
-247 -5530 0
-239 5531 0
-5531 5540 0
-240 -5531 5532 0
-5532 5541 0
-241 -5532 5533 0
-5533 5542 0
-242 -5533 5534 0
-5534 5543 0
-243 -5534 5535 0
-5535 5544 0
-244 -5535 5536 0
-5536 5545 0
-245 -5536 5537 0
-5537 5546 0
-246 -5537 5538 0
-5538 5547 0
-247 -5538 5539 0
-5539 5548 0
-248 -5539 0
-240 5540 0
-5540 5549 0
-241 -5540 5541 0
-5541 5550 0
-242 -5541 5542 0
-5542 5551 0
-243 -5542 5543 0
-5543 5552 0
-244 -5543 5544 0
-5544 5553 0
-245 -5544 5545 0
-5545 5554 0
-246 -5545 5546 0
-5546 5555 0
-247 -5546 5547 0
-5547 5556 0
-248 -5547 5548 0
-5548 5557 0
-249 -5548 0
-241 5549 0
-5549 5558 0
-242 -5549 5550 0
-5550 5559 0
-243 -5550 5551 0
-5551 5560 0
-244 -5551 5552 0
-5552 5561 0
-245 -5552 5553 0
-5553 5562 0
-246 -5553 5554 0
-5554 5563 0
-247 -5554 5555 0
-5555 5564 0
-248 -5555 5556 0
-5556 5565 0
-249 -5556 5557 0
-5557 5566 0
-250 -5557 0
-242 5558 0
-5558 5567 0
-243 -5558 5559 0
-5559 5568 0
-244 -5559 5560 0
-5560 5569 0
-245 -5560 5561 0
-5561 5570 0
-246 -5561 5562 0
-5562 5571 0
-247 -5562 5563 0
-5563 5572 0
-248 -5563 5564 0
-5564 5573 0
-249 -5564 5565 0
-5565 5574 0
-250 -5565 5566 0
-5566 5575 0
-251 -5566 0
-243 5567 0
-5567 5576 0
-244 -5567 5568 0
-5568 5577 0
-245 -5568 5569 0
-5569 5578 0
-246 -5569 5570 0
-5570 5579 0
-247 -5570 5571 0
-5571 5580 0
-248 -5571 5572 0
-5572 5581 0
-249 -5572 5573 0
-5573 5582 0
-250 -5573 5574 0
-5574 5583 0
-251 -5574 5575 0
-5575 5584 0
-252 -5575 0
-244 5576 0
-5576 5585 0
-245 -5576 5577 0
-5577 5586 0
-246 -5577 5578 0
-5578 5587 0
-247 -5578 5579 0
-5579 5588 0
-248 -5579 5580 0
-5580 5589 0
-249 -5580 5581 0
-5581 5590 0
-250 -5581 5582 0
-5582 5591 0
-251 -5582 5583 0
-5583 5592 0
-252 -5583 5584 0
-5584 5593 0
-253 -5584 0
-245 5585 0
-5585 5594 0
-246 -5585 5586 0
-5586 5595 0
-247 -5586 5587 0
-5587 5596 0
-248 -5587 5588 0
-5588 5597 0
-249 -5588 5589 0
-5589 5598 0
-250 -5589 5590 0
-5590 5599 0
-251 -5590 5591 0
-5591 5600 0
-252 -5591 5592 0
-5592 5601 0
-253 -5592 5593 0
-5593 5602 0
-254 -5593 0
-246 5594 0
-5594 5603 0
-247 -5594 5595 0
-5595 5604 0
-248 -5595 5596 0
-5596 5605 0
-249 -5596 5597 0
-5597 5606 0
-250 -5597 5598 0
-5598 5607 0
-251 -5598 5599 0
-5599 5608 0
-252 -5599 5600 0
-5600 5609 0
-253 -5600 5601 0
-5601 5610 0
-254 -5601 5602 0
-5602 5611 0
-255 -5602 0
-247 5603 0
-5603 5612 0
-248 -5603 5604 0
-5604 5613 0
-249 -5604 5605 0
-5605 5614 0
-250 -5605 5606 0
-5606 5615 0
-251 -5606 5607 0
-5607 5616 0
-252 -5607 5608 0
-5608 5617 0
-253 -5608 5609 0
-5609 5618 0
-254 -5609 5610 0
-5610 5619 0
-255 -5610 5611 0
-5611 5620 0
-256 -5611 0
-248 5612 0
-5612 5621 0
-249 -5612 5613 0
-5613 5622 0
-250 -5613 5614 0
-5614 5623 0
-251 -5614 5615 0
-5615 5624 0
-252 -5615 5616 0
-5616 5625 0
-253 -5616 5617 0
-5617 5626 0
-254 -5617 5618 0
-5618 5627 0
-255 -5618 5619 0
-5619 5628 0
-256 -5619 5620 0
-5620 5629 0
-257 -5620 0
-249 5621 0
-5621 5630 0
-250 -5621 5622 0
-5622 5631 0
-251 -5622 5623 0
-5623 5632 0
-252 -5623 5624 0
-5624 5633 0
-253 -5624 5625 0
-5625 5634 0
-254 -5625 5626 0
-5626 5635 0
-255 -5626 5627 0
-5627 5636 0
-256 -5627 5628 0
-5628 5637 0
-257 -5628 5629 0
-5629 5638 0
-258 -5629 0
-250 5630 0
-5630 5639 0
-251 -5630 5631 0
-5631 5640 0
-252 -5631 5632 0
-5632 5641 0
-253 -5632 5633 0
-5633 5642 0
-254 -5633 5634 0
-5634 5643 0
-255 -5634 5635 0
-5635 5644 0
-256 -5635 5636 0
-5636 5645 0
-257 -5636 5637 0
-5637 5646 0
-258 -5637 5638 0
-5638 5647 0
-259 -5638 0
-251 5639 0
-5639 5648 0
-252 -5639 5640 0
-5640 5649 0
-253 -5640 5641 0
-5641 5650 0
-254 -5641 5642 0
-5642 5651 0
-255 -5642 5643 0
-5643 5652 0
-256 -5643 5644 0
-5644 5653 0
-257 -5644 5645 0
-5645 5654 0
-258 -5645 5646 0
-5646 5655 0
-259 -5646 5647 0
-5647 5656 0
-260 -5647 0
-252 5648 0
-5648 5657 0
-253 -5648 5649 0
-5649 5658 0
-254 -5649 5650 0
-5650 5659 0
-255 -5650 5651 0
-5651 5660 0
-256 -5651 5652 0
-5652 5661 0
-257 -5652 5653 0
-5653 5662 0
-258 -5653 5654 0
-5654 5663 0
-259 -5654 5655 0
-5655 5664 0
-260 -5655 5656 0
-5656 5665 0
-261 -5656 0
-253 5657 0
-5657 5666 0
-254 -5657 5658 0
-5658 5667 0
-255 -5658 5659 0
-5659 5668 0
-256 -5659 5660 0
-5660 5669 0
-257 -5660 5661 0
-5661 5670 0
-258 -5661 5662 0
-5662 5671 0
-259 -5662 5663 0
-5663 5672 0
-260 -5663 5664 0
-5664 5673 0
-261 -5664 5665 0
-5665 5674 0
-262 -5665 0
-254 5666 0
-5666 5675 0
-255 -5666 5667 0
-5667 5676 0
-256 -5667 5668 0
-5668 5677 0
-257 -5668 5669 0
-5669 5678 0
-258 -5669 5670 0
-5670 5679 0
-259 -5670 5671 0
-5671 5680 0
-260 -5671 5672 0
-5672 5681 0
-261 -5672 5673 0
-5673 5682 0
-262 -5673 5674 0
-5674 5683 0
-263 -5674 0
-255 5675 0
-5675 5684 0
-256 -5675 5676 0
-5676 5685 0
-257 -5676 5677 0
-5677 5686 0
-258 -5677 5678 0
-5678 5687 0
-259 -5678 5679 0
-5679 5688 0
-260 -5679 5680 0
-5680 5689 0
-261 -5680 5681 0
-5681 5690 0
-262 -5681 5682 0
-5682 5691 0
-263 -5682 5683 0
-5683 5692 0
-264 -5683 0
-256 5684 0
-5684 5693 0
-257 -5684 5685 0
-5685 5694 0
-258 -5685 5686 0
-5686 5695 0
-259 -5686 5687 0
-5687 5696 0
-260 -5687 5688 0
-5688 5697 0
-261 -5688 5689 0
-5689 5698 0
-262 -5689 5690 0
-5690 5699 0
-263 -5690 5691 0
-5691 5700 0
-264 -5691 5692 0
-5692 5701 0
-265 -5692 0
-257 5693 0
-5693 5702 0
-258 -5693 5694 0
-5694 5703 0
-259 -5694 5695 0
-5695 5704 0
-260 -5695 5696 0
-5696 5705 0
-261 -5696 5697 0
-5697 5706 0
-262 -5697 5698 0
-5698 5707 0
-263 -5698 5699 0
-5699 5708 0
-264 -5699 5700 0
-5700 5709 0
-265 -5700 5701 0
-5701 5710 0
-266 -5701 0
-258 5702 0
-5702 5711 0
-259 -5702 5703 0
-5703 5712 0
-260 -5703 5704 0
-5704 5713 0
-261 -5704 5705 0
-5705 5714 0
-262 -5705 5706 0
-5706 5715 0
-263 -5706 5707 0
-5707 5716 0
-264 -5707 5708 0
-5708 5717 0
-265 -5708 5709 0
-5709 5718 0
-266 -5709 5710 0
-5710 5719 0
-267 -5710 0
-259 5711 0
-5711 5720 0
-260 -5711 5712 0
-5712 5721 0
-261 -5712 5713 0
-5713 5722 0
-262 -5713 5714 0
-5714 5723 0
-263 -5714 5715 0
-5715 5724 0
-264 -5715 5716 0
-5716 5725 0
-265 -5716 5717 0
-5717 5726 0
-266 -5717 5718 0
-5718 5727 0
-267 -5718 5719 0
-5719 5728 0
-268 -5719 0
-260 5720 0
-5720 5729 0
-261 -5720 5721 0
-5721 5730 0
-262 -5721 5722 0
-5722 5731 0
-263 -5722 5723 0
-5723 5732 0
-264 -5723 5724 0
-5724 5733 0
-265 -5724 5725 0
-5725 5734 0
-266 -5725 5726 0
-5726 5735 0
-267 -5726 5727 0
-5727 5736 0
-268 -5727 5728 0
-5728 5737 0
-269 -5728 0
-261 5729 0
-5729 5738 0
-262 -5729 5730 0
-5730 5739 0
-263 -5730 5731 0
-5731 5740 0
-264 -5731 5732 0
-5732 5741 0
-265 -5732 5733 0
-5733 5742 0
-266 -5733 5734 0
-5734 5743 0
-267 -5734 5735 0
-5735 5744 0
-268 -5735 5736 0
-5736 5745 0
-269 -5736 5737 0
-5737 5746 0
-270 -5737 0
-262 5738 0
-5738 5747 0
-263 -5738 5739 0
-5739 5748 0
-264 -5739 5740 0
-5740 5749 0
-265 -5740 5741 0
-5741 5750 0
-266 -5741 5742 0
-5742 5751 0
-267 -5742 5743 0
-5743 5752 0
-268 -5743 5744 0
-5744 5753 0
-269 -5744 5745 0
-5745 5754 0
-270 -5745 5746 0
-5746 5755 0
-271 -5746 0
-263 5747 0
-5747 5756 0
-264 -5747 5748 0
-5748 5757 0
-265 -5748 5749 0
-5749 5758 0
-266 -5749 5750 0
-5750 5759 0
-267 -5750 5751 0
-5751 5760 0
-268 -5751 5752 0
-5752 5761 0
-269 -5752 5753 0
-5753 5762 0
-270 -5753 5754 0
-5754 5763 0
-271 -5754 5755 0
-5755 5764 0
-272 -5755 0
-264 5756 0
-5756 5765 0
-265 -5756 5757 0
-5757 5766 0
-266 -5757 5758 0
-5758 5767 0
-267 -5758 5759 0
-5759 5768 0
-268 -5759 5760 0
-5760 5769 0
-269 -5760 5761 0
-5761 5770 0
-270 -5761 5762 0
-5762 5771 0
-271 -5762 5763 0
-5763 5772 0
-272 -5763 5764 0
-5764 5773 0
-273 -5764 0
-265 5765 0
-5765 5774 0
-266 -5765 5766 0
-5766 5775 0
-267 -5766 5767 0
-5767 5776 0
-268 -5767 5768 0
-5768 5777 0
-269 -5768 5769 0
-5769 5778 0
-270 -5769 5770 0
-5770 5779 0
-271 -5770 5771 0
-5771 5780 0
-272 -5771 5772 0
-5772 5781 0
-273 -5772 5773 0
-5773 5782 0
-274 -5773 0
-266 5774 0
-5774 5783 0
-267 -5774 5775 0
-5775 5784 0
-268 -5775 5776 0
-5776 5785 0
-269 -5776 5777 0
-5777 5786 0
-270 -5777 5778 0
-5778 5787 0
-271 -5778 5779 0
-5779 5788 0
-272 -5779 5780 0
-5780 5789 0
-273 -5780 5781 0
-5781 5790 0
-274 -5781 5782 0
-5782 5791 0
-275 -5782 0
-267 5783 0
-5783 5792 0
-268 -5783 5784 0
-5784 5793 0
-269 -5784 5785 0
-5785 5794 0
-270 -5785 5786 0
-5786 5795 0
-271 -5786 5787 0
-5787 5796 0
-272 -5787 5788 0
-5788 5797 0
-273 -5788 5789 0
-5789 5798 0
-274 -5789 5790 0
-5790 5799 0
-275 -5790 5791 0
-5791 5800 0
-276 -5791 0
-268 5792 0
-5792 5801 0
-269 -5792 5793 0
-5793 5802 0
-270 -5793 5794 0
-5794 5803 0
-271 -5794 5795 0
-5795 5804 0
-272 -5795 5796 0
-5796 5805 0
-273 -5796 5797 0
-5797 5806 0
-274 -5797 5798 0
-5798 5807 0
-275 -5798 5799 0
-5799 5808 0
-276 -5799 5800 0
-5800 5809 0
-277 -5800 0
-269 5801 0
-5801 5810 0
-270 -5801 5802 0
-5802 5811 0
-271 -5802 5803 0
-5803 5812 0
-272 -5803 5804 0
-5804 5813 0
-273 -5804 5805 0
-5805 5814 0
-274 -5805 5806 0
-5806 5815 0
-275 -5806 5807 0
-5807 5816 0
-276 -5807 5808 0
-5808 5817 0
-277 -5808 5809 0
-5809 5818 0
-278 -5809 0
-270 5810 0
-5810 5819 0
-271 -5810 5811 0
-5811 5820 0
-272 -5811 5812 0
-5812 5821 0
-273 -5812 5813 0
-5813 5822 0
-274 -5813 5814 0
-5814 5823 0
-275 -5814 5815 0
-5815 5824 0
-276 -5815 5816 0
-5816 5825 0
-277 -5816 5817 0
-5817 5826 0
-278 -5817 5818 0
-5818 5827 0
-279 -5818 0
-271 5819 0
-5819 5828 0
-272 -5819 5820 0
-5820 5829 0
-273 -5820 5821 0
-5821 5830 0
-274 -5821 5822 0
-5822 5831 0
-275 -5822 5823 0
-5823 5832 0
-276 -5823 5824 0
-5824 5833 0
-277 -5824 5825 0
-5825 5834 0
-278 -5825 5826 0
-5826 5835 0
-279 -5826 5827 0
-5827 5836 0
-280 -5827 0
-272 5828 0
-5828 5837 0
-273 -5828 5829 0
-5829 5838 0
-274 -5829 5830 0
-5830 5839 0
-275 -5830 5831 0
-5831 5840 0
-276 -5831 5832 0
-5832 5841 0
-277 -5832 5833 0
-5833 5842 0
-278 -5833 5834 0
-5834 5843 0
-279 -5834 5835 0
-5835 5844 0
-280 -5835 5836 0
-5836 5845 0
-281 -5836 0
-273 5837 0
-5837 5846 0
-274 -5837 5838 0
-5838 5847 0
-275 -5838 5839 0
-5839 5848 0
-276 -5839 5840 0
-5840 5849 0
-277 -5840 5841 0
-5841 5850 0
-278 -5841 5842 0
-5842 5851 0
-279 -5842 5843 0
-5843 5852 0
-280 -5843 5844 0
-5844 5853 0
-281 -5844 5845 0
-5845 5854 0
-282 -5845 0
-274 5846 0
-5846 5855 0
-275 -5846 5847 0
-5847 5856 0
-276 -5847 5848 0
-5848 5857 0
-277 -5848 5849 0
-5849 5858 0
-278 -5849 5850 0
-5850 5859 0
-279 -5850 5851 0
-5851 5860 0
-280 -5851 5852 0
-5852 5861 0
-281 -5852 5853 0
-5853 5862 0
-282 -5853 5854 0
-5854 5863 0
-283 -5854 0
-275 5855 0
-5855 5864 0
-276 -5855 5856 0
-5856 5865 0
-277 -5856 5857 0
-5857 5866 0
-278 -5857 5858 0
-5858 5867 0
-279 -5858 5859 0
-5859 5868 0
-280 -5859 5860 0
-5860 5869 0
-281 -5860 5861 0
-5861 5870 0
-282 -5861 5862 0
-5862 5871 0
-283 -5862 5863 0
-5863 5872 0
-284 -5863 0
-276 5864 0
-5864 5873 0
-277 -5864 5865 0
-5865 5874 0
-278 -5865 5866 0
-5866 5875 0
-279 -5866 5867 0
-5867 5876 0
-280 -5867 5868 0
-5868 5877 0
-281 -5868 5869 0
-5869 5878 0
-282 -5869 5870 0
-5870 5879 0
-283 -5870 5871 0
-5871 5880 0
-284 -5871 5872 0
-5872 5881 0
-285 -5872 0
-277 5873 0
-5873 5882 0
-278 -5873 5874 0
-5874 5883 0
-279 -5874 5875 0
-5875 5884 0
-280 -5875 5876 0
-5876 5885 0
-281 -5876 5877 0
-5877 5886 0
-282 -5877 5878 0
-5878 5887 0
-283 -5878 5879 0
-5879 5888 0
-284 -5879 5880 0
-5880 5889 0
-285 -5880 5881 0
-5881 5890 0
-286 -5881 0
-278 5882 0
-5882 5891 0
-279 -5882 5883 0
-5883 5892 0
-280 -5883 5884 0
-5884 5893 0
-281 -5884 5885 0
-5885 5894 0
-282 -5885 5886 0
-5886 5895 0
-283 -5886 5887 0
-5887 5896 0
-284 -5887 5888 0
-5888 5897 0
-285 -5888 5889 0
-5889 5898 0
-286 -5889 5890 0
-5890 5899 0
-287 -5890 0
-279 5891 0
-5891 5900 0
-280 -5891 5892 0
-5892 5901 0
-281 -5892 5893 0
-5893 5902 0
-282 -5893 5894 0
-5894 5903 0
-283 -5894 5895 0
-5895 5904 0
-284 -5895 5896 0
-5896 5905 0
-285 -5896 5897 0
-5897 5906 0
-286 -5897 5898 0
-5898 5907 0
-287 -5898 5899 0
-5899 5908 0
-288 -5899 0
-280 5900 0
-5900 5909 0
-281 -5900 5901 0
-5901 5910 0
-282 -5901 5902 0
-5902 5911 0
-283 -5902 5903 0
-5903 5912 0
-284 -5903 5904 0
-5904 5913 0
-285 -5904 5905 0
-5905 5914 0
-286 -5905 5906 0
-5906 5915 0
-287 -5906 5907 0
-5907 5916 0
-288 -5907 5908 0
-5908 5917 0
-289 -5908 0
-281 5909 0
-5909 5918 0
-282 -5909 5910 0
-5910 5919 0
-283 -5910 5911 0
-5911 5920 0
-284 -5911 5912 0
-5912 5921 0
-285 -5912 5913 0
-5913 5922 0
-286 -5913 5914 0
-5914 5923 0
-287 -5914 5915 0
-5915 5924 0
-288 -5915 5916 0
-5916 5925 0
-289 -5916 5917 0
-5917 5926 0
-290 -5917 0
-282 5918 0
-5918 5927 0
-283 -5918 5919 0
-5919 5928 0
-284 -5919 5920 0
-5920 5929 0
-285 -5920 5921 0
-5921 5930 0
-286 -5921 5922 0
-5922 5931 0
-287 -5922 5923 0
-5923 5932 0
-288 -5923 5924 0
-5924 5933 0
-289 -5924 5925 0
-5925 5934 0
-290 -5925 5926 0
-5926 5935 0
-291 -5926 0
-283 5927 0
-5927 5936 0
-284 -5927 5928 0
-5928 5937 0
-285 -5928 5929 0
-5929 5938 0
-286 -5929 5930 0
-5930 5939 0
-287 -5930 5931 0
-5931 5940 0
-288 -5931 5932 0
-5932 5941 0
-289 -5932 5933 0
-5933 5942 0
-290 -5933 5934 0
-5934 5943 0
-291 -5934 5935 0
-5935 5944 0
-292 -5935 0
-284 5936 0
-5936 5945 0
-285 -5936 5937 0
-5937 5946 0
-286 -5937 5938 0
-5938 5947 0
-287 -5938 5939 0
-5939 5948 0
-288 -5939 5940 0
-5940 5949 0
-289 -5940 5941 0
-5941 5950 0
-290 -5941 5942 0
-5942 5951 0
-291 -5942 5943 0
-5943 5952 0
-292 -5943 5944 0
-5944 5953 0
-293 -5944 0
-285 5945 0
-5945 5954 0
-286 -5945 5946 0
-5946 5955 0
-287 -5946 5947 0
-5947 5956 0
-288 -5947 5948 0
-5948 5957 0
-289 -5948 5949 0
-5949 5958 0
-290 -5949 5950 0
-5950 5959 0
-291 -5950 5951 0
-5951 5960 0
-292 -5951 5952 0
-5952 5961 0
-293 -5952 5953 0
-5953 5962 0
-294 -5953 0
-286 5954 0
-5954 5963 0
-287 -5954 5955 0
-5955 5964 0
-288 -5955 5956 0
-5956 5965 0
-289 -5956 5957 0
-5957 5966 0
-290 -5957 5958 0
-5958 5967 0
-291 -5958 5959 0
-5959 5968 0
-292 -5959 5960 0
-5960 5969 0
-293 -5960 5961 0
-5961 5970 0
-294 -5961 5962 0
-5962 5971 0
-295 -5962 0
-287 5963 0
-5963 5972 0
-288 -5963 5964 0
-5964 5973 0
-289 -5964 5965 0
-5965 5974 0
-290 -5965 5966 0
-5966 5975 0
-291 -5966 5967 0
-5967 5976 0
-292 -5967 5968 0
-5968 5977 0
-293 -5968 5969 0
-5969 5978 0
-294 -5969 5970 0
-5970 5979 0
-295 -5970 5971 0
-5971 5980 0
-296 -5971 0
-288 5972 0
-5972 5981 0
-289 -5972 5973 0
-5973 5982 0
-290 -5973 5974 0
-5974 5983 0
-291 -5974 5975 0
-5975 5984 0
-292 -5975 5976 0
-5976 5985 0
-293 -5976 5977 0
-5977 5986 0
-294 -5977 5978 0
-5978 5987 0
-295 -5978 5979 0
-5979 5988 0
-296 -5979 5980 0
-5980 5989 0
-297 -5980 0
-289 5981 0
-5981 5990 0
-290 -5981 5982 0
-5982 5991 0
-291 -5982 5983 0
-5983 5992 0
-292 -5983 5984 0
-5984 5993 0
-293 -5984 5985 0
-5985 5994 0
-294 -5985 5986 0
-5986 5995 0
-295 -5986 5987 0
-5987 5996 0
-296 -5987 5988 0
-5988 5997 0
-297 -5988 5989 0
-5989 5998 0
-298 -5989 0
-290 5990 0
-5990 5999 0
-291 -5990 5991 0
-5991 6000 0
-292 -5991 5992 0
-5992 6001 0
-293 -5992 5993 0
-5993 6002 0
-294 -5993 5994 0
-5994 6003 0
-295 -5994 5995 0
-5995 6004 0
-296 -5995 5996 0
-5996 6005 0
-297 -5996 5997 0
-5997 6006 0
-298 -5997 5998 0
-5998 6007 0
-299 -5998 0
-291 5999 0
-5999 6008 0
-292 -5999 6000 0
-6000 6009 0
-293 -6000 6001 0
-6001 6010 0
-294 -6001 6002 0
-6002 6011 0
-295 -6002 6003 0
-6003 6012 0
-296 -6003 6004 0
-6004 6013 0
-297 -6004 6005 0
-6005 6014 0
-298 -6005 6006 0
-6006 6015 0
-299 -6006 6007 0
-6007 6016 0
-300 -6007 0
-292 6008 0
-6008 6017 0
-293 -6008 6009 0
-6009 6018 0
-294 -6009 6010 0
-6010 6019 0
-295 -6010 6011 0
-6011 6020 0
-296 -6011 6012 0
-6012 6021 0
-297 -6012 6013 0
-6013 6022 0
-298 -6013 6014 0
-6014 6023 0
-299 -6014 6015 0
-6015 6024 0
-300 -6015 6016 0
-6016 6025 0
-301 -6016 0
-293 6017 0
-6017 6026 0
-294 -6017 6018 0
-6018 6027 0
-295 -6018 6019 0
-6019 6028 0
-296 -6019 6020 0
-6020 6029 0
-297 -6020 6021 0
-6021 6030 0
-298 -6021 6022 0
-6022 6031 0
-299 -6022 6023 0
-6023 6032 0
-300 -6023 6024 0
-6024 6033 0
-301 -6024 6025 0
-6025 6034 0
-302 -6025 0
-294 6026 0
-6026 6035 0
-295 -6026 6027 0
-6027 6036 0
-296 -6027 6028 0
-6028 6037 0
-297 -6028 6029 0
-6029 6038 0
-298 -6029 6030 0
-6030 6039 0
-299 -6030 6031 0
-6031 6040 0
-300 -6031 6032 0
-6032 6041 0
-301 -6032 6033 0
-6033 6042 0
-302 -6033 6034 0
-6034 6043 0
-303 -6034 0
-295 6035 0
-6035 6044 0
-296 -6035 6036 0
-6036 6045 0
-297 -6036 6037 0
-6037 6046 0
-298 -6037 6038 0
-6038 6047 0
-299 -6038 6039 0
-6039 6048 0
-300 -6039 6040 0
-6040 6049 0
-301 -6040 6041 0
-6041 6050 0
-302 -6041 6042 0
-6042 6051 0
-303 -6042 6043 0
-6043 6052 0
-304 -6043 0
-296 6044 0
-6044 6053 0
-297 -6044 6045 0
-6045 6054 0
-298 -6045 6046 0
-6046 6055 0
-299 -6046 6047 0
-6047 6056 0
-300 -6047 6048 0
-6048 6057 0
-301 -6048 6049 0
-6049 6058 0
-302 -6049 6050 0
-6050 6059 0
-303 -6050 6051 0
-6051 6060 0
-304 -6051 6052 0
-6052 6061 0
-305 -6052 0
-297 6053 0
-6053 6062 0
-298 -6053 6054 0
-6054 6063 0
-299 -6054 6055 0
-6055 6064 0
-300 -6055 6056 0
-6056 6065 0
-301 -6056 6057 0
-6057 6066 0
-302 -6057 6058 0
-6058 6067 0
-303 -6058 6059 0
-6059 6068 0
-304 -6059 6060 0
-6060 6069 0
-305 -6060 6061 0
-6061 6070 0
-306 -6061 0
-298 6062 0
-6062 6071 0
-299 -6062 6063 0
-6063 6072 0
-300 -6063 6064 0
-6064 6073 0
-301 -6064 6065 0
-6065 6074 0
-302 -6065 6066 0
-6066 6075 0
-303 -6066 6067 0
-6067 6076 0
-304 -6067 6068 0
-6068 6077 0
-305 -6068 6069 0
-6069 6078 0
-306 -6069 6070 0
-6070 6079 0
-307 -6070 0
-299 6071 0
-6071 6080 0
-300 -6071 6072 0
-6072 6081 0
-301 -6072 6073 0
-6073 6082 0
-302 -6073 6074 0
-6074 6083 0
-303 -6074 6075 0
-6075 6084 0
-304 -6075 6076 0
-6076 6085 0
-305 -6076 6077 0
-6077 6086 0
-306 -6077 6078 0
-6078 6087 0
-307 -6078 6079 0
-6079 6088 0
-308 -6079 0
-300 6080 0
-6080 6089 0
-301 -6080 6081 0
-6081 6090 0
-302 -6081 6082 0
-6082 6091 0
-303 -6082 6083 0
-6083 6092 0
-304 -6083 6084 0
-6084 6093 0
-305 -6084 6085 0
-6085 6094 0
-306 -6085 6086 0
-6086 6095 0
-307 -6086 6087 0
-6087 6096 0
-308 -6087 6088 0
-6088 6097 0
-309 -6088 0
-301 6089 0
-6089 6098 0
-302 -6089 6090 0
-6090 6099 0
-303 -6090 6091 0
-6091 6100 0
-304 -6091 6092 0
-6092 6101 0
-305 -6092 6093 0
-6093 6102 0
-306 -6093 6094 0
-6094 6103 0
-307 -6094 6095 0
-6095 6104 0
-308 -6095 6096 0
-6096 6105 0
-309 -6096 6097 0
-6097 6106 0
-310 -6097 0
-302 6098 0
-6098 6107 0
-303 -6098 6099 0
-6099 6108 0
-304 -6099 6100 0
-6100 6109 0
-305 -6100 6101 0
-6101 6110 0
-306 -6101 6102 0
-6102 6111 0
-307 -6102 6103 0
-6103 6112 0
-308 -6103 6104 0
-6104 6113 0
-309 -6104 6105 0
-6105 6114 0
-310 -6105 6106 0
-6106 6115 0
-311 -6106 0
-303 6107 0
-304 -6107 6108 0
-305 -6108 6109 0
-306 -6109 6110 0
-307 -6110 6111 0
-308 -6111 6112 0
-309 -6112 6113 0
-310 -6113 6114 0
-311 -6114 6115 0
-312 -6115 0
1 79 0
