p cnf 2847 5837
-81 -1 0
-81 2 40 41 0
-2 1 81 0
-40 1 81 0
-41 1 81 0
-82 -2 0
-82 1 3 42 0
-1 2 82 0
-3 2 82 0
-42 2 82 0
-83 -3 0
-83 2 4 43 0
-2 3 83 0
-4 3 83 0
-43 3 83 0
-84 -4 0
-84 3 5 44 0
-3 4 84 0
-5 4 84 0
-44 4 84 0
-85 -5 0
-85 4 6 45 0
-4 5 85 0
-6 5 85 0
-45 5 85 0
-86 -6 0
-86 5 7 46 0
-5 6 86 0
-7 6 86 0
-46 6 86 0
-87 -7 0
-87 6 8 47 0
-6 7 87 0
-8 7 87 0
-47 7 87 0
-88 -8 0
-88 7 9 48 0
-7 8 88 0
-9 8 88 0
-48 8 88 0
-89 -9 0
-89 8 10 49 0
-8 9 89 0
-10 9 89 0
-49 9 89 0
-90 -10 0
-90 9 11 50 0
-9 10 90 0
-11 10 90 0
-50 10 90 0
-91 -11 0
-91 10 12 51 0
-10 11 91 0
-12 11 91 0
-51 11 91 0
-92 -12 0
-92 11 13 52 0
-11 12 92 0
-13 12 92 0
-52 12 92 0
-93 -13 0
-93 12 14 53 0
-12 13 93 0
-14 13 93 0
-53 13 93 0
-94 -14 0
-94 13 15 54 0
-13 14 94 0
-15 14 94 0
-54 14 94 0
-95 -15 0
-95 14 16 55 0
-14 15 95 0
-16 15 95 0
-55 15 95 0
-96 -16 0
-96 15 17 56 0
-15 16 96 0
-17 16 96 0
-56 16 96 0
-97 -17 0
-97 16 18 57 0
-16 17 97 0
-18 17 97 0
-57 17 97 0
-98 -18 0
-98 17 19 58 0
-17 18 98 0
-19 18 98 0
-58 18 98 0
-99 -19 0
-99 18 20 59 0
-18 19 99 0
-20 19 99 0
-59 19 99 0
-100 -20 0
-100 19 21 60 0
-19 20 100 0
-21 20 100 0
-60 20 100 0
-101 -21 0
-101 20 22 61 0
-20 21 101 0
-22 21 101 0
-61 21 101 0
-102 -22 0
-102 21 23 62 0
-21 22 102 0
-23 22 102 0
-62 22 102 0
-103 -23 0
-103 22 24 63 0
-22 23 103 0
-24 23 103 0
-63 23 103 0
-104 -24 0
-104 23 25 64 0
-23 24 104 0
-25 24 104 0
-64 24 104 0
-105 -25 0
-105 24 26 65 0
-24 25 105 0
-26 25 105 0
-65 25 105 0
-106 -26 0
-106 25 27 66 0
-25 26 106 0
-27 26 106 0
-66 26 106 0
-107 -27 0
-107 26 28 67 0
-26 27 107 0
-28 27 107 0
-67 27 107 0
-108 -28 0
-108 27 29 68 0
-27 28 108 0
-29 28 108 0
-68 28 108 0
-109 -29 0
-109 28 30 69 0
-28 29 109 0
-30 29 109 0
-69 29 109 0
-110 -30 0
-110 29 31 70 0
-29 30 110 0
-31 30 110 0
-70 30 110 0
-111 -31 0
-111 30 32 71 0
-30 31 111 0
-32 31 111 0
-71 31 111 0
-112 -32 0
-112 31 33 72 0
-31 32 112 0
-33 32 112 0
-72 32 112 0
-113 -33 0
-113 32 34 73 0
-32 33 113 0
-34 33 113 0
-73 33 113 0
-114 -34 0
-114 33 35 74 0
-33 34 114 0
-35 34 114 0
-74 34 114 0
-115 -35 0
-115 34 36 75 0
-34 35 115 0
-36 35 115 0
-75 35 115 0
-116 -36 0
-116 35 37 76 0
-35 36 116 0
-37 36 116 0
-76 36 116 0
-117 -37 0
-117 36 38 77 0
-36 37 117 0
-38 37 117 0
-77 37 117 0
-118 -38 0
-118 37 39 78 0
-37 38 118 0
-39 38 118 0
-78 38 118 0
-119 -39 0
-119 38 40 79 0
-38 39 119 0
-40 39 119 0
-79 39 119 0
-120 -40 0
-120 1 39 80 0
-1 40 120 0
-39 40 120 0
-80 40 120 0
-121 -41 0
-121 1 45 77 0
-1 41 121 0
-45 41 121 0
-77 41 121 0
-122 -42 0
-122 2 46 78 0
-2 42 122 0
-46 42 122 0
-78 42 122 0
-123 -43 0
-123 3 47 79 0
-3 43 123 0
-47 43 123 0
-79 43 123 0
-124 -44 0
-124 4 48 80 0
-4 44 124 0
-48 44 124 0
-80 44 124 0
-125 -45 0
-125 5 41 49 0
-5 45 125 0
-41 45 125 0
-49 45 125 0
-126 -46 0
-126 6 42 50 0
-6 46 126 0
-42 46 126 0
-50 46 126 0
-127 -47 0
-127 7 43 51 0
-7 47 127 0
-43 47 127 0
-51 47 127 0
-128 -48 0
-128 8 44 52 0
-8 48 128 0
-44 48 128 0
-52 48 128 0
-129 -49 0
-129 9 45 53 0
-9 49 129 0
-45 49 129 0
-53 49 129 0
-130 -50 0
-130 10 46 54 0
-10 50 130 0
-46 50 130 0
-54 50 130 0
-131 -51 0
-131 11 47 55 0
-11 51 131 0
-47 51 131 0
-55 51 131 0
-132 -52 0
-132 12 48 56 0
-12 52 132 0
-48 52 132 0
-56 52 132 0
-133 -53 0
-133 13 49 57 0
-13 53 133 0
-49 53 133 0
-57 53 133 0
-134 -54 0
-134 14 50 58 0
-14 54 134 0
-50 54 134 0
-58 54 134 0
-135 -55 0
-135 15 51 59 0
-15 55 135 0
-51 55 135 0
-59 55 135 0
-136 -56 0
-136 16 52 60 0
-16 56 136 0
-52 56 136 0
-60 56 136 0
-137 -57 0
-137 17 53 61 0
-17 57 137 0
-53 57 137 0
-61 57 137 0
-138 -58 0
-138 18 54 62 0
-18 58 138 0
-54 58 138 0
-62 58 138 0
-139 -59 0
-139 19 55 63 0
-19 59 139 0
-55 59 139 0
-63 59 139 0
-140 -60 0
-140 20 56 64 0
-20 60 140 0
-56 60 140 0
-64 60 140 0
-141 -61 0
-141 21 57 65 0
-21 61 141 0
-57 61 141 0
-65 61 141 0
-142 -62 0
-142 22 58 66 0
-22 62 142 0
-58 62 142 0
-66 62 142 0
-143 -63 0
-143 23 59 67 0
-23 63 143 0
-59 63 143 0
-67 63 143 0
-144 -64 0
-144 24 60 68 0
-24 64 144 0
-60 64 144 0
-68 64 144 0
-145 -65 0
-145 25 61 69 0
-25 65 145 0
-61 65 145 0
-69 65 145 0
-146 -66 0
-146 26 62 70 0
-26 66 146 0
-62 66 146 0
-70 66 146 0
-147 -67 0
-147 27 63 71 0
-27 67 147 0
-63 67 147 0
-71 67 147 0
-148 -68 0
-148 28 64 72 0
-28 68 148 0
-64 68 148 0
-72 68 148 0
-149 -69 0
-149 29 65 73 0
-29 69 149 0
-65 69 149 0
-73 69 149 0
-150 -70 0
-150 30 66 74 0
-30 70 150 0
-66 70 150 0
-74 70 150 0
-151 -71 0
-151 31 67 75 0
-31 71 151 0
-67 71 151 0
-75 71 151 0
-152 -72 0
-152 32 68 76 0
-32 72 152 0
-68 72 152 0
-76 72 152 0
-153 -73 0
-153 33 69 77 0
-33 73 153 0
-69 73 153 0
-77 73 153 0
-154 -74 0
-154 34 70 78 0
-34 74 154 0
-70 74 154 0
-78 74 154 0
-155 -75 0
-155 35 71 79 0
-35 75 155 0
-71 75 155 0
-79 75 155 0
-156 -76 0
-156 36 72 80 0
-36 76 156 0
-72 76 156 0
-80 76 156 0
-157 -77 0
-157 37 41 73 0
-37 77 157 0
-41 77 157 0
-73 77 157 0
-158 -78 0
-158 38 42 74 0
-38 78 158 0
-42 78 158 0
-74 78 158 0
-159 -79 0
-159 39 43 75 0
-39 79 159 0
-43 79 159 0
-75 79 159 0
-160 -80 0
-160 40 44 76 0
-40 80 160 0
-44 80 160 0
-76 80 160 0
1 161 0
-161 162 0
2 -161 163 0
-163 164 0
3 -163 165 0
-165 166 0
4 -165 167 0
-167 168 0
5 -167 169 0
-169 170 0
6 -169 171 0
-171 172 0
7 -171 173 0
-173 174 0
8 -173 175 0
-175 176 0
9 -175 177 0
-177 178 0
10 -177 179 0
-179 180 0
11 -179 181 0
-181 182 0
12 -181 183 0
-183 184 0
13 -183 185 0
-185 186 0
14 -185 187 0
-187 188 0
15 -187 189 0
-189 190 0
16 -189 191 0
-191 192 0
17 -191 193 0
-193 194 0
18 -193 195 0
-195 196 0
19 -195 197 0
-197 198 0
20 -197 199 0
-199 200 0
21 -199 201 0
-201 202 0
22 -201 203 0
-203 204 0
23 -203 205 0
-205 206 0
24 -205 207 0
-207 208 0
25 -207 209 0
-209 210 0
26 -209 211 0
-211 212 0
27 -211 213 0
-213 214 0
28 -213 215 0
-215 216 0
29 -215 217 0
-217 218 0
30 -217 219 0
-219 220 0
31 -219 221 0
-221 222 0
32 -221 223 0
-223 224 0
33 -223 225 0
-225 226 0
34 -225 227 0
-227 228 0
35 -227 229 0
-229 230 0
36 -229 231 0
-231 232 0
37 -231 233 0
-233 234 0
38 -233 235 0
-235 236 0
39 -235 237 0
-237 238 0
40 -237 239 0
-239 240 0
41 -239 241 0
-241 242 0
42 -241 243 0
-243 244 0
43 -243 245 0
-245 246 0
44 -245 247 0
-247 248 0
45 -247 249 0
-249 250 0
46 -249 251 0
-251 252 0
47 -251 253 0
-253 254 0
48 -253 255 0
-255 256 0
49 -255 257 0
-257 258 0
50 -257 259 0
-259 260 0
51 -259 261 0
-261 262 0
52 -261 263 0
-263 264 0
53 -263 265 0
-265 266 0
54 -265 267 0
-267 268 0
55 -267 269 0
-269 270 0
56 -269 271 0
-271 272 0
57 -271 273 0
-273 274 0
58 -273 275 0
-275 276 0
59 -275 277 0
-277 278 0
60 -277 279 0
-279 280 0
61 -279 281 0
-281 282 0
62 -281 283 0
-283 284 0
63 -283 285 0
-285 286 0
64 -285 287 0
-287 288 0
65 -287 0
2 162 0
-162 289 0
3 -162 164 0
-164 290 0
4 -164 166 0
-166 291 0
5 -166 168 0
-168 292 0
6 -168 170 0
-170 293 0
7 -170 172 0
-172 294 0
8 -172 174 0
-174 295 0
9 -174 176 0
-176 296 0
10 -176 178 0
-178 297 0
11 -178 180 0
-180 298 0
12 -180 182 0
-182 299 0
13 -182 184 0
-184 300 0
14 -184 186 0
-186 301 0
15 -186 188 0
-188 302 0
16 -188 190 0
-190 303 0
17 -190 192 0
-192 304 0
18 -192 194 0
-194 305 0
19 -194 196 0
-196 306 0
20 -196 198 0
-198 307 0
21 -198 200 0
-200 308 0
22 -200 202 0
-202 309 0
23 -202 204 0
-204 310 0
24 -204 206 0
-206 311 0
25 -206 208 0
-208 312 0
26 -208 210 0
-210 313 0
27 -210 212 0
-212 314 0
28 -212 214 0
-214 315 0
29 -214 216 0
-216 316 0
30 -216 218 0
-218 317 0
31 -218 220 0
-220 318 0
32 -220 222 0
-222 319 0
33 -222 224 0
-224 320 0
34 -224 226 0
-226 321 0
35 -226 228 0
-228 322 0
36 -228 230 0
-230 323 0
37 -230 232 0
-232 324 0
38 -232 234 0
-234 325 0
39 -234 236 0
-236 326 0
40 -236 238 0
-238 327 0
41 -238 240 0
-240 328 0
42 -240 242 0
-242 329 0
43 -242 244 0
-244 330 0
44 -244 246 0
-246 331 0
45 -246 248 0
-248 332 0
46 -248 250 0
-250 333 0
47 -250 252 0
-252 334 0
48 -252 254 0
-254 335 0
49 -254 256 0
-256 336 0
50 -256 258 0
-258 337 0
51 -258 260 0
-260 338 0
52 -260 262 0
-262 339 0
53 -262 264 0
-264 340 0
54 -264 266 0
-266 341 0
55 -266 268 0
-268 342 0
56 -268 270 0
-270 343 0
57 -270 272 0
-272 344 0
58 -272 274 0
-274 345 0
59 -274 276 0
-276 346 0
60 -276 278 0
-278 347 0
61 -278 280 0
-280 348 0
62 -280 282 0
-282 349 0
63 -282 284 0
-284 350 0
64 -284 286 0
-286 351 0
65 -286 288 0
-288 352 0
66 -288 0
3 289 0
-289 353 0
4 -289 290 0
-290 354 0
5 -290 291 0
-291 355 0
6 -291 292 0
-292 356 0
7 -292 293 0
-293 357 0
8 -293 294 0
-294 358 0
9 -294 295 0
-295 359 0
10 -295 296 0
-296 360 0
11 -296 297 0
-297 361 0
12 -297 298 0
-298 362 0
13 -298 299 0
-299 363 0
14 -299 300 0
-300 364 0
15 -300 301 0
-301 365 0
16 -301 302 0
-302 366 0
17 -302 303 0
-303 367 0
18 -303 304 0
-304 368 0
19 -304 305 0
-305 369 0
20 -305 306 0
-306 370 0
21 -306 307 0
-307 371 0
22 -307 308 0
-308 372 0
23 -308 309 0
-309 373 0
24 -309 310 0
-310 374 0
25 -310 311 0
-311 375 0
26 -311 312 0
-312 376 0
27 -312 313 0
-313 377 0
28 -313 314 0
-314 378 0
29 -314 315 0
-315 379 0
30 -315 316 0
-316 380 0
31 -316 317 0
-317 381 0
32 -317 318 0
-318 382 0
33 -318 319 0
-319 383 0
34 -319 320 0
-320 384 0
35 -320 321 0
-321 385 0
36 -321 322 0
-322 386 0
37 -322 323 0
-323 387 0
38 -323 324 0
-324 388 0
39 -324 325 0
-325 389 0
40 -325 326 0
-326 390 0
41 -326 327 0
-327 391 0
42 -327 328 0
-328 392 0
43 -328 329 0
-329 393 0
44 -329 330 0
-330 394 0
45 -330 331 0
-331 395 0
46 -331 332 0
-332 396 0
47 -332 333 0
-333 397 0
48 -333 334 0
-334 398 0
49 -334 335 0
-335 399 0
50 -335 336 0
-336 400 0
51 -336 337 0
-337 401 0
52 -337 338 0
-338 402 0
53 -338 339 0
-339 403 0
54 -339 340 0
-340 404 0
55 -340 341 0
-341 405 0
56 -341 342 0
-342 406 0
57 -342 343 0
-343 407 0
58 -343 344 0
-344 408 0
59 -344 345 0
-345 409 0
60 -345 346 0
-346 410 0
61 -346 347 0
-347 411 0
62 -347 348 0
-348 412 0
63 -348 349 0
-349 413 0
64 -349 350 0
-350 414 0
65 -350 351 0
-351 415 0
66 -351 352 0
-352 416 0
67 -352 0
4 353 0
-353 417 0
5 -353 354 0
-354 418 0
6 -354 355 0
-355 419 0
7 -355 356 0
-356 420 0
8 -356 357 0
-357 421 0
9 -357 358 0
-358 422 0
10 -358 359 0
-359 423 0
11 -359 360 0
-360 424 0
12 -360 361 0
-361 425 0
13 -361 362 0
-362 426 0
14 -362 363 0
-363 427 0
15 -363 364 0
-364 428 0
16 -364 365 0
-365 429 0
17 -365 366 0
-366 430 0
18 -366 367 0
-367 431 0
19 -367 368 0
-368 432 0
20 -368 369 0
-369 433 0
21 -369 370 0
-370 434 0
22 -370 371 0
-371 435 0
23 -371 372 0
-372 436 0
24 -372 373 0
-373 437 0
25 -373 374 0
-374 438 0
26 -374 375 0
-375 439 0
27 -375 376 0
-376 440 0
28 -376 377 0
-377 441 0
29 -377 378 0
-378 442 0
30 -378 379 0
-379 443 0
31 -379 380 0
-380 444 0
32 -380 381 0
-381 445 0
33 -381 382 0
-382 446 0
34 -382 383 0
-383 447 0
35 -383 384 0
-384 448 0
36 -384 385 0
-385 449 0
37 -385 386 0
-386 450 0
38 -386 387 0
-387 451 0
39 -387 388 0
-388 452 0
40 -388 389 0
-389 453 0
41 -389 390 0
-390 454 0
42 -390 391 0
-391 455 0
43 -391 392 0
-392 456 0
44 -392 393 0
-393 457 0
45 -393 394 0
-394 458 0
46 -394 395 0
-395 459 0
47 -395 396 0
-396 460 0
48 -396 397 0
-397 461 0
49 -397 398 0
-398 462 0
50 -398 399 0
-399 463 0
51 -399 400 0
-400 464 0
52 -400 401 0
-401 465 0
53 -401 402 0
-402 466 0
54 -402 403 0
-403 467 0
55 -403 404 0
-404 468 0
56 -404 405 0
-405 469 0
57 -405 406 0
-406 470 0
58 -406 407 0
-407 471 0
59 -407 408 0
-408 472 0
60 -408 409 0
-409 473 0
61 -409 410 0
-410 474 0
62 -410 411 0
-411 475 0
63 -411 412 0
-412 476 0
64 -412 413 0
-413 477 0
65 -413 414 0
-414 478 0
66 -414 415 0
-415 479 0
67 -415 416 0
-416 480 0
68 -416 0
5 417 0
-417 481 0
6 -417 418 0
-418 482 0
7 -418 419 0
-419 483 0
8 -419 420 0
-420 484 0
9 -420 421 0
-421 485 0
10 -421 422 0
-422 486 0
11 -422 423 0
-423 487 0
12 -423 424 0
-424 488 0
13 -424 425 0
-425 489 0
14 -425 426 0
-426 490 0
15 -426 427 0
-427 491 0
16 -427 428 0
-428 492 0
17 -428 429 0
-429 493 0
18 -429 430 0
-430 494 0
19 -430 431 0
-431 495 0
20 -431 432 0
-432 496 0
21 -432 433 0
-433 497 0
22 -433 434 0
-434 498 0
23 -434 435 0
-435 499 0
24 -435 436 0
-436 500 0
25 -436 437 0
-437 501 0
26 -437 438 0
-438 502 0
27 -438 439 0
-439 503 0
28 -439 440 0
-440 504 0
29 -440 441 0
-441 505 0
30 -441 442 0
-442 506 0
31 -442 443 0
-443 507 0
32 -443 444 0
-444 508 0
33 -444 445 0
-445 509 0
34 -445 446 0
-446 510 0
35 -446 447 0
-447 511 0
36 -447 448 0
-448 512 0
37 -448 449 0
-449 513 0
38 -449 450 0
-450 514 0
39 -450 451 0
-451 515 0
40 -451 452 0
-452 516 0
41 -452 453 0
-453 517 0
42 -453 454 0
-454 518 0
43 -454 455 0
-455 519 0
44 -455 456 0
-456 520 0
45 -456 457 0
-457 521 0
46 -457 458 0
-458 522 0
47 -458 459 0
-459 523 0
48 -459 460 0
-460 524 0
49 -460 461 0
-461 525 0
50 -461 462 0
-462 526 0
51 -462 463 0
-463 527 0
52 -463 464 0
-464 528 0
53 -464 465 0
-465 529 0
54 -465 466 0
-466 530 0
55 -466 467 0
-467 531 0
56 -467 468 0
-468 532 0
57 -468 469 0
-469 533 0
58 -469 470 0
-470 534 0
59 -470 471 0
-471 535 0
60 -471 472 0
-472 536 0
61 -472 473 0
-473 537 0
62 -473 474 0
-474 538 0
63 -474 475 0
-475 539 0
64 -475 476 0
-476 540 0
65 -476 477 0
-477 541 0
66 -477 478 0
-478 542 0
67 -478 479 0
-479 543 0
68 -479 480 0
-480 544 0
69 -480 0
6 481 0
-481 545 0
7 -481 482 0
-482 546 0
8 -482 483 0
-483 547 0
9 -483 484 0
-484 548 0
10 -484 485 0
-485 549 0
11 -485 486 0
-486 550 0
12 -486 487 0
-487 551 0
13 -487 488 0
-488 552 0
14 -488 489 0
-489 553 0
15 -489 490 0
-490 554 0
16 -490 491 0
-491 555 0
17 -491 492 0
-492 556 0
18 -492 493 0
-493 557 0
19 -493 494 0
-494 558 0
20 -494 495 0
-495 559 0
21 -495 496 0
-496 560 0
22 -496 497 0
-497 561 0
23 -497 498 0
-498 562 0
24 -498 499 0
-499 563 0
25 -499 500 0
-500 564 0
26 -500 501 0
-501 565 0
27 -501 502 0
-502 566 0
28 -502 503 0
-503 567 0
29 -503 504 0
-504 568 0
30 -504 505 0
-505 569 0
31 -505 506 0
-506 570 0
32 -506 507 0
-507 571 0
33 -507 508 0
-508 572 0
34 -508 509 0
-509 573 0
35 -509 510 0
-510 574 0
36 -510 511 0
-511 575 0
37 -511 512 0
-512 576 0
38 -512 513 0
-513 577 0
39 -513 514 0
-514 578 0
40 -514 515 0
-515 579 0
41 -515 516 0
-516 580 0
42 -516 517 0
-517 581 0
43 -517 518 0
-518 582 0
44 -518 519 0
-519 583 0
45 -519 520 0
-520 584 0
46 -520 521 0
-521 585 0
47 -521 522 0
-522 586 0
48 -522 523 0
-523 587 0
49 -523 524 0
-524 588 0
50 -524 525 0
-525 589 0
51 -525 526 0
-526 590 0
52 -526 527 0
-527 591 0
53 -527 528 0
-528 592 0
54 -528 529 0
-529 593 0
55 -529 530 0
-530 594 0
56 -530 531 0
-531 595 0
57 -531 532 0
-532 596 0
58 -532 533 0
-533 597 0
59 -533 534 0
-534 598 0
60 -534 535 0
-535 599 0
61 -535 536 0
-536 600 0
62 -536 537 0
-537 601 0
63 -537 538 0
-538 602 0
64 -538 539 0
-539 603 0
65 -539 540 0
-540 604 0
66 -540 541 0
-541 605 0
67 -541 542 0
-542 606 0
68 -542 543 0
-543 607 0
69 -543 544 0
-544 608 0
70 -544 0
7 545 0
-545 609 0
8 -545 546 0
-546 610 0
9 -546 547 0
-547 611 0
10 -547 548 0
-548 612 0
11 -548 549 0
-549 613 0
12 -549 550 0
-550 614 0
13 -550 551 0
-551 615 0
14 -551 552 0
-552 616 0
15 -552 553 0
-553 617 0
16 -553 554 0
-554 618 0
17 -554 555 0
-555 619 0
18 -555 556 0
-556 620 0
19 -556 557 0
-557 621 0
20 -557 558 0
-558 622 0
21 -558 559 0
-559 623 0
22 -559 560 0
-560 624 0
23 -560 561 0
-561 625 0
24 -561 562 0
-562 626 0
25 -562 563 0
-563 627 0
26 -563 564 0
-564 628 0
27 -564 565 0
-565 629 0
28 -565 566 0
-566 630 0
29 -566 567 0
-567 631 0
30 -567 568 0
-568 632 0
31 -568 569 0
-569 633 0
32 -569 570 0
-570 634 0
33 -570 571 0
-571 635 0
34 -571 572 0
-572 636 0
35 -572 573 0
-573 637 0
36 -573 574 0
-574 638 0
37 -574 575 0
-575 639 0
38 -575 576 0
-576 640 0
39 -576 577 0
-577 641 0
40 -577 578 0
-578 642 0
41 -578 579 0
-579 643 0
42 -579 580 0
-580 644 0
43 -580 581 0
-581 645 0
44 -581 582 0
-582 646 0
45 -582 583 0
-583 647 0
46 -583 584 0
-584 648 0
47 -584 585 0
-585 649 0
48 -585 586 0
-586 650 0
49 -586 587 0
-587 651 0
50 -587 588 0
-588 652 0
51 -588 589 0
-589 653 0
52 -589 590 0
-590 654 0
53 -590 591 0
-591 655 0
54 -591 592 0
-592 656 0
55 -592 593 0
-593 657 0
56 -593 594 0
-594 658 0
57 -594 595 0
-595 659 0
58 -595 596 0
-596 660 0
59 -596 597 0
-597 661 0
60 -597 598 0
-598 662 0
61 -598 599 0
-599 663 0
62 -599 600 0
-600 664 0
63 -600 601 0
-601 665 0
64 -601 602 0
-602 666 0
65 -602 603 0
-603 667 0
66 -603 604 0
-604 668 0
67 -604 605 0
-605 669 0
68 -605 606 0
-606 670 0
69 -606 607 0
-607 671 0
70 -607 608 0
-608 672 0
71 -608 0
8 609 0
-609 673 0
9 -609 610 0
-610 674 0
10 -610 611 0
-611 675 0
11 -611 612 0
-612 676 0
12 -612 613 0
-613 677 0
13 -613 614 0
-614 678 0
14 -614 615 0
-615 679 0
15 -615 616 0
-616 680 0
16 -616 617 0
-617 681 0
17 -617 618 0
-618 682 0
18 -618 619 0
-619 683 0
19 -619 620 0
-620 684 0
20 -620 621 0
-621 685 0
21 -621 622 0
-622 686 0
22 -622 623 0
-623 687 0
23 -623 624 0
-624 688 0
24 -624 625 0
-625 689 0
25 -625 626 0
-626 690 0
26 -626 627 0
-627 691 0
27 -627 628 0
-628 692 0
28 -628 629 0
-629 693 0
29 -629 630 0
-630 694 0
30 -630 631 0
-631 695 0
31 -631 632 0
-632 696 0
32 -632 633 0
-633 697 0
33 -633 634 0
-634 698 0
34 -634 635 0
-635 699 0
35 -635 636 0
-636 700 0
36 -636 637 0
-637 701 0
37 -637 638 0
-638 702 0
38 -638 639 0
-639 703 0
39 -639 640 0
-640 704 0
40 -640 641 0
-641 705 0
41 -641 642 0
-642 706 0
42 -642 643 0
-643 707 0
43 -643 644 0
-644 708 0
44 -644 645 0
-645 709 0
45 -645 646 0
-646 710 0
46 -646 647 0
-647 711 0
47 -647 648 0
-648 712 0
48 -648 649 0
-649 713 0
49 -649 650 0
-650 714 0
50 -650 651 0
-651 715 0
51 -651 652 0
-652 716 0
52 -652 653 0
-653 717 0
53 -653 654 0
-654 718 0
54 -654 655 0
-655 719 0
55 -655 656 0
-656 720 0
56 -656 657 0
-657 721 0
57 -657 658 0
-658 722 0
58 -658 659 0
-659 723 0
59 -659 660 0
-660 724 0
60 -660 661 0
-661 725 0
61 -661 662 0
-662 726 0
62 -662 663 0
-663 727 0
63 -663 664 0
-664 728 0
64 -664 665 0
-665 729 0
65 -665 666 0
-666 730 0
66 -666 667 0
-667 731 0
67 -667 668 0
-668 732 0
68 -668 669 0
-669 733 0
69 -669 670 0
-670 734 0
70 -670 671 0
-671 735 0
71 -671 672 0
-672 736 0
72 -672 0
9 673 0
-673 737 0
10 -673 674 0
-674 738 0
11 -674 675 0
-675 739 0
12 -675 676 0
-676 740 0
13 -676 677 0
-677 741 0
14 -677 678 0
-678 742 0
15 -678 679 0
-679 743 0
16 -679 680 0
-680 744 0
17 -680 681 0
-681 745 0
18 -681 682 0
-682 746 0
19 -682 683 0
-683 747 0
20 -683 684 0
-684 748 0
21 -684 685 0
-685 749 0
22 -685 686 0
-686 750 0
23 -686 687 0
-687 751 0
24 -687 688 0
-688 752 0
25 -688 689 0
-689 753 0
26 -689 690 0
-690 754 0
27 -690 691 0
-691 755 0
28 -691 692 0
-692 756 0
29 -692 693 0
-693 757 0
30 -693 694 0
-694 758 0
31 -694 695 0
-695 759 0
32 -695 696 0
-696 760 0
33 -696 697 0
-697 761 0
34 -697 698 0
-698 762 0
35 -698 699 0
-699 763 0
36 -699 700 0
-700 764 0
37 -700 701 0
-701 765 0
38 -701 702 0
-702 766 0
39 -702 703 0
-703 767 0
40 -703 704 0
-704 768 0
41 -704 705 0
-705 769 0
42 -705 706 0
-706 770 0
43 -706 707 0
-707 771 0
44 -707 708 0
-708 772 0
45 -708 709 0
-709 773 0
46 -709 710 0
-710 774 0
47 -710 711 0
-711 775 0
48 -711 712 0
-712 776 0
49 -712 713 0
-713 777 0
50 -713 714 0
-714 778 0
51 -714 715 0
-715 779 0
52 -715 716 0
-716 780 0
53 -716 717 0
-717 781 0
54 -717 718 0
-718 782 0
55 -718 719 0
-719 783 0
56 -719 720 0
-720 784 0
57 -720 721 0
-721 785 0
58 -721 722 0
-722 786 0
59 -722 723 0
-723 787 0
60 -723 724 0
-724 788 0
61 -724 725 0
-725 789 0
62 -725 726 0
-726 790 0
63 -726 727 0
-727 791 0
64 -727 728 0
-728 792 0
65 -728 729 0
-729 793 0
66 -729 730 0
-730 794 0
67 -730 731 0
-731 795 0
68 -731 732 0
-732 796 0
69 -732 733 0
-733 797 0
70 -733 734 0
-734 798 0
71 -734 735 0
-735 799 0
72 -735 736 0
-736 800 0
73 -736 0
10 737 0
-737 801 0
11 -737 738 0
-738 802 0
12 -738 739 0
-739 803 0
13 -739 740 0
-740 804 0
14 -740 741 0
-741 805 0
15 -741 742 0
-742 806 0
16 -742 743 0
-743 807 0
17 -743 744 0
-744 808 0
18 -744 745 0
-745 809 0
19 -745 746 0
-746 810 0
20 -746 747 0
-747 811 0
21 -747 748 0
-748 812 0
22 -748 749 0
-749 813 0
23 -749 750 0
-750 814 0
24 -750 751 0
-751 815 0
25 -751 752 0
-752 816 0
26 -752 753 0
-753 817 0
27 -753 754 0
-754 818 0
28 -754 755 0
-755 819 0
29 -755 756 0
-756 820 0
30 -756 757 0
-757 821 0
31 -757 758 0
-758 822 0
32 -758 759 0
-759 823 0
33 -759 760 0
-760 824 0
34 -760 761 0
-761 825 0
35 -761 762 0
-762 826 0
36 -762 763 0
-763 827 0
37 -763 764 0
-764 828 0
38 -764 765 0
-765 829 0
39 -765 766 0
-766 830 0
40 -766 767 0
-767 831 0
41 -767 768 0
-768 832 0
42 -768 769 0
-769 833 0
43 -769 770 0
-770 834 0
44 -770 771 0
-771 835 0
45 -771 772 0
-772 836 0
46 -772 773 0
-773 837 0
47 -773 774 0
-774 838 0
48 -774 775 0
-775 839 0
49 -775 776 0
-776 840 0
50 -776 777 0
-777 841 0
51 -777 778 0
-778 842 0
52 -778 779 0
-779 843 0
53 -779 780 0
-780 844 0
54 -780 781 0
-781 845 0
55 -781 782 0
-782 846 0
56 -782 783 0
-783 847 0
57 -783 784 0
-784 848 0
58 -784 785 0
-785 849 0
59 -785 786 0
-786 850 0
60 -786 787 0
-787 851 0
61 -787 788 0
-788 852 0
62 -788 789 0
-789 853 0
63 -789 790 0
-790 854 0
64 -790 791 0
-791 855 0
65 -791 792 0
-792 856 0
66 -792 793 0
-793 857 0
67 -793 794 0
-794 858 0
68 -794 795 0
-795 859 0
69 -795 796 0
-796 860 0
70 -796 797 0
-797 861 0
71 -797 798 0
-798 862 0
72 -798 799 0
-799 863 0
73 -799 800 0
-800 864 0
74 -800 0
11 801 0
-801 865 0
12 -801 802 0
-802 866 0
13 -802 803 0
-803 867 0
14 -803 804 0
-804 868 0
15 -804 805 0
-805 869 0
16 -805 806 0
-806 870 0
17 -806 807 0
-807 871 0
18 -807 808 0
-808 872 0
19 -808 809 0
-809 873 0
20 -809 810 0
-810 874 0
21 -810 811 0
-811 875 0
22 -811 812 0
-812 876 0
23 -812 813 0
-813 877 0
24 -813 814 0
-814 878 0
25 -814 815 0
-815 879 0
26 -815 816 0
-816 880 0
27 -816 817 0
-817 881 0
28 -817 818 0
-818 882 0
29 -818 819 0
-819 883 0
30 -819 820 0
-820 884 0
31 -820 821 0
-821 885 0
32 -821 822 0
-822 886 0
33 -822 823 0
-823 887 0
34 -823 824 0
-824 888 0
35 -824 825 0
-825 889 0
36 -825 826 0
-826 890 0
37 -826 827 0
-827 891 0
38 -827 828 0
-828 892 0
39 -828 829 0
-829 893 0
40 -829 830 0
-830 894 0
41 -830 831 0
-831 895 0
42 -831 832 0
-832 896 0
43 -832 833 0
-833 897 0
44 -833 834 0
-834 898 0
45 -834 835 0
-835 899 0
46 -835 836 0
-836 900 0
47 -836 837 0
-837 901 0
48 -837 838 0
-838 902 0
49 -838 839 0
-839 903 0
50 -839 840 0
-840 904 0
51 -840 841 0
-841 905 0
52 -841 842 0
-842 906 0
53 -842 843 0
-843 907 0
54 -843 844 0
-844 908 0
55 -844 845 0
-845 909 0
56 -845 846 0
-846 910 0
57 -846 847 0
-847 911 0
58 -847 848 0
-848 912 0
59 -848 849 0
-849 913 0
60 -849 850 0
-850 914 0
61 -850 851 0
-851 915 0
62 -851 852 0
-852 916 0
63 -852 853 0
-853 917 0
64 -853 854 0
-854 918 0
65 -854 855 0
-855 919 0
66 -855 856 0
-856 920 0
67 -856 857 0
-857 921 0
68 -857 858 0
-858 922 0
69 -858 859 0
-859 923 0
70 -859 860 0
-860 924 0
71 -860 861 0
-861 925 0
72 -861 862 0
-862 926 0
73 -862 863 0
-863 927 0
74 -863 864 0
-864 928 0
75 -864 0
12 865 0
-865 929 0
13 -865 866 0
-866 930 0
14 -866 867 0
-867 931 0
15 -867 868 0
-868 932 0
16 -868 869 0
-869 933 0
17 -869 870 0
-870 934 0
18 -870 871 0
-871 935 0
19 -871 872 0
-872 936 0
20 -872 873 0
-873 937 0
21 -873 874 0
-874 938 0
22 -874 875 0
-875 939 0
23 -875 876 0
-876 940 0
24 -876 877 0
-877 941 0
25 -877 878 0
-878 942 0
26 -878 879 0
-879 943 0
27 -879 880 0
-880 944 0
28 -880 881 0
-881 945 0
29 -881 882 0
-882 946 0
30 -882 883 0
-883 947 0
31 -883 884 0
-884 948 0
32 -884 885 0
-885 949 0
33 -885 886 0
-886 950 0
34 -886 887 0
-887 951 0
35 -887 888 0
-888 952 0
36 -888 889 0
-889 953 0
37 -889 890 0
-890 954 0
38 -890 891 0
-891 955 0
39 -891 892 0
-892 956 0
40 -892 893 0
-893 957 0
41 -893 894 0
-894 958 0
42 -894 895 0
-895 959 0
43 -895 896 0
-896 960 0
44 -896 897 0
-897 961 0
45 -897 898 0
-898 962 0
46 -898 899 0
-899 963 0
47 -899 900 0
-900 964 0
48 -900 901 0
-901 965 0
49 -901 902 0
-902 966 0
50 -902 903 0
-903 967 0
51 -903 904 0
-904 968 0
52 -904 905 0
-905 969 0
53 -905 906 0
-906 970 0
54 -906 907 0
-907 971 0
55 -907 908 0
-908 972 0
56 -908 909 0
-909 973 0
57 -909 910 0
-910 974 0
58 -910 911 0
-911 975 0
59 -911 912 0
-912 976 0
60 -912 913 0
-913 977 0
61 -913 914 0
-914 978 0
62 -914 915 0
-915 979 0
63 -915 916 0
-916 980 0
64 -916 917 0
-917 981 0
65 -917 918 0
-918 982 0
66 -918 919 0
-919 983 0
67 -919 920 0
-920 984 0
68 -920 921 0
-921 985 0
69 -921 922 0
-922 986 0
70 -922 923 0
-923 987 0
71 -923 924 0
-924 988 0
72 -924 925 0
-925 989 0
73 -925 926 0
-926 990 0
74 -926 927 0
-927 991 0
75 -927 928 0
-928 992 0
76 -928 0
13 929 0
-929 993 0
14 -929 930 0
-930 994 0
15 -930 931 0
-931 995 0
16 -931 932 0
-932 996 0
17 -932 933 0
-933 997 0
18 -933 934 0
-934 998 0
19 -934 935 0
-935 999 0
20 -935 936 0
-936 1000 0
21 -936 937 0
-937 1001 0
22 -937 938 0
-938 1002 0
23 -938 939 0
-939 1003 0
24 -939 940 0
-940 1004 0
25 -940 941 0
-941 1005 0
26 -941 942 0
-942 1006 0
27 -942 943 0
-943 1007 0
28 -943 944 0
-944 1008 0
29 -944 945 0
-945 1009 0
30 -945 946 0
-946 1010 0
31 -946 947 0
-947 1011 0
32 -947 948 0
-948 1012 0
33 -948 949 0
-949 1013 0
34 -949 950 0
-950 1014 0
35 -950 951 0
-951 1015 0
36 -951 952 0
-952 1016 0
37 -952 953 0
-953 1017 0
38 -953 954 0
-954 1018 0
39 -954 955 0
-955 1019 0
40 -955 956 0
-956 1020 0
41 -956 957 0
-957 1021 0
42 -957 958 0
-958 1022 0
43 -958 959 0
-959 1023 0
44 -959 960 0
-960 1024 0
45 -960 961 0
-961 1025 0
46 -961 962 0
-962 1026 0
47 -962 963 0
-963 1027 0
48 -963 964 0
-964 1028 0
49 -964 965 0
-965 1029 0
50 -965 966 0
-966 1030 0
51 -966 967 0
-967 1031 0
52 -967 968 0
-968 1032 0
53 -968 969 0
-969 1033 0
54 -969 970 0
-970 1034 0
55 -970 971 0
-971 1035 0
56 -971 972 0
-972 1036 0
57 -972 973 0
-973 1037 0
58 -973 974 0
-974 1038 0
59 -974 975 0
-975 1039 0
60 -975 976 0
-976 1040 0
61 -976 977 0
-977 1041 0
62 -977 978 0
-978 1042 0
63 -978 979 0
-979 1043 0
64 -979 980 0
-980 1044 0
65 -980 981 0
-981 1045 0
66 -981 982 0
-982 1046 0
67 -982 983 0
-983 1047 0
68 -983 984 0
-984 1048 0
69 -984 985 0
-985 1049 0
70 -985 986 0
-986 1050 0
71 -986 987 0
-987 1051 0
72 -987 988 0
-988 1052 0
73 -988 989 0
-989 1053 0
74 -989 990 0
-990 1054 0
75 -990 991 0
-991 1055 0
76 -991 992 0
-992 1056 0
77 -992 0
14 993 0
-993 1057 0
15 -993 994 0
-994 1058 0
16 -994 995 0
-995 1059 0
17 -995 996 0
-996 1060 0
18 -996 997 0
-997 1061 0
19 -997 998 0
-998 1062 0
20 -998 999 0
-999 1063 0
21 -999 1000 0
-1000 1064 0
22 -1000 1001 0
-1001 1065 0
23 -1001 1002 0
-1002 1066 0
24 -1002 1003 0
-1003 1067 0
25 -1003 1004 0
-1004 1068 0
26 -1004 1005 0
-1005 1069 0
27 -1005 1006 0
-1006 1070 0
28 -1006 1007 0
-1007 1071 0
29 -1007 1008 0
-1008 1072 0
30 -1008 1009 0
-1009 1073 0
31 -1009 1010 0
-1010 1074 0
32 -1010 1011 0
-1011 1075 0
33 -1011 1012 0
-1012 1076 0
34 -1012 1013 0
-1013 1077 0
35 -1013 1014 0
-1014 1078 0
36 -1014 1015 0
-1015 1079 0
37 -1015 1016 0
-1016 1080 0
38 -1016 1017 0
-1017 1081 0
39 -1017 1018 0
-1018 1082 0
40 -1018 1019 0
-1019 1083 0
41 -1019 1020 0
-1020 1084 0
42 -1020 1021 0
-1021 1085 0
43 -1021 1022 0
-1022 1086 0
44 -1022 1023 0
-1023 1087 0
45 -1023 1024 0
-1024 1088 0
46 -1024 1025 0
-1025 1089 0
47 -1025 1026 0
-1026 1090 0
48 -1026 1027 0
-1027 1091 0
49 -1027 1028 0
-1028 1092 0
50 -1028 1029 0
-1029 1093 0
51 -1029 1030 0
-1030 1094 0
52 -1030 1031 0
-1031 1095 0
53 -1031 1032 0
-1032 1096 0
54 -1032 1033 0
-1033 1097 0
55 -1033 1034 0
-1034 1098 0
56 -1034 1035 0
-1035 1099 0
57 -1035 1036 0
-1036 1100 0
58 -1036 1037 0
-1037 1101 0
59 -1037 1038 0
-1038 1102 0
60 -1038 1039 0
-1039 1103 0
61 -1039 1040 0
-1040 1104 0
62 -1040 1041 0
-1041 1105 0
63 -1041 1042 0
-1042 1106 0
64 -1042 1043 0
-1043 1107 0
65 -1043 1044 0
-1044 1108 0
66 -1044 1045 0
-1045 1109 0
67 -1045 1046 0
-1046 1110 0
68 -1046 1047 0
-1047 1111 0
69 -1047 1048 0
-1048 1112 0
70 -1048 1049 0
-1049 1113 0
71 -1049 1050 0
-1050 1114 0
72 -1050 1051 0
-1051 1115 0
73 -1051 1052 0
-1052 1116 0
74 -1052 1053 0
-1053 1117 0
75 -1053 1054 0
-1054 1118 0
76 -1054 1055 0
-1055 1119 0
77 -1055 1056 0
-1056 1120 0
78 -1056 0
15 1057 0
-1057 1121 0
16 -1057 1058 0
-1058 1122 0
17 -1058 1059 0
-1059 1123 0
18 -1059 1060 0
-1060 1124 0
19 -1060 1061 0
-1061 1125 0
20 -1061 1062 0
-1062 1126 0
21 -1062 1063 0
-1063 1127 0
22 -1063 1064 0
-1064 1128 0
23 -1064 1065 0
-1065 1129 0
24 -1065 1066 0
-1066 1130 0
25 -1066 1067 0
-1067 1131 0
26 -1067 1068 0
-1068 1132 0
27 -1068 1069 0
-1069 1133 0
28 -1069 1070 0
-1070 1134 0
29 -1070 1071 0
-1071 1135 0
30 -1071 1072 0
-1072 1136 0
31 -1072 1073 0
-1073 1137 0
32 -1073 1074 0
-1074 1138 0
33 -1074 1075 0
-1075 1139 0
34 -1075 1076 0
-1076 1140 0
35 -1076 1077 0
-1077 1141 0
36 -1077 1078 0
-1078 1142 0
37 -1078 1079 0
-1079 1143 0
38 -1079 1080 0
-1080 1144 0
39 -1080 1081 0
-1081 1145 0
40 -1081 1082 0
-1082 1146 0
41 -1082 1083 0
-1083 1147 0
42 -1083 1084 0
-1084 1148 0
43 -1084 1085 0
-1085 1149 0
44 -1085 1086 0
-1086 1150 0
45 -1086 1087 0
-1087 1151 0
46 -1087 1088 0
-1088 1152 0
47 -1088 1089 0
-1089 1153 0
48 -1089 1090 0
-1090 1154 0
49 -1090 1091 0
-1091 1155 0
50 -1091 1092 0
-1092 1156 0
51 -1092 1093 0
-1093 1157 0
52 -1093 1094 0
-1094 1158 0
53 -1094 1095 0
-1095 1159 0
54 -1095 1096 0
-1096 1160 0
55 -1096 1097 0
-1097 1161 0
56 -1097 1098 0
-1098 1162 0
57 -1098 1099 0
-1099 1163 0
58 -1099 1100 0
-1100 1164 0
59 -1100 1101 0
-1101 1165 0
60 -1101 1102 0
-1102 1166 0
61 -1102 1103 0
-1103 1167 0
62 -1103 1104 0
-1104 1168 0
63 -1104 1105 0
-1105 1169 0
64 -1105 1106 0
-1106 1170 0
65 -1106 1107 0
-1107 1171 0
66 -1107 1108 0
-1108 1172 0
67 -1108 1109 0
-1109 1173 0
68 -1109 1110 0
-1110 1174 0
69 -1110 1111 0
-1111 1175 0
70 -1111 1112 0
-1112 1176 0
71 -1112 1113 0
-1113 1177 0
72 -1113 1114 0
-1114 1178 0
73 -1114 1115 0
-1115 1179 0
74 -1115 1116 0
-1116 1180 0
75 -1116 1117 0
-1117 1181 0
76 -1117 1118 0
-1118 1182 0
77 -1118 1119 0
-1119 1183 0
78 -1119 1120 0
-1120 1184 0
79 -1120 0
16 1121 0
17 -1121 1122 0
18 -1122 1123 0
19 -1123 1124 0
20 -1124 1125 0
21 -1125 1126 0
22 -1126 1127 0
23 -1127 1128 0
24 -1128 1129 0
25 -1129 1130 0
26 -1130 1131 0
27 -1131 1132 0
28 -1132 1133 0
29 -1133 1134 0
30 -1134 1135 0
31 -1135 1136 0
32 -1136 1137 0
33 -1137 1138 0
34 -1138 1139 0
35 -1139 1140 0
36 -1140 1141 0
37 -1141 1142 0
38 -1142 1143 0
39 -1143 1144 0
40 -1144 1145 0
41 -1145 1146 0
42 -1146 1147 0
43 -1147 1148 0
44 -1148 1149 0
45 -1149 1150 0
46 -1150 1151 0
47 -1151 1152 0
48 -1152 1153 0
49 -1153 1154 0
50 -1154 1155 0
51 -1155 1156 0
52 -1156 1157 0
53 -1157 1158 0
54 -1158 1159 0
55 -1159 1160 0
56 -1160 1161 0
57 -1161 1162 0
58 -1162 1163 0
59 -1163 1164 0
60 -1164 1165 0
61 -1165 1166 0
62 -1166 1167 0
63 -1167 1168 0
64 -1168 1169 0
65 -1169 1170 0
66 -1170 1171 0
67 -1171 1172 0
68 -1172 1173 0
69 -1173 1174 0
70 -1174 1175 0
71 -1175 1176 0
72 -1176 1177 0
73 -1177 1178 0
74 -1178 1179 0
75 -1179 1180 0
76 -1180 1181 0
77 -1181 1182 0
78 -1182 1183 0
79 -1183 1184 0
80 -1184 0
-1 1185 0
-1185 1186 0
-2 -1185 1187 0
-1187 1188 0
-3 -1187 1189 0
-1189 1190 0
-4 -1189 1191 0
-1191 1192 0
-5 -1191 1193 0
-1193 1194 0
-6 -1193 1195 0
-1195 1196 0
-7 -1195 1197 0
-1197 1198 0
-8 -1197 1199 0
-1199 1200 0
-9 -1199 1201 0
-1201 1202 0
-10 -1201 1203 0
-1203 1204 0
-11 -1203 1205 0
-1205 1206 0
-12 -1205 1207 0
-1207 1208 0
-13 -1207 1209 0
-1209 1210 0
-14 -1209 1211 0
-1211 1212 0
-15 -1211 1213 0
-1213 1214 0
-16 -1213 1215 0
-1215 1216 0
-17 -1215 0
-2 1186 0
-1186 1217 0
-3 -1186 1188 0
-1188 1218 0
-4 -1188 1190 0
-1190 1219 0
-5 -1190 1192 0
-1192 1220 0
-6 -1192 1194 0
-1194 1221 0
-7 -1194 1196 0
-1196 1222 0
-8 -1196 1198 0
-1198 1223 0
-9 -1198 1200 0
-1200 1224 0
-10 -1200 1202 0
-1202 1225 0
-11 -1202 1204 0
-1204 1226 0
-12 -1204 1206 0
-1206 1227 0
-13 -1206 1208 0
-1208 1228 0
-14 -1208 1210 0
-1210 1229 0
-15 -1210 1212 0
-1212 1230 0
-16 -1212 1214 0
-1214 1231 0
-17 -1214 1216 0
-1216 1232 0
-18 -1216 0
-3 1217 0
-1217 1233 0
-4 -1217 1218 0
-1218 1234 0
-5 -1218 1219 0
-1219 1235 0
-6 -1219 1220 0
-1220 1236 0
-7 -1220 1221 0
-1221 1237 0
-8 -1221 1222 0
-1222 1238 0
-9 -1222 1223 0
-1223 1239 0
-10 -1223 1224 0
-1224 1240 0
-11 -1224 1225 0
-1225 1241 0
-12 -1225 1226 0
-1226 1242 0
-13 -1226 1227 0
-1227 1243 0
-14 -1227 1228 0
-1228 1244 0
-15 -1228 1229 0
-1229 1245 0
-16 -1229 1230 0
-1230 1246 0
-17 -1230 1231 0
-1231 1247 0
-18 -1231 1232 0
-1232 1248 0
-19 -1232 0
-4 1233 0
-1233 1249 0
-5 -1233 1234 0
-1234 1250 0
-6 -1234 1235 0
-1235 1251 0
-7 -1235 1236 0
-1236 1252 0
-8 -1236 1237 0
-1237 1253 0
-9 -1237 1238 0
-1238 1254 0
-10 -1238 1239 0
-1239 1255 0
-11 -1239 1240 0
-1240 1256 0
-12 -1240 1241 0
-1241 1257 0
-13 -1241 1242 0
-1242 1258 0
-14 -1242 1243 0
-1243 1259 0
-15 -1243 1244 0
-1244 1260 0
-16 -1244 1245 0
-1245 1261 0
-17 -1245 1246 0
-1246 1262 0
-18 -1246 1247 0
-1247 1263 0
-19 -1247 1248 0
-1248 1264 0
-20 -1248 0
-5 1249 0
-1249 1265 0
-6 -1249 1250 0
-1250 1266 0
-7 -1250 1251 0
-1251 1267 0
-8 -1251 1252 0
-1252 1268 0
-9 -1252 1253 0
-1253 1269 0
-10 -1253 1254 0
-1254 1270 0
-11 -1254 1255 0
-1255 1271 0
-12 -1255 1256 0
-1256 1272 0
-13 -1256 1257 0
-1257 1273 0
-14 -1257 1258 0
-1258 1274 0
-15 -1258 1259 0
-1259 1275 0
-16 -1259 1260 0
-1260 1276 0
-17 -1260 1261 0
-1261 1277 0
-18 -1261 1262 0
-1262 1278 0
-19 -1262 1263 0
-1263 1279 0
-20 -1263 1264 0
-1264 1280 0
-21 -1264 0
-6 1265 0
-1265 1281 0
-7 -1265 1266 0
-1266 1282 0
-8 -1266 1267 0
-1267 1283 0
-9 -1267 1268 0
-1268 1284 0
-10 -1268 1269 0
-1269 1285 0
-11 -1269 1270 0
-1270 1286 0
-12 -1270 1271 0
-1271 1287 0
-13 -1271 1272 0
-1272 1288 0
-14 -1272 1273 0
-1273 1289 0
-15 -1273 1274 0
-1274 1290 0
-16 -1274 1275 0
-1275 1291 0
-17 -1275 1276 0
-1276 1292 0
-18 -1276 1277 0
-1277 1293 0
-19 -1277 1278 0
-1278 1294 0
-20 -1278 1279 0
-1279 1295 0
-21 -1279 1280 0
-1280 1296 0
-22 -1280 0
-7 1281 0
-1281 1297 0
-8 -1281 1282 0
-1282 1298 0
-9 -1282 1283 0
-1283 1299 0
-10 -1283 1284 0
-1284 1300 0
-11 -1284 1285 0
-1285 1301 0
-12 -1285 1286 0
-1286 1302 0
-13 -1286 1287 0
-1287 1303 0
-14 -1287 1288 0
-1288 1304 0
-15 -1288 1289 0
-1289 1305 0
-16 -1289 1290 0
-1290 1306 0
-17 -1290 1291 0
-1291 1307 0
-18 -1291 1292 0
-1292 1308 0
-19 -1292 1293 0
-1293 1309 0
-20 -1293 1294 0
-1294 1310 0
-21 -1294 1295 0
-1295 1311 0
-22 -1295 1296 0
-1296 1312 0
-23 -1296 0
-8 1297 0
-1297 1313 0
-9 -1297 1298 0
-1298 1314 0
-10 -1298 1299 0
-1299 1315 0
-11 -1299 1300 0
-1300 1316 0
-12 -1300 1301 0
-1301 1317 0
-13 -1301 1302 0
-1302 1318 0
-14 -1302 1303 0
-1303 1319 0
-15 -1303 1304 0
-1304 1320 0
-16 -1304 1305 0
-1305 1321 0
-17 -1305 1306 0
-1306 1322 0
-18 -1306 1307 0
-1307 1323 0
-19 -1307 1308 0
-1308 1324 0
-20 -1308 1309 0
-1309 1325 0
-21 -1309 1310 0
-1310 1326 0
-22 -1310 1311 0
-1311 1327 0
-23 -1311 1312 0
-1312 1328 0
-24 -1312 0
-9 1313 0
-1313 1329 0
-10 -1313 1314 0
-1314 1330 0
-11 -1314 1315 0
-1315 1331 0
-12 -1315 1316 0
-1316 1332 0
-13 -1316 1317 0
-1317 1333 0
-14 -1317 1318 0
-1318 1334 0
-15 -1318 1319 0
-1319 1335 0
-16 -1319 1320 0
-1320 1336 0
-17 -1320 1321 0
-1321 1337 0
-18 -1321 1322 0
-1322 1338 0
-19 -1322 1323 0
-1323 1339 0
-20 -1323 1324 0
-1324 1340 0
-21 -1324 1325 0
-1325 1341 0
-22 -1325 1326 0
-1326 1342 0
-23 -1326 1327 0
-1327 1343 0
-24 -1327 1328 0
-1328 1344 0
-25 -1328 0
-10 1329 0
-1329 1345 0
-11 -1329 1330 0
-1330 1346 0
-12 -1330 1331 0
-1331 1347 0
-13 -1331 1332 0
-1332 1348 0
-14 -1332 1333 0
-1333 1349 0
-15 -1333 1334 0
-1334 1350 0
-16 -1334 1335 0
-1335 1351 0
-17 -1335 1336 0
-1336 1352 0
-18 -1336 1337 0
-1337 1353 0
-19 -1337 1338 0
-1338 1354 0
-20 -1338 1339 0
-1339 1355 0
-21 -1339 1340 0
-1340 1356 0
-22 -1340 1341 0
-1341 1357 0
-23 -1341 1342 0
-1342 1358 0
-24 -1342 1343 0
-1343 1359 0
-25 -1343 1344 0
-1344 1360 0
-26 -1344 0
-11 1345 0
-1345 1361 0
-12 -1345 1346 0
-1346 1362 0
-13 -1346 1347 0
-1347 1363 0
-14 -1347 1348 0
-1348 1364 0
-15 -1348 1349 0
-1349 1365 0
-16 -1349 1350 0
-1350 1366 0
-17 -1350 1351 0
-1351 1367 0
-18 -1351 1352 0
-1352 1368 0
-19 -1352 1353 0
-1353 1369 0
-20 -1353 1354 0
-1354 1370 0
-21 -1354 1355 0
-1355 1371 0
-22 -1355 1356 0
-1356 1372 0
-23 -1356 1357 0
-1357 1373 0
-24 -1357 1358 0
-1358 1374 0
-25 -1358 1359 0
-1359 1375 0
-26 -1359 1360 0
-1360 1376 0
-27 -1360 0
-12 1361 0
-1361 1377 0
-13 -1361 1362 0
-1362 1378 0
-14 -1362 1363 0
-1363 1379 0
-15 -1363 1364 0
-1364 1380 0
-16 -1364 1365 0
-1365 1381 0
-17 -1365 1366 0
-1366 1382 0
-18 -1366 1367 0
-1367 1383 0
-19 -1367 1368 0
-1368 1384 0
-20 -1368 1369 0
-1369 1385 0
-21 -1369 1370 0
-1370 1386 0
-22 -1370 1371 0
-1371 1387 0
-23 -1371 1372 0
-1372 1388 0
-24 -1372 1373 0
-1373 1389 0
-25 -1373 1374 0
-1374 1390 0
-26 -1374 1375 0
-1375 1391 0
-27 -1375 1376 0
-1376 1392 0
-28 -1376 0
-13 1377 0
-1377 1393 0
-14 -1377 1378 0
-1378 1394 0
-15 -1378 1379 0
-1379 1395 0
-16 -1379 1380 0
-1380 1396 0
-17 -1380 1381 0
-1381 1397 0
-18 -1381 1382 0
-1382 1398 0
-19 -1382 1383 0
-1383 1399 0
-20 -1383 1384 0
-1384 1400 0
-21 -1384 1385 0
-1385 1401 0
-22 -1385 1386 0
-1386 1402 0
-23 -1386 1387 0
-1387 1403 0
-24 -1387 1388 0
-1388 1404 0
-25 -1388 1389 0
-1389 1405 0
-26 -1389 1390 0
-1390 1406 0
-27 -1390 1391 0
-1391 1407 0
-28 -1391 1392 0
-1392 1408 0
-29 -1392 0
-14 1393 0
-1393 1409 0
-15 -1393 1394 0
-1394 1410 0
-16 -1394 1395 0
-1395 1411 0
-17 -1395 1396 0
-1396 1412 0
-18 -1396 1397 0
-1397 1413 0
-19 -1397 1398 0
-1398 1414 0
-20 -1398 1399 0
-1399 1415 0
-21 -1399 1400 0
-1400 1416 0
-22 -1400 1401 0
-1401 1417 0
-23 -1401 1402 0
-1402 1418 0
-24 -1402 1403 0
-1403 1419 0
-25 -1403 1404 0
-1404 1420 0
-26 -1404 1405 0
-1405 1421 0
-27 -1405 1406 0
-1406 1422 0
-28 -1406 1407 0
-1407 1423 0
-29 -1407 1408 0
-1408 1424 0
-30 -1408 0
-15 1409 0
-1409 1425 0
-16 -1409 1410 0
-1410 1426 0
-17 -1410 1411 0
-1411 1427 0
-18 -1411 1412 0
-1412 1428 0
-19 -1412 1413 0
-1413 1429 0
-20 -1413 1414 0
-1414 1430 0
-21 -1414 1415 0
-1415 1431 0
-22 -1415 1416 0
-1416 1432 0
-23 -1416 1417 0
-1417 1433 0
-24 -1417 1418 0
-1418 1434 0
-25 -1418 1419 0
-1419 1435 0
-26 -1419 1420 0
-1420 1436 0
-27 -1420 1421 0
-1421 1437 0
-28 -1421 1422 0
-1422 1438 0
-29 -1422 1423 0
-1423 1439 0
-30 -1423 1424 0
-1424 1440 0
-31 -1424 0
-16 1425 0
-1425 1441 0
-17 -1425 1426 0
-1426 1442 0
-18 -1426 1427 0
-1427 1443 0
-19 -1427 1428 0
-1428 1444 0
-20 -1428 1429 0
-1429 1445 0
-21 -1429 1430 0
-1430 1446 0
-22 -1430 1431 0
-1431 1447 0
-23 -1431 1432 0
-1432 1448 0
-24 -1432 1433 0
-1433 1449 0
-25 -1433 1434 0
-1434 1450 0
-26 -1434 1435 0
-1435 1451 0
-27 -1435 1436 0
-1436 1452 0
-28 -1436 1437 0
-1437 1453 0
-29 -1437 1438 0
-1438 1454 0
-30 -1438 1439 0
-1439 1455 0
-31 -1439 1440 0
-1440 1456 0
-32 -1440 0
-17 1441 0
-1441 1457 0
-18 -1441 1442 0
-1442 1458 0
-19 -1442 1443 0
-1443 1459 0
-20 -1443 1444 0
-1444 1460 0
-21 -1444 1445 0
-1445 1461 0
-22 -1445 1446 0
-1446 1462 0
-23 -1446 1447 0
-1447 1463 0
-24 -1447 1448 0
-1448 1464 0
-25 -1448 1449 0
-1449 1465 0
-26 -1449 1450 0
-1450 1466 0
-27 -1450 1451 0
-1451 1467 0
-28 -1451 1452 0
-1452 1468 0
-29 -1452 1453 0
-1453 1469 0
-30 -1453 1454 0
-1454 1470 0
-31 -1454 1455 0
-1455 1471 0
-32 -1455 1456 0
-1456 1472 0
-33 -1456 0
-18 1457 0
-1457 1473 0
-19 -1457 1458 0
-1458 1474 0
-20 -1458 1459 0
-1459 1475 0
-21 -1459 1460 0
-1460 1476 0
-22 -1460 1461 0
-1461 1477 0
-23 -1461 1462 0
-1462 1478 0
-24 -1462 1463 0
-1463 1479 0
-25 -1463 1464 0
-1464 1480 0
-26 -1464 1465 0
-1465 1481 0
-27 -1465 1466 0
-1466 1482 0
-28 -1466 1467 0
-1467 1483 0
-29 -1467 1468 0
-1468 1484 0
-30 -1468 1469 0
-1469 1485 0
-31 -1469 1470 0
-1470 1486 0
-32 -1470 1471 0
-1471 1487 0
-33 -1471 1472 0
-1472 1488 0
-34 -1472 0
-19 1473 0
-1473 1489 0
-20 -1473 1474 0
-1474 1490 0
-21 -1474 1475 0
-1475 1491 0
-22 -1475 1476 0
-1476 1492 0
-23 -1476 1477 0
-1477 1493 0
-24 -1477 1478 0
-1478 1494 0
-25 -1478 1479 0
-1479 1495 0
-26 -1479 1480 0
-1480 1496 0
-27 -1480 1481 0
-1481 1497 0
-28 -1481 1482 0
-1482 1498 0
-29 -1482 1483 0
-1483 1499 0
-30 -1483 1484 0
-1484 1500 0
-31 -1484 1485 0
-1485 1501 0
-32 -1485 1486 0
-1486 1502 0
-33 -1486 1487 0
-1487 1503 0
-34 -1487 1488 0
-1488 1504 0
-35 -1488 0
-20 1489 0
-1489 1505 0
-21 -1489 1490 0
-1490 1506 0
-22 -1490 1491 0
-1491 1507 0
-23 -1491 1492 0
-1492 1508 0
-24 -1492 1493 0
-1493 1509 0
-25 -1493 1494 0
-1494 1510 0
-26 -1494 1495 0
-1495 1511 0
-27 -1495 1496 0
-1496 1512 0
-28 -1496 1497 0
-1497 1513 0
-29 -1497 1498 0
-1498 1514 0
-30 -1498 1499 0
-1499 1515 0
-31 -1499 1500 0
-1500 1516 0
-32 -1500 1501 0
-1501 1517 0
-33 -1501 1502 0
-1502 1518 0
-34 -1502 1503 0
-1503 1519 0
-35 -1503 1504 0
-1504 1520 0
-36 -1504 0
-21 1505 0
-1505 1521 0
-22 -1505 1506 0
-1506 1522 0
-23 -1506 1507 0
-1507 1523 0
-24 -1507 1508 0
-1508 1524 0
-25 -1508 1509 0
-1509 1525 0
-26 -1509 1510 0
-1510 1526 0
-27 -1510 1511 0
-1511 1527 0
-28 -1511 1512 0
-1512 1528 0
-29 -1512 1513 0
-1513 1529 0
-30 -1513 1514 0
-1514 1530 0
-31 -1514 1515 0
-1515 1531 0
-32 -1515 1516 0
-1516 1532 0
-33 -1516 1517 0
-1517 1533 0
-34 -1517 1518 0
-1518 1534 0
-35 -1518 1519 0
-1519 1535 0
-36 -1519 1520 0
-1520 1536 0
-37 -1520 0
-22 1521 0
-1521 1537 0
-23 -1521 1522 0
-1522 1538 0
-24 -1522 1523 0
-1523 1539 0
-25 -1523 1524 0
-1524 1540 0
-26 -1524 1525 0
-1525 1541 0
-27 -1525 1526 0
-1526 1542 0
-28 -1526 1527 0
-1527 1543 0
-29 -1527 1528 0
-1528 1544 0
-30 -1528 1529 0
-1529 1545 0
-31 -1529 1530 0
-1530 1546 0
-32 -1530 1531 0
-1531 1547 0
-33 -1531 1532 0
-1532 1548 0
-34 -1532 1533 0
-1533 1549 0
-35 -1533 1534 0
-1534 1550 0
-36 -1534 1535 0
-1535 1551 0
-37 -1535 1536 0
-1536 1552 0
-38 -1536 0
-23 1537 0
-1537 1553 0
-24 -1537 1538 0
-1538 1554 0
-25 -1538 1539 0
-1539 1555 0
-26 -1539 1540 0
-1540 1556 0
-27 -1540 1541 0
-1541 1557 0
-28 -1541 1542 0
-1542 1558 0
-29 -1542 1543 0
-1543 1559 0
-30 -1543 1544 0
-1544 1560 0
-31 -1544 1545 0
-1545 1561 0
-32 -1545 1546 0
-1546 1562 0
-33 -1546 1547 0
-1547 1563 0
-34 -1547 1548 0
-1548 1564 0
-35 -1548 1549 0
-1549 1565 0
-36 -1549 1550 0
-1550 1566 0
-37 -1550 1551 0
-1551 1567 0
-38 -1551 1552 0
-1552 1568 0
-39 -1552 0
-24 1553 0
-1553 1569 0
-25 -1553 1554 0
-1554 1570 0
-26 -1554 1555 0
-1555 1571 0
-27 -1555 1556 0
-1556 1572 0
-28 -1556 1557 0
-1557 1573 0
-29 -1557 1558 0
-1558 1574 0
-30 -1558 1559 0
-1559 1575 0
-31 -1559 1560 0
-1560 1576 0
-32 -1560 1561 0
-1561 1577 0
-33 -1561 1562 0
-1562 1578 0
-34 -1562 1563 0
-1563 1579 0
-35 -1563 1564 0
-1564 1580 0
-36 -1564 1565 0
-1565 1581 0
-37 -1565 1566 0
-1566 1582 0
-38 -1566 1567 0
-1567 1583 0
-39 -1567 1568 0
-1568 1584 0
-40 -1568 0
-25 1569 0
-1569 1585 0
-26 -1569 1570 0
-1570 1586 0
-27 -1570 1571 0
-1571 1587 0
-28 -1571 1572 0
-1572 1588 0
-29 -1572 1573 0
-1573 1589 0
-30 -1573 1574 0
-1574 1590 0
-31 -1574 1575 0
-1575 1591 0
-32 -1575 1576 0
-1576 1592 0
-33 -1576 1577 0
-1577 1593 0
-34 -1577 1578 0
-1578 1594 0
-35 -1578 1579 0
-1579 1595 0
-36 -1579 1580 0
-1580 1596 0
-37 -1580 1581 0
-1581 1597 0
-38 -1581 1582 0
-1582 1598 0
-39 -1582 1583 0
-1583 1599 0
-40 -1583 1584 0
-1584 1600 0
-41 -1584 0
-26 1585 0
-1585 1601 0
-27 -1585 1586 0
-1586 1602 0
-28 -1586 1587 0
-1587 1603 0
-29 -1587 1588 0
-1588 1604 0
-30 -1588 1589 0
-1589 1605 0
-31 -1589 1590 0
-1590 1606 0
-32 -1590 1591 0
-1591 1607 0
-33 -1591 1592 0
-1592 1608 0
-34 -1592 1593 0
-1593 1609 0
-35 -1593 1594 0
-1594 1610 0
-36 -1594 1595 0
-1595 1611 0
-37 -1595 1596 0
-1596 1612 0
-38 -1596 1597 0
-1597 1613 0
-39 -1597 1598 0
-1598 1614 0
-40 -1598 1599 0
-1599 1615 0
-41 -1599 1600 0
-1600 1616 0
-42 -1600 0
-27 1601 0
-1601 1617 0
-28 -1601 1602 0
-1602 1618 0
-29 -1602 1603 0
-1603 1619 0
-30 -1603 1604 0
-1604 1620 0
-31 -1604 1605 0
-1605 1621 0
-32 -1605 1606 0
-1606 1622 0
-33 -1606 1607 0
-1607 1623 0
-34 -1607 1608 0
-1608 1624 0
-35 -1608 1609 0
-1609 1625 0
-36 -1609 1610 0
-1610 1626 0
-37 -1610 1611 0
-1611 1627 0
-38 -1611 1612 0
-1612 1628 0
-39 -1612 1613 0
-1613 1629 0
-40 -1613 1614 0
-1614 1630 0
-41 -1614 1615 0
-1615 1631 0
-42 -1615 1616 0
-1616 1632 0
-43 -1616 0
-28 1617 0
-1617 1633 0
-29 -1617 1618 0
-1618 1634 0
-30 -1618 1619 0
-1619 1635 0
-31 -1619 1620 0
-1620 1636 0
-32 -1620 1621 0
-1621 1637 0
-33 -1621 1622 0
-1622 1638 0
-34 -1622 1623 0
-1623 1639 0
-35 -1623 1624 0
-1624 1640 0
-36 -1624 1625 0
-1625 1641 0
-37 -1625 1626 0
-1626 1642 0
-38 -1626 1627 0
-1627 1643 0
-39 -1627 1628 0
-1628 1644 0
-40 -1628 1629 0
-1629 1645 0
-41 -1629 1630 0
-1630 1646 0
-42 -1630 1631 0
-1631 1647 0
-43 -1631 1632 0
-1632 1648 0
-44 -1632 0
-29 1633 0
-1633 1649 0
-30 -1633 1634 0
-1634 1650 0
-31 -1634 1635 0
-1635 1651 0
-32 -1635 1636 0
-1636 1652 0
-33 -1636 1637 0
-1637 1653 0
-34 -1637 1638 0
-1638 1654 0
-35 -1638 1639 0
-1639 1655 0
-36 -1639 1640 0
-1640 1656 0
-37 -1640 1641 0
-1641 1657 0
-38 -1641 1642 0
-1642 1658 0
-39 -1642 1643 0
-1643 1659 0
-40 -1643 1644 0
-1644 1660 0
-41 -1644 1645 0
-1645 1661 0
-42 -1645 1646 0
-1646 1662 0
-43 -1646 1647 0
-1647 1663 0
-44 -1647 1648 0
-1648 1664 0
-45 -1648 0
-30 1649 0
-1649 1665 0
-31 -1649 1650 0
-1650 1666 0
-32 -1650 1651 0
-1651 1667 0
-33 -1651 1652 0
-1652 1668 0
-34 -1652 1653 0
-1653 1669 0
-35 -1653 1654 0
-1654 1670 0
-36 -1654 1655 0
-1655 1671 0
-37 -1655 1656 0
-1656 1672 0
-38 -1656 1657 0
-1657 1673 0
-39 -1657 1658 0
-1658 1674 0
-40 -1658 1659 0
-1659 1675 0
-41 -1659 1660 0
-1660 1676 0
-42 -1660 1661 0
-1661 1677 0
-43 -1661 1662 0
-1662 1678 0
-44 -1662 1663 0
-1663 1679 0
-45 -1663 1664 0
-1664 1680 0
-46 -1664 0
-31 1665 0
-1665 1681 0
-32 -1665 1666 0
-1666 1682 0
-33 -1666 1667 0
-1667 1683 0
-34 -1667 1668 0
-1668 1684 0
-35 -1668 1669 0
-1669 1685 0
-36 -1669 1670 0
-1670 1686 0
-37 -1670 1671 0
-1671 1687 0
-38 -1671 1672 0
-1672 1688 0
-39 -1672 1673 0
-1673 1689 0
-40 -1673 1674 0
-1674 1690 0
-41 -1674 1675 0
-1675 1691 0
-42 -1675 1676 0
-1676 1692 0
-43 -1676 1677 0
-1677 1693 0
-44 -1677 1678 0
-1678 1694 0
-45 -1678 1679 0
-1679 1695 0
-46 -1679 1680 0
-1680 1696 0
-47 -1680 0
-32 1681 0
-1681 1697 0
-33 -1681 1682 0
-1682 1698 0
-34 -1682 1683 0
-1683 1699 0
-35 -1683 1684 0
-1684 1700 0
-36 -1684 1685 0
-1685 1701 0
-37 -1685 1686 0
-1686 1702 0
-38 -1686 1687 0
-1687 1703 0
-39 -1687 1688 0
-1688 1704 0
-40 -1688 1689 0
-1689 1705 0
-41 -1689 1690 0
-1690 1706 0
-42 -1690 1691 0
-1691 1707 0
-43 -1691 1692 0
-1692 1708 0
-44 -1692 1693 0
-1693 1709 0
-45 -1693 1694 0
-1694 1710 0
-46 -1694 1695 0
-1695 1711 0
-47 -1695 1696 0
-1696 1712 0
-48 -1696 0
-33 1697 0
-1697 1713 0
-34 -1697 1698 0
-1698 1714 0
-35 -1698 1699 0
-1699 1715 0
-36 -1699 1700 0
-1700 1716 0
-37 -1700 1701 0
-1701 1717 0
-38 -1701 1702 0
-1702 1718 0
-39 -1702 1703 0
-1703 1719 0
-40 -1703 1704 0
-1704 1720 0
-41 -1704 1705 0
-1705 1721 0
-42 -1705 1706 0
-1706 1722 0
-43 -1706 1707 0
-1707 1723 0
-44 -1707 1708 0
-1708 1724 0
-45 -1708 1709 0
-1709 1725 0
-46 -1709 1710 0
-1710 1726 0
-47 -1710 1711 0
-1711 1727 0
-48 -1711 1712 0
-1712 1728 0
-49 -1712 0
-34 1713 0
-1713 1729 0
-35 -1713 1714 0
-1714 1730 0
-36 -1714 1715 0
-1715 1731 0
-37 -1715 1716 0
-1716 1732 0
-38 -1716 1717 0
-1717 1733 0
-39 -1717 1718 0
-1718 1734 0
-40 -1718 1719 0
-1719 1735 0
-41 -1719 1720 0
-1720 1736 0
-42 -1720 1721 0
-1721 1737 0
-43 -1721 1722 0
-1722 1738 0
-44 -1722 1723 0
-1723 1739 0
-45 -1723 1724 0
-1724 1740 0
-46 -1724 1725 0
-1725 1741 0
-47 -1725 1726 0
-1726 1742 0
-48 -1726 1727 0
-1727 1743 0
-49 -1727 1728 0
-1728 1744 0
-50 -1728 0
-35 1729 0
-1729 1745 0
-36 -1729 1730 0
-1730 1746 0
-37 -1730 1731 0
-1731 1747 0
-38 -1731 1732 0
-1732 1748 0
-39 -1732 1733 0
-1733 1749 0
-40 -1733 1734 0
-1734 1750 0
-41 -1734 1735 0
-1735 1751 0
-42 -1735 1736 0
-1736 1752 0
-43 -1736 1737 0
-1737 1753 0
-44 -1737 1738 0
-1738 1754 0
-45 -1738 1739 0
-1739 1755 0
-46 -1739 1740 0
-1740 1756 0
-47 -1740 1741 0
-1741 1757 0
-48 -1741 1742 0
-1742 1758 0
-49 -1742 1743 0
-1743 1759 0
-50 -1743 1744 0
-1744 1760 0
-51 -1744 0
-36 1745 0
-1745 1761 0
-37 -1745 1746 0
-1746 1762 0
-38 -1746 1747 0
-1747 1763 0
-39 -1747 1748 0
-1748 1764 0
-40 -1748 1749 0
-1749 1765 0
-41 -1749 1750 0
-1750 1766 0
-42 -1750 1751 0
-1751 1767 0
-43 -1751 1752 0
-1752 1768 0
-44 -1752 1753 0
-1753 1769 0
-45 -1753 1754 0
-1754 1770 0
-46 -1754 1755 0
-1755 1771 0
-47 -1755 1756 0
-1756 1772 0
-48 -1756 1757 0
-1757 1773 0
-49 -1757 1758 0
-1758 1774 0
-50 -1758 1759 0
-1759 1775 0
-51 -1759 1760 0
-1760 1776 0
-52 -1760 0
-37 1761 0
-1761 1777 0
-38 -1761 1762 0
-1762 1778 0
-39 -1762 1763 0
-1763 1779 0
-40 -1763 1764 0
-1764 1780 0
-41 -1764 1765 0
-1765 1781 0
-42 -1765 1766 0
-1766 1782 0
-43 -1766 1767 0
-1767 1783 0
-44 -1767 1768 0
-1768 1784 0
-45 -1768 1769 0
-1769 1785 0
-46 -1769 1770 0
-1770 1786 0
-47 -1770 1771 0
-1771 1787 0
-48 -1771 1772 0
-1772 1788 0
-49 -1772 1773 0
-1773 1789 0
-50 -1773 1774 0
-1774 1790 0
-51 -1774 1775 0
-1775 1791 0
-52 -1775 1776 0
-1776 1792 0
-53 -1776 0
-38 1777 0
-1777 1793 0
-39 -1777 1778 0
-1778 1794 0
-40 -1778 1779 0
-1779 1795 0
-41 -1779 1780 0
-1780 1796 0
-42 -1780 1781 0
-1781 1797 0
-43 -1781 1782 0
-1782 1798 0
-44 -1782 1783 0
-1783 1799 0
-45 -1783 1784 0
-1784 1800 0
-46 -1784 1785 0
-1785 1801 0
-47 -1785 1786 0
-1786 1802 0
-48 -1786 1787 0
-1787 1803 0
-49 -1787 1788 0
-1788 1804 0
-50 -1788 1789 0
-1789 1805 0
-51 -1789 1790 0
-1790 1806 0
-52 -1790 1791 0
-1791 1807 0
-53 -1791 1792 0
-1792 1808 0
-54 -1792 0
-39 1793 0
-1793 1809 0
-40 -1793 1794 0
-1794 1810 0
-41 -1794 1795 0
-1795 1811 0
-42 -1795 1796 0
-1796 1812 0
-43 -1796 1797 0
-1797 1813 0
-44 -1797 1798 0
-1798 1814 0
-45 -1798 1799 0
-1799 1815 0
-46 -1799 1800 0
-1800 1816 0
-47 -1800 1801 0
-1801 1817 0
-48 -1801 1802 0
-1802 1818 0
-49 -1802 1803 0
-1803 1819 0
-50 -1803 1804 0
-1804 1820 0
-51 -1804 1805 0
-1805 1821 0
-52 -1805 1806 0
-1806 1822 0
-53 -1806 1807 0
-1807 1823 0
-54 -1807 1808 0
-1808 1824 0
-55 -1808 0
-40 1809 0
-1809 1825 0
-41 -1809 1810 0
-1810 1826 0
-42 -1810 1811 0
-1811 1827 0
-43 -1811 1812 0
-1812 1828 0
-44 -1812 1813 0
-1813 1829 0
-45 -1813 1814 0
-1814 1830 0
-46 -1814 1815 0
-1815 1831 0
-47 -1815 1816 0
-1816 1832 0
-48 -1816 1817 0
-1817 1833 0
-49 -1817 1818 0
-1818 1834 0
-50 -1818 1819 0
-1819 1835 0
-51 -1819 1820 0
-1820 1836 0
-52 -1820 1821 0
-1821 1837 0
-53 -1821 1822 0
-1822 1838 0
-54 -1822 1823 0
-1823 1839 0
-55 -1823 1824 0
-1824 1840 0
-56 -1824 0
-41 1825 0
-1825 1841 0
-42 -1825 1826 0
-1826 1842 0
-43 -1826 1827 0
-1827 1843 0
-44 -1827 1828 0
-1828 1844 0
-45 -1828 1829 0
-1829 1845 0
-46 -1829 1830 0
-1830 1846 0
-47 -1830 1831 0
-1831 1847 0
-48 -1831 1832 0
-1832 1848 0
-49 -1832 1833 0
-1833 1849 0
-50 -1833 1834 0
-1834 1850 0
-51 -1834 1835 0
-1835 1851 0
-52 -1835 1836 0
-1836 1852 0
-53 -1836 1837 0
-1837 1853 0
-54 -1837 1838 0
-1838 1854 0
-55 -1838 1839 0
-1839 1855 0
-56 -1839 1840 0
-1840 1856 0
-57 -1840 0
-42 1841 0
-1841 1857 0
-43 -1841 1842 0
-1842 1858 0
-44 -1842 1843 0
-1843 1859 0
-45 -1843 1844 0
-1844 1860 0
-46 -1844 1845 0
-1845 1861 0
-47 -1845 1846 0
-1846 1862 0
-48 -1846 1847 0
-1847 1863 0
-49 -1847 1848 0
-1848 1864 0
-50 -1848 1849 0
-1849 1865 0
-51 -1849 1850 0
-1850 1866 0
-52 -1850 1851 0
-1851 1867 0
-53 -1851 1852 0
-1852 1868 0
-54 -1852 1853 0
-1853 1869 0
-55 -1853 1854 0
-1854 1870 0
-56 -1854 1855 0
-1855 1871 0
-57 -1855 1856 0
-1856 1872 0
-58 -1856 0
-43 1857 0
-1857 1873 0
-44 -1857 1858 0
-1858 1874 0
-45 -1858 1859 0
-1859 1875 0
-46 -1859 1860 0
-1860 1876 0
-47 -1860 1861 0
-1861 1877 0
-48 -1861 1862 0
-1862 1878 0
-49 -1862 1863 0
-1863 1879 0
-50 -1863 1864 0
-1864 1880 0
-51 -1864 1865 0
-1865 1881 0
-52 -1865 1866 0
-1866 1882 0
-53 -1866 1867 0
-1867 1883 0
-54 -1867 1868 0
-1868 1884 0
-55 -1868 1869 0
-1869 1885 0
-56 -1869 1870 0
-1870 1886 0
-57 -1870 1871 0
-1871 1887 0
-58 -1871 1872 0
-1872 1888 0
-59 -1872 0
-44 1873 0
-1873 1889 0
-45 -1873 1874 0
-1874 1890 0
-46 -1874 1875 0
-1875 1891 0
-47 -1875 1876 0
-1876 1892 0
-48 -1876 1877 0
-1877 1893 0
-49 -1877 1878 0
-1878 1894 0
-50 -1878 1879 0
-1879 1895 0
-51 -1879 1880 0
-1880 1896 0
-52 -1880 1881 0
-1881 1897 0
-53 -1881 1882 0
-1882 1898 0
-54 -1882 1883 0
-1883 1899 0
-55 -1883 1884 0
-1884 1900 0
-56 -1884 1885 0
-1885 1901 0
-57 -1885 1886 0
-1886 1902 0
-58 -1886 1887 0
-1887 1903 0
-59 -1887 1888 0
-1888 1904 0
-60 -1888 0
-45 1889 0
-1889 1905 0
-46 -1889 1890 0
-1890 1906 0
-47 -1890 1891 0
-1891 1907 0
-48 -1891 1892 0
-1892 1908 0
-49 -1892 1893 0
-1893 1909 0
-50 -1893 1894 0
-1894 1910 0
-51 -1894 1895 0
-1895 1911 0
-52 -1895 1896 0
-1896 1912 0
-53 -1896 1897 0
-1897 1913 0
-54 -1897 1898 0
-1898 1914 0
-55 -1898 1899 0
-1899 1915 0
-56 -1899 1900 0
-1900 1916 0
-57 -1900 1901 0
-1901 1917 0
-58 -1901 1902 0
-1902 1918 0
-59 -1902 1903 0
-1903 1919 0
-60 -1903 1904 0
-1904 1920 0
-61 -1904 0
-46 1905 0
-1905 1921 0
-47 -1905 1906 0
-1906 1922 0
-48 -1906 1907 0
-1907 1923 0
-49 -1907 1908 0
-1908 1924 0
-50 -1908 1909 0
-1909 1925 0
-51 -1909 1910 0
-1910 1926 0
-52 -1910 1911 0
-1911 1927 0
-53 -1911 1912 0
-1912 1928 0
-54 -1912 1913 0
-1913 1929 0
-55 -1913 1914 0
-1914 1930 0
-56 -1914 1915 0
-1915 1931 0
-57 -1915 1916 0
-1916 1932 0
-58 -1916 1917 0
-1917 1933 0
-59 -1917 1918 0
-1918 1934 0
-60 -1918 1919 0
-1919 1935 0
-61 -1919 1920 0
-1920 1936 0
-62 -1920 0
-47 1921 0
-1921 1937 0
-48 -1921 1922 0
-1922 1938 0
-49 -1922 1923 0
-1923 1939 0
-50 -1923 1924 0
-1924 1940 0
-51 -1924 1925 0
-1925 1941 0
-52 -1925 1926 0
-1926 1942 0
-53 -1926 1927 0
-1927 1943 0
-54 -1927 1928 0
-1928 1944 0
-55 -1928 1929 0
-1929 1945 0
-56 -1929 1930 0
-1930 1946 0
-57 -1930 1931 0
-1931 1947 0
-58 -1931 1932 0
-1932 1948 0
-59 -1932 1933 0
-1933 1949 0
-60 -1933 1934 0
-1934 1950 0
-61 -1934 1935 0
-1935 1951 0
-62 -1935 1936 0
-1936 1952 0
-63 -1936 0
-48 1937 0
-1937 1953 0
-49 -1937 1938 0
-1938 1954 0
-50 -1938 1939 0
-1939 1955 0
-51 -1939 1940 0
-1940 1956 0
-52 -1940 1941 0
-1941 1957 0
-53 -1941 1942 0
-1942 1958 0
-54 -1942 1943 0
-1943 1959 0
-55 -1943 1944 0
-1944 1960 0
-56 -1944 1945 0
-1945 1961 0
-57 -1945 1946 0
-1946 1962 0
-58 -1946 1947 0
-1947 1963 0
-59 -1947 1948 0
-1948 1964 0
-60 -1948 1949 0
-1949 1965 0
-61 -1949 1950 0
-1950 1966 0
-62 -1950 1951 0
-1951 1967 0
-63 -1951 1952 0
-1952 1968 0
-64 -1952 0
-49 1953 0
-1953 1969 0
-50 -1953 1954 0
-1954 1970 0
-51 -1954 1955 0
-1955 1971 0
-52 -1955 1956 0
-1956 1972 0
-53 -1956 1957 0
-1957 1973 0
-54 -1957 1958 0
-1958 1974 0
-55 -1958 1959 0
-1959 1975 0
-56 -1959 1960 0
-1960 1976 0
-57 -1960 1961 0
-1961 1977 0
-58 -1961 1962 0
-1962 1978 0
-59 -1962 1963 0
-1963 1979 0
-60 -1963 1964 0
-1964 1980 0
-61 -1964 1965 0
-1965 1981 0
-62 -1965 1966 0
-1966 1982 0
-63 -1966 1967 0
-1967 1983 0
-64 -1967 1968 0
-1968 1984 0
-65 -1968 0
-50 1969 0
-1969 1985 0
-51 -1969 1970 0
-1970 1986 0
-52 -1970 1971 0
-1971 1987 0
-53 -1971 1972 0
-1972 1988 0
-54 -1972 1973 0
-1973 1989 0
-55 -1973 1974 0
-1974 1990 0
-56 -1974 1975 0
-1975 1991 0
-57 -1975 1976 0
-1976 1992 0
-58 -1976 1977 0
-1977 1993 0
-59 -1977 1978 0
-1978 1994 0
-60 -1978 1979 0
-1979 1995 0
-61 -1979 1980 0
-1980 1996 0
-62 -1980 1981 0
-1981 1997 0
-63 -1981 1982 0
-1982 1998 0
-64 -1982 1983 0
-1983 1999 0
-65 -1983 1984 0
-1984 2000 0
-66 -1984 0
-51 1985 0
-1985 2001 0
-52 -1985 1986 0
-1986 2002 0
-53 -1986 1987 0
-1987 2003 0
-54 -1987 1988 0
-1988 2004 0
-55 -1988 1989 0
-1989 2005 0
-56 -1989 1990 0
-1990 2006 0
-57 -1990 1991 0
-1991 2007 0
-58 -1991 1992 0
-1992 2008 0
-59 -1992 1993 0
-1993 2009 0
-60 -1993 1994 0
-1994 2010 0
-61 -1994 1995 0
-1995 2011 0
-62 -1995 1996 0
-1996 2012 0
-63 -1996 1997 0
-1997 2013 0
-64 -1997 1998 0
-1998 2014 0
-65 -1998 1999 0
-1999 2015 0
-66 -1999 2000 0
-2000 2016 0
-67 -2000 0
-52 2001 0
-2001 2017 0
-53 -2001 2002 0
-2002 2018 0
-54 -2002 2003 0
-2003 2019 0
-55 -2003 2004 0
-2004 2020 0
-56 -2004 2005 0
-2005 2021 0
-57 -2005 2006 0
-2006 2022 0
-58 -2006 2007 0
-2007 2023 0
-59 -2007 2008 0
-2008 2024 0
-60 -2008 2009 0
-2009 2025 0
-61 -2009 2010 0
-2010 2026 0
-62 -2010 2011 0
-2011 2027 0
-63 -2011 2012 0
-2012 2028 0
-64 -2012 2013 0
-2013 2029 0
-65 -2013 2014 0
-2014 2030 0
-66 -2014 2015 0
-2015 2031 0
-67 -2015 2016 0
-2016 2032 0
-68 -2016 0
-53 2017 0
-2017 2033 0
-54 -2017 2018 0
-2018 2034 0
-55 -2018 2019 0
-2019 2035 0
-56 -2019 2020 0
-2020 2036 0
-57 -2020 2021 0
-2021 2037 0
-58 -2021 2022 0
-2022 2038 0
-59 -2022 2023 0
-2023 2039 0
-60 -2023 2024 0
-2024 2040 0
-61 -2024 2025 0
-2025 2041 0
-62 -2025 2026 0
-2026 2042 0
-63 -2026 2027 0
-2027 2043 0
-64 -2027 2028 0
-2028 2044 0
-65 -2028 2029 0
-2029 2045 0
-66 -2029 2030 0
-2030 2046 0
-67 -2030 2031 0
-2031 2047 0
-68 -2031 2032 0
-2032 2048 0
-69 -2032 0
-54 2033 0
-2033 2049 0
-55 -2033 2034 0
-2034 2050 0
-56 -2034 2035 0
-2035 2051 0
-57 -2035 2036 0
-2036 2052 0
-58 -2036 2037 0
-2037 2053 0
-59 -2037 2038 0
-2038 2054 0
-60 -2038 2039 0
-2039 2055 0
-61 -2039 2040 0
-2040 2056 0
-62 -2040 2041 0
-2041 2057 0
-63 -2041 2042 0
-2042 2058 0
-64 -2042 2043 0
-2043 2059 0
-65 -2043 2044 0
-2044 2060 0
-66 -2044 2045 0
-2045 2061 0
-67 -2045 2046 0
-2046 2062 0
-68 -2046 2047 0
-2047 2063 0
-69 -2047 2048 0
-2048 2064 0
-70 -2048 0
-55 2049 0
-2049 2065 0
-56 -2049 2050 0
-2050 2066 0
-57 -2050 2051 0
-2051 2067 0
-58 -2051 2052 0
-2052 2068 0
-59 -2052 2053 0
-2053 2069 0
-60 -2053 2054 0
-2054 2070 0
-61 -2054 2055 0
-2055 2071 0
-62 -2055 2056 0
-2056 2072 0
-63 -2056 2057 0
-2057 2073 0
-64 -2057 2058 0
-2058 2074 0
-65 -2058 2059 0
-2059 2075 0
-66 -2059 2060 0
-2060 2076 0
-67 -2060 2061 0
-2061 2077 0
-68 -2061 2062 0
-2062 2078 0
-69 -2062 2063 0
-2063 2079 0
-70 -2063 2064 0
-2064 2080 0
-71 -2064 0
-56 2065 0
-2065 2081 0
-57 -2065 2066 0
-2066 2082 0
-58 -2066 2067 0
-2067 2083 0
-59 -2067 2068 0
-2068 2084 0
-60 -2068 2069 0
-2069 2085 0
-61 -2069 2070 0
-2070 2086 0
-62 -2070 2071 0
-2071 2087 0
-63 -2071 2072 0
-2072 2088 0
-64 -2072 2073 0
-2073 2089 0
-65 -2073 2074 0
-2074 2090 0
-66 -2074 2075 0
-2075 2091 0
-67 -2075 2076 0
-2076 2092 0
-68 -2076 2077 0
-2077 2093 0
-69 -2077 2078 0
-2078 2094 0
-70 -2078 2079 0
-2079 2095 0
-71 -2079 2080 0
-2080 2096 0
-72 -2080 0
-57 2081 0
-2081 2097 0
-58 -2081 2082 0
-2082 2098 0
-59 -2082 2083 0
-2083 2099 0
-60 -2083 2084 0
-2084 2100 0
-61 -2084 2085 0
-2085 2101 0
-62 -2085 2086 0
-2086 2102 0
-63 -2086 2087 0
-2087 2103 0
-64 -2087 2088 0
-2088 2104 0
-65 -2088 2089 0
-2089 2105 0
-66 -2089 2090 0
-2090 2106 0
-67 -2090 2091 0
-2091 2107 0
-68 -2091 2092 0
-2092 2108 0
-69 -2092 2093 0
-2093 2109 0
-70 -2093 2094 0
-2094 2110 0
-71 -2094 2095 0
-2095 2111 0
-72 -2095 2096 0
-2096 2112 0
-73 -2096 0
-58 2097 0
-2097 2113 0
-59 -2097 2098 0
-2098 2114 0
-60 -2098 2099 0
-2099 2115 0
-61 -2099 2100 0
-2100 2116 0
-62 -2100 2101 0
-2101 2117 0
-63 -2101 2102 0
-2102 2118 0
-64 -2102 2103 0
-2103 2119 0
-65 -2103 2104 0
-2104 2120 0
-66 -2104 2105 0
-2105 2121 0
-67 -2105 2106 0
-2106 2122 0
-68 -2106 2107 0
-2107 2123 0
-69 -2107 2108 0
-2108 2124 0
-70 -2108 2109 0
-2109 2125 0
-71 -2109 2110 0
-2110 2126 0
-72 -2110 2111 0
-2111 2127 0
-73 -2111 2112 0
-2112 2128 0
-74 -2112 0
-59 2113 0
-2113 2129 0
-60 -2113 2114 0
-2114 2130 0
-61 -2114 2115 0
-2115 2131 0
-62 -2115 2116 0
-2116 2132 0
-63 -2116 2117 0
-2117 2133 0
-64 -2117 2118 0
-2118 2134 0
-65 -2118 2119 0
-2119 2135 0
-66 -2119 2120 0
-2120 2136 0
-67 -2120 2121 0
-2121 2137 0
-68 -2121 2122 0
-2122 2138 0
-69 -2122 2123 0
-2123 2139 0
-70 -2123 2124 0
-2124 2140 0
-71 -2124 2125 0
-2125 2141 0
-72 -2125 2126 0
-2126 2142 0
-73 -2126 2127 0
-2127 2143 0
-74 -2127 2128 0
-2128 2144 0
-75 -2128 0
-60 2129 0
-2129 2145 0
-61 -2129 2130 0
-2130 2146 0
-62 -2130 2131 0
-2131 2147 0
-63 -2131 2132 0
-2132 2148 0
-64 -2132 2133 0
-2133 2149 0
-65 -2133 2134 0
-2134 2150 0
-66 -2134 2135 0
-2135 2151 0
-67 -2135 2136 0
-2136 2152 0
-68 -2136 2137 0
-2137 2153 0
-69 -2137 2138 0
-2138 2154 0
-70 -2138 2139 0
-2139 2155 0
-71 -2139 2140 0
-2140 2156 0
-72 -2140 2141 0
-2141 2157 0
-73 -2141 2142 0
-2142 2158 0
-74 -2142 2143 0
-2143 2159 0
-75 -2143 2144 0
-2144 2160 0
-76 -2144 0
-61 2145 0
-2145 2161 0
-62 -2145 2146 0
-2146 2162 0
-63 -2146 2147 0
-2147 2163 0
-64 -2147 2148 0
-2148 2164 0
-65 -2148 2149 0
-2149 2165 0
-66 -2149 2150 0
-2150 2166 0
-67 -2150 2151 0
-2151 2167 0
-68 -2151 2152 0
-2152 2168 0
-69 -2152 2153 0
-2153 2169 0
-70 -2153 2154 0
-2154 2170 0
-71 -2154 2155 0
-2155 2171 0
-72 -2155 2156 0
-2156 2172 0
-73 -2156 2157 0
-2157 2173 0
-74 -2157 2158 0
-2158 2174 0
-75 -2158 2159 0
-2159 2175 0
-76 -2159 2160 0
-2160 2176 0
-77 -2160 0
-62 2161 0
-2161 2177 0
-63 -2161 2162 0
-2162 2178 0
-64 -2162 2163 0
-2163 2179 0
-65 -2163 2164 0
-2164 2180 0
-66 -2164 2165 0
-2165 2181 0
-67 -2165 2166 0
-2166 2182 0
-68 -2166 2167 0
-2167 2183 0
-69 -2167 2168 0
-2168 2184 0
-70 -2168 2169 0
-2169 2185 0
-71 -2169 2170 0
-2170 2186 0
-72 -2170 2171 0
-2171 2187 0
-73 -2171 2172 0
-2172 2188 0
-74 -2172 2173 0
-2173 2189 0
-75 -2173 2174 0
-2174 2190 0
-76 -2174 2175 0
-2175 2191 0
-77 -2175 2176 0
-2176 2192 0
-78 -2176 0
-63 2177 0
-2177 2193 0
-64 -2177 2178 0
-2178 2194 0
-65 -2178 2179 0
-2179 2195 0
-66 -2179 2180 0
-2180 2196 0
-67 -2180 2181 0
-2181 2197 0
-68 -2181 2182 0
-2182 2198 0
-69 -2182 2183 0
-2183 2199 0
-70 -2183 2184 0
-2184 2200 0
-71 -2184 2185 0
-2185 2201 0
-72 -2185 2186 0
-2186 2202 0
-73 -2186 2187 0
-2187 2203 0
-74 -2187 2188 0
-2188 2204 0
-75 -2188 2189 0
-2189 2205 0
-76 -2189 2190 0
-2190 2206 0
-77 -2190 2191 0
-2191 2207 0
-78 -2191 2192 0
-2192 2208 0
-79 -2192 0
-64 2193 0
-65 -2193 2194 0
-66 -2194 2195 0
-67 -2195 2196 0
-68 -2196 2197 0
-69 -2197 2198 0
-70 -2198 2199 0
-71 -2199 2200 0
-72 -2200 2201 0
-73 -2201 2202 0
-74 -2202 2203 0
-75 -2203 2204 0
-76 -2204 2205 0
-77 -2205 2206 0
-78 -2206 2207 0
-79 -2207 2208 0
-80 -2208 0
-81 2209 0
-2209 2210 0
-82 -2209 2211 0
-2211 2212 0
-83 -2211 2213 0
-2213 2214 0
-84 -2213 2215 0
-2215 2216 0
-85 -2215 2217 0
-2217 2218 0
-86 -2217 2219 0
-2219 2220 0
-87 -2219 2221 0
-2221 2222 0
-88 -2221 2223 0
-2223 2224 0
-89 -2223 2225 0
-2225 2226 0
-90 -2225 0
-82 2210 0
-2210 2227 0
-83 -2210 2212 0
-2212 2228 0
-84 -2212 2214 0
-2214 2229 0
-85 -2214 2216 0
-2216 2230 0
-86 -2216 2218 0
-2218 2231 0
-87 -2218 2220 0
-2220 2232 0
-88 -2220 2222 0
-2222 2233 0
-89 -2222 2224 0
-2224 2234 0
-90 -2224 2226 0
-2226 2235 0
-91 -2226 0
-83 2227 0
-2227 2236 0
-84 -2227 2228 0
-2228 2237 0
-85 -2228 2229 0
-2229 2238 0
-86 -2229 2230 0
-2230 2239 0
-87 -2230 2231 0
-2231 2240 0
-88 -2231 2232 0
-2232 2241 0
-89 -2232 2233 0
-2233 2242 0
-90 -2233 2234 0
-2234 2243 0
-91 -2234 2235 0
-2235 2244 0
-92 -2235 0
-84 2236 0
-2236 2245 0
-85 -2236 2237 0
-2237 2246 0
-86 -2237 2238 0
-2238 2247 0
-87 -2238 2239 0
-2239 2248 0
-88 -2239 2240 0
-2240 2249 0
-89 -2240 2241 0
-2241 2250 0
-90 -2241 2242 0
-2242 2251 0
-91 -2242 2243 0
-2243 2252 0
-92 -2243 2244 0
-2244 2253 0
-93 -2244 0
-85 2245 0
-2245 2254 0
-86 -2245 2246 0
-2246 2255 0
-87 -2246 2247 0
-2247 2256 0
-88 -2247 2248 0
-2248 2257 0
-89 -2248 2249 0
-2249 2258 0
-90 -2249 2250 0
-2250 2259 0
-91 -2250 2251 0
-2251 2260 0
-92 -2251 2252 0
-2252 2261 0
-93 -2252 2253 0
-2253 2262 0
-94 -2253 0
-86 2254 0
-2254 2263 0
-87 -2254 2255 0
-2255 2264 0
-88 -2255 2256 0
-2256 2265 0
-89 -2256 2257 0
-2257 2266 0
-90 -2257 2258 0
-2258 2267 0
-91 -2258 2259 0
-2259 2268 0
-92 -2259 2260 0
-2260 2269 0
-93 -2260 2261 0
-2261 2270 0
-94 -2261 2262 0
-2262 2271 0
-95 -2262 0
-87 2263 0
-2263 2272 0
-88 -2263 2264 0
-2264 2273 0
-89 -2264 2265 0
-2265 2274 0
-90 -2265 2266 0
-2266 2275 0
-91 -2266 2267 0
-2267 2276 0
-92 -2267 2268 0
-2268 2277 0
-93 -2268 2269 0
-2269 2278 0
-94 -2269 2270 0
-2270 2279 0
-95 -2270 2271 0
-2271 2280 0
-96 -2271 0
-88 2272 0
-2272 2281 0
-89 -2272 2273 0
-2273 2282 0
-90 -2273 2274 0
-2274 2283 0
-91 -2274 2275 0
-2275 2284 0
-92 -2275 2276 0
-2276 2285 0
-93 -2276 2277 0
-2277 2286 0
-94 -2277 2278 0
-2278 2287 0
-95 -2278 2279 0
-2279 2288 0
-96 -2279 2280 0
-2280 2289 0
-97 -2280 0
-89 2281 0
-2281 2290 0
-90 -2281 2282 0
-2282 2291 0
-91 -2282 2283 0
-2283 2292 0
-92 -2283 2284 0
-2284 2293 0
-93 -2284 2285 0
-2285 2294 0
-94 -2285 2286 0
-2286 2295 0
-95 -2286 2287 0
-2287 2296 0
-96 -2287 2288 0
-2288 2297 0
-97 -2288 2289 0
-2289 2298 0
-98 -2289 0
-90 2290 0
-2290 2299 0
-91 -2290 2291 0
-2291 2300 0
-92 -2291 2292 0
-2292 2301 0
-93 -2292 2293 0
-2293 2302 0
-94 -2293 2294 0
-2294 2303 0
-95 -2294 2295 0
-2295 2304 0
-96 -2295 2296 0
-2296 2305 0
-97 -2296 2297 0
-2297 2306 0
-98 -2297 2298 0
-2298 2307 0
-99 -2298 0
-91 2299 0
-2299 2308 0
-92 -2299 2300 0
-2300 2309 0
-93 -2300 2301 0
-2301 2310 0
-94 -2301 2302 0
-2302 2311 0
-95 -2302 2303 0
-2303 2312 0
-96 -2303 2304 0
-2304 2313 0
-97 -2304 2305 0
-2305 2314 0
-98 -2305 2306 0
-2306 2315 0
-99 -2306 2307 0
-2307 2316 0
-100 -2307 0
-92 2308 0
-2308 2317 0
-93 -2308 2309 0
-2309 2318 0
-94 -2309 2310 0
-2310 2319 0
-95 -2310 2311 0
-2311 2320 0
-96 -2311 2312 0
-2312 2321 0
-97 -2312 2313 0
-2313 2322 0
-98 -2313 2314 0
-2314 2323 0
-99 -2314 2315 0
-2315 2324 0
-100 -2315 2316 0
-2316 2325 0
-101 -2316 0
-93 2317 0
-2317 2326 0
-94 -2317 2318 0
-2318 2327 0
-95 -2318 2319 0
-2319 2328 0
-96 -2319 2320 0
-2320 2329 0
-97 -2320 2321 0
-2321 2330 0
-98 -2321 2322 0
-2322 2331 0
-99 -2322 2323 0
-2323 2332 0
-100 -2323 2324 0
-2324 2333 0
-101 -2324 2325 0
-2325 2334 0
-102 -2325 0
-94 2326 0
-2326 2335 0
-95 -2326 2327 0
-2327 2336 0
-96 -2327 2328 0
-2328 2337 0
-97 -2328 2329 0
-2329 2338 0
-98 -2329 2330 0
-2330 2339 0
-99 -2330 2331 0
-2331 2340 0
-100 -2331 2332 0
-2332 2341 0
-101 -2332 2333 0
-2333 2342 0
-102 -2333 2334 0
-2334 2343 0
-103 -2334 0
-95 2335 0
-2335 2344 0
-96 -2335 2336 0
-2336 2345 0
-97 -2336 2337 0
-2337 2346 0
-98 -2337 2338 0
-2338 2347 0
-99 -2338 2339 0
-2339 2348 0
-100 -2339 2340 0
-2340 2349 0
-101 -2340 2341 0
-2341 2350 0
-102 -2341 2342 0
-2342 2351 0
-103 -2342 2343 0
-2343 2352 0
-104 -2343 0
-96 2344 0
-2344 2353 0
-97 -2344 2345 0
-2345 2354 0
-98 -2345 2346 0
-2346 2355 0
-99 -2346 2347 0
-2347 2356 0
-100 -2347 2348 0
-2348 2357 0
-101 -2348 2349 0
-2349 2358 0
-102 -2349 2350 0
-2350 2359 0
-103 -2350 2351 0
-2351 2360 0
-104 -2351 2352 0
-2352 2361 0
-105 -2352 0
-97 2353 0
-2353 2362 0
-98 -2353 2354 0
-2354 2363 0
-99 -2354 2355 0
-2355 2364 0
-100 -2355 2356 0
-2356 2365 0
-101 -2356 2357 0
-2357 2366 0
-102 -2357 2358 0
-2358 2367 0
-103 -2358 2359 0
-2359 2368 0
-104 -2359 2360 0
-2360 2369 0
-105 -2360 2361 0
-2361 2370 0
-106 -2361 0
-98 2362 0
-2362 2371 0
-99 -2362 2363 0
-2363 2372 0
-100 -2363 2364 0
-2364 2373 0
-101 -2364 2365 0
-2365 2374 0
-102 -2365 2366 0
-2366 2375 0
-103 -2366 2367 0
-2367 2376 0
-104 -2367 2368 0
-2368 2377 0
-105 -2368 2369 0
-2369 2378 0
-106 -2369 2370 0
-2370 2379 0
-107 -2370 0
-99 2371 0
-2371 2380 0
-100 -2371 2372 0
-2372 2381 0
-101 -2372 2373 0
-2373 2382 0
-102 -2373 2374 0
-2374 2383 0
-103 -2374 2375 0
-2375 2384 0
-104 -2375 2376 0
-2376 2385 0
-105 -2376 2377 0
-2377 2386 0
-106 -2377 2378 0
-2378 2387 0
-107 -2378 2379 0
-2379 2388 0
-108 -2379 0
-100 2380 0
-2380 2389 0
-101 -2380 2381 0
-2381 2390 0
-102 -2381 2382 0
-2382 2391 0
-103 -2382 2383 0
-2383 2392 0
-104 -2383 2384 0
-2384 2393 0
-105 -2384 2385 0
-2385 2394 0
-106 -2385 2386 0
-2386 2395 0
-107 -2386 2387 0
-2387 2396 0
-108 -2387 2388 0
-2388 2397 0
-109 -2388 0
-101 2389 0
-2389 2398 0
-102 -2389 2390 0
-2390 2399 0
-103 -2390 2391 0
-2391 2400 0
-104 -2391 2392 0
-2392 2401 0
-105 -2392 2393 0
-2393 2402 0
-106 -2393 2394 0
-2394 2403 0
-107 -2394 2395 0
-2395 2404 0
-108 -2395 2396 0
-2396 2405 0
-109 -2396 2397 0
-2397 2406 0
-110 -2397 0
-102 2398 0
-2398 2407 0
-103 -2398 2399 0
-2399 2408 0
-104 -2399 2400 0
-2400 2409 0
-105 -2400 2401 0
-2401 2410 0
-106 -2401 2402 0
-2402 2411 0
-107 -2402 2403 0
-2403 2412 0
-108 -2403 2404 0
-2404 2413 0
-109 -2404 2405 0
-2405 2414 0
-110 -2405 2406 0
-2406 2415 0
-111 -2406 0
-103 2407 0
-2407 2416 0
-104 -2407 2408 0
-2408 2417 0
-105 -2408 2409 0
-2409 2418 0
-106 -2409 2410 0
-2410 2419 0
-107 -2410 2411 0
-2411 2420 0
-108 -2411 2412 0
-2412 2421 0
-109 -2412 2413 0
-2413 2422 0
-110 -2413 2414 0
-2414 2423 0
-111 -2414 2415 0
-2415 2424 0
-112 -2415 0
-104 2416 0
-2416 2425 0
-105 -2416 2417 0
-2417 2426 0
-106 -2417 2418 0
-2418 2427 0
-107 -2418 2419 0
-2419 2428 0
-108 -2419 2420 0
-2420 2429 0
-109 -2420 2421 0
-2421 2430 0
-110 -2421 2422 0
-2422 2431 0
-111 -2422 2423 0
-2423 2432 0
-112 -2423 2424 0
-2424 2433 0
-113 -2424 0
-105 2425 0
-2425 2434 0
-106 -2425 2426 0
-2426 2435 0
-107 -2426 2427 0
-2427 2436 0
-108 -2427 2428 0
-2428 2437 0
-109 -2428 2429 0
-2429 2438 0
-110 -2429 2430 0
-2430 2439 0
-111 -2430 2431 0
-2431 2440 0
-112 -2431 2432 0
-2432 2441 0
-113 -2432 2433 0
-2433 2442 0
-114 -2433 0
-106 2434 0
-2434 2443 0
-107 -2434 2435 0
-2435 2444 0
-108 -2435 2436 0
-2436 2445 0
-109 -2436 2437 0
-2437 2446 0
-110 -2437 2438 0
-2438 2447 0
-111 -2438 2439 0
-2439 2448 0
-112 -2439 2440 0
-2440 2449 0
-113 -2440 2441 0
-2441 2450 0
-114 -2441 2442 0
-2442 2451 0
-115 -2442 0
-107 2443 0
-2443 2452 0
-108 -2443 2444 0
-2444 2453 0
-109 -2444 2445 0
-2445 2454 0
-110 -2445 2446 0
-2446 2455 0
-111 -2446 2447 0
-2447 2456 0
-112 -2447 2448 0
-2448 2457 0
-113 -2448 2449 0
-2449 2458 0
-114 -2449 2450 0
-2450 2459 0
-115 -2450 2451 0
-2451 2460 0
-116 -2451 0
-108 2452 0
-2452 2461 0
-109 -2452 2453 0
-2453 2462 0
-110 -2453 2454 0
-2454 2463 0
-111 -2454 2455 0
-2455 2464 0
-112 -2455 2456 0
-2456 2465 0
-113 -2456 2457 0
-2457 2466 0
-114 -2457 2458 0
-2458 2467 0
-115 -2458 2459 0
-2459 2468 0
-116 -2459 2460 0
-2460 2469 0
-117 -2460 0
-109 2461 0
-2461 2470 0
-110 -2461 2462 0
-2462 2471 0
-111 -2462 2463 0
-2463 2472 0
-112 -2463 2464 0
-2464 2473 0
-113 -2464 2465 0
-2465 2474 0
-114 -2465 2466 0
-2466 2475 0
-115 -2466 2467 0
-2467 2476 0
-116 -2467 2468 0
-2468 2477 0
-117 -2468 2469 0
-2469 2478 0
-118 -2469 0
-110 2470 0
-2470 2479 0
-111 -2470 2471 0
-2471 2480 0
-112 -2471 2472 0
-2472 2481 0
-113 -2472 2473 0
-2473 2482 0
-114 -2473 2474 0
-2474 2483 0
-115 -2474 2475 0
-2475 2484 0
-116 -2475 2476 0
-2476 2485 0
-117 -2476 2477 0
-2477 2486 0
-118 -2477 2478 0
-2478 2487 0
-119 -2478 0
-111 2479 0
-2479 2488 0
-112 -2479 2480 0
-2480 2489 0
-113 -2480 2481 0
-2481 2490 0
-114 -2481 2482 0
-2482 2491 0
-115 -2482 2483 0
-2483 2492 0
-116 -2483 2484 0
-2484 2493 0
-117 -2484 2485 0
-2485 2494 0
-118 -2485 2486 0
-2486 2495 0
-119 -2486 2487 0
-2487 2496 0
-120 -2487 0
-112 2488 0
-2488 2497 0
-113 -2488 2489 0
-2489 2498 0
-114 -2489 2490 0
-2490 2499 0
-115 -2490 2491 0
-2491 2500 0
-116 -2491 2492 0
-2492 2501 0
-117 -2492 2493 0
-2493 2502 0
-118 -2493 2494 0
-2494 2503 0
-119 -2494 2495 0
-2495 2504 0
-120 -2495 2496 0
-2496 2505 0
-121 -2496 0
-113 2497 0
-2497 2506 0
-114 -2497 2498 0
-2498 2507 0
-115 -2498 2499 0
-2499 2508 0
-116 -2499 2500 0
-2500 2509 0
-117 -2500 2501 0
-2501 2510 0
-118 -2501 2502 0
-2502 2511 0
-119 -2502 2503 0
-2503 2512 0
-120 -2503 2504 0
-2504 2513 0
-121 -2504 2505 0
-2505 2514 0
-122 -2505 0
-114 2506 0
-2506 2515 0
-115 -2506 2507 0
-2507 2516 0
-116 -2507 2508 0
-2508 2517 0
-117 -2508 2509 0
-2509 2518 0
-118 -2509 2510 0
-2510 2519 0
-119 -2510 2511 0
-2511 2520 0
-120 -2511 2512 0
-2512 2521 0
-121 -2512 2513 0
-2513 2522 0
-122 -2513 2514 0
-2514 2523 0
-123 -2514 0
-115 2515 0
-2515 2524 0
-116 -2515 2516 0
-2516 2525 0
-117 -2516 2517 0
-2517 2526 0
-118 -2517 2518 0
-2518 2527 0
-119 -2518 2519 0
-2519 2528 0
-120 -2519 2520 0
-2520 2529 0
-121 -2520 2521 0
-2521 2530 0
-122 -2521 2522 0
-2522 2531 0
-123 -2522 2523 0
-2523 2532 0
-124 -2523 0
-116 2524 0
-2524 2533 0
-117 -2524 2525 0
-2525 2534 0
-118 -2525 2526 0
-2526 2535 0
-119 -2526 2527 0
-2527 2536 0
-120 -2527 2528 0
-2528 2537 0
-121 -2528 2529 0
-2529 2538 0
-122 -2529 2530 0
-2530 2539 0
-123 -2530 2531 0
-2531 2540 0
-124 -2531 2532 0
-2532 2541 0
-125 -2532 0
-117 2533 0
-2533 2542 0
-118 -2533 2534 0
-2534 2543 0
-119 -2534 2535 0
-2535 2544 0
-120 -2535 2536 0
-2536 2545 0
-121 -2536 2537 0
-2537 2546 0
-122 -2537 2538 0
-2538 2547 0
-123 -2538 2539 0
-2539 2548 0
-124 -2539 2540 0
-2540 2549 0
-125 -2540 2541 0
-2541 2550 0
-126 -2541 0
-118 2542 0
-2542 2551 0
-119 -2542 2543 0
-2543 2552 0
-120 -2543 2544 0
-2544 2553 0
-121 -2544 2545 0
-2545 2554 0
-122 -2545 2546 0
-2546 2555 0
-123 -2546 2547 0
-2547 2556 0
-124 -2547 2548 0
-2548 2557 0
-125 -2548 2549 0
-2549 2558 0
-126 -2549 2550 0
-2550 2559 0
-127 -2550 0
-119 2551 0
-2551 2560 0
-120 -2551 2552 0
-2552 2561 0
-121 -2552 2553 0
-2553 2562 0
-122 -2553 2554 0
-2554 2563 0
-123 -2554 2555 0
-2555 2564 0
-124 -2555 2556 0
-2556 2565 0
-125 -2556 2557 0
-2557 2566 0
-126 -2557 2558 0
-2558 2567 0
-127 -2558 2559 0
-2559 2568 0
-128 -2559 0
-120 2560 0
-2560 2569 0
-121 -2560 2561 0
-2561 2570 0
-122 -2561 2562 0
-2562 2571 0
-123 -2562 2563 0
-2563 2572 0
-124 -2563 2564 0
-2564 2573 0
-125 -2564 2565 0
-2565 2574 0
-126 -2565 2566 0
-2566 2575 0
-127 -2566 2567 0
-2567 2576 0
-128 -2567 2568 0
-2568 2577 0
-129 -2568 0
-121 2569 0
-2569 2578 0
-122 -2569 2570 0
-2570 2579 0
-123 -2570 2571 0
-2571 2580 0
-124 -2571 2572 0
-2572 2581 0
-125 -2572 2573 0
-2573 2582 0
-126 -2573 2574 0
-2574 2583 0
-127 -2574 2575 0
-2575 2584 0
-128 -2575 2576 0
-2576 2585 0
-129 -2576 2577 0
-2577 2586 0
-130 -2577 0
-122 2578 0
-2578 2587 0
-123 -2578 2579 0
-2579 2588 0
-124 -2579 2580 0
-2580 2589 0
-125 -2580 2581 0
-2581 2590 0
-126 -2581 2582 0
-2582 2591 0
-127 -2582 2583 0
-2583 2592 0
-128 -2583 2584 0
-2584 2593 0
-129 -2584 2585 0
-2585 2594 0
-130 -2585 2586 0
-2586 2595 0
-131 -2586 0
-123 2587 0
-2587 2596 0
-124 -2587 2588 0
-2588 2597 0
-125 -2588 2589 0
-2589 2598 0
-126 -2589 2590 0
-2590 2599 0
-127 -2590 2591 0
-2591 2600 0
-128 -2591 2592 0
-2592 2601 0
-129 -2592 2593 0
-2593 2602 0
-130 -2593 2594 0
-2594 2603 0
-131 -2594 2595 0
-2595 2604 0
-132 -2595 0
-124 2596 0
-2596 2605 0
-125 -2596 2597 0
-2597 2606 0
-126 -2597 2598 0
-2598 2607 0
-127 -2598 2599 0
-2599 2608 0
-128 -2599 2600 0
-2600 2609 0
-129 -2600 2601 0
-2601 2610 0
-130 -2601 2602 0
-2602 2611 0
-131 -2602 2603 0
-2603 2612 0
-132 -2603 2604 0
-2604 2613 0
-133 -2604 0
-125 2605 0
-2605 2614 0
-126 -2605 2606 0
-2606 2615 0
-127 -2606 2607 0
-2607 2616 0
-128 -2607 2608 0
-2608 2617 0
-129 -2608 2609 0
-2609 2618 0
-130 -2609 2610 0
-2610 2619 0
-131 -2610 2611 0
-2611 2620 0
-132 -2611 2612 0
-2612 2621 0
-133 -2612 2613 0
-2613 2622 0
-134 -2613 0
-126 2614 0
-2614 2623 0
-127 -2614 2615 0
-2615 2624 0
-128 -2615 2616 0
-2616 2625 0
-129 -2616 2617 0
-2617 2626 0
-130 -2617 2618 0
-2618 2627 0
-131 -2618 2619 0
-2619 2628 0
-132 -2619 2620 0
-2620 2629 0
-133 -2620 2621 0
-2621 2630 0
-134 -2621 2622 0
-2622 2631 0
-135 -2622 0
-127 2623 0
-2623 2632 0
-128 -2623 2624 0
-2624 2633 0
-129 -2624 2625 0
-2625 2634 0
-130 -2625 2626 0
-2626 2635 0
-131 -2626 2627 0
-2627 2636 0
-132 -2627 2628 0
-2628 2637 0
-133 -2628 2629 0
-2629 2638 0
-134 -2629 2630 0
-2630 2639 0
-135 -2630 2631 0
-2631 2640 0
-136 -2631 0
-128 2632 0
-2632 2641 0
-129 -2632 2633 0
-2633 2642 0
-130 -2633 2634 0
-2634 2643 0
-131 -2634 2635 0
-2635 2644 0
-132 -2635 2636 0
-2636 2645 0
-133 -2636 2637 0
-2637 2646 0
-134 -2637 2638 0
-2638 2647 0
-135 -2638 2639 0
-2639 2648 0
-136 -2639 2640 0
-2640 2649 0
-137 -2640 0
-129 2641 0
-2641 2650 0
-130 -2641 2642 0
-2642 2651 0
-131 -2642 2643 0
-2643 2652 0
-132 -2643 2644 0
-2644 2653 0
-133 -2644 2645 0
-2645 2654 0
-134 -2645 2646 0
-2646 2655 0
-135 -2646 2647 0
-2647 2656 0
-136 -2647 2648 0
-2648 2657 0
-137 -2648 2649 0
-2649 2658 0
-138 -2649 0
-130 2650 0
-2650 2659 0
-131 -2650 2651 0
-2651 2660 0
-132 -2651 2652 0
-2652 2661 0
-133 -2652 2653 0
-2653 2662 0
-134 -2653 2654 0
-2654 2663 0
-135 -2654 2655 0
-2655 2664 0
-136 -2655 2656 0
-2656 2665 0
-137 -2656 2657 0
-2657 2666 0
-138 -2657 2658 0
-2658 2667 0
-139 -2658 0
-131 2659 0
-2659 2668 0
-132 -2659 2660 0
-2660 2669 0
-133 -2660 2661 0
-2661 2670 0
-134 -2661 2662 0
-2662 2671 0
-135 -2662 2663 0
-2663 2672 0
-136 -2663 2664 0
-2664 2673 0
-137 -2664 2665 0
-2665 2674 0
-138 -2665 2666 0
-2666 2675 0
-139 -2666 2667 0
-2667 2676 0
-140 -2667 0
-132 2668 0
-2668 2677 0
-133 -2668 2669 0
-2669 2678 0
-134 -2669 2670 0
-2670 2679 0
-135 -2670 2671 0
-2671 2680 0
-136 -2671 2672 0
-2672 2681 0
-137 -2672 2673 0
-2673 2682 0
-138 -2673 2674 0
-2674 2683 0
-139 -2674 2675 0
-2675 2684 0
-140 -2675 2676 0
-2676 2685 0
-141 -2676 0
-133 2677 0
-2677 2686 0
-134 -2677 2678 0
-2678 2687 0
-135 -2678 2679 0
-2679 2688 0
-136 -2679 2680 0
-2680 2689 0
-137 -2680 2681 0
-2681 2690 0
-138 -2681 2682 0
-2682 2691 0
-139 -2682 2683 0
-2683 2692 0
-140 -2683 2684 0
-2684 2693 0
-141 -2684 2685 0
-2685 2694 0
-142 -2685 0
-134 2686 0
-2686 2695 0
-135 -2686 2687 0
-2687 2696 0
-136 -2687 2688 0
-2688 2697 0
-137 -2688 2689 0
-2689 2698 0
-138 -2689 2690 0
-2690 2699 0
-139 -2690 2691 0
-2691 2700 0
-140 -2691 2692 0
-2692 2701 0
-141 -2692 2693 0
-2693 2702 0
-142 -2693 2694 0
-2694 2703 0
-143 -2694 0
-135 2695 0
-2695 2704 0
-136 -2695 2696 0
-2696 2705 0
-137 -2696 2697 0
-2697 2706 0
-138 -2697 2698 0
-2698 2707 0
-139 -2698 2699 0
-2699 2708 0
-140 -2699 2700 0
-2700 2709 0
-141 -2700 2701 0
-2701 2710 0
-142 -2701 2702 0
-2702 2711 0
-143 -2702 2703 0
-2703 2712 0
-144 -2703 0
-136 2704 0
-2704 2713 0
-137 -2704 2705 0
-2705 2714 0
-138 -2705 2706 0
-2706 2715 0
-139 -2706 2707 0
-2707 2716 0
-140 -2707 2708 0
-2708 2717 0
-141 -2708 2709 0
-2709 2718 0
-142 -2709 2710 0
-2710 2719 0
-143 -2710 2711 0
-2711 2720 0
-144 -2711 2712 0
-2712 2721 0
-145 -2712 0
-137 2713 0
-2713 2722 0
-138 -2713 2714 0
-2714 2723 0
-139 -2714 2715 0
-2715 2724 0
-140 -2715 2716 0
-2716 2725 0
-141 -2716 2717 0
-2717 2726 0
-142 -2717 2718 0
-2718 2727 0
-143 -2718 2719 0
-2719 2728 0
-144 -2719 2720 0
-2720 2729 0
-145 -2720 2721 0
-2721 2730 0
-146 -2721 0
-138 2722 0
-2722 2731 0
-139 -2722 2723 0
-2723 2732 0
-140 -2723 2724 0
-2724 2733 0
-141 -2724 2725 0
-2725 2734 0
-142 -2725 2726 0
-2726 2735 0
-143 -2726 2727 0
-2727 2736 0
-144 -2727 2728 0
-2728 2737 0
-145 -2728 2729 0
-2729 2738 0
-146 -2729 2730 0
-2730 2739 0
-147 -2730 0
-139 2731 0
-2731 2740 0
-140 -2731 2732 0
-2732 2741 0
-141 -2732 2733 0
-2733 2742 0
-142 -2733 2734 0
-2734 2743 0
-143 -2734 2735 0
-2735 2744 0
-144 -2735 2736 0
-2736 2745 0
-145 -2736 2737 0
-2737 2746 0
-146 -2737 2738 0
-2738 2747 0
-147 -2738 2739 0
-2739 2748 0
-148 -2739 0
-140 2740 0
-2740 2749 0
-141 -2740 2741 0
-2741 2750 0
-142 -2741 2742 0
-2742 2751 0
-143 -2742 2743 0
-2743 2752 0
-144 -2743 2744 0
-2744 2753 0
-145 -2744 2745 0
-2745 2754 0
-146 -2745 2746 0
-2746 2755 0
-147 -2746 2747 0
-2747 2756 0
-148 -2747 2748 0
-2748 2757 0
-149 -2748 0
-141 2749 0
-2749 2758 0
-142 -2749 2750 0
-2750 2759 0
-143 -2750 2751 0
-2751 2760 0
-144 -2751 2752 0
-2752 2761 0
-145 -2752 2753 0
-2753 2762 0
-146 -2753 2754 0
-2754 2763 0
-147 -2754 2755 0
-2755 2764 0
-148 -2755 2756 0
-2756 2765 0
-149 -2756 2757 0
-2757 2766 0
-150 -2757 0
-142 2758 0
-2758 2767 0
-143 -2758 2759 0
-2759 2768 0
-144 -2759 2760 0
-2760 2769 0
-145 -2760 2761 0
-2761 2770 0
-146 -2761 2762 0
-2762 2771 0
-147 -2762 2763 0
-2763 2772 0
-148 -2763 2764 0
-2764 2773 0
-149 -2764 2765 0
-2765 2774 0
-150 -2765 2766 0
-2766 2775 0
-151 -2766 0
-143 2767 0
-2767 2776 0
-144 -2767 2768 0
-2768 2777 0
-145 -2768 2769 0
-2769 2778 0
-146 -2769 2770 0
-2770 2779 0
-147 -2770 2771 0
-2771 2780 0
-148 -2771 2772 0
-2772 2781 0
-149 -2772 2773 0
-2773 2782 0
-150 -2773 2774 0
-2774 2783 0
-151 -2774 2775 0
-2775 2784 0
-152 -2775 0
-144 2776 0
-2776 2785 0
-145 -2776 2777 0
-2777 2786 0
-146 -2777 2778 0
-2778 2787 0
-147 -2778 2779 0
-2779 2788 0
-148 -2779 2780 0
-2780 2789 0
-149 -2780 2781 0
-2781 2790 0
-150 -2781 2782 0
-2782 2791 0
-151 -2782 2783 0
-2783 2792 0
-152 -2783 2784 0
-2784 2793 0
-153 -2784 0
-145 2785 0
-2785 2794 0
-146 -2785 2786 0
-2786 2795 0
-147 -2786 2787 0
-2787 2796 0
-148 -2787 2788 0
-2788 2797 0
-149 -2788 2789 0
-2789 2798 0
-150 -2789 2790 0
-2790 2799 0
-151 -2790 2791 0
-2791 2800 0
-152 -2791 2792 0
-2792 2801 0
-153 -2792 2793 0
-2793 2802 0
-154 -2793 0
-146 2794 0
-2794 2803 0
-147 -2794 2795 0
-2795 2804 0
-148 -2795 2796 0
-2796 2805 0
-149 -2796 2797 0
-2797 2806 0
-150 -2797 2798 0
-2798 2807 0
-151 -2798 2799 0
-2799 2808 0
-152 -2799 2800 0
-2800 2809 0
-153 -2800 2801 0
-2801 2810 0
-154 -2801 2802 0
-2802 2811 0
-155 -2802 0
-147 2803 0
-2803 2812 0
-148 -2803 2804 0
-2804 2813 0
-149 -2804 2805 0
-2805 2814 0
-150 -2805 2806 0
-2806 2815 0
-151 -2806 2807 0
-2807 2816 0
-152 -2807 2808 0
-2808 2817 0
-153 -2808 2809 0
-2809 2818 0
-154 -2809 2810 0
-2810 2819 0
-155 -2810 2811 0
-2811 2820 0
-156 -2811 0
-148 2812 0
-2812 2821 0
-149 -2812 2813 0
-2813 2822 0
-150 -2813 2814 0
-2814 2823 0
-151 -2814 2815 0
-2815 2824 0
-152 -2815 2816 0
-2816 2825 0
-153 -2816 2817 0
-2817 2826 0
-154 -2817 2818 0
-2818 2827 0
-155 -2818 2819 0
-2819 2828 0
-156 -2819 2820 0
-2820 2829 0
-157 -2820 0
-149 2821 0
-2821 2830 0
-150 -2821 2822 0
-2822 2831 0
-151 -2822 2823 0
-2823 2832 0
-152 -2823 2824 0
-2824 2833 0
-153 -2824 2825 0
-2825 2834 0
-154 -2825 2826 0
-2826 2835 0
-155 -2826 2827 0
-2827 2836 0
-156 -2827 2828 0
-2828 2837 0
-157 -2828 2829 0
-2829 2838 0
-158 -2829 0
-150 2830 0
-2830 2839 0
-151 -2830 2831 0
-2831 2840 0
-152 -2831 2832 0
-2832 2841 0
-153 -2832 2833 0
-2833 2842 0
-154 -2833 2834 0
-2834 2843 0
-155 -2834 2835 0
-2835 2844 0
-156 -2835 2836 0
-2836 2845 0
-157 -2836 2837 0
-2837 2846 0
-158 -2837 2838 0
-2838 2847 0
-159 -2838 0
-151 2839 0
-152 -2839 2840 0
-153 -2840 2841 0
-154 -2841 2842 0
-155 -2842 2843 0
-156 -2843 2844 0
-157 -2844 2845 0
-158 -2845 2846 0
-159 -2846 2847 0
-160 -2847 0
1 41 0
