p cnf 2403 4877
-1 61 0
-2 61 0
-30 61 0
-31 61 0
-61 1 2 30 31 0
-2 62 0
-1 62 0
-3 62 0
-32 62 0
-62 2 1 3 32 0
-3 63 0
-2 63 0
-4 63 0
-33 63 0
-63 3 2 4 33 0
-4 64 0
-3 64 0
-5 64 0
-34 64 0
-64 4 3 5 34 0
-5 65 0
-4 65 0
-6 65 0
-35 65 0
-65 5 4 6 35 0
-6 66 0
-5 66 0
-7 66 0
-36 66 0
-66 6 5 7 36 0
-7 67 0
-6 67 0
-8 67 0
-37 67 0
-67 7 6 8 37 0
-8 68 0
-7 68 0
-9 68 0
-38 68 0
-68 8 7 9 38 0
-9 69 0
-8 69 0
-10 69 0
-39 69 0
-69 9 8 10 39 0
-10 70 0
-9 70 0
-11 70 0
-40 70 0
-70 10 9 11 40 0
-11 71 0
-10 71 0
-12 71 0
-41 71 0
-71 11 10 12 41 0
-12 72 0
-11 72 0
-13 72 0
-42 72 0
-72 12 11 13 42 0
-13 73 0
-12 73 0
-14 73 0
-43 73 0
-73 13 12 14 43 0
-14 74 0
-13 74 0
-15 74 0
-44 74 0
-74 14 13 15 44 0
-15 75 0
-14 75 0
-16 75 0
-45 75 0
-75 15 14 16 45 0
-16 76 0
-15 76 0
-17 76 0
-46 76 0
-76 16 15 17 46 0
-17 77 0
-16 77 0
-18 77 0
-47 77 0
-77 17 16 18 47 0
-18 78 0
-17 78 0
-19 78 0
-48 78 0
-78 18 17 19 48 0
-19 79 0
-18 79 0
-20 79 0
-49 79 0
-79 19 18 20 49 0
-20 80 0
-19 80 0
-21 80 0
-50 80 0
-80 20 19 21 50 0
-21 81 0
-20 81 0
-22 81 0
-51 81 0
-81 21 20 22 51 0
-22 82 0
-21 82 0
-23 82 0
-52 82 0
-82 22 21 23 52 0
-23 83 0
-22 83 0
-24 83 0
-53 83 0
-83 23 22 24 53 0
-24 84 0
-23 84 0
-25 84 0
-54 84 0
-84 24 23 25 54 0
-25 85 0
-24 85 0
-26 85 0
-55 85 0
-85 25 24 26 55 0
-26 86 0
-25 86 0
-27 86 0
-56 86 0
-86 26 25 27 56 0
-27 87 0
-26 87 0
-28 87 0
-57 87 0
-87 27 26 28 57 0
-28 88 0
-27 88 0
-29 88 0
-58 88 0
-88 28 27 29 58 0
-29 89 0
-28 89 0
-30 89 0
-59 89 0
-89 29 28 30 59 0
-30 90 0
-1 90 0
-29 90 0
-60 90 0
-90 30 1 29 60 0
-31 91 0
-1 91 0
-35 91 0
-57 91 0
-91 31 1 35 57 0
-32 92 0
-2 92 0
-36 92 0
-58 92 0
-92 32 2 36 58 0
-33 93 0
-3 93 0
-37 93 0
-59 93 0
-93 33 3 37 59 0
-34 94 0
-4 94 0
-38 94 0
-60 94 0
-94 34 4 38 60 0
-35 95 0
-5 95 0
-31 95 0
-39 95 0
-95 35 5 31 39 0
-36 96 0
-6 96 0
-32 96 0
-40 96 0
-96 36 6 32 40 0
-37 97 0
-7 97 0
-33 97 0
-41 97 0
-97 37 7 33 41 0
-38 98 0
-8 98 0
-34 98 0
-42 98 0
-98 38 8 34 42 0
-39 99 0
-9 99 0
-35 99 0
-43 99 0
-99 39 9 35 43 0
-40 100 0
-10 100 0
-36 100 0
-44 100 0
-100 40 10 36 44 0
-41 101 0
-11 101 0
-37 101 0
-45 101 0
-101 41 11 37 45 0
-42 102 0
-12 102 0
-38 102 0
-46 102 0
-102 42 12 38 46 0
-43 103 0
-13 103 0
-39 103 0
-47 103 0
-103 43 13 39 47 0
-44 104 0
-14 104 0
-40 104 0
-48 104 0
-104 44 14 40 48 0
-45 105 0
-15 105 0
-41 105 0
-49 105 0
-105 45 15 41 49 0
-46 106 0
-16 106 0
-42 106 0
-50 106 0
-106 46 16 42 50 0
-47 107 0
-17 107 0
-43 107 0
-51 107 0
-107 47 17 43 51 0
-48 108 0
-18 108 0
-44 108 0
-52 108 0
-108 48 18 44 52 0
-49 109 0
-19 109 0
-45 109 0
-53 109 0
-109 49 19 45 53 0
-50 110 0
-20 110 0
-46 110 0
-54 110 0
-110 50 20 46 54 0
-51 111 0
-21 111 0
-47 111 0
-55 111 0
-111 51 21 47 55 0
-52 112 0
-22 112 0
-48 112 0
-56 112 0
-112 52 22 48 56 0
-53 113 0
-23 113 0
-49 113 0
-57 113 0
-113 53 23 49 57 0
-54 114 0
-24 114 0
-50 114 0
-58 114 0
-114 54 24 50 58 0
-55 115 0
-25 115 0
-51 115 0
-59 115 0
-115 55 25 51 59 0
-56 116 0
-26 116 0
-52 116 0
-60 116 0
-116 56 26 52 60 0
-57 117 0
-27 117 0
-31 117 0
-53 117 0
-117 57 27 31 53 0
-58 118 0
-28 118 0
-32 118 0
-54 118 0
-118 58 28 32 54 0
-59 119 0
-29 119 0
-33 119 0
-55 119 0
-119 59 29 33 55 0
-60 120 0
-30 120 0
-34 120 0
-56 120 0
-120 60 30 34 56 0
1 121 0
-121 122 0
2 -121 123 0
-123 124 0
3 -123 125 0
-125 126 0
4 -125 127 0
-127 128 0
5 -127 129 0
-129 130 0
6 -129 131 0
-131 132 0
7 -131 133 0
-133 134 0
8 -133 135 0
-135 136 0
9 -135 137 0
-137 138 0
10 -137 139 0
-139 140 0
11 -139 141 0
-141 142 0
12 -141 143 0
-143 144 0
13 -143 145 0
-145 146 0
14 -145 147 0
-147 148 0
15 -147 149 0
-149 150 0
16 -149 151 0
-151 152 0
17 -151 153 0
-153 154 0
18 -153 155 0
-155 156 0
19 -155 157 0
-157 158 0
20 -157 159 0
-159 160 0
21 -159 161 0
-161 162 0
22 -161 163 0
-163 164 0
23 -163 165 0
-165 166 0
24 -165 167 0
-167 168 0
25 -167 169 0
-169 170 0
26 -169 171 0
-171 172 0
27 -171 173 0
-173 174 0
28 -173 175 0
-175 176 0
29 -175 177 0
-177 178 0
30 -177 179 0
-179 180 0
31 -179 181 0
-181 182 0
32 -181 183 0
-183 184 0
33 -183 185 0
-185 186 0
34 -185 187 0
-187 188 0
35 -187 189 0
-189 190 0
36 -189 191 0
-191 192 0
37 -191 193 0
-193 194 0
38 -193 195 0
-195 196 0
39 -195 197 0
-197 198 0
40 -197 199 0
-199 200 0
41 -199 201 0
-201 202 0
42 -201 203 0
-203 204 0
43 -203 205 0
-205 206 0
44 -205 207 0
-207 208 0
45 -207 0
2 122 0
-122 209 0
3 -122 124 0
-124 210 0
4 -124 126 0
-126 211 0
5 -126 128 0
-128 212 0
6 -128 130 0
-130 213 0
7 -130 132 0
-132 214 0
8 -132 134 0
-134 215 0
9 -134 136 0
-136 216 0
10 -136 138 0
-138 217 0
11 -138 140 0
-140 218 0
12 -140 142 0
-142 219 0
13 -142 144 0
-144 220 0
14 -144 146 0
-146 221 0
15 -146 148 0
-148 222 0
16 -148 150 0
-150 223 0
17 -150 152 0
-152 224 0
18 -152 154 0
-154 225 0
19 -154 156 0
-156 226 0
20 -156 158 0
-158 227 0
21 -158 160 0
-160 228 0
22 -160 162 0
-162 229 0
23 -162 164 0
-164 230 0
24 -164 166 0
-166 231 0
25 -166 168 0
-168 232 0
26 -168 170 0
-170 233 0
27 -170 172 0
-172 234 0
28 -172 174 0
-174 235 0
29 -174 176 0
-176 236 0
30 -176 178 0
-178 237 0
31 -178 180 0
-180 238 0
32 -180 182 0
-182 239 0
33 -182 184 0
-184 240 0
34 -184 186 0
-186 241 0
35 -186 188 0
-188 242 0
36 -188 190 0
-190 243 0
37 -190 192 0
-192 244 0
38 -192 194 0
-194 245 0
39 -194 196 0
-196 246 0
40 -196 198 0
-198 247 0
41 -198 200 0
-200 248 0
42 -200 202 0
-202 249 0
43 -202 204 0
-204 250 0
44 -204 206 0
-206 251 0
45 -206 208 0
-208 252 0
46 -208 0
3 209 0
-209 253 0
4 -209 210 0
-210 254 0
5 -210 211 0
-211 255 0
6 -211 212 0
-212 256 0
7 -212 213 0
-213 257 0
8 -213 214 0
-214 258 0
9 -214 215 0
-215 259 0
10 -215 216 0
-216 260 0
11 -216 217 0
-217 261 0
12 -217 218 0
-218 262 0
13 -218 219 0
-219 263 0
14 -219 220 0
-220 264 0
15 -220 221 0
-221 265 0
16 -221 222 0
-222 266 0
17 -222 223 0
-223 267 0
18 -223 224 0
-224 268 0
19 -224 225 0
-225 269 0
20 -225 226 0
-226 270 0
21 -226 227 0
-227 271 0
22 -227 228 0
-228 272 0
23 -228 229 0
-229 273 0
24 -229 230 0
-230 274 0
25 -230 231 0
-231 275 0
26 -231 232 0
-232 276 0
27 -232 233 0
-233 277 0
28 -233 234 0
-234 278 0
29 -234 235 0
-235 279 0
30 -235 236 0
-236 280 0
31 -236 237 0
-237 281 0
32 -237 238 0
-238 282 0
33 -238 239 0
-239 283 0
34 -239 240 0
-240 284 0
35 -240 241 0
-241 285 0
36 -241 242 0
-242 286 0
37 -242 243 0
-243 287 0
38 -243 244 0
-244 288 0
39 -244 245 0
-245 289 0
40 -245 246 0
-246 290 0
41 -246 247 0
-247 291 0
42 -247 248 0
-248 292 0
43 -248 249 0
-249 293 0
44 -249 250 0
-250 294 0
45 -250 251 0
-251 295 0
46 -251 252 0
-252 296 0
47 -252 0
4 253 0
-253 297 0
5 -253 254 0
-254 298 0
6 -254 255 0
-255 299 0
7 -255 256 0
-256 300 0
8 -256 257 0
-257 301 0
9 -257 258 0
-258 302 0
10 -258 259 0
-259 303 0
11 -259 260 0
-260 304 0
12 -260 261 0
-261 305 0
13 -261 262 0
-262 306 0
14 -262 263 0
-263 307 0
15 -263 264 0
-264 308 0
16 -264 265 0
-265 309 0
17 -265 266 0
-266 310 0
18 -266 267 0
-267 311 0
19 -267 268 0
-268 312 0
20 -268 269 0
-269 313 0
21 -269 270 0
-270 314 0
22 -270 271 0
-271 315 0
23 -271 272 0
-272 316 0
24 -272 273 0
-273 317 0
25 -273 274 0
-274 318 0
26 -274 275 0
-275 319 0
27 -275 276 0
-276 320 0
28 -276 277 0
-277 321 0
29 -277 278 0
-278 322 0
30 -278 279 0
-279 323 0
31 -279 280 0
-280 324 0
32 -280 281 0
-281 325 0
33 -281 282 0
-282 326 0
34 -282 283 0
-283 327 0
35 -283 284 0
-284 328 0
36 -284 285 0
-285 329 0
37 -285 286 0
-286 330 0
38 -286 287 0
-287 331 0
39 -287 288 0
-288 332 0
40 -288 289 0
-289 333 0
41 -289 290 0
-290 334 0
42 -290 291 0
-291 335 0
43 -291 292 0
-292 336 0
44 -292 293 0
-293 337 0
45 -293 294 0
-294 338 0
46 -294 295 0
-295 339 0
47 -295 296 0
-296 340 0
48 -296 0
5 297 0
-297 341 0
6 -297 298 0
-298 342 0
7 -298 299 0
-299 343 0
8 -299 300 0
-300 344 0
9 -300 301 0
-301 345 0
10 -301 302 0
-302 346 0
11 -302 303 0
-303 347 0
12 -303 304 0
-304 348 0
13 -304 305 0
-305 349 0
14 -305 306 0
-306 350 0
15 -306 307 0
-307 351 0
16 -307 308 0
-308 352 0
17 -308 309 0
-309 353 0
18 -309 310 0
-310 354 0
19 -310 311 0
-311 355 0
20 -311 312 0
-312 356 0
21 -312 313 0
-313 357 0
22 -313 314 0
-314 358 0
23 -314 315 0
-315 359 0
24 -315 316 0
-316 360 0
25 -316 317 0
-317 361 0
26 -317 318 0
-318 362 0
27 -318 319 0
-319 363 0
28 -319 320 0
-320 364 0
29 -320 321 0
-321 365 0
30 -321 322 0
-322 366 0
31 -322 323 0
-323 367 0
32 -323 324 0
-324 368 0
33 -324 325 0
-325 369 0
34 -325 326 0
-326 370 0
35 -326 327 0
-327 371 0
36 -327 328 0
-328 372 0
37 -328 329 0
-329 373 0
38 -329 330 0
-330 374 0
39 -330 331 0
-331 375 0
40 -331 332 0
-332 376 0
41 -332 333 0
-333 377 0
42 -333 334 0
-334 378 0
43 -334 335 0
-335 379 0
44 -335 336 0
-336 380 0
45 -336 337 0
-337 381 0
46 -337 338 0
-338 382 0
47 -338 339 0
-339 383 0
48 -339 340 0
-340 384 0
49 -340 0
6 341 0
-341 385 0
7 -341 342 0
-342 386 0
8 -342 343 0
-343 387 0
9 -343 344 0
-344 388 0
10 -344 345 0
-345 389 0
11 -345 346 0
-346 390 0
12 -346 347 0
-347 391 0
13 -347 348 0
-348 392 0
14 -348 349 0
-349 393 0
15 -349 350 0
-350 394 0
16 -350 351 0
-351 395 0
17 -351 352 0
-352 396 0
18 -352 353 0
-353 397 0
19 -353 354 0
-354 398 0
20 -354 355 0
-355 399 0
21 -355 356 0
-356 400 0
22 -356 357 0
-357 401 0
23 -357 358 0
-358 402 0
24 -358 359 0
-359 403 0
25 -359 360 0
-360 404 0
26 -360 361 0
-361 405 0
27 -361 362 0
-362 406 0
28 -362 363 0
-363 407 0
29 -363 364 0
-364 408 0
30 -364 365 0
-365 409 0
31 -365 366 0
-366 410 0
32 -366 367 0
-367 411 0
33 -367 368 0
-368 412 0
34 -368 369 0
-369 413 0
35 -369 370 0
-370 414 0
36 -370 371 0
-371 415 0
37 -371 372 0
-372 416 0
38 -372 373 0
-373 417 0
39 -373 374 0
-374 418 0
40 -374 375 0
-375 419 0
41 -375 376 0
-376 420 0
42 -376 377 0
-377 421 0
43 -377 378 0
-378 422 0
44 -378 379 0
-379 423 0
45 -379 380 0
-380 424 0
46 -380 381 0
-381 425 0
47 -381 382 0
-382 426 0
48 -382 383 0
-383 427 0
49 -383 384 0
-384 428 0
50 -384 0
7 385 0
-385 429 0
8 -385 386 0
-386 430 0
9 -386 387 0
-387 431 0
10 -387 388 0
-388 432 0
11 -388 389 0
-389 433 0
12 -389 390 0
-390 434 0
13 -390 391 0
-391 435 0
14 -391 392 0
-392 436 0
15 -392 393 0
-393 437 0
16 -393 394 0
-394 438 0
17 -394 395 0
-395 439 0
18 -395 396 0
-396 440 0
19 -396 397 0
-397 441 0
20 -397 398 0
-398 442 0
21 -398 399 0
-399 443 0
22 -399 400 0
-400 444 0
23 -400 401 0
-401 445 0
24 -401 402 0
-402 446 0
25 -402 403 0
-403 447 0
26 -403 404 0
-404 448 0
27 -404 405 0
-405 449 0
28 -405 406 0
-406 450 0
29 -406 407 0
-407 451 0
30 -407 408 0
-408 452 0
31 -408 409 0
-409 453 0
32 -409 410 0
-410 454 0
33 -410 411 0
-411 455 0
34 -411 412 0
-412 456 0
35 -412 413 0
-413 457 0
36 -413 414 0
-414 458 0
37 -414 415 0
-415 459 0
38 -415 416 0
-416 460 0
39 -416 417 0
-417 461 0
40 -417 418 0
-418 462 0
41 -418 419 0
-419 463 0
42 -419 420 0
-420 464 0
43 -420 421 0
-421 465 0
44 -421 422 0
-422 466 0
45 -422 423 0
-423 467 0
46 -423 424 0
-424 468 0
47 -424 425 0
-425 469 0
48 -425 426 0
-426 470 0
49 -426 427 0
-427 471 0
50 -427 428 0
-428 472 0
51 -428 0
8 429 0
-429 473 0
9 -429 430 0
-430 474 0
10 -430 431 0
-431 475 0
11 -431 432 0
-432 476 0
12 -432 433 0
-433 477 0
13 -433 434 0
-434 478 0
14 -434 435 0
-435 479 0
15 -435 436 0
-436 480 0
16 -436 437 0
-437 481 0
17 -437 438 0
-438 482 0
18 -438 439 0
-439 483 0
19 -439 440 0
-440 484 0
20 -440 441 0
-441 485 0
21 -441 442 0
-442 486 0
22 -442 443 0
-443 487 0
23 -443 444 0
-444 488 0
24 -444 445 0
-445 489 0
25 -445 446 0
-446 490 0
26 -446 447 0
-447 491 0
27 -447 448 0
-448 492 0
28 -448 449 0
-449 493 0
29 -449 450 0
-450 494 0
30 -450 451 0
-451 495 0
31 -451 452 0
-452 496 0
32 -452 453 0
-453 497 0
33 -453 454 0
-454 498 0
34 -454 455 0
-455 499 0
35 -455 456 0
-456 500 0
36 -456 457 0
-457 501 0
37 -457 458 0
-458 502 0
38 -458 459 0
-459 503 0
39 -459 460 0
-460 504 0
40 -460 461 0
-461 505 0
41 -461 462 0
-462 506 0
42 -462 463 0
-463 507 0
43 -463 464 0
-464 508 0
44 -464 465 0
-465 509 0
45 -465 466 0
-466 510 0
46 -466 467 0
-467 511 0
47 -467 468 0
-468 512 0
48 -468 469 0
-469 513 0
49 -469 470 0
-470 514 0
50 -470 471 0
-471 515 0
51 -471 472 0
-472 516 0
52 -472 0
9 473 0
-473 517 0
10 -473 474 0
-474 518 0
11 -474 475 0
-475 519 0
12 -475 476 0
-476 520 0
13 -476 477 0
-477 521 0
14 -477 478 0
-478 522 0
15 -478 479 0
-479 523 0
16 -479 480 0
-480 524 0
17 -480 481 0
-481 525 0
18 -481 482 0
-482 526 0
19 -482 483 0
-483 527 0
20 -483 484 0
-484 528 0
21 -484 485 0
-485 529 0
22 -485 486 0
-486 530 0
23 -486 487 0
-487 531 0
24 -487 488 0
-488 532 0
25 -488 489 0
-489 533 0
26 -489 490 0
-490 534 0
27 -490 491 0
-491 535 0
28 -491 492 0
-492 536 0
29 -492 493 0
-493 537 0
30 -493 494 0
-494 538 0
31 -494 495 0
-495 539 0
32 -495 496 0
-496 540 0
33 -496 497 0
-497 541 0
34 -497 498 0
-498 542 0
35 -498 499 0
-499 543 0
36 -499 500 0
-500 544 0
37 -500 501 0
-501 545 0
38 -501 502 0
-502 546 0
39 -502 503 0
-503 547 0
40 -503 504 0
-504 548 0
41 -504 505 0
-505 549 0
42 -505 506 0
-506 550 0
43 -506 507 0
-507 551 0
44 -507 508 0
-508 552 0
45 -508 509 0
-509 553 0
46 -509 510 0
-510 554 0
47 -510 511 0
-511 555 0
48 -511 512 0
-512 556 0
49 -512 513 0
-513 557 0
50 -513 514 0
-514 558 0
51 -514 515 0
-515 559 0
52 -515 516 0
-516 560 0
53 -516 0
10 517 0
-517 561 0
11 -517 518 0
-518 562 0
12 -518 519 0
-519 563 0
13 -519 520 0
-520 564 0
14 -520 521 0
-521 565 0
15 -521 522 0
-522 566 0
16 -522 523 0
-523 567 0
17 -523 524 0
-524 568 0
18 -524 525 0
-525 569 0
19 -525 526 0
-526 570 0
20 -526 527 0
-527 571 0
21 -527 528 0
-528 572 0
22 -528 529 0
-529 573 0
23 -529 530 0
-530 574 0
24 -530 531 0
-531 575 0
25 -531 532 0
-532 576 0
26 -532 533 0
-533 577 0
27 -533 534 0
-534 578 0
28 -534 535 0
-535 579 0
29 -535 536 0
-536 580 0
30 -536 537 0
-537 581 0
31 -537 538 0
-538 582 0
32 -538 539 0
-539 583 0
33 -539 540 0
-540 584 0
34 -540 541 0
-541 585 0
35 -541 542 0
-542 586 0
36 -542 543 0
-543 587 0
37 -543 544 0
-544 588 0
38 -544 545 0
-545 589 0
39 -545 546 0
-546 590 0
40 -546 547 0
-547 591 0
41 -547 548 0
-548 592 0
42 -548 549 0
-549 593 0
43 -549 550 0
-550 594 0
44 -550 551 0
-551 595 0
45 -551 552 0
-552 596 0
46 -552 553 0
-553 597 0
47 -553 554 0
-554 598 0
48 -554 555 0
-555 599 0
49 -555 556 0
-556 600 0
50 -556 557 0
-557 601 0
51 -557 558 0
-558 602 0
52 -558 559 0
-559 603 0
53 -559 560 0
-560 604 0
54 -560 0
11 561 0
-561 605 0
12 -561 562 0
-562 606 0
13 -562 563 0
-563 607 0
14 -563 564 0
-564 608 0
15 -564 565 0
-565 609 0
16 -565 566 0
-566 610 0
17 -566 567 0
-567 611 0
18 -567 568 0
-568 612 0
19 -568 569 0
-569 613 0
20 -569 570 0
-570 614 0
21 -570 571 0
-571 615 0
22 -571 572 0
-572 616 0
23 -572 573 0
-573 617 0
24 -573 574 0
-574 618 0
25 -574 575 0
-575 619 0
26 -575 576 0
-576 620 0
27 -576 577 0
-577 621 0
28 -577 578 0
-578 622 0
29 -578 579 0
-579 623 0
30 -579 580 0
-580 624 0
31 -580 581 0
-581 625 0
32 -581 582 0
-582 626 0
33 -582 583 0
-583 627 0
34 -583 584 0
-584 628 0
35 -584 585 0
-585 629 0
36 -585 586 0
-586 630 0
37 -586 587 0
-587 631 0
38 -587 588 0
-588 632 0
39 -588 589 0
-589 633 0
40 -589 590 0
-590 634 0
41 -590 591 0
-591 635 0
42 -591 592 0
-592 636 0
43 -592 593 0
-593 637 0
44 -593 594 0
-594 638 0
45 -594 595 0
-595 639 0
46 -595 596 0
-596 640 0
47 -596 597 0
-597 641 0
48 -597 598 0
-598 642 0
49 -598 599 0
-599 643 0
50 -599 600 0
-600 644 0
51 -600 601 0
-601 645 0
52 -601 602 0
-602 646 0
53 -602 603 0
-603 647 0
54 -603 604 0
-604 648 0
55 -604 0
12 605 0
-605 649 0
13 -605 606 0
-606 650 0
14 -606 607 0
-607 651 0
15 -607 608 0
-608 652 0
16 -608 609 0
-609 653 0
17 -609 610 0
-610 654 0
18 -610 611 0
-611 655 0
19 -611 612 0
-612 656 0
20 -612 613 0
-613 657 0
21 -613 614 0
-614 658 0
22 -614 615 0
-615 659 0
23 -615 616 0
-616 660 0
24 -616 617 0
-617 661 0
25 -617 618 0
-618 662 0
26 -618 619 0
-619 663 0
27 -619 620 0
-620 664 0
28 -620 621 0
-621 665 0
29 -621 622 0
-622 666 0
30 -622 623 0
-623 667 0
31 -623 624 0
-624 668 0
32 -624 625 0
-625 669 0
33 -625 626 0
-626 670 0
34 -626 627 0
-627 671 0
35 -627 628 0
-628 672 0
36 -628 629 0
-629 673 0
37 -629 630 0
-630 674 0
38 -630 631 0
-631 675 0
39 -631 632 0
-632 676 0
40 -632 633 0
-633 677 0
41 -633 634 0
-634 678 0
42 -634 635 0
-635 679 0
43 -635 636 0
-636 680 0
44 -636 637 0
-637 681 0
45 -637 638 0
-638 682 0
46 -638 639 0
-639 683 0
47 -639 640 0
-640 684 0
48 -640 641 0
-641 685 0
49 -641 642 0
-642 686 0
50 -642 643 0
-643 687 0
51 -643 644 0
-644 688 0
52 -644 645 0
-645 689 0
53 -645 646 0
-646 690 0
54 -646 647 0
-647 691 0
55 -647 648 0
-648 692 0
56 -648 0
13 649 0
-649 693 0
14 -649 650 0
-650 694 0
15 -650 651 0
-651 695 0
16 -651 652 0
-652 696 0
17 -652 653 0
-653 697 0
18 -653 654 0
-654 698 0
19 -654 655 0
-655 699 0
20 -655 656 0
-656 700 0
21 -656 657 0
-657 701 0
22 -657 658 0
-658 702 0
23 -658 659 0
-659 703 0
24 -659 660 0
-660 704 0
25 -660 661 0
-661 705 0
26 -661 662 0
-662 706 0
27 -662 663 0
-663 707 0
28 -663 664 0
-664 708 0
29 -664 665 0
-665 709 0
30 -665 666 0
-666 710 0
31 -666 667 0
-667 711 0
32 -667 668 0
-668 712 0
33 -668 669 0
-669 713 0
34 -669 670 0
-670 714 0
35 -670 671 0
-671 715 0
36 -671 672 0
-672 716 0
37 -672 673 0
-673 717 0
38 -673 674 0
-674 718 0
39 -674 675 0
-675 719 0
40 -675 676 0
-676 720 0
41 -676 677 0
-677 721 0
42 -677 678 0
-678 722 0
43 -678 679 0
-679 723 0
44 -679 680 0
-680 724 0
45 -680 681 0
-681 725 0
46 -681 682 0
-682 726 0
47 -682 683 0
-683 727 0
48 -683 684 0
-684 728 0
49 -684 685 0
-685 729 0
50 -685 686 0
-686 730 0
51 -686 687 0
-687 731 0
52 -687 688 0
-688 732 0
53 -688 689 0
-689 733 0
54 -689 690 0
-690 734 0
55 -690 691 0
-691 735 0
56 -691 692 0
-692 736 0
57 -692 0
14 693 0
-693 737 0
15 -693 694 0
-694 738 0
16 -694 695 0
-695 739 0
17 -695 696 0
-696 740 0
18 -696 697 0
-697 741 0
19 -697 698 0
-698 742 0
20 -698 699 0
-699 743 0
21 -699 700 0
-700 744 0
22 -700 701 0
-701 745 0
23 -701 702 0
-702 746 0
24 -702 703 0
-703 747 0
25 -703 704 0
-704 748 0
26 -704 705 0
-705 749 0
27 -705 706 0
-706 750 0
28 -706 707 0
-707 751 0
29 -707 708 0
-708 752 0
30 -708 709 0
-709 753 0
31 -709 710 0
-710 754 0
32 -710 711 0
-711 755 0
33 -711 712 0
-712 756 0
34 -712 713 0
-713 757 0
35 -713 714 0
-714 758 0
36 -714 715 0
-715 759 0
37 -715 716 0
-716 760 0
38 -716 717 0
-717 761 0
39 -717 718 0
-718 762 0
40 -718 719 0
-719 763 0
41 -719 720 0
-720 764 0
42 -720 721 0
-721 765 0
43 -721 722 0
-722 766 0
44 -722 723 0
-723 767 0
45 -723 724 0
-724 768 0
46 -724 725 0
-725 769 0
47 -725 726 0
-726 770 0
48 -726 727 0
-727 771 0
49 -727 728 0
-728 772 0
50 -728 729 0
-729 773 0
51 -729 730 0
-730 774 0
52 -730 731 0
-731 775 0
53 -731 732 0
-732 776 0
54 -732 733 0
-733 777 0
55 -733 734 0
-734 778 0
56 -734 735 0
-735 779 0
57 -735 736 0
-736 780 0
58 -736 0
15 737 0
-737 781 0
16 -737 738 0
-738 782 0
17 -738 739 0
-739 783 0
18 -739 740 0
-740 784 0
19 -740 741 0
-741 785 0
20 -741 742 0
-742 786 0
21 -742 743 0
-743 787 0
22 -743 744 0
-744 788 0
23 -744 745 0
-745 789 0
24 -745 746 0
-746 790 0
25 -746 747 0
-747 791 0
26 -747 748 0
-748 792 0
27 -748 749 0
-749 793 0
28 -749 750 0
-750 794 0
29 -750 751 0
-751 795 0
30 -751 752 0
-752 796 0
31 -752 753 0
-753 797 0
32 -753 754 0
-754 798 0
33 -754 755 0
-755 799 0
34 -755 756 0
-756 800 0
35 -756 757 0
-757 801 0
36 -757 758 0
-758 802 0
37 -758 759 0
-759 803 0
38 -759 760 0
-760 804 0
39 -760 761 0
-761 805 0
40 -761 762 0
-762 806 0
41 -762 763 0
-763 807 0
42 -763 764 0
-764 808 0
43 -764 765 0
-765 809 0
44 -765 766 0
-766 810 0
45 -766 767 0
-767 811 0
46 -767 768 0
-768 812 0
47 -768 769 0
-769 813 0
48 -769 770 0
-770 814 0
49 -770 771 0
-771 815 0
50 -771 772 0
-772 816 0
51 -772 773 0
-773 817 0
52 -773 774 0
-774 818 0
53 -774 775 0
-775 819 0
54 -775 776 0
-776 820 0
55 -776 777 0
-777 821 0
56 -777 778 0
-778 822 0
57 -778 779 0
-779 823 0
58 -779 780 0
-780 824 0
59 -780 0
16 781 0
17 -781 782 0
18 -782 783 0
19 -783 784 0
20 -784 785 0
21 -785 786 0
22 -786 787 0
23 -787 788 0
24 -788 789 0
25 -789 790 0
26 -790 791 0
27 -791 792 0
28 -792 793 0
29 -793 794 0
30 -794 795 0
31 -795 796 0
32 -796 797 0
33 -797 798 0
34 -798 799 0
35 -799 800 0
36 -800 801 0
37 -801 802 0
38 -802 803 0
39 -803 804 0
40 -804 805 0
41 -805 806 0
42 -806 807 0
43 -807 808 0
44 -808 809 0
45 -809 810 0
46 -810 811 0
47 -811 812 0
48 -812 813 0
49 -813 814 0
50 -814 815 0
51 -815 816 0
52 -816 817 0
53 -817 818 0
54 -818 819 0
55 -819 820 0
56 -820 821 0
57 -821 822 0
58 -822 823 0
59 -823 824 0
60 -824 0
-1 825 0
-825 826 0
-2 -825 827 0
-827 828 0
-3 -827 829 0
-829 830 0
-4 -829 831 0
-831 832 0
-5 -831 833 0
-833 834 0
-6 -833 835 0
-835 836 0
-7 -835 837 0
-837 838 0
-8 -837 839 0
-839 840 0
-9 -839 841 0
-841 842 0
-10 -841 843 0
-843 844 0
-11 -843 845 0
-845 846 0
-12 -845 847 0
-847 848 0
-13 -847 849 0
-849 850 0
-14 -849 851 0
-851 852 0
-15 -851 853 0
-853 854 0
-16 -853 855 0
-855 856 0
-17 -855 0
-2 826 0
-826 857 0
-3 -826 828 0
-828 858 0
-4 -828 830 0
-830 859 0
-5 -830 832 0
-832 860 0
-6 -832 834 0
-834 861 0
-7 -834 836 0
-836 862 0
-8 -836 838 0
-838 863 0
-9 -838 840 0
-840 864 0
-10 -840 842 0
-842 865 0
-11 -842 844 0
-844 866 0
-12 -844 846 0
-846 867 0
-13 -846 848 0
-848 868 0
-14 -848 850 0
-850 869 0
-15 -850 852 0
-852 870 0
-16 -852 854 0
-854 871 0
-17 -854 856 0
-856 872 0
-18 -856 0
-3 857 0
-857 873 0
-4 -857 858 0
-858 874 0
-5 -858 859 0
-859 875 0
-6 -859 860 0
-860 876 0
-7 -860 861 0
-861 877 0
-8 -861 862 0
-862 878 0
-9 -862 863 0
-863 879 0
-10 -863 864 0
-864 880 0
-11 -864 865 0
-865 881 0
-12 -865 866 0
-866 882 0
-13 -866 867 0
-867 883 0
-14 -867 868 0
-868 884 0
-15 -868 869 0
-869 885 0
-16 -869 870 0
-870 886 0
-17 -870 871 0
-871 887 0
-18 -871 872 0
-872 888 0
-19 -872 0
-4 873 0
-873 889 0
-5 -873 874 0
-874 890 0
-6 -874 875 0
-875 891 0
-7 -875 876 0
-876 892 0
-8 -876 877 0
-877 893 0
-9 -877 878 0
-878 894 0
-10 -878 879 0
-879 895 0
-11 -879 880 0
-880 896 0
-12 -880 881 0
-881 897 0
-13 -881 882 0
-882 898 0
-14 -882 883 0
-883 899 0
-15 -883 884 0
-884 900 0
-16 -884 885 0
-885 901 0
-17 -885 886 0
-886 902 0
-18 -886 887 0
-887 903 0
-19 -887 888 0
-888 904 0
-20 -888 0
-5 889 0
-889 905 0
-6 -889 890 0
-890 906 0
-7 -890 891 0
-891 907 0
-8 -891 892 0
-892 908 0
-9 -892 893 0
-893 909 0
-10 -893 894 0
-894 910 0
-11 -894 895 0
-895 911 0
-12 -895 896 0
-896 912 0
-13 -896 897 0
-897 913 0
-14 -897 898 0
-898 914 0
-15 -898 899 0
-899 915 0
-16 -899 900 0
-900 916 0
-17 -900 901 0
-901 917 0
-18 -901 902 0
-902 918 0
-19 -902 903 0
-903 919 0
-20 -903 904 0
-904 920 0
-21 -904 0
-6 905 0
-905 921 0
-7 -905 906 0
-906 922 0
-8 -906 907 0
-907 923 0
-9 -907 908 0
-908 924 0
-10 -908 909 0
-909 925 0
-11 -909 910 0
-910 926 0
-12 -910 911 0
-911 927 0
-13 -911 912 0
-912 928 0
-14 -912 913 0
-913 929 0
-15 -913 914 0
-914 930 0
-16 -914 915 0
-915 931 0
-17 -915 916 0
-916 932 0
-18 -916 917 0
-917 933 0
-19 -917 918 0
-918 934 0
-20 -918 919 0
-919 935 0
-21 -919 920 0
-920 936 0
-22 -920 0
-7 921 0
-921 937 0
-8 -921 922 0
-922 938 0
-9 -922 923 0
-923 939 0
-10 -923 924 0
-924 940 0
-11 -924 925 0
-925 941 0
-12 -925 926 0
-926 942 0
-13 -926 927 0
-927 943 0
-14 -927 928 0
-928 944 0
-15 -928 929 0
-929 945 0
-16 -929 930 0
-930 946 0
-17 -930 931 0
-931 947 0
-18 -931 932 0
-932 948 0
-19 -932 933 0
-933 949 0
-20 -933 934 0
-934 950 0
-21 -934 935 0
-935 951 0
-22 -935 936 0
-936 952 0
-23 -936 0
-8 937 0
-937 953 0
-9 -937 938 0
-938 954 0
-10 -938 939 0
-939 955 0
-11 -939 940 0
-940 956 0
-12 -940 941 0
-941 957 0
-13 -941 942 0
-942 958 0
-14 -942 943 0
-943 959 0
-15 -943 944 0
-944 960 0
-16 -944 945 0
-945 961 0
-17 -945 946 0
-946 962 0
-18 -946 947 0
-947 963 0
-19 -947 948 0
-948 964 0
-20 -948 949 0
-949 965 0
-21 -949 950 0
-950 966 0
-22 -950 951 0
-951 967 0
-23 -951 952 0
-952 968 0
-24 -952 0
-9 953 0
-953 969 0
-10 -953 954 0
-954 970 0
-11 -954 955 0
-955 971 0
-12 -955 956 0
-956 972 0
-13 -956 957 0
-957 973 0
-14 -957 958 0
-958 974 0
-15 -958 959 0
-959 975 0
-16 -959 960 0
-960 976 0
-17 -960 961 0
-961 977 0
-18 -961 962 0
-962 978 0
-19 -962 963 0
-963 979 0
-20 -963 964 0
-964 980 0
-21 -964 965 0
-965 981 0
-22 -965 966 0
-966 982 0
-23 -966 967 0
-967 983 0
-24 -967 968 0
-968 984 0
-25 -968 0
-10 969 0
-969 985 0
-11 -969 970 0
-970 986 0
-12 -970 971 0
-971 987 0
-13 -971 972 0
-972 988 0
-14 -972 973 0
-973 989 0
-15 -973 974 0
-974 990 0
-16 -974 975 0
-975 991 0
-17 -975 976 0
-976 992 0
-18 -976 977 0
-977 993 0
-19 -977 978 0
-978 994 0
-20 -978 979 0
-979 995 0
-21 -979 980 0
-980 996 0
-22 -980 981 0
-981 997 0
-23 -981 982 0
-982 998 0
-24 -982 983 0
-983 999 0
-25 -983 984 0
-984 1000 0
-26 -984 0
-11 985 0
-985 1001 0
-12 -985 986 0
-986 1002 0
-13 -986 987 0
-987 1003 0
-14 -987 988 0
-988 1004 0
-15 -988 989 0
-989 1005 0
-16 -989 990 0
-990 1006 0
-17 -990 991 0
-991 1007 0
-18 -991 992 0
-992 1008 0
-19 -992 993 0
-993 1009 0
-20 -993 994 0
-994 1010 0
-21 -994 995 0
-995 1011 0
-22 -995 996 0
-996 1012 0
-23 -996 997 0
-997 1013 0
-24 -997 998 0
-998 1014 0
-25 -998 999 0
-999 1015 0
-26 -999 1000 0
-1000 1016 0
-27 -1000 0
-12 1001 0
-1001 1017 0
-13 -1001 1002 0
-1002 1018 0
-14 -1002 1003 0
-1003 1019 0
-15 -1003 1004 0
-1004 1020 0
-16 -1004 1005 0
-1005 1021 0
-17 -1005 1006 0
-1006 1022 0
-18 -1006 1007 0
-1007 1023 0
-19 -1007 1008 0
-1008 1024 0
-20 -1008 1009 0
-1009 1025 0
-21 -1009 1010 0
-1010 1026 0
-22 -1010 1011 0
-1011 1027 0
-23 -1011 1012 0
-1012 1028 0
-24 -1012 1013 0
-1013 1029 0
-25 -1013 1014 0
-1014 1030 0
-26 -1014 1015 0
-1015 1031 0
-27 -1015 1016 0
-1016 1032 0
-28 -1016 0
-13 1017 0
-1017 1033 0
-14 -1017 1018 0
-1018 1034 0
-15 -1018 1019 0
-1019 1035 0
-16 -1019 1020 0
-1020 1036 0
-17 -1020 1021 0
-1021 1037 0
-18 -1021 1022 0
-1022 1038 0
-19 -1022 1023 0
-1023 1039 0
-20 -1023 1024 0
-1024 1040 0
-21 -1024 1025 0
-1025 1041 0
-22 -1025 1026 0
-1026 1042 0
-23 -1026 1027 0
-1027 1043 0
-24 -1027 1028 0
-1028 1044 0
-25 -1028 1029 0
-1029 1045 0
-26 -1029 1030 0
-1030 1046 0
-27 -1030 1031 0
-1031 1047 0
-28 -1031 1032 0
-1032 1048 0
-29 -1032 0
-14 1033 0
-1033 1049 0
-15 -1033 1034 0
-1034 1050 0
-16 -1034 1035 0
-1035 1051 0
-17 -1035 1036 0
-1036 1052 0
-18 -1036 1037 0
-1037 1053 0
-19 -1037 1038 0
-1038 1054 0
-20 -1038 1039 0
-1039 1055 0
-21 -1039 1040 0
-1040 1056 0
-22 -1040 1041 0
-1041 1057 0
-23 -1041 1042 0
-1042 1058 0
-24 -1042 1043 0
-1043 1059 0
-25 -1043 1044 0
-1044 1060 0
-26 -1044 1045 0
-1045 1061 0
-27 -1045 1046 0
-1046 1062 0
-28 -1046 1047 0
-1047 1063 0
-29 -1047 1048 0
-1048 1064 0
-30 -1048 0
-15 1049 0
-1049 1065 0
-16 -1049 1050 0
-1050 1066 0
-17 -1050 1051 0
-1051 1067 0
-18 -1051 1052 0
-1052 1068 0
-19 -1052 1053 0
-1053 1069 0
-20 -1053 1054 0
-1054 1070 0
-21 -1054 1055 0
-1055 1071 0
-22 -1055 1056 0
-1056 1072 0
-23 -1056 1057 0
-1057 1073 0
-24 -1057 1058 0
-1058 1074 0
-25 -1058 1059 0
-1059 1075 0
-26 -1059 1060 0
-1060 1076 0
-27 -1060 1061 0
-1061 1077 0
-28 -1061 1062 0
-1062 1078 0
-29 -1062 1063 0
-1063 1079 0
-30 -1063 1064 0
-1064 1080 0
-31 -1064 0
-16 1065 0
-1065 1081 0
-17 -1065 1066 0
-1066 1082 0
-18 -1066 1067 0
-1067 1083 0
-19 -1067 1068 0
-1068 1084 0
-20 -1068 1069 0
-1069 1085 0
-21 -1069 1070 0
-1070 1086 0
-22 -1070 1071 0
-1071 1087 0
-23 -1071 1072 0
-1072 1088 0
-24 -1072 1073 0
-1073 1089 0
-25 -1073 1074 0
-1074 1090 0
-26 -1074 1075 0
-1075 1091 0
-27 -1075 1076 0
-1076 1092 0
-28 -1076 1077 0
-1077 1093 0
-29 -1077 1078 0
-1078 1094 0
-30 -1078 1079 0
-1079 1095 0
-31 -1079 1080 0
-1080 1096 0
-32 -1080 0
-17 1081 0
-1081 1097 0
-18 -1081 1082 0
-1082 1098 0
-19 -1082 1083 0
-1083 1099 0
-20 -1083 1084 0
-1084 1100 0
-21 -1084 1085 0
-1085 1101 0
-22 -1085 1086 0
-1086 1102 0
-23 -1086 1087 0
-1087 1103 0
-24 -1087 1088 0
-1088 1104 0
-25 -1088 1089 0
-1089 1105 0
-26 -1089 1090 0
-1090 1106 0
-27 -1090 1091 0
-1091 1107 0
-28 -1091 1092 0
-1092 1108 0
-29 -1092 1093 0
-1093 1109 0
-30 -1093 1094 0
-1094 1110 0
-31 -1094 1095 0
-1095 1111 0
-32 -1095 1096 0
-1096 1112 0
-33 -1096 0
-18 1097 0
-1097 1113 0
-19 -1097 1098 0
-1098 1114 0
-20 -1098 1099 0
-1099 1115 0
-21 -1099 1100 0
-1100 1116 0
-22 -1100 1101 0
-1101 1117 0
-23 -1101 1102 0
-1102 1118 0
-24 -1102 1103 0
-1103 1119 0
-25 -1103 1104 0
-1104 1120 0
-26 -1104 1105 0
-1105 1121 0
-27 -1105 1106 0
-1106 1122 0
-28 -1106 1107 0
-1107 1123 0
-29 -1107 1108 0
-1108 1124 0
-30 -1108 1109 0
-1109 1125 0
-31 -1109 1110 0
-1110 1126 0
-32 -1110 1111 0
-1111 1127 0
-33 -1111 1112 0
-1112 1128 0
-34 -1112 0
-19 1113 0
-1113 1129 0
-20 -1113 1114 0
-1114 1130 0
-21 -1114 1115 0
-1115 1131 0
-22 -1115 1116 0
-1116 1132 0
-23 -1116 1117 0
-1117 1133 0
-24 -1117 1118 0
-1118 1134 0
-25 -1118 1119 0
-1119 1135 0
-26 -1119 1120 0
-1120 1136 0
-27 -1120 1121 0
-1121 1137 0
-28 -1121 1122 0
-1122 1138 0
-29 -1122 1123 0
-1123 1139 0
-30 -1123 1124 0
-1124 1140 0
-31 -1124 1125 0
-1125 1141 0
-32 -1125 1126 0
-1126 1142 0
-33 -1126 1127 0
-1127 1143 0
-34 -1127 1128 0
-1128 1144 0
-35 -1128 0
-20 1129 0
-1129 1145 0
-21 -1129 1130 0
-1130 1146 0
-22 -1130 1131 0
-1131 1147 0
-23 -1131 1132 0
-1132 1148 0
-24 -1132 1133 0
-1133 1149 0
-25 -1133 1134 0
-1134 1150 0
-26 -1134 1135 0
-1135 1151 0
-27 -1135 1136 0
-1136 1152 0
-28 -1136 1137 0
-1137 1153 0
-29 -1137 1138 0
-1138 1154 0
-30 -1138 1139 0
-1139 1155 0
-31 -1139 1140 0
-1140 1156 0
-32 -1140 1141 0
-1141 1157 0
-33 -1141 1142 0
-1142 1158 0
-34 -1142 1143 0
-1143 1159 0
-35 -1143 1144 0
-1144 1160 0
-36 -1144 0
-21 1145 0
-1145 1161 0
-22 -1145 1146 0
-1146 1162 0
-23 -1146 1147 0
-1147 1163 0
-24 -1147 1148 0
-1148 1164 0
-25 -1148 1149 0
-1149 1165 0
-26 -1149 1150 0
-1150 1166 0
-27 -1150 1151 0
-1151 1167 0
-28 -1151 1152 0
-1152 1168 0
-29 -1152 1153 0
-1153 1169 0
-30 -1153 1154 0
-1154 1170 0
-31 -1154 1155 0
-1155 1171 0
-32 -1155 1156 0
-1156 1172 0
-33 -1156 1157 0
-1157 1173 0
-34 -1157 1158 0
-1158 1174 0
-35 -1158 1159 0
-1159 1175 0
-36 -1159 1160 0
-1160 1176 0
-37 -1160 0
-22 1161 0
-1161 1177 0
-23 -1161 1162 0
-1162 1178 0
-24 -1162 1163 0
-1163 1179 0
-25 -1163 1164 0
-1164 1180 0
-26 -1164 1165 0
-1165 1181 0
-27 -1165 1166 0
-1166 1182 0
-28 -1166 1167 0
-1167 1183 0
-29 -1167 1168 0
-1168 1184 0
-30 -1168 1169 0
-1169 1185 0
-31 -1169 1170 0
-1170 1186 0
-32 -1170 1171 0
-1171 1187 0
-33 -1171 1172 0
-1172 1188 0
-34 -1172 1173 0
-1173 1189 0
-35 -1173 1174 0
-1174 1190 0
-36 -1174 1175 0
-1175 1191 0
-37 -1175 1176 0
-1176 1192 0
-38 -1176 0
-23 1177 0
-1177 1193 0
-24 -1177 1178 0
-1178 1194 0
-25 -1178 1179 0
-1179 1195 0
-26 -1179 1180 0
-1180 1196 0
-27 -1180 1181 0
-1181 1197 0
-28 -1181 1182 0
-1182 1198 0
-29 -1182 1183 0
-1183 1199 0
-30 -1183 1184 0
-1184 1200 0
-31 -1184 1185 0
-1185 1201 0
-32 -1185 1186 0
-1186 1202 0
-33 -1186 1187 0
-1187 1203 0
-34 -1187 1188 0
-1188 1204 0
-35 -1188 1189 0
-1189 1205 0
-36 -1189 1190 0
-1190 1206 0
-37 -1190 1191 0
-1191 1207 0
-38 -1191 1192 0
-1192 1208 0
-39 -1192 0
-24 1193 0
-1193 1209 0
-25 -1193 1194 0
-1194 1210 0
-26 -1194 1195 0
-1195 1211 0
-27 -1195 1196 0
-1196 1212 0
-28 -1196 1197 0
-1197 1213 0
-29 -1197 1198 0
-1198 1214 0
-30 -1198 1199 0
-1199 1215 0
-31 -1199 1200 0
-1200 1216 0
-32 -1200 1201 0
-1201 1217 0
-33 -1201 1202 0
-1202 1218 0
-34 -1202 1203 0
-1203 1219 0
-35 -1203 1204 0
-1204 1220 0
-36 -1204 1205 0
-1205 1221 0
-37 -1205 1206 0
-1206 1222 0
-38 -1206 1207 0
-1207 1223 0
-39 -1207 1208 0
-1208 1224 0
-40 -1208 0
-25 1209 0
-1209 1225 0
-26 -1209 1210 0
-1210 1226 0
-27 -1210 1211 0
-1211 1227 0
-28 -1211 1212 0
-1212 1228 0
-29 -1212 1213 0
-1213 1229 0
-30 -1213 1214 0
-1214 1230 0
-31 -1214 1215 0
-1215 1231 0
-32 -1215 1216 0
-1216 1232 0
-33 -1216 1217 0
-1217 1233 0
-34 -1217 1218 0
-1218 1234 0
-35 -1218 1219 0
-1219 1235 0
-36 -1219 1220 0
-1220 1236 0
-37 -1220 1221 0
-1221 1237 0
-38 -1221 1222 0
-1222 1238 0
-39 -1222 1223 0
-1223 1239 0
-40 -1223 1224 0
-1224 1240 0
-41 -1224 0
-26 1225 0
-1225 1241 0
-27 -1225 1226 0
-1226 1242 0
-28 -1226 1227 0
-1227 1243 0
-29 -1227 1228 0
-1228 1244 0
-30 -1228 1229 0
-1229 1245 0
-31 -1229 1230 0
-1230 1246 0
-32 -1230 1231 0
-1231 1247 0
-33 -1231 1232 0
-1232 1248 0
-34 -1232 1233 0
-1233 1249 0
-35 -1233 1234 0
-1234 1250 0
-36 -1234 1235 0
-1235 1251 0
-37 -1235 1236 0
-1236 1252 0
-38 -1236 1237 0
-1237 1253 0
-39 -1237 1238 0
-1238 1254 0
-40 -1238 1239 0
-1239 1255 0
-41 -1239 1240 0
-1240 1256 0
-42 -1240 0
-27 1241 0
-1241 1257 0
-28 -1241 1242 0
-1242 1258 0
-29 -1242 1243 0
-1243 1259 0
-30 -1243 1244 0
-1244 1260 0
-31 -1244 1245 0
-1245 1261 0
-32 -1245 1246 0
-1246 1262 0
-33 -1246 1247 0
-1247 1263 0
-34 -1247 1248 0
-1248 1264 0
-35 -1248 1249 0
-1249 1265 0
-36 -1249 1250 0
-1250 1266 0
-37 -1250 1251 0
-1251 1267 0
-38 -1251 1252 0
-1252 1268 0
-39 -1252 1253 0
-1253 1269 0
-40 -1253 1254 0
-1254 1270 0
-41 -1254 1255 0
-1255 1271 0
-42 -1255 1256 0
-1256 1272 0
-43 -1256 0
-28 1257 0
-1257 1273 0
-29 -1257 1258 0
-1258 1274 0
-30 -1258 1259 0
-1259 1275 0
-31 -1259 1260 0
-1260 1276 0
-32 -1260 1261 0
-1261 1277 0
-33 -1261 1262 0
-1262 1278 0
-34 -1262 1263 0
-1263 1279 0
-35 -1263 1264 0
-1264 1280 0
-36 -1264 1265 0
-1265 1281 0
-37 -1265 1266 0
-1266 1282 0
-38 -1266 1267 0
-1267 1283 0
-39 -1267 1268 0
-1268 1284 0
-40 -1268 1269 0
-1269 1285 0
-41 -1269 1270 0
-1270 1286 0
-42 -1270 1271 0
-1271 1287 0
-43 -1271 1272 0
-1272 1288 0
-44 -1272 0
-29 1273 0
-1273 1289 0
-30 -1273 1274 0
-1274 1290 0
-31 -1274 1275 0
-1275 1291 0
-32 -1275 1276 0
-1276 1292 0
-33 -1276 1277 0
-1277 1293 0
-34 -1277 1278 0
-1278 1294 0
-35 -1278 1279 0
-1279 1295 0
-36 -1279 1280 0
-1280 1296 0
-37 -1280 1281 0
-1281 1297 0
-38 -1281 1282 0
-1282 1298 0
-39 -1282 1283 0
-1283 1299 0
-40 -1283 1284 0
-1284 1300 0
-41 -1284 1285 0
-1285 1301 0
-42 -1285 1286 0
-1286 1302 0
-43 -1286 1287 0
-1287 1303 0
-44 -1287 1288 0
-1288 1304 0
-45 -1288 0
-30 1289 0
-1289 1305 0
-31 -1289 1290 0
-1290 1306 0
-32 -1290 1291 0
-1291 1307 0
-33 -1291 1292 0
-1292 1308 0
-34 -1292 1293 0
-1293 1309 0
-35 -1293 1294 0
-1294 1310 0
-36 -1294 1295 0
-1295 1311 0
-37 -1295 1296 0
-1296 1312 0
-38 -1296 1297 0
-1297 1313 0
-39 -1297 1298 0
-1298 1314 0
-40 -1298 1299 0
-1299 1315 0
-41 -1299 1300 0
-1300 1316 0
-42 -1300 1301 0
-1301 1317 0
-43 -1301 1302 0
-1302 1318 0
-44 -1302 1303 0
-1303 1319 0
-45 -1303 1304 0
-1304 1320 0
-46 -1304 0
-31 1305 0
-1305 1321 0
-32 -1305 1306 0
-1306 1322 0
-33 -1306 1307 0
-1307 1323 0
-34 -1307 1308 0
-1308 1324 0
-35 -1308 1309 0
-1309 1325 0
-36 -1309 1310 0
-1310 1326 0
-37 -1310 1311 0
-1311 1327 0
-38 -1311 1312 0
-1312 1328 0
-39 -1312 1313 0
-1313 1329 0
-40 -1313 1314 0
-1314 1330 0
-41 -1314 1315 0
-1315 1331 0
-42 -1315 1316 0
-1316 1332 0
-43 -1316 1317 0
-1317 1333 0
-44 -1317 1318 0
-1318 1334 0
-45 -1318 1319 0
-1319 1335 0
-46 -1319 1320 0
-1320 1336 0
-47 -1320 0
-32 1321 0
-1321 1337 0
-33 -1321 1322 0
-1322 1338 0
-34 -1322 1323 0
-1323 1339 0
-35 -1323 1324 0
-1324 1340 0
-36 -1324 1325 0
-1325 1341 0
-37 -1325 1326 0
-1326 1342 0
-38 -1326 1327 0
-1327 1343 0
-39 -1327 1328 0
-1328 1344 0
-40 -1328 1329 0
-1329 1345 0
-41 -1329 1330 0
-1330 1346 0
-42 -1330 1331 0
-1331 1347 0
-43 -1331 1332 0
-1332 1348 0
-44 -1332 1333 0
-1333 1349 0
-45 -1333 1334 0
-1334 1350 0
-46 -1334 1335 0
-1335 1351 0
-47 -1335 1336 0
-1336 1352 0
-48 -1336 0
-33 1337 0
-1337 1353 0
-34 -1337 1338 0
-1338 1354 0
-35 -1338 1339 0
-1339 1355 0
-36 -1339 1340 0
-1340 1356 0
-37 -1340 1341 0
-1341 1357 0
-38 -1341 1342 0
-1342 1358 0
-39 -1342 1343 0
-1343 1359 0
-40 -1343 1344 0
-1344 1360 0
-41 -1344 1345 0
-1345 1361 0
-42 -1345 1346 0
-1346 1362 0
-43 -1346 1347 0
-1347 1363 0
-44 -1347 1348 0
-1348 1364 0
-45 -1348 1349 0
-1349 1365 0
-46 -1349 1350 0
-1350 1366 0
-47 -1350 1351 0
-1351 1367 0
-48 -1351 1352 0
-1352 1368 0
-49 -1352 0
-34 1353 0
-1353 1369 0
-35 -1353 1354 0
-1354 1370 0
-36 -1354 1355 0
-1355 1371 0
-37 -1355 1356 0
-1356 1372 0
-38 -1356 1357 0
-1357 1373 0
-39 -1357 1358 0
-1358 1374 0
-40 -1358 1359 0
-1359 1375 0
-41 -1359 1360 0
-1360 1376 0
-42 -1360 1361 0
-1361 1377 0
-43 -1361 1362 0
-1362 1378 0
-44 -1362 1363 0
-1363 1379 0
-45 -1363 1364 0
-1364 1380 0
-46 -1364 1365 0
-1365 1381 0
-47 -1365 1366 0
-1366 1382 0
-48 -1366 1367 0
-1367 1383 0
-49 -1367 1368 0
-1368 1384 0
-50 -1368 0
-35 1369 0
-1369 1385 0
-36 -1369 1370 0
-1370 1386 0
-37 -1370 1371 0
-1371 1387 0
-38 -1371 1372 0
-1372 1388 0
-39 -1372 1373 0
-1373 1389 0
-40 -1373 1374 0
-1374 1390 0
-41 -1374 1375 0
-1375 1391 0
-42 -1375 1376 0
-1376 1392 0
-43 -1376 1377 0
-1377 1393 0
-44 -1377 1378 0
-1378 1394 0
-45 -1378 1379 0
-1379 1395 0
-46 -1379 1380 0
-1380 1396 0
-47 -1380 1381 0
-1381 1397 0
-48 -1381 1382 0
-1382 1398 0
-49 -1382 1383 0
-1383 1399 0
-50 -1383 1384 0
-1384 1400 0
-51 -1384 0
-36 1385 0
-1385 1401 0
-37 -1385 1386 0
-1386 1402 0
-38 -1386 1387 0
-1387 1403 0
-39 -1387 1388 0
-1388 1404 0
-40 -1388 1389 0
-1389 1405 0
-41 -1389 1390 0
-1390 1406 0
-42 -1390 1391 0
-1391 1407 0
-43 -1391 1392 0
-1392 1408 0
-44 -1392 1393 0
-1393 1409 0
-45 -1393 1394 0
-1394 1410 0
-46 -1394 1395 0
-1395 1411 0
-47 -1395 1396 0
-1396 1412 0
-48 -1396 1397 0
-1397 1413 0
-49 -1397 1398 0
-1398 1414 0
-50 -1398 1399 0
-1399 1415 0
-51 -1399 1400 0
-1400 1416 0
-52 -1400 0
-37 1401 0
-1401 1417 0
-38 -1401 1402 0
-1402 1418 0
-39 -1402 1403 0
-1403 1419 0
-40 -1403 1404 0
-1404 1420 0
-41 -1404 1405 0
-1405 1421 0
-42 -1405 1406 0
-1406 1422 0
-43 -1406 1407 0
-1407 1423 0
-44 -1407 1408 0
-1408 1424 0
-45 -1408 1409 0
-1409 1425 0
-46 -1409 1410 0
-1410 1426 0
-47 -1410 1411 0
-1411 1427 0
-48 -1411 1412 0
-1412 1428 0
-49 -1412 1413 0
-1413 1429 0
-50 -1413 1414 0
-1414 1430 0
-51 -1414 1415 0
-1415 1431 0
-52 -1415 1416 0
-1416 1432 0
-53 -1416 0
-38 1417 0
-1417 1433 0
-39 -1417 1418 0
-1418 1434 0
-40 -1418 1419 0
-1419 1435 0
-41 -1419 1420 0
-1420 1436 0
-42 -1420 1421 0
-1421 1437 0
-43 -1421 1422 0
-1422 1438 0
-44 -1422 1423 0
-1423 1439 0
-45 -1423 1424 0
-1424 1440 0
-46 -1424 1425 0
-1425 1441 0
-47 -1425 1426 0
-1426 1442 0
-48 -1426 1427 0
-1427 1443 0
-49 -1427 1428 0
-1428 1444 0
-50 -1428 1429 0
-1429 1445 0
-51 -1429 1430 0
-1430 1446 0
-52 -1430 1431 0
-1431 1447 0
-53 -1431 1432 0
-1432 1448 0
-54 -1432 0
-39 1433 0
-1433 1449 0
-40 -1433 1434 0
-1434 1450 0
-41 -1434 1435 0
-1435 1451 0
-42 -1435 1436 0
-1436 1452 0
-43 -1436 1437 0
-1437 1453 0
-44 -1437 1438 0
-1438 1454 0
-45 -1438 1439 0
-1439 1455 0
-46 -1439 1440 0
-1440 1456 0
-47 -1440 1441 0
-1441 1457 0
-48 -1441 1442 0
-1442 1458 0
-49 -1442 1443 0
-1443 1459 0
-50 -1443 1444 0
-1444 1460 0
-51 -1444 1445 0
-1445 1461 0
-52 -1445 1446 0
-1446 1462 0
-53 -1446 1447 0
-1447 1463 0
-54 -1447 1448 0
-1448 1464 0
-55 -1448 0
-40 1449 0
-1449 1465 0
-41 -1449 1450 0
-1450 1466 0
-42 -1450 1451 0
-1451 1467 0
-43 -1451 1452 0
-1452 1468 0
-44 -1452 1453 0
-1453 1469 0
-45 -1453 1454 0
-1454 1470 0
-46 -1454 1455 0
-1455 1471 0
-47 -1455 1456 0
-1456 1472 0
-48 -1456 1457 0
-1457 1473 0
-49 -1457 1458 0
-1458 1474 0
-50 -1458 1459 0
-1459 1475 0
-51 -1459 1460 0
-1460 1476 0
-52 -1460 1461 0
-1461 1477 0
-53 -1461 1462 0
-1462 1478 0
-54 -1462 1463 0
-1463 1479 0
-55 -1463 1464 0
-1464 1480 0
-56 -1464 0
-41 1465 0
-1465 1481 0
-42 -1465 1466 0
-1466 1482 0
-43 -1466 1467 0
-1467 1483 0
-44 -1467 1468 0
-1468 1484 0
-45 -1468 1469 0
-1469 1485 0
-46 -1469 1470 0
-1470 1486 0
-47 -1470 1471 0
-1471 1487 0
-48 -1471 1472 0
-1472 1488 0
-49 -1472 1473 0
-1473 1489 0
-50 -1473 1474 0
-1474 1490 0
-51 -1474 1475 0
-1475 1491 0
-52 -1475 1476 0
-1476 1492 0
-53 -1476 1477 0
-1477 1493 0
-54 -1477 1478 0
-1478 1494 0
-55 -1478 1479 0
-1479 1495 0
-56 -1479 1480 0
-1480 1496 0
-57 -1480 0
-42 1481 0
-1481 1497 0
-43 -1481 1482 0
-1482 1498 0
-44 -1482 1483 0
-1483 1499 0
-45 -1483 1484 0
-1484 1500 0
-46 -1484 1485 0
-1485 1501 0
-47 -1485 1486 0
-1486 1502 0
-48 -1486 1487 0
-1487 1503 0
-49 -1487 1488 0
-1488 1504 0
-50 -1488 1489 0
-1489 1505 0
-51 -1489 1490 0
-1490 1506 0
-52 -1490 1491 0
-1491 1507 0
-53 -1491 1492 0
-1492 1508 0
-54 -1492 1493 0
-1493 1509 0
-55 -1493 1494 0
-1494 1510 0
-56 -1494 1495 0
-1495 1511 0
-57 -1495 1496 0
-1496 1512 0
-58 -1496 0
-43 1497 0
-1497 1513 0
-44 -1497 1498 0
-1498 1514 0
-45 -1498 1499 0
-1499 1515 0
-46 -1499 1500 0
-1500 1516 0
-47 -1500 1501 0
-1501 1517 0
-48 -1501 1502 0
-1502 1518 0
-49 -1502 1503 0
-1503 1519 0
-50 -1503 1504 0
-1504 1520 0
-51 -1504 1505 0
-1505 1521 0
-52 -1505 1506 0
-1506 1522 0
-53 -1506 1507 0
-1507 1523 0
-54 -1507 1508 0
-1508 1524 0
-55 -1508 1509 0
-1509 1525 0
-56 -1509 1510 0
-1510 1526 0
-57 -1510 1511 0
-1511 1527 0
-58 -1511 1512 0
-1512 1528 0
-59 -1512 0
-44 1513 0
-45 -1513 1514 0
-46 -1514 1515 0
-47 -1515 1516 0
-48 -1516 1517 0
-49 -1517 1518 0
-50 -1518 1519 0
-51 -1519 1520 0
-52 -1520 1521 0
-53 -1521 1522 0
-54 -1522 1523 0
-55 -1523 1524 0
-56 -1524 1525 0
-57 -1525 1526 0
-58 -1526 1527 0
-59 -1527 1528 0
-60 -1528 0
-61 1529 0
-1529 1530 0
-62 -1529 1531 0
-1531 1532 0
-63 -1531 1533 0
-1533 1534 0
-64 -1533 1535 0
-1535 1536 0
-65 -1535 1537 0
-1537 1538 0
-66 -1537 1539 0
-1539 1540 0
-67 -1539 1541 0
-1541 1542 0
-68 -1541 1543 0
-1543 1544 0
-69 -1543 1545 0
-1545 1546 0
-70 -1545 1547 0
-1547 1548 0
-71 -1547 1549 0
-1549 1550 0
-72 -1549 1551 0
-1551 1552 0
-73 -1551 1553 0
-1553 1554 0
-74 -1553 1555 0
-1555 1556 0
-75 -1555 1557 0
-1557 1558 0
-76 -1557 1559 0
-1559 1560 0
-77 -1559 1561 0
-1561 1562 0
-78 -1561 1563 0
-1563 1564 0
-79 -1563 1565 0
-1565 1566 0
-80 -1565 1567 0
-1567 1568 0
-81 -1567 1569 0
-1569 1570 0
-82 -1569 1571 0
-1571 1572 0
-83 -1571 1573 0
-1573 1574 0
-84 -1573 1575 0
-1575 1576 0
-85 -1575 1577 0
-1577 1578 0
-86 -1577 0
-62 1530 0
-1530 1579 0
-63 -1530 1532 0
-1532 1580 0
-64 -1532 1534 0
-1534 1581 0
-65 -1534 1536 0
-1536 1582 0
-66 -1536 1538 0
-1538 1583 0
-67 -1538 1540 0
-1540 1584 0
-68 -1540 1542 0
-1542 1585 0
-69 -1542 1544 0
-1544 1586 0
-70 -1544 1546 0
-1546 1587 0
-71 -1546 1548 0
-1548 1588 0
-72 -1548 1550 0
-1550 1589 0
-73 -1550 1552 0
-1552 1590 0
-74 -1552 1554 0
-1554 1591 0
-75 -1554 1556 0
-1556 1592 0
-76 -1556 1558 0
-1558 1593 0
-77 -1558 1560 0
-1560 1594 0
-78 -1560 1562 0
-1562 1595 0
-79 -1562 1564 0
-1564 1596 0
-80 -1564 1566 0
-1566 1597 0
-81 -1566 1568 0
-1568 1598 0
-82 -1568 1570 0
-1570 1599 0
-83 -1570 1572 0
-1572 1600 0
-84 -1572 1574 0
-1574 1601 0
-85 -1574 1576 0
-1576 1602 0
-86 -1576 1578 0
-1578 1603 0
-87 -1578 0
-63 1579 0
-1579 1604 0
-64 -1579 1580 0
-1580 1605 0
-65 -1580 1581 0
-1581 1606 0
-66 -1581 1582 0
-1582 1607 0
-67 -1582 1583 0
-1583 1608 0
-68 -1583 1584 0
-1584 1609 0
-69 -1584 1585 0
-1585 1610 0
-70 -1585 1586 0
-1586 1611 0
-71 -1586 1587 0
-1587 1612 0
-72 -1587 1588 0
-1588 1613 0
-73 -1588 1589 0
-1589 1614 0
-74 -1589 1590 0
-1590 1615 0
-75 -1590 1591 0
-1591 1616 0
-76 -1591 1592 0
-1592 1617 0
-77 -1592 1593 0
-1593 1618 0
-78 -1593 1594 0
-1594 1619 0
-79 -1594 1595 0
-1595 1620 0
-80 -1595 1596 0
-1596 1621 0
-81 -1596 1597 0
-1597 1622 0
-82 -1597 1598 0
-1598 1623 0
-83 -1598 1599 0
-1599 1624 0
-84 -1599 1600 0
-1600 1625 0
-85 -1600 1601 0
-1601 1626 0
-86 -1601 1602 0
-1602 1627 0
-87 -1602 1603 0
-1603 1628 0
-88 -1603 0
-64 1604 0
-1604 1629 0
-65 -1604 1605 0
-1605 1630 0
-66 -1605 1606 0
-1606 1631 0
-67 -1606 1607 0
-1607 1632 0
-68 -1607 1608 0
-1608 1633 0
-69 -1608 1609 0
-1609 1634 0
-70 -1609 1610 0
-1610 1635 0
-71 -1610 1611 0
-1611 1636 0
-72 -1611 1612 0
-1612 1637 0
-73 -1612 1613 0
-1613 1638 0
-74 -1613 1614 0
-1614 1639 0
-75 -1614 1615 0
-1615 1640 0
-76 -1615 1616 0
-1616 1641 0
-77 -1616 1617 0
-1617 1642 0
-78 -1617 1618 0
-1618 1643 0
-79 -1618 1619 0
-1619 1644 0
-80 -1619 1620 0
-1620 1645 0
-81 -1620 1621 0
-1621 1646 0
-82 -1621 1622 0
-1622 1647 0
-83 -1622 1623 0
-1623 1648 0
-84 -1623 1624 0
-1624 1649 0
-85 -1624 1625 0
-1625 1650 0
-86 -1625 1626 0
-1626 1651 0
-87 -1626 1627 0
-1627 1652 0
-88 -1627 1628 0
-1628 1653 0
-89 -1628 0
-65 1629 0
-1629 1654 0
-66 -1629 1630 0
-1630 1655 0
-67 -1630 1631 0
-1631 1656 0
-68 -1631 1632 0
-1632 1657 0
-69 -1632 1633 0
-1633 1658 0
-70 -1633 1634 0
-1634 1659 0
-71 -1634 1635 0
-1635 1660 0
-72 -1635 1636 0
-1636 1661 0
-73 -1636 1637 0
-1637 1662 0
-74 -1637 1638 0
-1638 1663 0
-75 -1638 1639 0
-1639 1664 0
-76 -1639 1640 0
-1640 1665 0
-77 -1640 1641 0
-1641 1666 0
-78 -1641 1642 0
-1642 1667 0
-79 -1642 1643 0
-1643 1668 0
-80 -1643 1644 0
-1644 1669 0
-81 -1644 1645 0
-1645 1670 0
-82 -1645 1646 0
-1646 1671 0
-83 -1646 1647 0
-1647 1672 0
-84 -1647 1648 0
-1648 1673 0
-85 -1648 1649 0
-1649 1674 0
-86 -1649 1650 0
-1650 1675 0
-87 -1650 1651 0
-1651 1676 0
-88 -1651 1652 0
-1652 1677 0
-89 -1652 1653 0
-1653 1678 0
-90 -1653 0
-66 1654 0
-1654 1679 0
-67 -1654 1655 0
-1655 1680 0
-68 -1655 1656 0
-1656 1681 0
-69 -1656 1657 0
-1657 1682 0
-70 -1657 1658 0
-1658 1683 0
-71 -1658 1659 0
-1659 1684 0
-72 -1659 1660 0
-1660 1685 0
-73 -1660 1661 0
-1661 1686 0
-74 -1661 1662 0
-1662 1687 0
-75 -1662 1663 0
-1663 1688 0
-76 -1663 1664 0
-1664 1689 0
-77 -1664 1665 0
-1665 1690 0
-78 -1665 1666 0
-1666 1691 0
-79 -1666 1667 0
-1667 1692 0
-80 -1667 1668 0
-1668 1693 0
-81 -1668 1669 0
-1669 1694 0
-82 -1669 1670 0
-1670 1695 0
-83 -1670 1671 0
-1671 1696 0
-84 -1671 1672 0
-1672 1697 0
-85 -1672 1673 0
-1673 1698 0
-86 -1673 1674 0
-1674 1699 0
-87 -1674 1675 0
-1675 1700 0
-88 -1675 1676 0
-1676 1701 0
-89 -1676 1677 0
-1677 1702 0
-90 -1677 1678 0
-1678 1703 0
-91 -1678 0
-67 1679 0
-1679 1704 0
-68 -1679 1680 0
-1680 1705 0
-69 -1680 1681 0
-1681 1706 0
-70 -1681 1682 0
-1682 1707 0
-71 -1682 1683 0
-1683 1708 0
-72 -1683 1684 0
-1684 1709 0
-73 -1684 1685 0
-1685 1710 0
-74 -1685 1686 0
-1686 1711 0
-75 -1686 1687 0
-1687 1712 0
-76 -1687 1688 0
-1688 1713 0
-77 -1688 1689 0
-1689 1714 0
-78 -1689 1690 0
-1690 1715 0
-79 -1690 1691 0
-1691 1716 0
-80 -1691 1692 0
-1692 1717 0
-81 -1692 1693 0
-1693 1718 0
-82 -1693 1694 0
-1694 1719 0
-83 -1694 1695 0
-1695 1720 0
-84 -1695 1696 0
-1696 1721 0
-85 -1696 1697 0
-1697 1722 0
-86 -1697 1698 0
-1698 1723 0
-87 -1698 1699 0
-1699 1724 0
-88 -1699 1700 0
-1700 1725 0
-89 -1700 1701 0
-1701 1726 0
-90 -1701 1702 0
-1702 1727 0
-91 -1702 1703 0
-1703 1728 0
-92 -1703 0
-68 1704 0
-1704 1729 0
-69 -1704 1705 0
-1705 1730 0
-70 -1705 1706 0
-1706 1731 0
-71 -1706 1707 0
-1707 1732 0
-72 -1707 1708 0
-1708 1733 0
-73 -1708 1709 0
-1709 1734 0
-74 -1709 1710 0
-1710 1735 0
-75 -1710 1711 0
-1711 1736 0
-76 -1711 1712 0
-1712 1737 0
-77 -1712 1713 0
-1713 1738 0
-78 -1713 1714 0
-1714 1739 0
-79 -1714 1715 0
-1715 1740 0
-80 -1715 1716 0
-1716 1741 0
-81 -1716 1717 0
-1717 1742 0
-82 -1717 1718 0
-1718 1743 0
-83 -1718 1719 0
-1719 1744 0
-84 -1719 1720 0
-1720 1745 0
-85 -1720 1721 0
-1721 1746 0
-86 -1721 1722 0
-1722 1747 0
-87 -1722 1723 0
-1723 1748 0
-88 -1723 1724 0
-1724 1749 0
-89 -1724 1725 0
-1725 1750 0
-90 -1725 1726 0
-1726 1751 0
-91 -1726 1727 0
-1727 1752 0
-92 -1727 1728 0
-1728 1753 0
-93 -1728 0
-69 1729 0
-1729 1754 0
-70 -1729 1730 0
-1730 1755 0
-71 -1730 1731 0
-1731 1756 0
-72 -1731 1732 0
-1732 1757 0
-73 -1732 1733 0
-1733 1758 0
-74 -1733 1734 0
-1734 1759 0
-75 -1734 1735 0
-1735 1760 0
-76 -1735 1736 0
-1736 1761 0
-77 -1736 1737 0
-1737 1762 0
-78 -1737 1738 0
-1738 1763 0
-79 -1738 1739 0
-1739 1764 0
-80 -1739 1740 0
-1740 1765 0
-81 -1740 1741 0
-1741 1766 0
-82 -1741 1742 0
-1742 1767 0
-83 -1742 1743 0
-1743 1768 0
-84 -1743 1744 0
-1744 1769 0
-85 -1744 1745 0
-1745 1770 0
-86 -1745 1746 0
-1746 1771 0
-87 -1746 1747 0
-1747 1772 0
-88 -1747 1748 0
-1748 1773 0
-89 -1748 1749 0
-1749 1774 0
-90 -1749 1750 0
-1750 1775 0
-91 -1750 1751 0
-1751 1776 0
-92 -1751 1752 0
-1752 1777 0
-93 -1752 1753 0
-1753 1778 0
-94 -1753 0
-70 1754 0
-1754 1779 0
-71 -1754 1755 0
-1755 1780 0
-72 -1755 1756 0
-1756 1781 0
-73 -1756 1757 0
-1757 1782 0
-74 -1757 1758 0
-1758 1783 0
-75 -1758 1759 0
-1759 1784 0
-76 -1759 1760 0
-1760 1785 0
-77 -1760 1761 0
-1761 1786 0
-78 -1761 1762 0
-1762 1787 0
-79 -1762 1763 0
-1763 1788 0
-80 -1763 1764 0
-1764 1789 0
-81 -1764 1765 0
-1765 1790 0
-82 -1765 1766 0
-1766 1791 0
-83 -1766 1767 0
-1767 1792 0
-84 -1767 1768 0
-1768 1793 0
-85 -1768 1769 0
-1769 1794 0
-86 -1769 1770 0
-1770 1795 0
-87 -1770 1771 0
-1771 1796 0
-88 -1771 1772 0
-1772 1797 0
-89 -1772 1773 0
-1773 1798 0
-90 -1773 1774 0
-1774 1799 0
-91 -1774 1775 0
-1775 1800 0
-92 -1775 1776 0
-1776 1801 0
-93 -1776 1777 0
-1777 1802 0
-94 -1777 1778 0
-1778 1803 0
-95 -1778 0
-71 1779 0
-1779 1804 0
-72 -1779 1780 0
-1780 1805 0
-73 -1780 1781 0
-1781 1806 0
-74 -1781 1782 0
-1782 1807 0
-75 -1782 1783 0
-1783 1808 0
-76 -1783 1784 0
-1784 1809 0
-77 -1784 1785 0
-1785 1810 0
-78 -1785 1786 0
-1786 1811 0
-79 -1786 1787 0
-1787 1812 0
-80 -1787 1788 0
-1788 1813 0
-81 -1788 1789 0
-1789 1814 0
-82 -1789 1790 0
-1790 1815 0
-83 -1790 1791 0
-1791 1816 0
-84 -1791 1792 0
-1792 1817 0
-85 -1792 1793 0
-1793 1818 0
-86 -1793 1794 0
-1794 1819 0
-87 -1794 1795 0
-1795 1820 0
-88 -1795 1796 0
-1796 1821 0
-89 -1796 1797 0
-1797 1822 0
-90 -1797 1798 0
-1798 1823 0
-91 -1798 1799 0
-1799 1824 0
-92 -1799 1800 0
-1800 1825 0
-93 -1800 1801 0
-1801 1826 0
-94 -1801 1802 0
-1802 1827 0
-95 -1802 1803 0
-1803 1828 0
-96 -1803 0
-72 1804 0
-1804 1829 0
-73 -1804 1805 0
-1805 1830 0
-74 -1805 1806 0
-1806 1831 0
-75 -1806 1807 0
-1807 1832 0
-76 -1807 1808 0
-1808 1833 0
-77 -1808 1809 0
-1809 1834 0
-78 -1809 1810 0
-1810 1835 0
-79 -1810 1811 0
-1811 1836 0
-80 -1811 1812 0
-1812 1837 0
-81 -1812 1813 0
-1813 1838 0
-82 -1813 1814 0
-1814 1839 0
-83 -1814 1815 0
-1815 1840 0
-84 -1815 1816 0
-1816 1841 0
-85 -1816 1817 0
-1817 1842 0
-86 -1817 1818 0
-1818 1843 0
-87 -1818 1819 0
-1819 1844 0
-88 -1819 1820 0
-1820 1845 0
-89 -1820 1821 0
-1821 1846 0
-90 -1821 1822 0
-1822 1847 0
-91 -1822 1823 0
-1823 1848 0
-92 -1823 1824 0
-1824 1849 0
-93 -1824 1825 0
-1825 1850 0
-94 -1825 1826 0
-1826 1851 0
-95 -1826 1827 0
-1827 1852 0
-96 -1827 1828 0
-1828 1853 0
-97 -1828 0
-73 1829 0
-1829 1854 0
-74 -1829 1830 0
-1830 1855 0
-75 -1830 1831 0
-1831 1856 0
-76 -1831 1832 0
-1832 1857 0
-77 -1832 1833 0
-1833 1858 0
-78 -1833 1834 0
-1834 1859 0
-79 -1834 1835 0
-1835 1860 0
-80 -1835 1836 0
-1836 1861 0
-81 -1836 1837 0
-1837 1862 0
-82 -1837 1838 0
-1838 1863 0
-83 -1838 1839 0
-1839 1864 0
-84 -1839 1840 0
-1840 1865 0
-85 -1840 1841 0
-1841 1866 0
-86 -1841 1842 0
-1842 1867 0
-87 -1842 1843 0
-1843 1868 0
-88 -1843 1844 0
-1844 1869 0
-89 -1844 1845 0
-1845 1870 0
-90 -1845 1846 0
-1846 1871 0
-91 -1846 1847 0
-1847 1872 0
-92 -1847 1848 0
-1848 1873 0
-93 -1848 1849 0
-1849 1874 0
-94 -1849 1850 0
-1850 1875 0
-95 -1850 1851 0
-1851 1876 0
-96 -1851 1852 0
-1852 1877 0
-97 -1852 1853 0
-1853 1878 0
-98 -1853 0
-74 1854 0
-1854 1879 0
-75 -1854 1855 0
-1855 1880 0
-76 -1855 1856 0
-1856 1881 0
-77 -1856 1857 0
-1857 1882 0
-78 -1857 1858 0
-1858 1883 0
-79 -1858 1859 0
-1859 1884 0
-80 -1859 1860 0
-1860 1885 0
-81 -1860 1861 0
-1861 1886 0
-82 -1861 1862 0
-1862 1887 0
-83 -1862 1863 0
-1863 1888 0
-84 -1863 1864 0
-1864 1889 0
-85 -1864 1865 0
-1865 1890 0
-86 -1865 1866 0
-1866 1891 0
-87 -1866 1867 0
-1867 1892 0
-88 -1867 1868 0
-1868 1893 0
-89 -1868 1869 0
-1869 1894 0
-90 -1869 1870 0
-1870 1895 0
-91 -1870 1871 0
-1871 1896 0
-92 -1871 1872 0
-1872 1897 0
-93 -1872 1873 0
-1873 1898 0
-94 -1873 1874 0
-1874 1899 0
-95 -1874 1875 0
-1875 1900 0
-96 -1875 1876 0
-1876 1901 0
-97 -1876 1877 0
-1877 1902 0
-98 -1877 1878 0
-1878 1903 0
-99 -1878 0
-75 1879 0
-1879 1904 0
-76 -1879 1880 0
-1880 1905 0
-77 -1880 1881 0
-1881 1906 0
-78 -1881 1882 0
-1882 1907 0
-79 -1882 1883 0
-1883 1908 0
-80 -1883 1884 0
-1884 1909 0
-81 -1884 1885 0
-1885 1910 0
-82 -1885 1886 0
-1886 1911 0
-83 -1886 1887 0
-1887 1912 0
-84 -1887 1888 0
-1888 1913 0
-85 -1888 1889 0
-1889 1914 0
-86 -1889 1890 0
-1890 1915 0
-87 -1890 1891 0
-1891 1916 0
-88 -1891 1892 0
-1892 1917 0
-89 -1892 1893 0
-1893 1918 0
-90 -1893 1894 0
-1894 1919 0
-91 -1894 1895 0
-1895 1920 0
-92 -1895 1896 0
-1896 1921 0
-93 -1896 1897 0
-1897 1922 0
-94 -1897 1898 0
-1898 1923 0
-95 -1898 1899 0
-1899 1924 0
-96 -1899 1900 0
-1900 1925 0
-97 -1900 1901 0
-1901 1926 0
-98 -1901 1902 0
-1902 1927 0
-99 -1902 1903 0
-1903 1928 0
-100 -1903 0
-76 1904 0
-1904 1929 0
-77 -1904 1905 0
-1905 1930 0
-78 -1905 1906 0
-1906 1931 0
-79 -1906 1907 0
-1907 1932 0
-80 -1907 1908 0
-1908 1933 0
-81 -1908 1909 0
-1909 1934 0
-82 -1909 1910 0
-1910 1935 0
-83 -1910 1911 0
-1911 1936 0
-84 -1911 1912 0
-1912 1937 0
-85 -1912 1913 0
-1913 1938 0
-86 -1913 1914 0
-1914 1939 0
-87 -1914 1915 0
-1915 1940 0
-88 -1915 1916 0
-1916 1941 0
-89 -1916 1917 0
-1917 1942 0
-90 -1917 1918 0
-1918 1943 0
-91 -1918 1919 0
-1919 1944 0
-92 -1919 1920 0
-1920 1945 0
-93 -1920 1921 0
-1921 1946 0
-94 -1921 1922 0
-1922 1947 0
-95 -1922 1923 0
-1923 1948 0
-96 -1923 1924 0
-1924 1949 0
-97 -1924 1925 0
-1925 1950 0
-98 -1925 1926 0
-1926 1951 0
-99 -1926 1927 0
-1927 1952 0
-100 -1927 1928 0
-1928 1953 0
-101 -1928 0
-77 1929 0
-1929 1954 0
-78 -1929 1930 0
-1930 1955 0
-79 -1930 1931 0
-1931 1956 0
-80 -1931 1932 0
-1932 1957 0
-81 -1932 1933 0
-1933 1958 0
-82 -1933 1934 0
-1934 1959 0
-83 -1934 1935 0
-1935 1960 0
-84 -1935 1936 0
-1936 1961 0
-85 -1936 1937 0
-1937 1962 0
-86 -1937 1938 0
-1938 1963 0
-87 -1938 1939 0
-1939 1964 0
-88 -1939 1940 0
-1940 1965 0
-89 -1940 1941 0
-1941 1966 0
-90 -1941 1942 0
-1942 1967 0
-91 -1942 1943 0
-1943 1968 0
-92 -1943 1944 0
-1944 1969 0
-93 -1944 1945 0
-1945 1970 0
-94 -1945 1946 0
-1946 1971 0
-95 -1946 1947 0
-1947 1972 0
-96 -1947 1948 0
-1948 1973 0
-97 -1948 1949 0
-1949 1974 0
-98 -1949 1950 0
-1950 1975 0
-99 -1950 1951 0
-1951 1976 0
-100 -1951 1952 0
-1952 1977 0
-101 -1952 1953 0
-1953 1978 0
-102 -1953 0
-78 1954 0
-1954 1979 0
-79 -1954 1955 0
-1955 1980 0
-80 -1955 1956 0
-1956 1981 0
-81 -1956 1957 0
-1957 1982 0
-82 -1957 1958 0
-1958 1983 0
-83 -1958 1959 0
-1959 1984 0
-84 -1959 1960 0
-1960 1985 0
-85 -1960 1961 0
-1961 1986 0
-86 -1961 1962 0
-1962 1987 0
-87 -1962 1963 0
-1963 1988 0
-88 -1963 1964 0
-1964 1989 0
-89 -1964 1965 0
-1965 1990 0
-90 -1965 1966 0
-1966 1991 0
-91 -1966 1967 0
-1967 1992 0
-92 -1967 1968 0
-1968 1993 0
-93 -1968 1969 0
-1969 1994 0
-94 -1969 1970 0
-1970 1995 0
-95 -1970 1971 0
-1971 1996 0
-96 -1971 1972 0
-1972 1997 0
-97 -1972 1973 0
-1973 1998 0
-98 -1973 1974 0
-1974 1999 0
-99 -1974 1975 0
-1975 2000 0
-100 -1975 1976 0
-1976 2001 0
-101 -1976 1977 0
-1977 2002 0
-102 -1977 1978 0
-1978 2003 0
-103 -1978 0
-79 1979 0
-1979 2004 0
-80 -1979 1980 0
-1980 2005 0
-81 -1980 1981 0
-1981 2006 0
-82 -1981 1982 0
-1982 2007 0
-83 -1982 1983 0
-1983 2008 0
-84 -1983 1984 0
-1984 2009 0
-85 -1984 1985 0
-1985 2010 0
-86 -1985 1986 0
-1986 2011 0
-87 -1986 1987 0
-1987 2012 0
-88 -1987 1988 0
-1988 2013 0
-89 -1988 1989 0
-1989 2014 0
-90 -1989 1990 0
-1990 2015 0
-91 -1990 1991 0
-1991 2016 0
-92 -1991 1992 0
-1992 2017 0
-93 -1992 1993 0
-1993 2018 0
-94 -1993 1994 0
-1994 2019 0
-95 -1994 1995 0
-1995 2020 0
-96 -1995 1996 0
-1996 2021 0
-97 -1996 1997 0
-1997 2022 0
-98 -1997 1998 0
-1998 2023 0
-99 -1998 1999 0
-1999 2024 0
-100 -1999 2000 0
-2000 2025 0
-101 -2000 2001 0
-2001 2026 0
-102 -2001 2002 0
-2002 2027 0
-103 -2002 2003 0
-2003 2028 0
-104 -2003 0
-80 2004 0
-2004 2029 0
-81 -2004 2005 0
-2005 2030 0
-82 -2005 2006 0
-2006 2031 0
-83 -2006 2007 0
-2007 2032 0
-84 -2007 2008 0
-2008 2033 0
-85 -2008 2009 0
-2009 2034 0
-86 -2009 2010 0
-2010 2035 0
-87 -2010 2011 0
-2011 2036 0
-88 -2011 2012 0
-2012 2037 0
-89 -2012 2013 0
-2013 2038 0
-90 -2013 2014 0
-2014 2039 0
-91 -2014 2015 0
-2015 2040 0
-92 -2015 2016 0
-2016 2041 0
-93 -2016 2017 0
-2017 2042 0
-94 -2017 2018 0
-2018 2043 0
-95 -2018 2019 0
-2019 2044 0
-96 -2019 2020 0
-2020 2045 0
-97 -2020 2021 0
-2021 2046 0
-98 -2021 2022 0
-2022 2047 0
-99 -2022 2023 0
-2023 2048 0
-100 -2023 2024 0
-2024 2049 0
-101 -2024 2025 0
-2025 2050 0
-102 -2025 2026 0
-2026 2051 0
-103 -2026 2027 0
-2027 2052 0
-104 -2027 2028 0
-2028 2053 0
-105 -2028 0
-81 2029 0
-2029 2054 0
-82 -2029 2030 0
-2030 2055 0
-83 -2030 2031 0
-2031 2056 0
-84 -2031 2032 0
-2032 2057 0
-85 -2032 2033 0
-2033 2058 0
-86 -2033 2034 0
-2034 2059 0
-87 -2034 2035 0
-2035 2060 0
-88 -2035 2036 0
-2036 2061 0
-89 -2036 2037 0
-2037 2062 0
-90 -2037 2038 0
-2038 2063 0
-91 -2038 2039 0
-2039 2064 0
-92 -2039 2040 0
-2040 2065 0
-93 -2040 2041 0
-2041 2066 0
-94 -2041 2042 0
-2042 2067 0
-95 -2042 2043 0
-2043 2068 0
-96 -2043 2044 0
-2044 2069 0
-97 -2044 2045 0
-2045 2070 0
-98 -2045 2046 0
-2046 2071 0
-99 -2046 2047 0
-2047 2072 0
-100 -2047 2048 0
-2048 2073 0
-101 -2048 2049 0
-2049 2074 0
-102 -2049 2050 0
-2050 2075 0
-103 -2050 2051 0
-2051 2076 0
-104 -2051 2052 0
-2052 2077 0
-105 -2052 2053 0
-2053 2078 0
-106 -2053 0
-82 2054 0
-2054 2079 0
-83 -2054 2055 0
-2055 2080 0
-84 -2055 2056 0
-2056 2081 0
-85 -2056 2057 0
-2057 2082 0
-86 -2057 2058 0
-2058 2083 0
-87 -2058 2059 0
-2059 2084 0
-88 -2059 2060 0
-2060 2085 0
-89 -2060 2061 0
-2061 2086 0
-90 -2061 2062 0
-2062 2087 0
-91 -2062 2063 0
-2063 2088 0
-92 -2063 2064 0
-2064 2089 0
-93 -2064 2065 0
-2065 2090 0
-94 -2065 2066 0
-2066 2091 0
-95 -2066 2067 0
-2067 2092 0
-96 -2067 2068 0
-2068 2093 0
-97 -2068 2069 0
-2069 2094 0
-98 -2069 2070 0
-2070 2095 0
-99 -2070 2071 0
-2071 2096 0
-100 -2071 2072 0
-2072 2097 0
-101 -2072 2073 0
-2073 2098 0
-102 -2073 2074 0
-2074 2099 0
-103 -2074 2075 0
-2075 2100 0
-104 -2075 2076 0
-2076 2101 0
-105 -2076 2077 0
-2077 2102 0
-106 -2077 2078 0
-2078 2103 0
-107 -2078 0
-83 2079 0
-2079 2104 0
-84 -2079 2080 0
-2080 2105 0
-85 -2080 2081 0
-2081 2106 0
-86 -2081 2082 0
-2082 2107 0
-87 -2082 2083 0
-2083 2108 0
-88 -2083 2084 0
-2084 2109 0
-89 -2084 2085 0
-2085 2110 0
-90 -2085 2086 0
-2086 2111 0
-91 -2086 2087 0
-2087 2112 0
-92 -2087 2088 0
-2088 2113 0
-93 -2088 2089 0
-2089 2114 0
-94 -2089 2090 0
-2090 2115 0
-95 -2090 2091 0
-2091 2116 0
-96 -2091 2092 0
-2092 2117 0
-97 -2092 2093 0
-2093 2118 0
-98 -2093 2094 0
-2094 2119 0
-99 -2094 2095 0
-2095 2120 0
-100 -2095 2096 0
-2096 2121 0
-101 -2096 2097 0
-2097 2122 0
-102 -2097 2098 0
-2098 2123 0
-103 -2098 2099 0
-2099 2124 0
-104 -2099 2100 0
-2100 2125 0
-105 -2100 2101 0
-2101 2126 0
-106 -2101 2102 0
-2102 2127 0
-107 -2102 2103 0
-2103 2128 0
-108 -2103 0
-84 2104 0
-2104 2129 0
-85 -2104 2105 0
-2105 2130 0
-86 -2105 2106 0
-2106 2131 0
-87 -2106 2107 0
-2107 2132 0
-88 -2107 2108 0
-2108 2133 0
-89 -2108 2109 0
-2109 2134 0
-90 -2109 2110 0
-2110 2135 0
-91 -2110 2111 0
-2111 2136 0
-92 -2111 2112 0
-2112 2137 0
-93 -2112 2113 0
-2113 2138 0
-94 -2113 2114 0
-2114 2139 0
-95 -2114 2115 0
-2115 2140 0
-96 -2115 2116 0
-2116 2141 0
-97 -2116 2117 0
-2117 2142 0
-98 -2117 2118 0
-2118 2143 0
-99 -2118 2119 0
-2119 2144 0
-100 -2119 2120 0
-2120 2145 0
-101 -2120 2121 0
-2121 2146 0
-102 -2121 2122 0
-2122 2147 0
-103 -2122 2123 0
-2123 2148 0
-104 -2123 2124 0
-2124 2149 0
-105 -2124 2125 0
-2125 2150 0
-106 -2125 2126 0
-2126 2151 0
-107 -2126 2127 0
-2127 2152 0
-108 -2127 2128 0
-2128 2153 0
-109 -2128 0
-85 2129 0
-2129 2154 0
-86 -2129 2130 0
-2130 2155 0
-87 -2130 2131 0
-2131 2156 0
-88 -2131 2132 0
-2132 2157 0
-89 -2132 2133 0
-2133 2158 0
-90 -2133 2134 0
-2134 2159 0
-91 -2134 2135 0
-2135 2160 0
-92 -2135 2136 0
-2136 2161 0
-93 -2136 2137 0
-2137 2162 0
-94 -2137 2138 0
-2138 2163 0
-95 -2138 2139 0
-2139 2164 0
-96 -2139 2140 0
-2140 2165 0
-97 -2140 2141 0
-2141 2166 0
-98 -2141 2142 0
-2142 2167 0
-99 -2142 2143 0
-2143 2168 0
-100 -2143 2144 0
-2144 2169 0
-101 -2144 2145 0
-2145 2170 0
-102 -2145 2146 0
-2146 2171 0
-103 -2146 2147 0
-2147 2172 0
-104 -2147 2148 0
-2148 2173 0
-105 -2148 2149 0
-2149 2174 0
-106 -2149 2150 0
-2150 2175 0
-107 -2150 2151 0
-2151 2176 0
-108 -2151 2152 0
-2152 2177 0
-109 -2152 2153 0
-2153 2178 0
-110 -2153 0
-86 2154 0
-2154 2179 0
-87 -2154 2155 0
-2155 2180 0
-88 -2155 2156 0
-2156 2181 0
-89 -2156 2157 0
-2157 2182 0
-90 -2157 2158 0
-2158 2183 0
-91 -2158 2159 0
-2159 2184 0
-92 -2159 2160 0
-2160 2185 0
-93 -2160 2161 0
-2161 2186 0
-94 -2161 2162 0
-2162 2187 0
-95 -2162 2163 0
-2163 2188 0
-96 -2163 2164 0
-2164 2189 0
-97 -2164 2165 0
-2165 2190 0
-98 -2165 2166 0
-2166 2191 0
-99 -2166 2167 0
-2167 2192 0
-100 -2167 2168 0
-2168 2193 0
-101 -2168 2169 0
-2169 2194 0
-102 -2169 2170 0
-2170 2195 0
-103 -2170 2171 0
-2171 2196 0
-104 -2171 2172 0
-2172 2197 0
-105 -2172 2173 0
-2173 2198 0
-106 -2173 2174 0
-2174 2199 0
-107 -2174 2175 0
-2175 2200 0
-108 -2175 2176 0
-2176 2201 0
-109 -2176 2177 0
-2177 2202 0
-110 -2177 2178 0
-2178 2203 0
-111 -2178 0
-87 2179 0
-2179 2204 0
-88 -2179 2180 0
-2180 2205 0
-89 -2180 2181 0
-2181 2206 0
-90 -2181 2182 0
-2182 2207 0
-91 -2182 2183 0
-2183 2208 0
-92 -2183 2184 0
-2184 2209 0
-93 -2184 2185 0
-2185 2210 0
-94 -2185 2186 0
-2186 2211 0
-95 -2186 2187 0
-2187 2212 0
-96 -2187 2188 0
-2188 2213 0
-97 -2188 2189 0
-2189 2214 0
-98 -2189 2190 0
-2190 2215 0
-99 -2190 2191 0
-2191 2216 0
-100 -2191 2192 0
-2192 2217 0
-101 -2192 2193 0
-2193 2218 0
-102 -2193 2194 0
-2194 2219 0
-103 -2194 2195 0
-2195 2220 0
-104 -2195 2196 0
-2196 2221 0
-105 -2196 2197 0
-2197 2222 0
-106 -2197 2198 0
-2198 2223 0
-107 -2198 2199 0
-2199 2224 0
-108 -2199 2200 0
-2200 2225 0
-109 -2200 2201 0
-2201 2226 0
-110 -2201 2202 0
-2202 2227 0
-111 -2202 2203 0
-2203 2228 0
-112 -2203 0
-88 2204 0
-2204 2229 0
-89 -2204 2205 0
-2205 2230 0
-90 -2205 2206 0
-2206 2231 0
-91 -2206 2207 0
-2207 2232 0
-92 -2207 2208 0
-2208 2233 0
-93 -2208 2209 0
-2209 2234 0
-94 -2209 2210 0
-2210 2235 0
-95 -2210 2211 0
-2211 2236 0
-96 -2211 2212 0
-2212 2237 0
-97 -2212 2213 0
-2213 2238 0
-98 -2213 2214 0
-2214 2239 0
-99 -2214 2215 0
-2215 2240 0
-100 -2215 2216 0
-2216 2241 0
-101 -2216 2217 0
-2217 2242 0
-102 -2217 2218 0
-2218 2243 0
-103 -2218 2219 0
-2219 2244 0
-104 -2219 2220 0
-2220 2245 0
-105 -2220 2221 0
-2221 2246 0
-106 -2221 2222 0
-2222 2247 0
-107 -2222 2223 0
-2223 2248 0
-108 -2223 2224 0
-2224 2249 0
-109 -2224 2225 0
-2225 2250 0
-110 -2225 2226 0
-2226 2251 0
-111 -2226 2227 0
-2227 2252 0
-112 -2227 2228 0
-2228 2253 0
-113 -2228 0
-89 2229 0
-2229 2254 0
-90 -2229 2230 0
-2230 2255 0
-91 -2230 2231 0
-2231 2256 0
-92 -2231 2232 0
-2232 2257 0
-93 -2232 2233 0
-2233 2258 0
-94 -2233 2234 0
-2234 2259 0
-95 -2234 2235 0
-2235 2260 0
-96 -2235 2236 0
-2236 2261 0
-97 -2236 2237 0
-2237 2262 0
-98 -2237 2238 0
-2238 2263 0
-99 -2238 2239 0
-2239 2264 0
-100 -2239 2240 0
-2240 2265 0
-101 -2240 2241 0
-2241 2266 0
-102 -2241 2242 0
-2242 2267 0
-103 -2242 2243 0
-2243 2268 0
-104 -2243 2244 0
-2244 2269 0
-105 -2244 2245 0
-2245 2270 0
-106 -2245 2246 0
-2246 2271 0
-107 -2246 2247 0
-2247 2272 0
-108 -2247 2248 0
-2248 2273 0
-109 -2248 2249 0
-2249 2274 0
-110 -2249 2250 0
-2250 2275 0
-111 -2250 2251 0
-2251 2276 0
-112 -2251 2252 0
-2252 2277 0
-113 -2252 2253 0
-2253 2278 0
-114 -2253 0
-90 2254 0
-2254 2279 0
-91 -2254 2255 0
-2255 2280 0
-92 -2255 2256 0
-2256 2281 0
-93 -2256 2257 0
-2257 2282 0
-94 -2257 2258 0
-2258 2283 0
-95 -2258 2259 0
-2259 2284 0
-96 -2259 2260 0
-2260 2285 0
-97 -2260 2261 0
-2261 2286 0
-98 -2261 2262 0
-2262 2287 0
-99 -2262 2263 0
-2263 2288 0
-100 -2263 2264 0
-2264 2289 0
-101 -2264 2265 0
-2265 2290 0
-102 -2265 2266 0
-2266 2291 0
-103 -2266 2267 0
-2267 2292 0
-104 -2267 2268 0
-2268 2293 0
-105 -2268 2269 0
-2269 2294 0
-106 -2269 2270 0
-2270 2295 0
-107 -2270 2271 0
-2271 2296 0
-108 -2271 2272 0
-2272 2297 0
-109 -2272 2273 0
-2273 2298 0
-110 -2273 2274 0
-2274 2299 0
-111 -2274 2275 0
-2275 2300 0
-112 -2275 2276 0
-2276 2301 0
-113 -2276 2277 0
-2277 2302 0
-114 -2277 2278 0
-2278 2303 0
-115 -2278 0
-91 2279 0
-2279 2304 0
-92 -2279 2280 0
-2280 2305 0
-93 -2280 2281 0
-2281 2306 0
-94 -2281 2282 0
-2282 2307 0
-95 -2282 2283 0
-2283 2308 0
-96 -2283 2284 0
-2284 2309 0
-97 -2284 2285 0
-2285 2310 0
-98 -2285 2286 0
-2286 2311 0
-99 -2286 2287 0
-2287 2312 0
-100 -2287 2288 0
-2288 2313 0
-101 -2288 2289 0
-2289 2314 0
-102 -2289 2290 0
-2290 2315 0
-103 -2290 2291 0
-2291 2316 0
-104 -2291 2292 0
-2292 2317 0
-105 -2292 2293 0
-2293 2318 0
-106 -2293 2294 0
-2294 2319 0
-107 -2294 2295 0
-2295 2320 0
-108 -2295 2296 0
-2296 2321 0
-109 -2296 2297 0
-2297 2322 0
-110 -2297 2298 0
-2298 2323 0
-111 -2298 2299 0
-2299 2324 0
-112 -2299 2300 0
-2300 2325 0
-113 -2300 2301 0
-2301 2326 0
-114 -2301 2302 0
-2302 2327 0
-115 -2302 2303 0
-2303 2328 0
-116 -2303 0
-92 2304 0
-2304 2329 0
-93 -2304 2305 0
-2305 2330 0
-94 -2305 2306 0
-2306 2331 0
-95 -2306 2307 0
-2307 2332 0
-96 -2307 2308 0
-2308 2333 0
-97 -2308 2309 0
-2309 2334 0
-98 -2309 2310 0
-2310 2335 0
-99 -2310 2311 0
-2311 2336 0
-100 -2311 2312 0
-2312 2337 0
-101 -2312 2313 0
-2313 2338 0
-102 -2313 2314 0
-2314 2339 0
-103 -2314 2315 0
-2315 2340 0
-104 -2315 2316 0
-2316 2341 0
-105 -2316 2317 0
-2317 2342 0
-106 -2317 2318 0
-2318 2343 0
-107 -2318 2319 0
-2319 2344 0
-108 -2319 2320 0
-2320 2345 0
-109 -2320 2321 0
-2321 2346 0
-110 -2321 2322 0
-2322 2347 0
-111 -2322 2323 0
-2323 2348 0
-112 -2323 2324 0
-2324 2349 0
-113 -2324 2325 0
-2325 2350 0
-114 -2325 2326 0
-2326 2351 0
-115 -2326 2327 0
-2327 2352 0
-116 -2327 2328 0
-2328 2353 0
-117 -2328 0
-93 2329 0
-2329 2354 0
-94 -2329 2330 0
-2330 2355 0
-95 -2330 2331 0
-2331 2356 0
-96 -2331 2332 0
-2332 2357 0
-97 -2332 2333 0
-2333 2358 0
-98 -2333 2334 0
-2334 2359 0
-99 -2334 2335 0
-2335 2360 0
-100 -2335 2336 0
-2336 2361 0
-101 -2336 2337 0
-2337 2362 0
-102 -2337 2338 0
-2338 2363 0
-103 -2338 2339 0
-2339 2364 0
-104 -2339 2340 0
-2340 2365 0
-105 -2340 2341 0
-2341 2366 0
-106 -2341 2342 0
-2342 2367 0
-107 -2342 2343 0
-2343 2368 0
-108 -2343 2344 0
-2344 2369 0
-109 -2344 2345 0
-2345 2370 0
-110 -2345 2346 0
-2346 2371 0
-111 -2346 2347 0
-2347 2372 0
-112 -2347 2348 0
-2348 2373 0
-113 -2348 2349 0
-2349 2374 0
-114 -2349 2350 0
-2350 2375 0
-115 -2350 2351 0
-2351 2376 0
-116 -2351 2352 0
-2352 2377 0
-117 -2352 2353 0
-2353 2378 0
-118 -2353 0
-94 2354 0
-2354 2379 0
-95 -2354 2355 0
-2355 2380 0
-96 -2355 2356 0
-2356 2381 0
-97 -2356 2357 0
-2357 2382 0
-98 -2357 2358 0
-2358 2383 0
-99 -2358 2359 0
-2359 2384 0
-100 -2359 2360 0
-2360 2385 0
-101 -2360 2361 0
-2361 2386 0
-102 -2361 2362 0
-2362 2387 0
-103 -2362 2363 0
-2363 2388 0
-104 -2363 2364 0
-2364 2389 0
-105 -2364 2365 0
-2365 2390 0
-106 -2365 2366 0
-2366 2391 0
-107 -2366 2367 0
-2367 2392 0
-108 -2367 2368 0
-2368 2393 0
-109 -2368 2369 0
-2369 2394 0
-110 -2369 2370 0
-2370 2395 0
-111 -2370 2371 0
-2371 2396 0
-112 -2371 2372 0
-2372 2397 0
-113 -2372 2373 0
-2373 2398 0
-114 -2373 2374 0
-2374 2399 0
-115 -2374 2375 0
-2375 2400 0
-116 -2375 2376 0
-2376 2401 0
-117 -2376 2377 0
-2377 2402 0
-118 -2377 2378 0
-2378 2403 0
-119 -2378 0
-95 2379 0
-96 -2379 2380 0
-97 -2380 2381 0
-98 -2381 2382 0
-99 -2382 2383 0
-100 -2383 2384 0
-101 -2384 2385 0
-102 -2385 2386 0
-103 -2386 2387 0
-104 -2387 2388 0
-105 -2388 2389 0
-106 -2389 2390 0
-107 -2390 2391 0
-108 -2391 2392 0
-109 -2392 2393 0
-110 -2393 2394 0
-111 -2394 2395 0
-112 -2395 2396 0
-113 -2396 2397 0
-114 -2397 2398 0
-115 -2398 2399 0
-116 -2399 2400 0
-117 -2400 2401 0
-118 -2401 2402 0
-119 -2402 2403 0
-120 -2403 0
1 31 0
