p cnf 1813 3677
-1 51 0
-2 51 0
-25 51 0
-26 51 0
-51 1 2 25 26 0
-2 52 0
-1 52 0
-3 52 0
-27 52 0
-52 2 1 3 27 0
-3 53 0
-2 53 0
-4 53 0
-28 53 0
-53 3 2 4 28 0
-4 54 0
-3 54 0
-5 54 0
-29 54 0
-54 4 3 5 29 0
-5 55 0
-4 55 0
-6 55 0
-30 55 0
-55 5 4 6 30 0
-6 56 0
-5 56 0
-7 56 0
-31 56 0
-56 6 5 7 31 0
-7 57 0
-6 57 0
-8 57 0
-32 57 0
-57 7 6 8 32 0
-8 58 0
-7 58 0
-9 58 0
-33 58 0
-58 8 7 9 33 0
-9 59 0
-8 59 0
-10 59 0
-34 59 0
-59 9 8 10 34 0
-10 60 0
-9 60 0
-11 60 0
-35 60 0
-60 10 9 11 35 0
-11 61 0
-10 61 0
-12 61 0
-36 61 0
-61 11 10 12 36 0
-12 62 0
-11 62 0
-13 62 0
-37 62 0
-62 12 11 13 37 0
-13 63 0
-12 63 0
-14 63 0
-38 63 0
-63 13 12 14 38 0
-14 64 0
-13 64 0
-15 64 0
-39 64 0
-64 14 13 15 39 0
-15 65 0
-14 65 0
-16 65 0
-40 65 0
-65 15 14 16 40 0
-16 66 0
-15 66 0
-17 66 0
-41 66 0
-66 16 15 17 41 0
-17 67 0
-16 67 0
-18 67 0
-42 67 0
-67 17 16 18 42 0
-18 68 0
-17 68 0
-19 68 0
-43 68 0
-68 18 17 19 43 0
-19 69 0
-18 69 0
-20 69 0
-44 69 0
-69 19 18 20 44 0
-20 70 0
-19 70 0
-21 70 0
-45 70 0
-70 20 19 21 45 0
-21 71 0
-20 71 0
-22 71 0
-46 71 0
-71 21 20 22 46 0
-22 72 0
-21 72 0
-23 72 0
-47 72 0
-72 22 21 23 47 0
-23 73 0
-22 73 0
-24 73 0
-48 73 0
-73 23 22 24 48 0
-24 74 0
-23 74 0
-25 74 0
-49 74 0
-74 24 23 25 49 0
-25 75 0
-1 75 0
-24 75 0
-50 75 0
-75 25 1 24 50 0
-26 76 0
-1 76 0
-30 76 0
-47 76 0
-76 26 1 30 47 0
-27 77 0
-2 77 0
-31 77 0
-48 77 0
-77 27 2 31 48 0
-28 78 0
-3 78 0
-32 78 0
-49 78 0
-78 28 3 32 49 0
-29 79 0
-4 79 0
-33 79 0
-50 79 0
-79 29 4 33 50 0
-30 80 0
-5 80 0
-26 80 0
-34 80 0
-80 30 5 26 34 0
-31 81 0
-6 81 0
-27 81 0
-35 81 0
-81 31 6 27 35 0
-32 82 0
-7 82 0
-28 82 0
-36 82 0
-82 32 7 28 36 0
-33 83 0
-8 83 0
-29 83 0
-37 83 0
-83 33 8 29 37 0
-34 84 0
-9 84 0
-30 84 0
-38 84 0
-84 34 9 30 38 0
-35 85 0
-10 85 0
-31 85 0
-39 85 0
-85 35 10 31 39 0
-36 86 0
-11 86 0
-32 86 0
-40 86 0
-86 36 11 32 40 0
-37 87 0
-12 87 0
-33 87 0
-41 87 0
-87 37 12 33 41 0
-38 88 0
-13 88 0
-34 88 0
-42 88 0
-88 38 13 34 42 0
-39 89 0
-14 89 0
-35 89 0
-43 89 0
-89 39 14 35 43 0
-40 90 0
-15 90 0
-36 90 0
-44 90 0
-90 40 15 36 44 0
-41 91 0
-16 91 0
-37 91 0
-45 91 0
-91 41 16 37 45 0
-42 92 0
-17 92 0
-38 92 0
-46 92 0
-92 42 17 38 46 0
-43 93 0
-18 93 0
-39 93 0
-47 93 0
-93 43 18 39 47 0
-44 94 0
-19 94 0
-40 94 0
-48 94 0
-94 44 19 40 48 0
-45 95 0
-20 95 0
-41 95 0
-49 95 0
-95 45 20 41 49 0
-46 96 0
-21 96 0
-42 96 0
-50 96 0
-96 46 21 42 50 0
-47 97 0
-22 97 0
-26 97 0
-43 97 0
-97 47 22 26 43 0
-48 98 0
-23 98 0
-27 98 0
-44 98 0
-98 48 23 27 44 0
-49 99 0
-24 99 0
-28 99 0
-45 99 0
-99 49 24 28 45 0
-50 100 0
-25 100 0
-29 100 0
-46 100 0
-100 50 25 29 46 0
1 101 0
-101 102 0
2 -101 103 0
-103 104 0
3 -103 105 0
-105 106 0
4 -105 107 0
-107 108 0
5 -107 109 0
-109 110 0
6 -109 111 0
-111 112 0
7 -111 113 0
-113 114 0
8 -113 115 0
-115 116 0
9 -115 117 0
-117 118 0
10 -117 119 0
-119 120 0
11 -119 121 0
-121 122 0
12 -121 123 0
-123 124 0
13 -123 125 0
-125 126 0
14 -125 127 0
-127 128 0
15 -127 129 0
-129 130 0
16 -129 131 0
-131 132 0
17 -131 133 0
-133 134 0
18 -133 135 0
-135 136 0
19 -135 137 0
-137 138 0
20 -137 139 0
-139 140 0
21 -139 141 0
-141 142 0
22 -141 143 0
-143 144 0
23 -143 145 0
-145 146 0
24 -145 147 0
-147 148 0
25 -147 149 0
-149 150 0
26 -149 151 0
-151 152 0
27 -151 153 0
-153 154 0
28 -153 155 0
-155 156 0
29 -155 157 0
-157 158 0
30 -157 159 0
-159 160 0
31 -159 161 0
-161 162 0
32 -161 163 0
-163 164 0
33 -163 165 0
-165 166 0
34 -165 167 0
-167 168 0
35 -167 0
2 102 0
-102 169 0
3 -102 104 0
-104 170 0
4 -104 106 0
-106 171 0
5 -106 108 0
-108 172 0
6 -108 110 0
-110 173 0
7 -110 112 0
-112 174 0
8 -112 114 0
-114 175 0
9 -114 116 0
-116 176 0
10 -116 118 0
-118 177 0
11 -118 120 0
-120 178 0
12 -120 122 0
-122 179 0
13 -122 124 0
-124 180 0
14 -124 126 0
-126 181 0
15 -126 128 0
-128 182 0
16 -128 130 0
-130 183 0
17 -130 132 0
-132 184 0
18 -132 134 0
-134 185 0
19 -134 136 0
-136 186 0
20 -136 138 0
-138 187 0
21 -138 140 0
-140 188 0
22 -140 142 0
-142 189 0
23 -142 144 0
-144 190 0
24 -144 146 0
-146 191 0
25 -146 148 0
-148 192 0
26 -148 150 0
-150 193 0
27 -150 152 0
-152 194 0
28 -152 154 0
-154 195 0
29 -154 156 0
-156 196 0
30 -156 158 0
-158 197 0
31 -158 160 0
-160 198 0
32 -160 162 0
-162 199 0
33 -162 164 0
-164 200 0
34 -164 166 0
-166 201 0
35 -166 168 0
-168 202 0
36 -168 0
3 169 0
-169 203 0
4 -169 170 0
-170 204 0
5 -170 171 0
-171 205 0
6 -171 172 0
-172 206 0
7 -172 173 0
-173 207 0
8 -173 174 0
-174 208 0
9 -174 175 0
-175 209 0
10 -175 176 0
-176 210 0
11 -176 177 0
-177 211 0
12 -177 178 0
-178 212 0
13 -178 179 0
-179 213 0
14 -179 180 0
-180 214 0
15 -180 181 0
-181 215 0
16 -181 182 0
-182 216 0
17 -182 183 0
-183 217 0
18 -183 184 0
-184 218 0
19 -184 185 0
-185 219 0
20 -185 186 0
-186 220 0
21 -186 187 0
-187 221 0
22 -187 188 0
-188 222 0
23 -188 189 0
-189 223 0
24 -189 190 0
-190 224 0
25 -190 191 0
-191 225 0
26 -191 192 0
-192 226 0
27 -192 193 0
-193 227 0
28 -193 194 0
-194 228 0
29 -194 195 0
-195 229 0
30 -195 196 0
-196 230 0
31 -196 197 0
-197 231 0
32 -197 198 0
-198 232 0
33 -198 199 0
-199 233 0
34 -199 200 0
-200 234 0
35 -200 201 0
-201 235 0
36 -201 202 0
-202 236 0
37 -202 0
4 203 0
-203 237 0
5 -203 204 0
-204 238 0
6 -204 205 0
-205 239 0
7 -205 206 0
-206 240 0
8 -206 207 0
-207 241 0
9 -207 208 0
-208 242 0
10 -208 209 0
-209 243 0
11 -209 210 0
-210 244 0
12 -210 211 0
-211 245 0
13 -211 212 0
-212 246 0
14 -212 213 0
-213 247 0
15 -213 214 0
-214 248 0
16 -214 215 0
-215 249 0
17 -215 216 0
-216 250 0
18 -216 217 0
-217 251 0
19 -217 218 0
-218 252 0
20 -218 219 0
-219 253 0
21 -219 220 0
-220 254 0
22 -220 221 0
-221 255 0
23 -221 222 0
-222 256 0
24 -222 223 0
-223 257 0
25 -223 224 0
-224 258 0
26 -224 225 0
-225 259 0
27 -225 226 0
-226 260 0
28 -226 227 0
-227 261 0
29 -227 228 0
-228 262 0
30 -228 229 0
-229 263 0
31 -229 230 0
-230 264 0
32 -230 231 0
-231 265 0
33 -231 232 0
-232 266 0
34 -232 233 0
-233 267 0
35 -233 234 0
-234 268 0
36 -234 235 0
-235 269 0
37 -235 236 0
-236 270 0
38 -236 0
5 237 0
-237 271 0
6 -237 238 0
-238 272 0
7 -238 239 0
-239 273 0
8 -239 240 0
-240 274 0
9 -240 241 0
-241 275 0
10 -241 242 0
-242 276 0
11 -242 243 0
-243 277 0
12 -243 244 0
-244 278 0
13 -244 245 0
-245 279 0
14 -245 246 0
-246 280 0
15 -246 247 0
-247 281 0
16 -247 248 0
-248 282 0
17 -248 249 0
-249 283 0
18 -249 250 0
-250 284 0
19 -250 251 0
-251 285 0
20 -251 252 0
-252 286 0
21 -252 253 0
-253 287 0
22 -253 254 0
-254 288 0
23 -254 255 0
-255 289 0
24 -255 256 0
-256 290 0
25 -256 257 0
-257 291 0
26 -257 258 0
-258 292 0
27 -258 259 0
-259 293 0
28 -259 260 0
-260 294 0
29 -260 261 0
-261 295 0
30 -261 262 0
-262 296 0
31 -262 263 0
-263 297 0
32 -263 264 0
-264 298 0
33 -264 265 0
-265 299 0
34 -265 266 0
-266 300 0
35 -266 267 0
-267 301 0
36 -267 268 0
-268 302 0
37 -268 269 0
-269 303 0
38 -269 270 0
-270 304 0
39 -270 0
6 271 0
-271 305 0
7 -271 272 0
-272 306 0
8 -272 273 0
-273 307 0
9 -273 274 0
-274 308 0
10 -274 275 0
-275 309 0
11 -275 276 0
-276 310 0
12 -276 277 0
-277 311 0
13 -277 278 0
-278 312 0
14 -278 279 0
-279 313 0
15 -279 280 0
-280 314 0
16 -280 281 0
-281 315 0
17 -281 282 0
-282 316 0
18 -282 283 0
-283 317 0
19 -283 284 0
-284 318 0
20 -284 285 0
-285 319 0
21 -285 286 0
-286 320 0
22 -286 287 0
-287 321 0
23 -287 288 0
-288 322 0
24 -288 289 0
-289 323 0
25 -289 290 0
-290 324 0
26 -290 291 0
-291 325 0
27 -291 292 0
-292 326 0
28 -292 293 0
-293 327 0
29 -293 294 0
-294 328 0
30 -294 295 0
-295 329 0
31 -295 296 0
-296 330 0
32 -296 297 0
-297 331 0
33 -297 298 0
-298 332 0
34 -298 299 0
-299 333 0
35 -299 300 0
-300 334 0
36 -300 301 0
-301 335 0
37 -301 302 0
-302 336 0
38 -302 303 0
-303 337 0
39 -303 304 0
-304 338 0
40 -304 0
7 305 0
-305 339 0
8 -305 306 0
-306 340 0
9 -306 307 0
-307 341 0
10 -307 308 0
-308 342 0
11 -308 309 0
-309 343 0
12 -309 310 0
-310 344 0
13 -310 311 0
-311 345 0
14 -311 312 0
-312 346 0
15 -312 313 0
-313 347 0
16 -313 314 0
-314 348 0
17 -314 315 0
-315 349 0
18 -315 316 0
-316 350 0
19 -316 317 0
-317 351 0
20 -317 318 0
-318 352 0
21 -318 319 0
-319 353 0
22 -319 320 0
-320 354 0
23 -320 321 0
-321 355 0
24 -321 322 0
-322 356 0
25 -322 323 0
-323 357 0
26 -323 324 0
-324 358 0
27 -324 325 0
-325 359 0
28 -325 326 0
-326 360 0
29 -326 327 0
-327 361 0
30 -327 328 0
-328 362 0
31 -328 329 0
-329 363 0
32 -329 330 0
-330 364 0
33 -330 331 0
-331 365 0
34 -331 332 0
-332 366 0
35 -332 333 0
-333 367 0
36 -333 334 0
-334 368 0
37 -334 335 0
-335 369 0
38 -335 336 0
-336 370 0
39 -336 337 0
-337 371 0
40 -337 338 0
-338 372 0
41 -338 0
8 339 0
-339 373 0
9 -339 340 0
-340 374 0
10 -340 341 0
-341 375 0
11 -341 342 0
-342 376 0
12 -342 343 0
-343 377 0
13 -343 344 0
-344 378 0
14 -344 345 0
-345 379 0
15 -345 346 0
-346 380 0
16 -346 347 0
-347 381 0
17 -347 348 0
-348 382 0
18 -348 349 0
-349 383 0
19 -349 350 0
-350 384 0
20 -350 351 0
-351 385 0
21 -351 352 0
-352 386 0
22 -352 353 0
-353 387 0
23 -353 354 0
-354 388 0
24 -354 355 0
-355 389 0
25 -355 356 0
-356 390 0
26 -356 357 0
-357 391 0
27 -357 358 0
-358 392 0
28 -358 359 0
-359 393 0
29 -359 360 0
-360 394 0
30 -360 361 0
-361 395 0
31 -361 362 0
-362 396 0
32 -362 363 0
-363 397 0
33 -363 364 0
-364 398 0
34 -364 365 0
-365 399 0
35 -365 366 0
-366 400 0
36 -366 367 0
-367 401 0
37 -367 368 0
-368 402 0
38 -368 369 0
-369 403 0
39 -369 370 0
-370 404 0
40 -370 371 0
-371 405 0
41 -371 372 0
-372 406 0
42 -372 0
9 373 0
-373 407 0
10 -373 374 0
-374 408 0
11 -374 375 0
-375 409 0
12 -375 376 0
-376 410 0
13 -376 377 0
-377 411 0
14 -377 378 0
-378 412 0
15 -378 379 0
-379 413 0
16 -379 380 0
-380 414 0
17 -380 381 0
-381 415 0
18 -381 382 0
-382 416 0
19 -382 383 0
-383 417 0
20 -383 384 0
-384 418 0
21 -384 385 0
-385 419 0
22 -385 386 0
-386 420 0
23 -386 387 0
-387 421 0
24 -387 388 0
-388 422 0
25 -388 389 0
-389 423 0
26 -389 390 0
-390 424 0
27 -390 391 0
-391 425 0
28 -391 392 0
-392 426 0
29 -392 393 0
-393 427 0
30 -393 394 0
-394 428 0
31 -394 395 0
-395 429 0
32 -395 396 0
-396 430 0
33 -396 397 0
-397 431 0
34 -397 398 0
-398 432 0
35 -398 399 0
-399 433 0
36 -399 400 0
-400 434 0
37 -400 401 0
-401 435 0
38 -401 402 0
-402 436 0
39 -402 403 0
-403 437 0
40 -403 404 0
-404 438 0
41 -404 405 0
-405 439 0
42 -405 406 0
-406 440 0
43 -406 0
10 407 0
-407 441 0
11 -407 408 0
-408 442 0
12 -408 409 0
-409 443 0
13 -409 410 0
-410 444 0
14 -410 411 0
-411 445 0
15 -411 412 0
-412 446 0
16 -412 413 0
-413 447 0
17 -413 414 0
-414 448 0
18 -414 415 0
-415 449 0
19 -415 416 0
-416 450 0
20 -416 417 0
-417 451 0
21 -417 418 0
-418 452 0
22 -418 419 0
-419 453 0
23 -419 420 0
-420 454 0
24 -420 421 0
-421 455 0
25 -421 422 0
-422 456 0
26 -422 423 0
-423 457 0
27 -423 424 0
-424 458 0
28 -424 425 0
-425 459 0
29 -425 426 0
-426 460 0
30 -426 427 0
-427 461 0
31 -427 428 0
-428 462 0
32 -428 429 0
-429 463 0
33 -429 430 0
-430 464 0
34 -430 431 0
-431 465 0
35 -431 432 0
-432 466 0
36 -432 433 0
-433 467 0
37 -433 434 0
-434 468 0
38 -434 435 0
-435 469 0
39 -435 436 0
-436 470 0
40 -436 437 0
-437 471 0
41 -437 438 0
-438 472 0
42 -438 439 0
-439 473 0
43 -439 440 0
-440 474 0
44 -440 0
11 441 0
-441 475 0
12 -441 442 0
-442 476 0
13 -442 443 0
-443 477 0
14 -443 444 0
-444 478 0
15 -444 445 0
-445 479 0
16 -445 446 0
-446 480 0
17 -446 447 0
-447 481 0
18 -447 448 0
-448 482 0
19 -448 449 0
-449 483 0
20 -449 450 0
-450 484 0
21 -450 451 0
-451 485 0
22 -451 452 0
-452 486 0
23 -452 453 0
-453 487 0
24 -453 454 0
-454 488 0
25 -454 455 0
-455 489 0
26 -455 456 0
-456 490 0
27 -456 457 0
-457 491 0
28 -457 458 0
-458 492 0
29 -458 459 0
-459 493 0
30 -459 460 0
-460 494 0
31 -460 461 0
-461 495 0
32 -461 462 0
-462 496 0
33 -462 463 0
-463 497 0
34 -463 464 0
-464 498 0
35 -464 465 0
-465 499 0
36 -465 466 0
-466 500 0
37 -466 467 0
-467 501 0
38 -467 468 0
-468 502 0
39 -468 469 0
-469 503 0
40 -469 470 0
-470 504 0
41 -470 471 0
-471 505 0
42 -471 472 0
-472 506 0
43 -472 473 0
-473 507 0
44 -473 474 0
-474 508 0
45 -474 0
12 475 0
-475 509 0
13 -475 476 0
-476 510 0
14 -476 477 0
-477 511 0
15 -477 478 0
-478 512 0
16 -478 479 0
-479 513 0
17 -479 480 0
-480 514 0
18 -480 481 0
-481 515 0
19 -481 482 0
-482 516 0
20 -482 483 0
-483 517 0
21 -483 484 0
-484 518 0
22 -484 485 0
-485 519 0
23 -485 486 0
-486 520 0
24 -486 487 0
-487 521 0
25 -487 488 0
-488 522 0
26 -488 489 0
-489 523 0
27 -489 490 0
-490 524 0
28 -490 491 0
-491 525 0
29 -491 492 0
-492 526 0
30 -492 493 0
-493 527 0
31 -493 494 0
-494 528 0
32 -494 495 0
-495 529 0
33 -495 496 0
-496 530 0
34 -496 497 0
-497 531 0
35 -497 498 0
-498 532 0
36 -498 499 0
-499 533 0
37 -499 500 0
-500 534 0
38 -500 501 0
-501 535 0
39 -501 502 0
-502 536 0
40 -502 503 0
-503 537 0
41 -503 504 0
-504 538 0
42 -504 505 0
-505 539 0
43 -505 506 0
-506 540 0
44 -506 507 0
-507 541 0
45 -507 508 0
-508 542 0
46 -508 0
13 509 0
-509 543 0
14 -509 510 0
-510 544 0
15 -510 511 0
-511 545 0
16 -511 512 0
-512 546 0
17 -512 513 0
-513 547 0
18 -513 514 0
-514 548 0
19 -514 515 0
-515 549 0
20 -515 516 0
-516 550 0
21 -516 517 0
-517 551 0
22 -517 518 0
-518 552 0
23 -518 519 0
-519 553 0
24 -519 520 0
-520 554 0
25 -520 521 0
-521 555 0
26 -521 522 0
-522 556 0
27 -522 523 0
-523 557 0
28 -523 524 0
-524 558 0
29 -524 525 0
-525 559 0
30 -525 526 0
-526 560 0
31 -526 527 0
-527 561 0
32 -527 528 0
-528 562 0
33 -528 529 0
-529 563 0
34 -529 530 0
-530 564 0
35 -530 531 0
-531 565 0
36 -531 532 0
-532 566 0
37 -532 533 0
-533 567 0
38 -533 534 0
-534 568 0
39 -534 535 0
-535 569 0
40 -535 536 0
-536 570 0
41 -536 537 0
-537 571 0
42 -537 538 0
-538 572 0
43 -538 539 0
-539 573 0
44 -539 540 0
-540 574 0
45 -540 541 0
-541 575 0
46 -541 542 0
-542 576 0
47 -542 0
14 543 0
-543 577 0
15 -543 544 0
-544 578 0
16 -544 545 0
-545 579 0
17 -545 546 0
-546 580 0
18 -546 547 0
-547 581 0
19 -547 548 0
-548 582 0
20 -548 549 0
-549 583 0
21 -549 550 0
-550 584 0
22 -550 551 0
-551 585 0
23 -551 552 0
-552 586 0
24 -552 553 0
-553 587 0
25 -553 554 0
-554 588 0
26 -554 555 0
-555 589 0
27 -555 556 0
-556 590 0
28 -556 557 0
-557 591 0
29 -557 558 0
-558 592 0
30 -558 559 0
-559 593 0
31 -559 560 0
-560 594 0
32 -560 561 0
-561 595 0
33 -561 562 0
-562 596 0
34 -562 563 0
-563 597 0
35 -563 564 0
-564 598 0
36 -564 565 0
-565 599 0
37 -565 566 0
-566 600 0
38 -566 567 0
-567 601 0
39 -567 568 0
-568 602 0
40 -568 569 0
-569 603 0
41 -569 570 0
-570 604 0
42 -570 571 0
-571 605 0
43 -571 572 0
-572 606 0
44 -572 573 0
-573 607 0
45 -573 574 0
-574 608 0
46 -574 575 0
-575 609 0
47 -575 576 0
-576 610 0
48 -576 0
15 577 0
-577 611 0
16 -577 578 0
-578 612 0
17 -578 579 0
-579 613 0
18 -579 580 0
-580 614 0
19 -580 581 0
-581 615 0
20 -581 582 0
-582 616 0
21 -582 583 0
-583 617 0
22 -583 584 0
-584 618 0
23 -584 585 0
-585 619 0
24 -585 586 0
-586 620 0
25 -586 587 0
-587 621 0
26 -587 588 0
-588 622 0
27 -588 589 0
-589 623 0
28 -589 590 0
-590 624 0
29 -590 591 0
-591 625 0
30 -591 592 0
-592 626 0
31 -592 593 0
-593 627 0
32 -593 594 0
-594 628 0
33 -594 595 0
-595 629 0
34 -595 596 0
-596 630 0
35 -596 597 0
-597 631 0
36 -597 598 0
-598 632 0
37 -598 599 0
-599 633 0
38 -599 600 0
-600 634 0
39 -600 601 0
-601 635 0
40 -601 602 0
-602 636 0
41 -602 603 0
-603 637 0
42 -603 604 0
-604 638 0
43 -604 605 0
-605 639 0
44 -605 606 0
-606 640 0
45 -606 607 0
-607 641 0
46 -607 608 0
-608 642 0
47 -608 609 0
-609 643 0
48 -609 610 0
-610 644 0
49 -610 0
16 611 0
17 -611 612 0
18 -612 613 0
19 -613 614 0
20 -614 615 0
21 -615 616 0
22 -616 617 0
23 -617 618 0
24 -618 619 0
25 -619 620 0
26 -620 621 0
27 -621 622 0
28 -622 623 0
29 -623 624 0
30 -624 625 0
31 -625 626 0
32 -626 627 0
33 -627 628 0
34 -628 629 0
35 -629 630 0
36 -630 631 0
37 -631 632 0
38 -632 633 0
39 -633 634 0
40 -634 635 0
41 -635 636 0
42 -636 637 0
43 -637 638 0
44 -638 639 0
45 -639 640 0
46 -640 641 0
47 -641 642 0
48 -642 643 0
49 -643 644 0
50 -644 0
-1 645 0
-645 646 0
-2 -645 647 0
-647 648 0
-3 -647 649 0
-649 650 0
-4 -649 651 0
-651 652 0
-5 -651 653 0
-653 654 0
-6 -653 655 0
-655 656 0
-7 -655 657 0
-657 658 0
-8 -657 659 0
-659 660 0
-9 -659 661 0
-661 662 0
-10 -661 663 0
-663 664 0
-11 -663 665 0
-665 666 0
-12 -665 667 0
-667 668 0
-13 -667 669 0
-669 670 0
-14 -669 671 0
-671 672 0
-15 -671 673 0
-673 674 0
-16 -673 675 0
-675 676 0
-17 -675 0
-2 646 0
-646 677 0
-3 -646 648 0
-648 678 0
-4 -648 650 0
-650 679 0
-5 -650 652 0
-652 680 0
-6 -652 654 0
-654 681 0
-7 -654 656 0
-656 682 0
-8 -656 658 0
-658 683 0
-9 -658 660 0
-660 684 0
-10 -660 662 0
-662 685 0
-11 -662 664 0
-664 686 0
-12 -664 666 0
-666 687 0
-13 -666 668 0
-668 688 0
-14 -668 670 0
-670 689 0
-15 -670 672 0
-672 690 0
-16 -672 674 0
-674 691 0
-17 -674 676 0
-676 692 0
-18 -676 0
-3 677 0
-677 693 0
-4 -677 678 0
-678 694 0
-5 -678 679 0
-679 695 0
-6 -679 680 0
-680 696 0
-7 -680 681 0
-681 697 0
-8 -681 682 0
-682 698 0
-9 -682 683 0
-683 699 0
-10 -683 684 0
-684 700 0
-11 -684 685 0
-685 701 0
-12 -685 686 0
-686 702 0
-13 -686 687 0
-687 703 0
-14 -687 688 0
-688 704 0
-15 -688 689 0
-689 705 0
-16 -689 690 0
-690 706 0
-17 -690 691 0
-691 707 0
-18 -691 692 0
-692 708 0
-19 -692 0
-4 693 0
-693 709 0
-5 -693 694 0
-694 710 0
-6 -694 695 0
-695 711 0
-7 -695 696 0
-696 712 0
-8 -696 697 0
-697 713 0
-9 -697 698 0
-698 714 0
-10 -698 699 0
-699 715 0
-11 -699 700 0
-700 716 0
-12 -700 701 0
-701 717 0
-13 -701 702 0
-702 718 0
-14 -702 703 0
-703 719 0
-15 -703 704 0
-704 720 0
-16 -704 705 0
-705 721 0
-17 -705 706 0
-706 722 0
-18 -706 707 0
-707 723 0
-19 -707 708 0
-708 724 0
-20 -708 0
-5 709 0
-709 725 0
-6 -709 710 0
-710 726 0
-7 -710 711 0
-711 727 0
-8 -711 712 0
-712 728 0
-9 -712 713 0
-713 729 0
-10 -713 714 0
-714 730 0
-11 -714 715 0
-715 731 0
-12 -715 716 0
-716 732 0
-13 -716 717 0
-717 733 0
-14 -717 718 0
-718 734 0
-15 -718 719 0
-719 735 0
-16 -719 720 0
-720 736 0
-17 -720 721 0
-721 737 0
-18 -721 722 0
-722 738 0
-19 -722 723 0
-723 739 0
-20 -723 724 0
-724 740 0
-21 -724 0
-6 725 0
-725 741 0
-7 -725 726 0
-726 742 0
-8 -726 727 0
-727 743 0
-9 -727 728 0
-728 744 0
-10 -728 729 0
-729 745 0
-11 -729 730 0
-730 746 0
-12 -730 731 0
-731 747 0
-13 -731 732 0
-732 748 0
-14 -732 733 0
-733 749 0
-15 -733 734 0
-734 750 0
-16 -734 735 0
-735 751 0
-17 -735 736 0
-736 752 0
-18 -736 737 0
-737 753 0
-19 -737 738 0
-738 754 0
-20 -738 739 0
-739 755 0
-21 -739 740 0
-740 756 0
-22 -740 0
-7 741 0
-741 757 0
-8 -741 742 0
-742 758 0
-9 -742 743 0
-743 759 0
-10 -743 744 0
-744 760 0
-11 -744 745 0
-745 761 0
-12 -745 746 0
-746 762 0
-13 -746 747 0
-747 763 0
-14 -747 748 0
-748 764 0
-15 -748 749 0
-749 765 0
-16 -749 750 0
-750 766 0
-17 -750 751 0
-751 767 0
-18 -751 752 0
-752 768 0
-19 -752 753 0
-753 769 0
-20 -753 754 0
-754 770 0
-21 -754 755 0
-755 771 0
-22 -755 756 0
-756 772 0
-23 -756 0
-8 757 0
-757 773 0
-9 -757 758 0
-758 774 0
-10 -758 759 0
-759 775 0
-11 -759 760 0
-760 776 0
-12 -760 761 0
-761 777 0
-13 -761 762 0
-762 778 0
-14 -762 763 0
-763 779 0
-15 -763 764 0
-764 780 0
-16 -764 765 0
-765 781 0
-17 -765 766 0
-766 782 0
-18 -766 767 0
-767 783 0
-19 -767 768 0
-768 784 0
-20 -768 769 0
-769 785 0
-21 -769 770 0
-770 786 0
-22 -770 771 0
-771 787 0
-23 -771 772 0
-772 788 0
-24 -772 0
-9 773 0
-773 789 0
-10 -773 774 0
-774 790 0
-11 -774 775 0
-775 791 0
-12 -775 776 0
-776 792 0
-13 -776 777 0
-777 793 0
-14 -777 778 0
-778 794 0
-15 -778 779 0
-779 795 0
-16 -779 780 0
-780 796 0
-17 -780 781 0
-781 797 0
-18 -781 782 0
-782 798 0
-19 -782 783 0
-783 799 0
-20 -783 784 0
-784 800 0
-21 -784 785 0
-785 801 0
-22 -785 786 0
-786 802 0
-23 -786 787 0
-787 803 0
-24 -787 788 0
-788 804 0
-25 -788 0
-10 789 0
-789 805 0
-11 -789 790 0
-790 806 0
-12 -790 791 0
-791 807 0
-13 -791 792 0
-792 808 0
-14 -792 793 0
-793 809 0
-15 -793 794 0
-794 810 0
-16 -794 795 0
-795 811 0
-17 -795 796 0
-796 812 0
-18 -796 797 0
-797 813 0
-19 -797 798 0
-798 814 0
-20 -798 799 0
-799 815 0
-21 -799 800 0
-800 816 0
-22 -800 801 0
-801 817 0
-23 -801 802 0
-802 818 0
-24 -802 803 0
-803 819 0
-25 -803 804 0
-804 820 0
-26 -804 0
-11 805 0
-805 821 0
-12 -805 806 0
-806 822 0
-13 -806 807 0
-807 823 0
-14 -807 808 0
-808 824 0
-15 -808 809 0
-809 825 0
-16 -809 810 0
-810 826 0
-17 -810 811 0
-811 827 0
-18 -811 812 0
-812 828 0
-19 -812 813 0
-813 829 0
-20 -813 814 0
-814 830 0
-21 -814 815 0
-815 831 0
-22 -815 816 0
-816 832 0
-23 -816 817 0
-817 833 0
-24 -817 818 0
-818 834 0
-25 -818 819 0
-819 835 0
-26 -819 820 0
-820 836 0
-27 -820 0
-12 821 0
-821 837 0
-13 -821 822 0
-822 838 0
-14 -822 823 0
-823 839 0
-15 -823 824 0
-824 840 0
-16 -824 825 0
-825 841 0
-17 -825 826 0
-826 842 0
-18 -826 827 0
-827 843 0
-19 -827 828 0
-828 844 0
-20 -828 829 0
-829 845 0
-21 -829 830 0
-830 846 0
-22 -830 831 0
-831 847 0
-23 -831 832 0
-832 848 0
-24 -832 833 0
-833 849 0
-25 -833 834 0
-834 850 0
-26 -834 835 0
-835 851 0
-27 -835 836 0
-836 852 0
-28 -836 0
-13 837 0
-837 853 0
-14 -837 838 0
-838 854 0
-15 -838 839 0
-839 855 0
-16 -839 840 0
-840 856 0
-17 -840 841 0
-841 857 0
-18 -841 842 0
-842 858 0
-19 -842 843 0
-843 859 0
-20 -843 844 0
-844 860 0
-21 -844 845 0
-845 861 0
-22 -845 846 0
-846 862 0
-23 -846 847 0
-847 863 0
-24 -847 848 0
-848 864 0
-25 -848 849 0
-849 865 0
-26 -849 850 0
-850 866 0
-27 -850 851 0
-851 867 0
-28 -851 852 0
-852 868 0
-29 -852 0
-14 853 0
-853 869 0
-15 -853 854 0
-854 870 0
-16 -854 855 0
-855 871 0
-17 -855 856 0
-856 872 0
-18 -856 857 0
-857 873 0
-19 -857 858 0
-858 874 0
-20 -858 859 0
-859 875 0
-21 -859 860 0
-860 876 0
-22 -860 861 0
-861 877 0
-23 -861 862 0
-862 878 0
-24 -862 863 0
-863 879 0
-25 -863 864 0
-864 880 0
-26 -864 865 0
-865 881 0
-27 -865 866 0
-866 882 0
-28 -866 867 0
-867 883 0
-29 -867 868 0
-868 884 0
-30 -868 0
-15 869 0
-869 885 0
-16 -869 870 0
-870 886 0
-17 -870 871 0
-871 887 0
-18 -871 872 0
-872 888 0
-19 -872 873 0
-873 889 0
-20 -873 874 0
-874 890 0
-21 -874 875 0
-875 891 0
-22 -875 876 0
-876 892 0
-23 -876 877 0
-877 893 0
-24 -877 878 0
-878 894 0
-25 -878 879 0
-879 895 0
-26 -879 880 0
-880 896 0
-27 -880 881 0
-881 897 0
-28 -881 882 0
-882 898 0
-29 -882 883 0
-883 899 0
-30 -883 884 0
-884 900 0
-31 -884 0
-16 885 0
-885 901 0
-17 -885 886 0
-886 902 0
-18 -886 887 0
-887 903 0
-19 -887 888 0
-888 904 0
-20 -888 889 0
-889 905 0
-21 -889 890 0
-890 906 0
-22 -890 891 0
-891 907 0
-23 -891 892 0
-892 908 0
-24 -892 893 0
-893 909 0
-25 -893 894 0
-894 910 0
-26 -894 895 0
-895 911 0
-27 -895 896 0
-896 912 0
-28 -896 897 0
-897 913 0
-29 -897 898 0
-898 914 0
-30 -898 899 0
-899 915 0
-31 -899 900 0
-900 916 0
-32 -900 0
-17 901 0
-901 917 0
-18 -901 902 0
-902 918 0
-19 -902 903 0
-903 919 0
-20 -903 904 0
-904 920 0
-21 -904 905 0
-905 921 0
-22 -905 906 0
-906 922 0
-23 -906 907 0
-907 923 0
-24 -907 908 0
-908 924 0
-25 -908 909 0
-909 925 0
-26 -909 910 0
-910 926 0
-27 -910 911 0
-911 927 0
-28 -911 912 0
-912 928 0
-29 -912 913 0
-913 929 0
-30 -913 914 0
-914 930 0
-31 -914 915 0
-915 931 0
-32 -915 916 0
-916 932 0
-33 -916 0
-18 917 0
-917 933 0
-19 -917 918 0
-918 934 0
-20 -918 919 0
-919 935 0
-21 -919 920 0
-920 936 0
-22 -920 921 0
-921 937 0
-23 -921 922 0
-922 938 0
-24 -922 923 0
-923 939 0
-25 -923 924 0
-924 940 0
-26 -924 925 0
-925 941 0
-27 -925 926 0
-926 942 0
-28 -926 927 0
-927 943 0
-29 -927 928 0
-928 944 0
-30 -928 929 0
-929 945 0
-31 -929 930 0
-930 946 0
-32 -930 931 0
-931 947 0
-33 -931 932 0
-932 948 0
-34 -932 0
-19 933 0
-933 949 0
-20 -933 934 0
-934 950 0
-21 -934 935 0
-935 951 0
-22 -935 936 0
-936 952 0
-23 -936 937 0
-937 953 0
-24 -937 938 0
-938 954 0
-25 -938 939 0
-939 955 0
-26 -939 940 0
-940 956 0
-27 -940 941 0
-941 957 0
-28 -941 942 0
-942 958 0
-29 -942 943 0
-943 959 0
-30 -943 944 0
-944 960 0
-31 -944 945 0
-945 961 0
-32 -945 946 0
-946 962 0
-33 -946 947 0
-947 963 0
-34 -947 948 0
-948 964 0
-35 -948 0
-20 949 0
-949 965 0
-21 -949 950 0
-950 966 0
-22 -950 951 0
-951 967 0
-23 -951 952 0
-952 968 0
-24 -952 953 0
-953 969 0
-25 -953 954 0
-954 970 0
-26 -954 955 0
-955 971 0
-27 -955 956 0
-956 972 0
-28 -956 957 0
-957 973 0
-29 -957 958 0
-958 974 0
-30 -958 959 0
-959 975 0
-31 -959 960 0
-960 976 0
-32 -960 961 0
-961 977 0
-33 -961 962 0
-962 978 0
-34 -962 963 0
-963 979 0
-35 -963 964 0
-964 980 0
-36 -964 0
-21 965 0
-965 981 0
-22 -965 966 0
-966 982 0
-23 -966 967 0
-967 983 0
-24 -967 968 0
-968 984 0
-25 -968 969 0
-969 985 0
-26 -969 970 0
-970 986 0
-27 -970 971 0
-971 987 0
-28 -971 972 0
-972 988 0
-29 -972 973 0
-973 989 0
-30 -973 974 0
-974 990 0
-31 -974 975 0
-975 991 0
-32 -975 976 0
-976 992 0
-33 -976 977 0
-977 993 0
-34 -977 978 0
-978 994 0
-35 -978 979 0
-979 995 0
-36 -979 980 0
-980 996 0
-37 -980 0
-22 981 0
-981 997 0
-23 -981 982 0
-982 998 0
-24 -982 983 0
-983 999 0
-25 -983 984 0
-984 1000 0
-26 -984 985 0
-985 1001 0
-27 -985 986 0
-986 1002 0
-28 -986 987 0
-987 1003 0
-29 -987 988 0
-988 1004 0
-30 -988 989 0
-989 1005 0
-31 -989 990 0
-990 1006 0
-32 -990 991 0
-991 1007 0
-33 -991 992 0
-992 1008 0
-34 -992 993 0
-993 1009 0
-35 -993 994 0
-994 1010 0
-36 -994 995 0
-995 1011 0
-37 -995 996 0
-996 1012 0
-38 -996 0
-23 997 0
-997 1013 0
-24 -997 998 0
-998 1014 0
-25 -998 999 0
-999 1015 0
-26 -999 1000 0
-1000 1016 0
-27 -1000 1001 0
-1001 1017 0
-28 -1001 1002 0
-1002 1018 0
-29 -1002 1003 0
-1003 1019 0
-30 -1003 1004 0
-1004 1020 0
-31 -1004 1005 0
-1005 1021 0
-32 -1005 1006 0
-1006 1022 0
-33 -1006 1007 0
-1007 1023 0
-34 -1007 1008 0
-1008 1024 0
-35 -1008 1009 0
-1009 1025 0
-36 -1009 1010 0
-1010 1026 0
-37 -1010 1011 0
-1011 1027 0
-38 -1011 1012 0
-1012 1028 0
-39 -1012 0
-24 1013 0
-1013 1029 0
-25 -1013 1014 0
-1014 1030 0
-26 -1014 1015 0
-1015 1031 0
-27 -1015 1016 0
-1016 1032 0
-28 -1016 1017 0
-1017 1033 0
-29 -1017 1018 0
-1018 1034 0
-30 -1018 1019 0
-1019 1035 0
-31 -1019 1020 0
-1020 1036 0
-32 -1020 1021 0
-1021 1037 0
-33 -1021 1022 0
-1022 1038 0
-34 -1022 1023 0
-1023 1039 0
-35 -1023 1024 0
-1024 1040 0
-36 -1024 1025 0
-1025 1041 0
-37 -1025 1026 0
-1026 1042 0
-38 -1026 1027 0
-1027 1043 0
-39 -1027 1028 0
-1028 1044 0
-40 -1028 0
-25 1029 0
-1029 1045 0
-26 -1029 1030 0
-1030 1046 0
-27 -1030 1031 0
-1031 1047 0
-28 -1031 1032 0
-1032 1048 0
-29 -1032 1033 0
-1033 1049 0
-30 -1033 1034 0
-1034 1050 0
-31 -1034 1035 0
-1035 1051 0
-32 -1035 1036 0
-1036 1052 0
-33 -1036 1037 0
-1037 1053 0
-34 -1037 1038 0
-1038 1054 0
-35 -1038 1039 0
-1039 1055 0
-36 -1039 1040 0
-1040 1056 0
-37 -1040 1041 0
-1041 1057 0
-38 -1041 1042 0
-1042 1058 0
-39 -1042 1043 0
-1043 1059 0
-40 -1043 1044 0
-1044 1060 0
-41 -1044 0
-26 1045 0
-1045 1061 0
-27 -1045 1046 0
-1046 1062 0
-28 -1046 1047 0
-1047 1063 0
-29 -1047 1048 0
-1048 1064 0
-30 -1048 1049 0
-1049 1065 0
-31 -1049 1050 0
-1050 1066 0
-32 -1050 1051 0
-1051 1067 0
-33 -1051 1052 0
-1052 1068 0
-34 -1052 1053 0
-1053 1069 0
-35 -1053 1054 0
-1054 1070 0
-36 -1054 1055 0
-1055 1071 0
-37 -1055 1056 0
-1056 1072 0
-38 -1056 1057 0
-1057 1073 0
-39 -1057 1058 0
-1058 1074 0
-40 -1058 1059 0
-1059 1075 0
-41 -1059 1060 0
-1060 1076 0
-42 -1060 0
-27 1061 0
-1061 1077 0
-28 -1061 1062 0
-1062 1078 0
-29 -1062 1063 0
-1063 1079 0
-30 -1063 1064 0
-1064 1080 0
-31 -1064 1065 0
-1065 1081 0
-32 -1065 1066 0
-1066 1082 0
-33 -1066 1067 0
-1067 1083 0
-34 -1067 1068 0
-1068 1084 0
-35 -1068 1069 0
-1069 1085 0
-36 -1069 1070 0
-1070 1086 0
-37 -1070 1071 0
-1071 1087 0
-38 -1071 1072 0
-1072 1088 0
-39 -1072 1073 0
-1073 1089 0
-40 -1073 1074 0
-1074 1090 0
-41 -1074 1075 0
-1075 1091 0
-42 -1075 1076 0
-1076 1092 0
-43 -1076 0
-28 1077 0
-1077 1093 0
-29 -1077 1078 0
-1078 1094 0
-30 -1078 1079 0
-1079 1095 0
-31 -1079 1080 0
-1080 1096 0
-32 -1080 1081 0
-1081 1097 0
-33 -1081 1082 0
-1082 1098 0
-34 -1082 1083 0
-1083 1099 0
-35 -1083 1084 0
-1084 1100 0
-36 -1084 1085 0
-1085 1101 0
-37 -1085 1086 0
-1086 1102 0
-38 -1086 1087 0
-1087 1103 0
-39 -1087 1088 0
-1088 1104 0
-40 -1088 1089 0
-1089 1105 0
-41 -1089 1090 0
-1090 1106 0
-42 -1090 1091 0
-1091 1107 0
-43 -1091 1092 0
-1092 1108 0
-44 -1092 0
-29 1093 0
-1093 1109 0
-30 -1093 1094 0
-1094 1110 0
-31 -1094 1095 0
-1095 1111 0
-32 -1095 1096 0
-1096 1112 0
-33 -1096 1097 0
-1097 1113 0
-34 -1097 1098 0
-1098 1114 0
-35 -1098 1099 0
-1099 1115 0
-36 -1099 1100 0
-1100 1116 0
-37 -1100 1101 0
-1101 1117 0
-38 -1101 1102 0
-1102 1118 0
-39 -1102 1103 0
-1103 1119 0
-40 -1103 1104 0
-1104 1120 0
-41 -1104 1105 0
-1105 1121 0
-42 -1105 1106 0
-1106 1122 0
-43 -1106 1107 0
-1107 1123 0
-44 -1107 1108 0
-1108 1124 0
-45 -1108 0
-30 1109 0
-1109 1125 0
-31 -1109 1110 0
-1110 1126 0
-32 -1110 1111 0
-1111 1127 0
-33 -1111 1112 0
-1112 1128 0
-34 -1112 1113 0
-1113 1129 0
-35 -1113 1114 0
-1114 1130 0
-36 -1114 1115 0
-1115 1131 0
-37 -1115 1116 0
-1116 1132 0
-38 -1116 1117 0
-1117 1133 0
-39 -1117 1118 0
-1118 1134 0
-40 -1118 1119 0
-1119 1135 0
-41 -1119 1120 0
-1120 1136 0
-42 -1120 1121 0
-1121 1137 0
-43 -1121 1122 0
-1122 1138 0
-44 -1122 1123 0
-1123 1139 0
-45 -1123 1124 0
-1124 1140 0
-46 -1124 0
-31 1125 0
-1125 1141 0
-32 -1125 1126 0
-1126 1142 0
-33 -1126 1127 0
-1127 1143 0
-34 -1127 1128 0
-1128 1144 0
-35 -1128 1129 0
-1129 1145 0
-36 -1129 1130 0
-1130 1146 0
-37 -1130 1131 0
-1131 1147 0
-38 -1131 1132 0
-1132 1148 0
-39 -1132 1133 0
-1133 1149 0
-40 -1133 1134 0
-1134 1150 0
-41 -1134 1135 0
-1135 1151 0
-42 -1135 1136 0
-1136 1152 0
-43 -1136 1137 0
-1137 1153 0
-44 -1137 1138 0
-1138 1154 0
-45 -1138 1139 0
-1139 1155 0
-46 -1139 1140 0
-1140 1156 0
-47 -1140 0
-32 1141 0
-1141 1157 0
-33 -1141 1142 0
-1142 1158 0
-34 -1142 1143 0
-1143 1159 0
-35 -1143 1144 0
-1144 1160 0
-36 -1144 1145 0
-1145 1161 0
-37 -1145 1146 0
-1146 1162 0
-38 -1146 1147 0
-1147 1163 0
-39 -1147 1148 0
-1148 1164 0
-40 -1148 1149 0
-1149 1165 0
-41 -1149 1150 0
-1150 1166 0
-42 -1150 1151 0
-1151 1167 0
-43 -1151 1152 0
-1152 1168 0
-44 -1152 1153 0
-1153 1169 0
-45 -1153 1154 0
-1154 1170 0
-46 -1154 1155 0
-1155 1171 0
-47 -1155 1156 0
-1156 1172 0
-48 -1156 0
-33 1157 0
-1157 1173 0
-34 -1157 1158 0
-1158 1174 0
-35 -1158 1159 0
-1159 1175 0
-36 -1159 1160 0
-1160 1176 0
-37 -1160 1161 0
-1161 1177 0
-38 -1161 1162 0
-1162 1178 0
-39 -1162 1163 0
-1163 1179 0
-40 -1163 1164 0
-1164 1180 0
-41 -1164 1165 0
-1165 1181 0
-42 -1165 1166 0
-1166 1182 0
-43 -1166 1167 0
-1167 1183 0
-44 -1167 1168 0
-1168 1184 0
-45 -1168 1169 0
-1169 1185 0
-46 -1169 1170 0
-1170 1186 0
-47 -1170 1171 0
-1171 1187 0
-48 -1171 1172 0
-1172 1188 0
-49 -1172 0
-34 1173 0
-35 -1173 1174 0
-36 -1174 1175 0
-37 -1175 1176 0
-38 -1176 1177 0
-39 -1177 1178 0
-40 -1178 1179 0
-41 -1179 1180 0
-42 -1180 1181 0
-43 -1181 1182 0
-44 -1182 1183 0
-45 -1183 1184 0
-46 -1184 1185 0
-47 -1185 1186 0
-48 -1186 1187 0
-49 -1187 1188 0
-50 -1188 0
-51 1189 0
-1189 1190 0
-52 -1189 1191 0
-1191 1192 0
-53 -1191 1193 0
-1193 1194 0
-54 -1193 1195 0
-1195 1196 0
-55 -1195 1197 0
-1197 1198 0
-56 -1197 1199 0
-1199 1200 0
-57 -1199 1201 0
-1201 1202 0
-58 -1201 1203 0
-1203 1204 0
-59 -1203 1205 0
-1205 1206 0
-60 -1205 1207 0
-1207 1208 0
-61 -1207 1209 0
-1209 1210 0
-62 -1209 1211 0
-1211 1212 0
-63 -1211 1213 0
-1213 1214 0
-64 -1213 1215 0
-1215 1216 0
-65 -1215 1217 0
-1217 1218 0
-66 -1217 1219 0
-1219 1220 0
-67 -1219 1221 0
-1221 1222 0
-68 -1221 1223 0
-1223 1224 0
-69 -1223 1225 0
-1225 1226 0
-70 -1225 1227 0
-1227 1228 0
-71 -1227 1229 0
-1229 1230 0
-72 -1229 1231 0
-1231 1232 0
-73 -1231 1233 0
-1233 1234 0
-74 -1233 1235 0
-1235 1236 0
-75 -1235 1237 0
-1237 1238 0
-76 -1237 0
-52 1190 0
-1190 1239 0
-53 -1190 1192 0
-1192 1240 0
-54 -1192 1194 0
-1194 1241 0
-55 -1194 1196 0
-1196 1242 0
-56 -1196 1198 0
-1198 1243 0
-57 -1198 1200 0
-1200 1244 0
-58 -1200 1202 0
-1202 1245 0
-59 -1202 1204 0
-1204 1246 0
-60 -1204 1206 0
-1206 1247 0
-61 -1206 1208 0
-1208 1248 0
-62 -1208 1210 0
-1210 1249 0
-63 -1210 1212 0
-1212 1250 0
-64 -1212 1214 0
-1214 1251 0
-65 -1214 1216 0
-1216 1252 0
-66 -1216 1218 0
-1218 1253 0
-67 -1218 1220 0
-1220 1254 0
-68 -1220 1222 0
-1222 1255 0
-69 -1222 1224 0
-1224 1256 0
-70 -1224 1226 0
-1226 1257 0
-71 -1226 1228 0
-1228 1258 0
-72 -1228 1230 0
-1230 1259 0
-73 -1230 1232 0
-1232 1260 0
-74 -1232 1234 0
-1234 1261 0
-75 -1234 1236 0
-1236 1262 0
-76 -1236 1238 0
-1238 1263 0
-77 -1238 0
-53 1239 0
-1239 1264 0
-54 -1239 1240 0
-1240 1265 0
-55 -1240 1241 0
-1241 1266 0
-56 -1241 1242 0
-1242 1267 0
-57 -1242 1243 0
-1243 1268 0
-58 -1243 1244 0
-1244 1269 0
-59 -1244 1245 0
-1245 1270 0
-60 -1245 1246 0
-1246 1271 0
-61 -1246 1247 0
-1247 1272 0
-62 -1247 1248 0
-1248 1273 0
-63 -1248 1249 0
-1249 1274 0
-64 -1249 1250 0
-1250 1275 0
-65 -1250 1251 0
-1251 1276 0
-66 -1251 1252 0
-1252 1277 0
-67 -1252 1253 0
-1253 1278 0
-68 -1253 1254 0
-1254 1279 0
-69 -1254 1255 0
-1255 1280 0
-70 -1255 1256 0
-1256 1281 0
-71 -1256 1257 0
-1257 1282 0
-72 -1257 1258 0
-1258 1283 0
-73 -1258 1259 0
-1259 1284 0
-74 -1259 1260 0
-1260 1285 0
-75 -1260 1261 0
-1261 1286 0
-76 -1261 1262 0
-1262 1287 0
-77 -1262 1263 0
-1263 1288 0
-78 -1263 0
-54 1264 0
-1264 1289 0
-55 -1264 1265 0
-1265 1290 0
-56 -1265 1266 0
-1266 1291 0
-57 -1266 1267 0
-1267 1292 0
-58 -1267 1268 0
-1268 1293 0
-59 -1268 1269 0
-1269 1294 0
-60 -1269 1270 0
-1270 1295 0
-61 -1270 1271 0
-1271 1296 0
-62 -1271 1272 0
-1272 1297 0
-63 -1272 1273 0
-1273 1298 0
-64 -1273 1274 0
-1274 1299 0
-65 -1274 1275 0
-1275 1300 0
-66 -1275 1276 0
-1276 1301 0
-67 -1276 1277 0
-1277 1302 0
-68 -1277 1278 0
-1278 1303 0
-69 -1278 1279 0
-1279 1304 0
-70 -1279 1280 0
-1280 1305 0
-71 -1280 1281 0
-1281 1306 0
-72 -1281 1282 0
-1282 1307 0
-73 -1282 1283 0
-1283 1308 0
-74 -1283 1284 0
-1284 1309 0
-75 -1284 1285 0
-1285 1310 0
-76 -1285 1286 0
-1286 1311 0
-77 -1286 1287 0
-1287 1312 0
-78 -1287 1288 0
-1288 1313 0
-79 -1288 0
-55 1289 0
-1289 1314 0
-56 -1289 1290 0
-1290 1315 0
-57 -1290 1291 0
-1291 1316 0
-58 -1291 1292 0
-1292 1317 0
-59 -1292 1293 0
-1293 1318 0
-60 -1293 1294 0
-1294 1319 0
-61 -1294 1295 0
-1295 1320 0
-62 -1295 1296 0
-1296 1321 0
-63 -1296 1297 0
-1297 1322 0
-64 -1297 1298 0
-1298 1323 0
-65 -1298 1299 0
-1299 1324 0
-66 -1299 1300 0
-1300 1325 0
-67 -1300 1301 0
-1301 1326 0
-68 -1301 1302 0
-1302 1327 0
-69 -1302 1303 0
-1303 1328 0
-70 -1303 1304 0
-1304 1329 0
-71 -1304 1305 0
-1305 1330 0
-72 -1305 1306 0
-1306 1331 0
-73 -1306 1307 0
-1307 1332 0
-74 -1307 1308 0
-1308 1333 0
-75 -1308 1309 0
-1309 1334 0
-76 -1309 1310 0
-1310 1335 0
-77 -1310 1311 0
-1311 1336 0
-78 -1311 1312 0
-1312 1337 0
-79 -1312 1313 0
-1313 1338 0
-80 -1313 0
-56 1314 0
-1314 1339 0
-57 -1314 1315 0
-1315 1340 0
-58 -1315 1316 0
-1316 1341 0
-59 -1316 1317 0
-1317 1342 0
-60 -1317 1318 0
-1318 1343 0
-61 -1318 1319 0
-1319 1344 0
-62 -1319 1320 0
-1320 1345 0
-63 -1320 1321 0
-1321 1346 0
-64 -1321 1322 0
-1322 1347 0
-65 -1322 1323 0
-1323 1348 0
-66 -1323 1324 0
-1324 1349 0
-67 -1324 1325 0
-1325 1350 0
-68 -1325 1326 0
-1326 1351 0
-69 -1326 1327 0
-1327 1352 0
-70 -1327 1328 0
-1328 1353 0
-71 -1328 1329 0
-1329 1354 0
-72 -1329 1330 0
-1330 1355 0
-73 -1330 1331 0
-1331 1356 0
-74 -1331 1332 0
-1332 1357 0
-75 -1332 1333 0
-1333 1358 0
-76 -1333 1334 0
-1334 1359 0
-77 -1334 1335 0
-1335 1360 0
-78 -1335 1336 0
-1336 1361 0
-79 -1336 1337 0
-1337 1362 0
-80 -1337 1338 0
-1338 1363 0
-81 -1338 0
-57 1339 0
-1339 1364 0
-58 -1339 1340 0
-1340 1365 0
-59 -1340 1341 0
-1341 1366 0
-60 -1341 1342 0
-1342 1367 0
-61 -1342 1343 0
-1343 1368 0
-62 -1343 1344 0
-1344 1369 0
-63 -1344 1345 0
-1345 1370 0
-64 -1345 1346 0
-1346 1371 0
-65 -1346 1347 0
-1347 1372 0
-66 -1347 1348 0
-1348 1373 0
-67 -1348 1349 0
-1349 1374 0
-68 -1349 1350 0
-1350 1375 0
-69 -1350 1351 0
-1351 1376 0
-70 -1351 1352 0
-1352 1377 0
-71 -1352 1353 0
-1353 1378 0
-72 -1353 1354 0
-1354 1379 0
-73 -1354 1355 0
-1355 1380 0
-74 -1355 1356 0
-1356 1381 0
-75 -1356 1357 0
-1357 1382 0
-76 -1357 1358 0
-1358 1383 0
-77 -1358 1359 0
-1359 1384 0
-78 -1359 1360 0
-1360 1385 0
-79 -1360 1361 0
-1361 1386 0
-80 -1361 1362 0
-1362 1387 0
-81 -1362 1363 0
-1363 1388 0
-82 -1363 0
-58 1364 0
-1364 1389 0
-59 -1364 1365 0
-1365 1390 0
-60 -1365 1366 0
-1366 1391 0
-61 -1366 1367 0
-1367 1392 0
-62 -1367 1368 0
-1368 1393 0
-63 -1368 1369 0
-1369 1394 0
-64 -1369 1370 0
-1370 1395 0
-65 -1370 1371 0
-1371 1396 0
-66 -1371 1372 0
-1372 1397 0
-67 -1372 1373 0
-1373 1398 0
-68 -1373 1374 0
-1374 1399 0
-69 -1374 1375 0
-1375 1400 0
-70 -1375 1376 0
-1376 1401 0
-71 -1376 1377 0
-1377 1402 0
-72 -1377 1378 0
-1378 1403 0
-73 -1378 1379 0
-1379 1404 0
-74 -1379 1380 0
-1380 1405 0
-75 -1380 1381 0
-1381 1406 0
-76 -1381 1382 0
-1382 1407 0
-77 -1382 1383 0
-1383 1408 0
-78 -1383 1384 0
-1384 1409 0
-79 -1384 1385 0
-1385 1410 0
-80 -1385 1386 0
-1386 1411 0
-81 -1386 1387 0
-1387 1412 0
-82 -1387 1388 0
-1388 1413 0
-83 -1388 0
-59 1389 0
-1389 1414 0
-60 -1389 1390 0
-1390 1415 0
-61 -1390 1391 0
-1391 1416 0
-62 -1391 1392 0
-1392 1417 0
-63 -1392 1393 0
-1393 1418 0
-64 -1393 1394 0
-1394 1419 0
-65 -1394 1395 0
-1395 1420 0
-66 -1395 1396 0
-1396 1421 0
-67 -1396 1397 0
-1397 1422 0
-68 -1397 1398 0
-1398 1423 0
-69 -1398 1399 0
-1399 1424 0
-70 -1399 1400 0
-1400 1425 0
-71 -1400 1401 0
-1401 1426 0
-72 -1401 1402 0
-1402 1427 0
-73 -1402 1403 0
-1403 1428 0
-74 -1403 1404 0
-1404 1429 0
-75 -1404 1405 0
-1405 1430 0
-76 -1405 1406 0
-1406 1431 0
-77 -1406 1407 0
-1407 1432 0
-78 -1407 1408 0
-1408 1433 0
-79 -1408 1409 0
-1409 1434 0
-80 -1409 1410 0
-1410 1435 0
-81 -1410 1411 0
-1411 1436 0
-82 -1411 1412 0
-1412 1437 0
-83 -1412 1413 0
-1413 1438 0
-84 -1413 0
-60 1414 0
-1414 1439 0
-61 -1414 1415 0
-1415 1440 0
-62 -1415 1416 0
-1416 1441 0
-63 -1416 1417 0
-1417 1442 0
-64 -1417 1418 0
-1418 1443 0
-65 -1418 1419 0
-1419 1444 0
-66 -1419 1420 0
-1420 1445 0
-67 -1420 1421 0
-1421 1446 0
-68 -1421 1422 0
-1422 1447 0
-69 -1422 1423 0
-1423 1448 0
-70 -1423 1424 0
-1424 1449 0
-71 -1424 1425 0
-1425 1450 0
-72 -1425 1426 0
-1426 1451 0
-73 -1426 1427 0
-1427 1452 0
-74 -1427 1428 0
-1428 1453 0
-75 -1428 1429 0
-1429 1454 0
-76 -1429 1430 0
-1430 1455 0
-77 -1430 1431 0
-1431 1456 0
-78 -1431 1432 0
-1432 1457 0
-79 -1432 1433 0
-1433 1458 0
-80 -1433 1434 0
-1434 1459 0
-81 -1434 1435 0
-1435 1460 0
-82 -1435 1436 0
-1436 1461 0
-83 -1436 1437 0
-1437 1462 0
-84 -1437 1438 0
-1438 1463 0
-85 -1438 0
-61 1439 0
-1439 1464 0
-62 -1439 1440 0
-1440 1465 0
-63 -1440 1441 0
-1441 1466 0
-64 -1441 1442 0
-1442 1467 0
-65 -1442 1443 0
-1443 1468 0
-66 -1443 1444 0
-1444 1469 0
-67 -1444 1445 0
-1445 1470 0
-68 -1445 1446 0
-1446 1471 0
-69 -1446 1447 0
-1447 1472 0
-70 -1447 1448 0
-1448 1473 0
-71 -1448 1449 0
-1449 1474 0
-72 -1449 1450 0
-1450 1475 0
-73 -1450 1451 0
-1451 1476 0
-74 -1451 1452 0
-1452 1477 0
-75 -1452 1453 0
-1453 1478 0
-76 -1453 1454 0
-1454 1479 0
-77 -1454 1455 0
-1455 1480 0
-78 -1455 1456 0
-1456 1481 0
-79 -1456 1457 0
-1457 1482 0
-80 -1457 1458 0
-1458 1483 0
-81 -1458 1459 0
-1459 1484 0
-82 -1459 1460 0
-1460 1485 0
-83 -1460 1461 0
-1461 1486 0
-84 -1461 1462 0
-1462 1487 0
-85 -1462 1463 0
-1463 1488 0
-86 -1463 0
-62 1464 0
-1464 1489 0
-63 -1464 1465 0
-1465 1490 0
-64 -1465 1466 0
-1466 1491 0
-65 -1466 1467 0
-1467 1492 0
-66 -1467 1468 0
-1468 1493 0
-67 -1468 1469 0
-1469 1494 0
-68 -1469 1470 0
-1470 1495 0
-69 -1470 1471 0
-1471 1496 0
-70 -1471 1472 0
-1472 1497 0
-71 -1472 1473 0
-1473 1498 0
-72 -1473 1474 0
-1474 1499 0
-73 -1474 1475 0
-1475 1500 0
-74 -1475 1476 0
-1476 1501 0
-75 -1476 1477 0
-1477 1502 0
-76 -1477 1478 0
-1478 1503 0
-77 -1478 1479 0
-1479 1504 0
-78 -1479 1480 0
-1480 1505 0
-79 -1480 1481 0
-1481 1506 0
-80 -1481 1482 0
-1482 1507 0
-81 -1482 1483 0
-1483 1508 0
-82 -1483 1484 0
-1484 1509 0
-83 -1484 1485 0
-1485 1510 0
-84 -1485 1486 0
-1486 1511 0
-85 -1486 1487 0
-1487 1512 0
-86 -1487 1488 0
-1488 1513 0
-87 -1488 0
-63 1489 0
-1489 1514 0
-64 -1489 1490 0
-1490 1515 0
-65 -1490 1491 0
-1491 1516 0
-66 -1491 1492 0
-1492 1517 0
-67 -1492 1493 0
-1493 1518 0
-68 -1493 1494 0
-1494 1519 0
-69 -1494 1495 0
-1495 1520 0
-70 -1495 1496 0
-1496 1521 0
-71 -1496 1497 0
-1497 1522 0
-72 -1497 1498 0
-1498 1523 0
-73 -1498 1499 0
-1499 1524 0
-74 -1499 1500 0
-1500 1525 0
-75 -1500 1501 0
-1501 1526 0
-76 -1501 1502 0
-1502 1527 0
-77 -1502 1503 0
-1503 1528 0
-78 -1503 1504 0
-1504 1529 0
-79 -1504 1505 0
-1505 1530 0
-80 -1505 1506 0
-1506 1531 0
-81 -1506 1507 0
-1507 1532 0
-82 -1507 1508 0
-1508 1533 0
-83 -1508 1509 0
-1509 1534 0
-84 -1509 1510 0
-1510 1535 0
-85 -1510 1511 0
-1511 1536 0
-86 -1511 1512 0
-1512 1537 0
-87 -1512 1513 0
-1513 1538 0
-88 -1513 0
-64 1514 0
-1514 1539 0
-65 -1514 1515 0
-1515 1540 0
-66 -1515 1516 0
-1516 1541 0
-67 -1516 1517 0
-1517 1542 0
-68 -1517 1518 0
-1518 1543 0
-69 -1518 1519 0
-1519 1544 0
-70 -1519 1520 0
-1520 1545 0
-71 -1520 1521 0
-1521 1546 0
-72 -1521 1522 0
-1522 1547 0
-73 -1522 1523 0
-1523 1548 0
-74 -1523 1524 0
-1524 1549 0
-75 -1524 1525 0
-1525 1550 0
-76 -1525 1526 0
-1526 1551 0
-77 -1526 1527 0
-1527 1552 0
-78 -1527 1528 0
-1528 1553 0
-79 -1528 1529 0
-1529 1554 0
-80 -1529 1530 0
-1530 1555 0
-81 -1530 1531 0
-1531 1556 0
-82 -1531 1532 0
-1532 1557 0
-83 -1532 1533 0
-1533 1558 0
-84 -1533 1534 0
-1534 1559 0
-85 -1534 1535 0
-1535 1560 0
-86 -1535 1536 0
-1536 1561 0
-87 -1536 1537 0
-1537 1562 0
-88 -1537 1538 0
-1538 1563 0
-89 -1538 0
-65 1539 0
-1539 1564 0
-66 -1539 1540 0
-1540 1565 0
-67 -1540 1541 0
-1541 1566 0
-68 -1541 1542 0
-1542 1567 0
-69 -1542 1543 0
-1543 1568 0
-70 -1543 1544 0
-1544 1569 0
-71 -1544 1545 0
-1545 1570 0
-72 -1545 1546 0
-1546 1571 0
-73 -1546 1547 0
-1547 1572 0
-74 -1547 1548 0
-1548 1573 0
-75 -1548 1549 0
-1549 1574 0
-76 -1549 1550 0
-1550 1575 0
-77 -1550 1551 0
-1551 1576 0
-78 -1551 1552 0
-1552 1577 0
-79 -1552 1553 0
-1553 1578 0
-80 -1553 1554 0
-1554 1579 0
-81 -1554 1555 0
-1555 1580 0
-82 -1555 1556 0
-1556 1581 0
-83 -1556 1557 0
-1557 1582 0
-84 -1557 1558 0
-1558 1583 0
-85 -1558 1559 0
-1559 1584 0
-86 -1559 1560 0
-1560 1585 0
-87 -1560 1561 0
-1561 1586 0
-88 -1561 1562 0
-1562 1587 0
-89 -1562 1563 0
-1563 1588 0
-90 -1563 0
-66 1564 0
-1564 1589 0
-67 -1564 1565 0
-1565 1590 0
-68 -1565 1566 0
-1566 1591 0
-69 -1566 1567 0
-1567 1592 0
-70 -1567 1568 0
-1568 1593 0
-71 -1568 1569 0
-1569 1594 0
-72 -1569 1570 0
-1570 1595 0
-73 -1570 1571 0
-1571 1596 0
-74 -1571 1572 0
-1572 1597 0
-75 -1572 1573 0
-1573 1598 0
-76 -1573 1574 0
-1574 1599 0
-77 -1574 1575 0
-1575 1600 0
-78 -1575 1576 0
-1576 1601 0
-79 -1576 1577 0
-1577 1602 0
-80 -1577 1578 0
-1578 1603 0
-81 -1578 1579 0
-1579 1604 0
-82 -1579 1580 0
-1580 1605 0
-83 -1580 1581 0
-1581 1606 0
-84 -1581 1582 0
-1582 1607 0
-85 -1582 1583 0
-1583 1608 0
-86 -1583 1584 0
-1584 1609 0
-87 -1584 1585 0
-1585 1610 0
-88 -1585 1586 0
-1586 1611 0
-89 -1586 1587 0
-1587 1612 0
-90 -1587 1588 0
-1588 1613 0
-91 -1588 0
-67 1589 0
-1589 1614 0
-68 -1589 1590 0
-1590 1615 0
-69 -1590 1591 0
-1591 1616 0
-70 -1591 1592 0
-1592 1617 0
-71 -1592 1593 0
-1593 1618 0
-72 -1593 1594 0
-1594 1619 0
-73 -1594 1595 0
-1595 1620 0
-74 -1595 1596 0
-1596 1621 0
-75 -1596 1597 0
-1597 1622 0
-76 -1597 1598 0
-1598 1623 0
-77 -1598 1599 0
-1599 1624 0
-78 -1599 1600 0
-1600 1625 0
-79 -1600 1601 0
-1601 1626 0
-80 -1601 1602 0
-1602 1627 0
-81 -1602 1603 0
-1603 1628 0
-82 -1603 1604 0
-1604 1629 0
-83 -1604 1605 0
-1605 1630 0
-84 -1605 1606 0
-1606 1631 0
-85 -1606 1607 0
-1607 1632 0
-86 -1607 1608 0
-1608 1633 0
-87 -1608 1609 0
-1609 1634 0
-88 -1609 1610 0
-1610 1635 0
-89 -1610 1611 0
-1611 1636 0
-90 -1611 1612 0
-1612 1637 0
-91 -1612 1613 0
-1613 1638 0
-92 -1613 0
-68 1614 0
-1614 1639 0
-69 -1614 1615 0
-1615 1640 0
-70 -1615 1616 0
-1616 1641 0
-71 -1616 1617 0
-1617 1642 0
-72 -1617 1618 0
-1618 1643 0
-73 -1618 1619 0
-1619 1644 0
-74 -1619 1620 0
-1620 1645 0
-75 -1620 1621 0
-1621 1646 0
-76 -1621 1622 0
-1622 1647 0
-77 -1622 1623 0
-1623 1648 0
-78 -1623 1624 0
-1624 1649 0
-79 -1624 1625 0
-1625 1650 0
-80 -1625 1626 0
-1626 1651 0
-81 -1626 1627 0
-1627 1652 0
-82 -1627 1628 0
-1628 1653 0
-83 -1628 1629 0
-1629 1654 0
-84 -1629 1630 0
-1630 1655 0
-85 -1630 1631 0
-1631 1656 0
-86 -1631 1632 0
-1632 1657 0
-87 -1632 1633 0
-1633 1658 0
-88 -1633 1634 0
-1634 1659 0
-89 -1634 1635 0
-1635 1660 0
-90 -1635 1636 0
-1636 1661 0
-91 -1636 1637 0
-1637 1662 0
-92 -1637 1638 0
-1638 1663 0
-93 -1638 0
-69 1639 0
-1639 1664 0
-70 -1639 1640 0
-1640 1665 0
-71 -1640 1641 0
-1641 1666 0
-72 -1641 1642 0
-1642 1667 0
-73 -1642 1643 0
-1643 1668 0
-74 -1643 1644 0
-1644 1669 0
-75 -1644 1645 0
-1645 1670 0
-76 -1645 1646 0
-1646 1671 0
-77 -1646 1647 0
-1647 1672 0
-78 -1647 1648 0
-1648 1673 0
-79 -1648 1649 0
-1649 1674 0
-80 -1649 1650 0
-1650 1675 0
-81 -1650 1651 0
-1651 1676 0
-82 -1651 1652 0
-1652 1677 0
-83 -1652 1653 0
-1653 1678 0
-84 -1653 1654 0
-1654 1679 0
-85 -1654 1655 0
-1655 1680 0
-86 -1655 1656 0
-1656 1681 0
-87 -1656 1657 0
-1657 1682 0
-88 -1657 1658 0
-1658 1683 0
-89 -1658 1659 0
-1659 1684 0
-90 -1659 1660 0
-1660 1685 0
-91 -1660 1661 0
-1661 1686 0
-92 -1661 1662 0
-1662 1687 0
-93 -1662 1663 0
-1663 1688 0
-94 -1663 0
-70 1664 0
-1664 1689 0
-71 -1664 1665 0
-1665 1690 0
-72 -1665 1666 0
-1666 1691 0
-73 -1666 1667 0
-1667 1692 0
-74 -1667 1668 0
-1668 1693 0
-75 -1668 1669 0
-1669 1694 0
-76 -1669 1670 0
-1670 1695 0
-77 -1670 1671 0
-1671 1696 0
-78 -1671 1672 0
-1672 1697 0
-79 -1672 1673 0
-1673 1698 0
-80 -1673 1674 0
-1674 1699 0
-81 -1674 1675 0
-1675 1700 0
-82 -1675 1676 0
-1676 1701 0
-83 -1676 1677 0
-1677 1702 0
-84 -1677 1678 0
-1678 1703 0
-85 -1678 1679 0
-1679 1704 0
-86 -1679 1680 0
-1680 1705 0
-87 -1680 1681 0
-1681 1706 0
-88 -1681 1682 0
-1682 1707 0
-89 -1682 1683 0
-1683 1708 0
-90 -1683 1684 0
-1684 1709 0
-91 -1684 1685 0
-1685 1710 0
-92 -1685 1686 0
-1686 1711 0
-93 -1686 1687 0
-1687 1712 0
-94 -1687 1688 0
-1688 1713 0
-95 -1688 0
-71 1689 0
-1689 1714 0
-72 -1689 1690 0
-1690 1715 0
-73 -1690 1691 0
-1691 1716 0
-74 -1691 1692 0
-1692 1717 0
-75 -1692 1693 0
-1693 1718 0
-76 -1693 1694 0
-1694 1719 0
-77 -1694 1695 0
-1695 1720 0
-78 -1695 1696 0
-1696 1721 0
-79 -1696 1697 0
-1697 1722 0
-80 -1697 1698 0
-1698 1723 0
-81 -1698 1699 0
-1699 1724 0
-82 -1699 1700 0
-1700 1725 0
-83 -1700 1701 0
-1701 1726 0
-84 -1701 1702 0
-1702 1727 0
-85 -1702 1703 0
-1703 1728 0
-86 -1703 1704 0
-1704 1729 0
-87 -1704 1705 0
-1705 1730 0
-88 -1705 1706 0
-1706 1731 0
-89 -1706 1707 0
-1707 1732 0
-90 -1707 1708 0
-1708 1733 0
-91 -1708 1709 0
-1709 1734 0
-92 -1709 1710 0
-1710 1735 0
-93 -1710 1711 0
-1711 1736 0
-94 -1711 1712 0
-1712 1737 0
-95 -1712 1713 0
-1713 1738 0
-96 -1713 0
-72 1714 0
-1714 1739 0
-73 -1714 1715 0
-1715 1740 0
-74 -1715 1716 0
-1716 1741 0
-75 -1716 1717 0
-1717 1742 0
-76 -1717 1718 0
-1718 1743 0
-77 -1718 1719 0
-1719 1744 0
-78 -1719 1720 0
-1720 1745 0
-79 -1720 1721 0
-1721 1746 0
-80 -1721 1722 0
-1722 1747 0
-81 -1722 1723 0
-1723 1748 0
-82 -1723 1724 0
-1724 1749 0
-83 -1724 1725 0
-1725 1750 0
-84 -1725 1726 0
-1726 1751 0
-85 -1726 1727 0
-1727 1752 0
-86 -1727 1728 0
-1728 1753 0
-87 -1728 1729 0
-1729 1754 0
-88 -1729 1730 0
-1730 1755 0
-89 -1730 1731 0
-1731 1756 0
-90 -1731 1732 0
-1732 1757 0
-91 -1732 1733 0
-1733 1758 0
-92 -1733 1734 0
-1734 1759 0
-93 -1734 1735 0
-1735 1760 0
-94 -1735 1736 0
-1736 1761 0
-95 -1736 1737 0
-1737 1762 0
-96 -1737 1738 0
-1738 1763 0
-97 -1738 0
-73 1739 0
-1739 1764 0
-74 -1739 1740 0
-1740 1765 0
-75 -1740 1741 0
-1741 1766 0
-76 -1741 1742 0
-1742 1767 0
-77 -1742 1743 0
-1743 1768 0
-78 -1743 1744 0
-1744 1769 0
-79 -1744 1745 0
-1745 1770 0
-80 -1745 1746 0
-1746 1771 0
-81 -1746 1747 0
-1747 1772 0
-82 -1747 1748 0
-1748 1773 0
-83 -1748 1749 0
-1749 1774 0
-84 -1749 1750 0
-1750 1775 0
-85 -1750 1751 0
-1751 1776 0
-86 -1751 1752 0
-1752 1777 0
-87 -1752 1753 0
-1753 1778 0
-88 -1753 1754 0
-1754 1779 0
-89 -1754 1755 0
-1755 1780 0
-90 -1755 1756 0
-1756 1781 0
-91 -1756 1757 0
-1757 1782 0
-92 -1757 1758 0
-1758 1783 0
-93 -1758 1759 0
-1759 1784 0
-94 -1759 1760 0
-1760 1785 0
-95 -1760 1761 0
-1761 1786 0
-96 -1761 1762 0
-1762 1787 0
-97 -1762 1763 0
-1763 1788 0
-98 -1763 0
-74 1764 0
-1764 1789 0
-75 -1764 1765 0
-1765 1790 0
-76 -1765 1766 0
-1766 1791 0
-77 -1766 1767 0
-1767 1792 0
-78 -1767 1768 0
-1768 1793 0
-79 -1768 1769 0
-1769 1794 0
-80 -1769 1770 0
-1770 1795 0
-81 -1770 1771 0
-1771 1796 0
-82 -1771 1772 0
-1772 1797 0
-83 -1772 1773 0
-1773 1798 0
-84 -1773 1774 0
-1774 1799 0
-85 -1774 1775 0
-1775 1800 0
-86 -1775 1776 0
-1776 1801 0
-87 -1776 1777 0
-1777 1802 0
-88 -1777 1778 0
-1778 1803 0
-89 -1778 1779 0
-1779 1804 0
-90 -1779 1780 0
-1780 1805 0
-91 -1780 1781 0
-1781 1806 0
-92 -1781 1782 0
-1782 1807 0
-93 -1782 1783 0
-1783 1808 0
-94 -1783 1784 0
-1784 1809 0
-95 -1784 1785 0
-1785 1810 0
-96 -1785 1786 0
-1786 1811 0
-97 -1786 1787 0
-1787 1812 0
-98 -1787 1788 0
-1788 1813 0
-99 -1788 0
-75 1789 0
-76 -1789 1790 0
-77 -1790 1791 0
-78 -1791 1792 0
-79 -1792 1793 0
-80 -1793 1794 0
-81 -1794 1795 0
-82 -1795 1796 0
-83 -1796 1797 0
-84 -1797 1798 0
-85 -1798 1799 0
-86 -1799 1800 0
-87 -1800 1801 0
-88 -1801 1802 0
-89 -1802 1803 0
-90 -1803 1804 0
-91 -1804 1805 0
-92 -1805 1806 0
-93 -1806 1807 0
-94 -1807 1808 0
-95 -1808 1809 0
-96 -1809 1810 0
-97 -1810 1811 0
-98 -1811 1812 0
-99 -1812 1813 0
-100 -1813 0
1 26 0
