p cnf 3277 6717
-91 -1 0
-91 2 45 46 0
-2 1 91 0
-45 1 91 0
-46 1 91 0
-92 -2 0
-92 1 3 47 0
-1 2 92 0
-3 2 92 0
-47 2 92 0
-93 -3 0
-93 2 4 48 0
-2 3 93 0
-4 3 93 0
-48 3 93 0
-94 -4 0
-94 3 5 49 0
-3 4 94 0
-5 4 94 0
-49 4 94 0
-95 -5 0
-95 4 6 50 0
-4 5 95 0
-6 5 95 0
-50 5 95 0
-96 -6 0
-96 5 7 51 0
-5 6 96 0
-7 6 96 0
-51 6 96 0
-97 -7 0
-97 6 8 52 0
-6 7 97 0
-8 7 97 0
-52 7 97 0
-98 -8 0
-98 7 9 53 0
-7 8 98 0
-9 8 98 0
-53 8 98 0
-99 -9 0
-99 8 10 54 0
-8 9 99 0
-10 9 99 0
-54 9 99 0
-100 -10 0
-100 9 11 55 0
-9 10 100 0
-11 10 100 0
-55 10 100 0
-101 -11 0
-101 10 12 56 0
-10 11 101 0
-12 11 101 0
-56 11 101 0
-102 -12 0
-102 11 13 57 0
-11 12 102 0
-13 12 102 0
-57 12 102 0
-103 -13 0
-103 12 14 58 0
-12 13 103 0
-14 13 103 0
-58 13 103 0
-104 -14 0
-104 13 15 59 0
-13 14 104 0
-15 14 104 0
-59 14 104 0
-105 -15 0
-105 14 16 60 0
-14 15 105 0
-16 15 105 0
-60 15 105 0
-106 -16 0
-106 15 17 61 0
-15 16 106 0
-17 16 106 0
-61 16 106 0
-107 -17 0
-107 16 18 62 0
-16 17 107 0
-18 17 107 0
-62 17 107 0
-108 -18 0
-108 17 19 63 0
-17 18 108 0
-19 18 108 0
-63 18 108 0
-109 -19 0
-109 18 20 64 0
-18 19 109 0
-20 19 109 0
-64 19 109 0
-110 -20 0
-110 19 21 65 0
-19 20 110 0
-21 20 110 0
-65 20 110 0
-111 -21 0
-111 20 22 66 0
-20 21 111 0
-22 21 111 0
-66 21 111 0
-112 -22 0
-112 21 23 67 0
-21 22 112 0
-23 22 112 0
-67 22 112 0
-113 -23 0
-113 22 24 68 0
-22 23 113 0
-24 23 113 0
-68 23 113 0
-114 -24 0
-114 23 25 69 0
-23 24 114 0
-25 24 114 0
-69 24 114 0
-115 -25 0
-115 24 26 70 0
-24 25 115 0
-26 25 115 0
-70 25 115 0
-116 -26 0
-116 25 27 71 0
-25 26 116 0
-27 26 116 0
-71 26 116 0
-117 -27 0
-117 26 28 72 0
-26 27 117 0
-28 27 117 0
-72 27 117 0
-118 -28 0
-118 27 29 73 0
-27 28 118 0
-29 28 118 0
-73 28 118 0
-119 -29 0
-119 28 30 74 0
-28 29 119 0
-30 29 119 0
-74 29 119 0
-120 -30 0
-120 29 31 75 0
-29 30 120 0
-31 30 120 0
-75 30 120 0
-121 -31 0
-121 30 32 76 0
-30 31 121 0
-32 31 121 0
-76 31 121 0
-122 -32 0
-122 31 33 77 0
-31 32 122 0
-33 32 122 0
-77 32 122 0
-123 -33 0
-123 32 34 78 0
-32 33 123 0
-34 33 123 0
-78 33 123 0
-124 -34 0
-124 33 35 79 0
-33 34 124 0
-35 34 124 0
-79 34 124 0
-125 -35 0
-125 34 36 80 0
-34 35 125 0
-36 35 125 0
-80 35 125 0
-126 -36 0
-126 35 37 81 0
-35 36 126 0
-37 36 126 0
-81 36 126 0
-127 -37 0
-127 36 38 82 0
-36 37 127 0
-38 37 127 0
-82 37 127 0
-128 -38 0
-128 37 39 83 0
-37 38 128 0
-39 38 128 0
-83 38 128 0
-129 -39 0
-129 38 40 84 0
-38 39 129 0
-40 39 129 0
-84 39 129 0
-130 -40 0
-130 39 41 85 0
-39 40 130 0
-41 40 130 0
-85 40 130 0
-131 -41 0
-131 40 42 86 0
-40 41 131 0
-42 41 131 0
-86 41 131 0
-132 -42 0
-132 41 43 87 0
-41 42 132 0
-43 42 132 0
-87 42 132 0
-133 -43 0
-133 42 44 88 0
-42 43 133 0
-44 43 133 0
-88 43 133 0
-134 -44 0
-134 43 45 89 0
-43 44 134 0
-45 44 134 0
-89 44 134 0
-135 -45 0
-135 1 44 90 0
-1 45 135 0
-44 45 135 0
-90 45 135 0
-136 -46 0
-136 1 50 87 0
-1 46 136 0
-50 46 136 0
-87 46 136 0
-137 -47 0
-137 2 51 88 0
-2 47 137 0
-51 47 137 0
-88 47 137 0
-138 -48 0
-138 3 52 89 0
-3 48 138 0
-52 48 138 0
-89 48 138 0
-139 -49 0
-139 4 53 90 0
-4 49 139 0
-53 49 139 0
-90 49 139 0
-140 -50 0
-140 5 46 54 0
-5 50 140 0
-46 50 140 0
-54 50 140 0
-141 -51 0
-141 6 47 55 0
-6 51 141 0
-47 51 141 0
-55 51 141 0
-142 -52 0
-142 7 48 56 0
-7 52 142 0
-48 52 142 0
-56 52 142 0
-143 -53 0
-143 8 49 57 0
-8 53 143 0
-49 53 143 0
-57 53 143 0
-144 -54 0
-144 9 50 58 0
-9 54 144 0
-50 54 144 0
-58 54 144 0
-145 -55 0
-145 10 51 59 0
-10 55 145 0
-51 55 145 0
-59 55 145 0
-146 -56 0
-146 11 52 60 0
-11 56 146 0
-52 56 146 0
-60 56 146 0
-147 -57 0
-147 12 53 61 0
-12 57 147 0
-53 57 147 0
-61 57 147 0
-148 -58 0
-148 13 54 62 0
-13 58 148 0
-54 58 148 0
-62 58 148 0
-149 -59 0
-149 14 55 63 0
-14 59 149 0
-55 59 149 0
-63 59 149 0
-150 -60 0
-150 15 56 64 0
-15 60 150 0
-56 60 150 0
-64 60 150 0
-151 -61 0
-151 16 57 65 0
-16 61 151 0
-57 61 151 0
-65 61 151 0
-152 -62 0
-152 17 58 66 0
-17 62 152 0
-58 62 152 0
-66 62 152 0
-153 -63 0
-153 18 59 67 0
-18 63 153 0
-59 63 153 0
-67 63 153 0
-154 -64 0
-154 19 60 68 0
-19 64 154 0
-60 64 154 0
-68 64 154 0
-155 -65 0
-155 20 61 69 0
-20 65 155 0
-61 65 155 0
-69 65 155 0
-156 -66 0
-156 21 62 70 0
-21 66 156 0
-62 66 156 0
-70 66 156 0
-157 -67 0
-157 22 63 71 0
-22 67 157 0
-63 67 157 0
-71 67 157 0
-158 -68 0
-158 23 64 72 0
-23 68 158 0
-64 68 158 0
-72 68 158 0
-159 -69 0
-159 24 65 73 0
-24 69 159 0
-65 69 159 0
-73 69 159 0
-160 -70 0
-160 25 66 74 0
-25 70 160 0
-66 70 160 0
-74 70 160 0
-161 -71 0
-161 26 67 75 0
-26 71 161 0
-67 71 161 0
-75 71 161 0
-162 -72 0
-162 27 68 76 0
-27 72 162 0
-68 72 162 0
-76 72 162 0
-163 -73 0
-163 28 69 77 0
-28 73 163 0
-69 73 163 0
-77 73 163 0
-164 -74 0
-164 29 70 78 0
-29 74 164 0
-70 74 164 0
-78 74 164 0
-165 -75 0
-165 30 71 79 0
-30 75 165 0
-71 75 165 0
-79 75 165 0
-166 -76 0
-166 31 72 80 0
-31 76 166 0
-72 76 166 0
-80 76 166 0
-167 -77 0
-167 32 73 81 0
-32 77 167 0
-73 77 167 0
-81 77 167 0
-168 -78 0
-168 33 74 82 0
-33 78 168 0
-74 78 168 0
-82 78 168 0
-169 -79 0
-169 34 75 83 0
-34 79 169 0
-75 79 169 0
-83 79 169 0
-170 -80 0
-170 35 76 84 0
-35 80 170 0
-76 80 170 0
-84 80 170 0
-171 -81 0
-171 36 77 85 0
-36 81 171 0
-77 81 171 0
-85 81 171 0
-172 -82 0
-172 37 78 86 0
-37 82 172 0
-78 82 172 0
-86 82 172 0
-173 -83 0
-173 38 79 87 0
-38 83 173 0
-79 83 173 0
-87 83 173 0
-174 -84 0
-174 39 80 88 0
-39 84 174 0
-80 84 174 0
-88 84 174 0
-175 -85 0
-175 40 81 89 0
-40 85 175 0
-81 85 175 0
-89 85 175 0
-176 -86 0
-176 41 82 90 0
-41 86 176 0
-82 86 176 0
-90 86 176 0
-177 -87 0
-177 42 46 83 0
-42 87 177 0
-46 87 177 0
-83 87 177 0
-178 -88 0
-178 43 47 84 0
-43 88 178 0
-47 88 178 0
-84 88 178 0
-179 -89 0
-179 44 48 85 0
-44 89 179 0
-48 89 179 0
-85 89 179 0
-180 -90 0
-180 45 49 86 0
-45 90 180 0
-49 90 180 0
-86 90 180 0
1 181 0
-181 182 0
2 -181 183 0
-183 184 0
3 -183 185 0
-185 186 0
4 -185 187 0
-187 188 0
5 -187 189 0
-189 190 0
6 -189 191 0
-191 192 0
7 -191 193 0
-193 194 0
8 -193 195 0
-195 196 0
9 -195 197 0
-197 198 0
10 -197 199 0
-199 200 0
11 -199 201 0
-201 202 0
12 -201 203 0
-203 204 0
13 -203 205 0
-205 206 0
14 -205 207 0
-207 208 0
15 -207 209 0
-209 210 0
16 -209 211 0
-211 212 0
17 -211 213 0
-213 214 0
18 -213 215 0
-215 216 0
19 -215 217 0
-217 218 0
20 -217 219 0
-219 220 0
21 -219 221 0
-221 222 0
22 -221 223 0
-223 224 0
23 -223 225 0
-225 226 0
24 -225 227 0
-227 228 0
25 -227 229 0
-229 230 0
26 -229 231 0
-231 232 0
27 -231 233 0
-233 234 0
28 -233 235 0
-235 236 0
29 -235 237 0
-237 238 0
30 -237 239 0
-239 240 0
31 -239 241 0
-241 242 0
32 -241 243 0
-243 244 0
33 -243 245 0
-245 246 0
34 -245 247 0
-247 248 0
35 -247 249 0
-249 250 0
36 -249 251 0
-251 252 0
37 -251 253 0
-253 254 0
38 -253 255 0
-255 256 0
39 -255 257 0
-257 258 0
40 -257 259 0
-259 260 0
41 -259 261 0
-261 262 0
42 -261 263 0
-263 264 0
43 -263 265 0
-265 266 0
44 -265 267 0
-267 268 0
45 -267 269 0
-269 270 0
46 -269 271 0
-271 272 0
47 -271 273 0
-273 274 0
48 -273 275 0
-275 276 0
49 -275 277 0
-277 278 0
50 -277 279 0
-279 280 0
51 -279 281 0
-281 282 0
52 -281 283 0
-283 284 0
53 -283 285 0
-285 286 0
54 -285 287 0
-287 288 0
55 -287 289 0
-289 290 0
56 -289 291 0
-291 292 0
57 -291 293 0
-293 294 0
58 -293 295 0
-295 296 0
59 -295 297 0
-297 298 0
60 -297 299 0
-299 300 0
61 -299 301 0
-301 302 0
62 -301 303 0
-303 304 0
63 -303 305 0
-305 306 0
64 -305 307 0
-307 308 0
65 -307 309 0
-309 310 0
66 -309 311 0
-311 312 0
67 -311 313 0
-313 314 0
68 -313 315 0
-315 316 0
69 -315 317 0
-317 318 0
70 -317 319 0
-319 320 0
71 -319 321 0
-321 322 0
72 -321 323 0
-323 324 0
73 -323 325 0
-325 326 0
74 -325 327 0
-327 328 0
75 -327 0
2 182 0
-182 329 0
3 -182 184 0
-184 330 0
4 -184 186 0
-186 331 0
5 -186 188 0
-188 332 0
6 -188 190 0
-190 333 0
7 -190 192 0
-192 334 0
8 -192 194 0
-194 335 0
9 -194 196 0
-196 336 0
10 -196 198 0
-198 337 0
11 -198 200 0
-200 338 0
12 -200 202 0
-202 339 0
13 -202 204 0
-204 340 0
14 -204 206 0
-206 341 0
15 -206 208 0
-208 342 0
16 -208 210 0
-210 343 0
17 -210 212 0
-212 344 0
18 -212 214 0
-214 345 0
19 -214 216 0
-216 346 0
20 -216 218 0
-218 347 0
21 -218 220 0
-220 348 0
22 -220 222 0
-222 349 0
23 -222 224 0
-224 350 0
24 -224 226 0
-226 351 0
25 -226 228 0
-228 352 0
26 -228 230 0
-230 353 0
27 -230 232 0
-232 354 0
28 -232 234 0
-234 355 0
29 -234 236 0
-236 356 0
30 -236 238 0
-238 357 0
31 -238 240 0
-240 358 0
32 -240 242 0
-242 359 0
33 -242 244 0
-244 360 0
34 -244 246 0
-246 361 0
35 -246 248 0
-248 362 0
36 -248 250 0
-250 363 0
37 -250 252 0
-252 364 0
38 -252 254 0
-254 365 0
39 -254 256 0
-256 366 0
40 -256 258 0
-258 367 0
41 -258 260 0
-260 368 0
42 -260 262 0
-262 369 0
43 -262 264 0
-264 370 0
44 -264 266 0
-266 371 0
45 -266 268 0
-268 372 0
46 -268 270 0
-270 373 0
47 -270 272 0
-272 374 0
48 -272 274 0
-274 375 0
49 -274 276 0
-276 376 0
50 -276 278 0
-278 377 0
51 -278 280 0
-280 378 0
52 -280 282 0
-282 379 0
53 -282 284 0
-284 380 0
54 -284 286 0
-286 381 0
55 -286 288 0
-288 382 0
56 -288 290 0
-290 383 0
57 -290 292 0
-292 384 0
58 -292 294 0
-294 385 0
59 -294 296 0
-296 386 0
60 -296 298 0
-298 387 0
61 -298 300 0
-300 388 0
62 -300 302 0
-302 389 0
63 -302 304 0
-304 390 0
64 -304 306 0
-306 391 0
65 -306 308 0
-308 392 0
66 -308 310 0
-310 393 0
67 -310 312 0
-312 394 0
68 -312 314 0
-314 395 0
69 -314 316 0
-316 396 0
70 -316 318 0
-318 397 0
71 -318 320 0
-320 398 0
72 -320 322 0
-322 399 0
73 -322 324 0
-324 400 0
74 -324 326 0
-326 401 0
75 -326 328 0
-328 402 0
76 -328 0
3 329 0
-329 403 0
4 -329 330 0
-330 404 0
5 -330 331 0
-331 405 0
6 -331 332 0
-332 406 0
7 -332 333 0
-333 407 0
8 -333 334 0
-334 408 0
9 -334 335 0
-335 409 0
10 -335 336 0
-336 410 0
11 -336 337 0
-337 411 0
12 -337 338 0
-338 412 0
13 -338 339 0
-339 413 0
14 -339 340 0
-340 414 0
15 -340 341 0
-341 415 0
16 -341 342 0
-342 416 0
17 -342 343 0
-343 417 0
18 -343 344 0
-344 418 0
19 -344 345 0
-345 419 0
20 -345 346 0
-346 420 0
21 -346 347 0
-347 421 0
22 -347 348 0
-348 422 0
23 -348 349 0
-349 423 0
24 -349 350 0
-350 424 0
25 -350 351 0
-351 425 0
26 -351 352 0
-352 426 0
27 -352 353 0
-353 427 0
28 -353 354 0
-354 428 0
29 -354 355 0
-355 429 0
30 -355 356 0
-356 430 0
31 -356 357 0
-357 431 0
32 -357 358 0
-358 432 0
33 -358 359 0
-359 433 0
34 -359 360 0
-360 434 0
35 -360 361 0
-361 435 0
36 -361 362 0
-362 436 0
37 -362 363 0
-363 437 0
38 -363 364 0
-364 438 0
39 -364 365 0
-365 439 0
40 -365 366 0
-366 440 0
41 -366 367 0
-367 441 0
42 -367 368 0
-368 442 0
43 -368 369 0
-369 443 0
44 -369 370 0
-370 444 0
45 -370 371 0
-371 445 0
46 -371 372 0
-372 446 0
47 -372 373 0
-373 447 0
48 -373 374 0
-374 448 0
49 -374 375 0
-375 449 0
50 -375 376 0
-376 450 0
51 -376 377 0
-377 451 0
52 -377 378 0
-378 452 0
53 -378 379 0
-379 453 0
54 -379 380 0
-380 454 0
55 -380 381 0
-381 455 0
56 -381 382 0
-382 456 0
57 -382 383 0
-383 457 0
58 -383 384 0
-384 458 0
59 -384 385 0
-385 459 0
60 -385 386 0
-386 460 0
61 -386 387 0
-387 461 0
62 -387 388 0
-388 462 0
63 -388 389 0
-389 463 0
64 -389 390 0
-390 464 0
65 -390 391 0
-391 465 0
66 -391 392 0
-392 466 0
67 -392 393 0
-393 467 0
68 -393 394 0
-394 468 0
69 -394 395 0
-395 469 0
70 -395 396 0
-396 470 0
71 -396 397 0
-397 471 0
72 -397 398 0
-398 472 0
73 -398 399 0
-399 473 0
74 -399 400 0
-400 474 0
75 -400 401 0
-401 475 0
76 -401 402 0
-402 476 0
77 -402 0
4 403 0
-403 477 0
5 -403 404 0
-404 478 0
6 -404 405 0
-405 479 0
7 -405 406 0
-406 480 0
8 -406 407 0
-407 481 0
9 -407 408 0
-408 482 0
10 -408 409 0
-409 483 0
11 -409 410 0
-410 484 0
12 -410 411 0
-411 485 0
13 -411 412 0
-412 486 0
14 -412 413 0
-413 487 0
15 -413 414 0
-414 488 0
16 -414 415 0
-415 489 0
17 -415 416 0
-416 490 0
18 -416 417 0
-417 491 0
19 -417 418 0
-418 492 0
20 -418 419 0
-419 493 0
21 -419 420 0
-420 494 0
22 -420 421 0
-421 495 0
23 -421 422 0
-422 496 0
24 -422 423 0
-423 497 0
25 -423 424 0
-424 498 0
26 -424 425 0
-425 499 0
27 -425 426 0
-426 500 0
28 -426 427 0
-427 501 0
29 -427 428 0
-428 502 0
30 -428 429 0
-429 503 0
31 -429 430 0
-430 504 0
32 -430 431 0
-431 505 0
33 -431 432 0
-432 506 0
34 -432 433 0
-433 507 0
35 -433 434 0
-434 508 0
36 -434 435 0
-435 509 0
37 -435 436 0
-436 510 0
38 -436 437 0
-437 511 0
39 -437 438 0
-438 512 0
40 -438 439 0
-439 513 0
41 -439 440 0
-440 514 0
42 -440 441 0
-441 515 0
43 -441 442 0
-442 516 0
44 -442 443 0
-443 517 0
45 -443 444 0
-444 518 0
46 -444 445 0
-445 519 0
47 -445 446 0
-446 520 0
48 -446 447 0
-447 521 0
49 -447 448 0
-448 522 0
50 -448 449 0
-449 523 0
51 -449 450 0
-450 524 0
52 -450 451 0
-451 525 0
53 -451 452 0
-452 526 0
54 -452 453 0
-453 527 0
55 -453 454 0
-454 528 0
56 -454 455 0
-455 529 0
57 -455 456 0
-456 530 0
58 -456 457 0
-457 531 0
59 -457 458 0
-458 532 0
60 -458 459 0
-459 533 0
61 -459 460 0
-460 534 0
62 -460 461 0
-461 535 0
63 -461 462 0
-462 536 0
64 -462 463 0
-463 537 0
65 -463 464 0
-464 538 0
66 -464 465 0
-465 539 0
67 -465 466 0
-466 540 0
68 -466 467 0
-467 541 0
69 -467 468 0
-468 542 0
70 -468 469 0
-469 543 0
71 -469 470 0
-470 544 0
72 -470 471 0
-471 545 0
73 -471 472 0
-472 546 0
74 -472 473 0
-473 547 0
75 -473 474 0
-474 548 0
76 -474 475 0
-475 549 0
77 -475 476 0
-476 550 0
78 -476 0
5 477 0
-477 551 0
6 -477 478 0
-478 552 0
7 -478 479 0
-479 553 0
8 -479 480 0
-480 554 0
9 -480 481 0
-481 555 0
10 -481 482 0
-482 556 0
11 -482 483 0
-483 557 0
12 -483 484 0
-484 558 0
13 -484 485 0
-485 559 0
14 -485 486 0
-486 560 0
15 -486 487 0
-487 561 0
16 -487 488 0
-488 562 0
17 -488 489 0
-489 563 0
18 -489 490 0
-490 564 0
19 -490 491 0
-491 565 0
20 -491 492 0
-492 566 0
21 -492 493 0
-493 567 0
22 -493 494 0
-494 568 0
23 -494 495 0
-495 569 0
24 -495 496 0
-496 570 0
25 -496 497 0
-497 571 0
26 -497 498 0
-498 572 0
27 -498 499 0
-499 573 0
28 -499 500 0
-500 574 0
29 -500 501 0
-501 575 0
30 -501 502 0
-502 576 0
31 -502 503 0
-503 577 0
32 -503 504 0
-504 578 0
33 -504 505 0
-505 579 0
34 -505 506 0
-506 580 0
35 -506 507 0
-507 581 0
36 -507 508 0
-508 582 0
37 -508 509 0
-509 583 0
38 -509 510 0
-510 584 0
39 -510 511 0
-511 585 0
40 -511 512 0
-512 586 0
41 -512 513 0
-513 587 0
42 -513 514 0
-514 588 0
43 -514 515 0
-515 589 0
44 -515 516 0
-516 590 0
45 -516 517 0
-517 591 0
46 -517 518 0
-518 592 0
47 -518 519 0
-519 593 0
48 -519 520 0
-520 594 0
49 -520 521 0
-521 595 0
50 -521 522 0
-522 596 0
51 -522 523 0
-523 597 0
52 -523 524 0
-524 598 0
53 -524 525 0
-525 599 0
54 -525 526 0
-526 600 0
55 -526 527 0
-527 601 0
56 -527 528 0
-528 602 0
57 -528 529 0
-529 603 0
58 -529 530 0
-530 604 0
59 -530 531 0
-531 605 0
60 -531 532 0
-532 606 0
61 -532 533 0
-533 607 0
62 -533 534 0
-534 608 0
63 -534 535 0
-535 609 0
64 -535 536 0
-536 610 0
65 -536 537 0
-537 611 0
66 -537 538 0
-538 612 0
67 -538 539 0
-539 613 0
68 -539 540 0
-540 614 0
69 -540 541 0
-541 615 0
70 -541 542 0
-542 616 0
71 -542 543 0
-543 617 0
72 -543 544 0
-544 618 0
73 -544 545 0
-545 619 0
74 -545 546 0
-546 620 0
75 -546 547 0
-547 621 0
76 -547 548 0
-548 622 0
77 -548 549 0
-549 623 0
78 -549 550 0
-550 624 0
79 -550 0
6 551 0
-551 625 0
7 -551 552 0
-552 626 0
8 -552 553 0
-553 627 0
9 -553 554 0
-554 628 0
10 -554 555 0
-555 629 0
11 -555 556 0
-556 630 0
12 -556 557 0
-557 631 0
13 -557 558 0
-558 632 0
14 -558 559 0
-559 633 0
15 -559 560 0
-560 634 0
16 -560 561 0
-561 635 0
17 -561 562 0
-562 636 0
18 -562 563 0
-563 637 0
19 -563 564 0
-564 638 0
20 -564 565 0
-565 639 0
21 -565 566 0
-566 640 0
22 -566 567 0
-567 641 0
23 -567 568 0
-568 642 0
24 -568 569 0
-569 643 0
25 -569 570 0
-570 644 0
26 -570 571 0
-571 645 0
27 -571 572 0
-572 646 0
28 -572 573 0
-573 647 0
29 -573 574 0
-574 648 0
30 -574 575 0
-575 649 0
31 -575 576 0
-576 650 0
32 -576 577 0
-577 651 0
33 -577 578 0
-578 652 0
34 -578 579 0
-579 653 0
35 -579 580 0
-580 654 0
36 -580 581 0
-581 655 0
37 -581 582 0
-582 656 0
38 -582 583 0
-583 657 0
39 -583 584 0
-584 658 0
40 -584 585 0
-585 659 0
41 -585 586 0
-586 660 0
42 -586 587 0
-587 661 0
43 -587 588 0
-588 662 0
44 -588 589 0
-589 663 0
45 -589 590 0
-590 664 0
46 -590 591 0
-591 665 0
47 -591 592 0
-592 666 0
48 -592 593 0
-593 667 0
49 -593 594 0
-594 668 0
50 -594 595 0
-595 669 0
51 -595 596 0
-596 670 0
52 -596 597 0
-597 671 0
53 -597 598 0
-598 672 0
54 -598 599 0
-599 673 0
55 -599 600 0
-600 674 0
56 -600 601 0
-601 675 0
57 -601 602 0
-602 676 0
58 -602 603 0
-603 677 0
59 -603 604 0
-604 678 0
60 -604 605 0
-605 679 0
61 -605 606 0
-606 680 0
62 -606 607 0
-607 681 0
63 -607 608 0
-608 682 0
64 -608 609 0
-609 683 0
65 -609 610 0
-610 684 0
66 -610 611 0
-611 685 0
67 -611 612 0
-612 686 0
68 -612 613 0
-613 687 0
69 -613 614 0
-614 688 0
70 -614 615 0
-615 689 0
71 -615 616 0
-616 690 0
72 -616 617 0
-617 691 0
73 -617 618 0
-618 692 0
74 -618 619 0
-619 693 0
75 -619 620 0
-620 694 0
76 -620 621 0
-621 695 0
77 -621 622 0
-622 696 0
78 -622 623 0
-623 697 0
79 -623 624 0
-624 698 0
80 -624 0
7 625 0
-625 699 0
8 -625 626 0
-626 700 0
9 -626 627 0
-627 701 0
10 -627 628 0
-628 702 0
11 -628 629 0
-629 703 0
12 -629 630 0
-630 704 0
13 -630 631 0
-631 705 0
14 -631 632 0
-632 706 0
15 -632 633 0
-633 707 0
16 -633 634 0
-634 708 0
17 -634 635 0
-635 709 0
18 -635 636 0
-636 710 0
19 -636 637 0
-637 711 0
20 -637 638 0
-638 712 0
21 -638 639 0
-639 713 0
22 -639 640 0
-640 714 0
23 -640 641 0
-641 715 0
24 -641 642 0
-642 716 0
25 -642 643 0
-643 717 0
26 -643 644 0
-644 718 0
27 -644 645 0
-645 719 0
28 -645 646 0
-646 720 0
29 -646 647 0
-647 721 0
30 -647 648 0
-648 722 0
31 -648 649 0
-649 723 0
32 -649 650 0
-650 724 0
33 -650 651 0
-651 725 0
34 -651 652 0
-652 726 0
35 -652 653 0
-653 727 0
36 -653 654 0
-654 728 0
37 -654 655 0
-655 729 0
38 -655 656 0
-656 730 0
39 -656 657 0
-657 731 0
40 -657 658 0
-658 732 0
41 -658 659 0
-659 733 0
42 -659 660 0
-660 734 0
43 -660 661 0
-661 735 0
44 -661 662 0
-662 736 0
45 -662 663 0
-663 737 0
46 -663 664 0
-664 738 0
47 -664 665 0
-665 739 0
48 -665 666 0
-666 740 0
49 -666 667 0
-667 741 0
50 -667 668 0
-668 742 0
51 -668 669 0
-669 743 0
52 -669 670 0
-670 744 0
53 -670 671 0
-671 745 0
54 -671 672 0
-672 746 0
55 -672 673 0
-673 747 0
56 -673 674 0
-674 748 0
57 -674 675 0
-675 749 0
58 -675 676 0
-676 750 0
59 -676 677 0
-677 751 0
60 -677 678 0
-678 752 0
61 -678 679 0
-679 753 0
62 -679 680 0
-680 754 0
63 -680 681 0
-681 755 0
64 -681 682 0
-682 756 0
65 -682 683 0
-683 757 0
66 -683 684 0
-684 758 0
67 -684 685 0
-685 759 0
68 -685 686 0
-686 760 0
69 -686 687 0
-687 761 0
70 -687 688 0
-688 762 0
71 -688 689 0
-689 763 0
72 -689 690 0
-690 764 0
73 -690 691 0
-691 765 0
74 -691 692 0
-692 766 0
75 -692 693 0
-693 767 0
76 -693 694 0
-694 768 0
77 -694 695 0
-695 769 0
78 -695 696 0
-696 770 0
79 -696 697 0
-697 771 0
80 -697 698 0
-698 772 0
81 -698 0
8 699 0
-699 773 0
9 -699 700 0
-700 774 0
10 -700 701 0
-701 775 0
11 -701 702 0
-702 776 0
12 -702 703 0
-703 777 0
13 -703 704 0
-704 778 0
14 -704 705 0
-705 779 0
15 -705 706 0
-706 780 0
16 -706 707 0
-707 781 0
17 -707 708 0
-708 782 0
18 -708 709 0
-709 783 0
19 -709 710 0
-710 784 0
20 -710 711 0
-711 785 0
21 -711 712 0
-712 786 0
22 -712 713 0
-713 787 0
23 -713 714 0
-714 788 0
24 -714 715 0
-715 789 0
25 -715 716 0
-716 790 0
26 -716 717 0
-717 791 0
27 -717 718 0
-718 792 0
28 -718 719 0
-719 793 0
29 -719 720 0
-720 794 0
30 -720 721 0
-721 795 0
31 -721 722 0
-722 796 0
32 -722 723 0
-723 797 0
33 -723 724 0
-724 798 0
34 -724 725 0
-725 799 0
35 -725 726 0
-726 800 0
36 -726 727 0
-727 801 0
37 -727 728 0
-728 802 0
38 -728 729 0
-729 803 0
39 -729 730 0
-730 804 0
40 -730 731 0
-731 805 0
41 -731 732 0
-732 806 0
42 -732 733 0
-733 807 0
43 -733 734 0
-734 808 0
44 -734 735 0
-735 809 0
45 -735 736 0
-736 810 0
46 -736 737 0
-737 811 0
47 -737 738 0
-738 812 0
48 -738 739 0
-739 813 0
49 -739 740 0
-740 814 0
50 -740 741 0
-741 815 0
51 -741 742 0
-742 816 0
52 -742 743 0
-743 817 0
53 -743 744 0
-744 818 0
54 -744 745 0
-745 819 0
55 -745 746 0
-746 820 0
56 -746 747 0
-747 821 0
57 -747 748 0
-748 822 0
58 -748 749 0
-749 823 0
59 -749 750 0
-750 824 0
60 -750 751 0
-751 825 0
61 -751 752 0
-752 826 0
62 -752 753 0
-753 827 0
63 -753 754 0
-754 828 0
64 -754 755 0
-755 829 0
65 -755 756 0
-756 830 0
66 -756 757 0
-757 831 0
67 -757 758 0
-758 832 0
68 -758 759 0
-759 833 0
69 -759 760 0
-760 834 0
70 -760 761 0
-761 835 0
71 -761 762 0
-762 836 0
72 -762 763 0
-763 837 0
73 -763 764 0
-764 838 0
74 -764 765 0
-765 839 0
75 -765 766 0
-766 840 0
76 -766 767 0
-767 841 0
77 -767 768 0
-768 842 0
78 -768 769 0
-769 843 0
79 -769 770 0
-770 844 0
80 -770 771 0
-771 845 0
81 -771 772 0
-772 846 0
82 -772 0
9 773 0
-773 847 0
10 -773 774 0
-774 848 0
11 -774 775 0
-775 849 0
12 -775 776 0
-776 850 0
13 -776 777 0
-777 851 0
14 -777 778 0
-778 852 0
15 -778 779 0
-779 853 0
16 -779 780 0
-780 854 0
17 -780 781 0
-781 855 0
18 -781 782 0
-782 856 0
19 -782 783 0
-783 857 0
20 -783 784 0
-784 858 0
21 -784 785 0
-785 859 0
22 -785 786 0
-786 860 0
23 -786 787 0
-787 861 0
24 -787 788 0
-788 862 0
25 -788 789 0
-789 863 0
26 -789 790 0
-790 864 0
27 -790 791 0
-791 865 0
28 -791 792 0
-792 866 0
29 -792 793 0
-793 867 0
30 -793 794 0
-794 868 0
31 -794 795 0
-795 869 0
32 -795 796 0
-796 870 0
33 -796 797 0
-797 871 0
34 -797 798 0
-798 872 0
35 -798 799 0
-799 873 0
36 -799 800 0
-800 874 0
37 -800 801 0
-801 875 0
38 -801 802 0
-802 876 0
39 -802 803 0
-803 877 0
40 -803 804 0
-804 878 0
41 -804 805 0
-805 879 0
42 -805 806 0
-806 880 0
43 -806 807 0
-807 881 0
44 -807 808 0
-808 882 0
45 -808 809 0
-809 883 0
46 -809 810 0
-810 884 0
47 -810 811 0
-811 885 0
48 -811 812 0
-812 886 0
49 -812 813 0
-813 887 0
50 -813 814 0
-814 888 0
51 -814 815 0
-815 889 0
52 -815 816 0
-816 890 0
53 -816 817 0
-817 891 0
54 -817 818 0
-818 892 0
55 -818 819 0
-819 893 0
56 -819 820 0
-820 894 0
57 -820 821 0
-821 895 0
58 -821 822 0
-822 896 0
59 -822 823 0
-823 897 0
60 -823 824 0
-824 898 0
61 -824 825 0
-825 899 0
62 -825 826 0
-826 900 0
63 -826 827 0
-827 901 0
64 -827 828 0
-828 902 0
65 -828 829 0
-829 903 0
66 -829 830 0
-830 904 0
67 -830 831 0
-831 905 0
68 -831 832 0
-832 906 0
69 -832 833 0
-833 907 0
70 -833 834 0
-834 908 0
71 -834 835 0
-835 909 0
72 -835 836 0
-836 910 0
73 -836 837 0
-837 911 0
74 -837 838 0
-838 912 0
75 -838 839 0
-839 913 0
76 -839 840 0
-840 914 0
77 -840 841 0
-841 915 0
78 -841 842 0
-842 916 0
79 -842 843 0
-843 917 0
80 -843 844 0
-844 918 0
81 -844 845 0
-845 919 0
82 -845 846 0
-846 920 0
83 -846 0
10 847 0
-847 921 0
11 -847 848 0
-848 922 0
12 -848 849 0
-849 923 0
13 -849 850 0
-850 924 0
14 -850 851 0
-851 925 0
15 -851 852 0
-852 926 0
16 -852 853 0
-853 927 0
17 -853 854 0
-854 928 0
18 -854 855 0
-855 929 0
19 -855 856 0
-856 930 0
20 -856 857 0
-857 931 0
21 -857 858 0
-858 932 0
22 -858 859 0
-859 933 0
23 -859 860 0
-860 934 0
24 -860 861 0
-861 935 0
25 -861 862 0
-862 936 0
26 -862 863 0
-863 937 0
27 -863 864 0
-864 938 0
28 -864 865 0
-865 939 0
29 -865 866 0
-866 940 0
30 -866 867 0
-867 941 0
31 -867 868 0
-868 942 0
32 -868 869 0
-869 943 0
33 -869 870 0
-870 944 0
34 -870 871 0
-871 945 0
35 -871 872 0
-872 946 0
36 -872 873 0
-873 947 0
37 -873 874 0
-874 948 0
38 -874 875 0
-875 949 0
39 -875 876 0
-876 950 0
40 -876 877 0
-877 951 0
41 -877 878 0
-878 952 0
42 -878 879 0
-879 953 0
43 -879 880 0
-880 954 0
44 -880 881 0
-881 955 0
45 -881 882 0
-882 956 0
46 -882 883 0
-883 957 0
47 -883 884 0
-884 958 0
48 -884 885 0
-885 959 0
49 -885 886 0
-886 960 0
50 -886 887 0
-887 961 0
51 -887 888 0
-888 962 0
52 -888 889 0
-889 963 0
53 -889 890 0
-890 964 0
54 -890 891 0
-891 965 0
55 -891 892 0
-892 966 0
56 -892 893 0
-893 967 0
57 -893 894 0
-894 968 0
58 -894 895 0
-895 969 0
59 -895 896 0
-896 970 0
60 -896 897 0
-897 971 0
61 -897 898 0
-898 972 0
62 -898 899 0
-899 973 0
63 -899 900 0
-900 974 0
64 -900 901 0
-901 975 0
65 -901 902 0
-902 976 0
66 -902 903 0
-903 977 0
67 -903 904 0
-904 978 0
68 -904 905 0
-905 979 0
69 -905 906 0
-906 980 0
70 -906 907 0
-907 981 0
71 -907 908 0
-908 982 0
72 -908 909 0
-909 983 0
73 -909 910 0
-910 984 0
74 -910 911 0
-911 985 0
75 -911 912 0
-912 986 0
76 -912 913 0
-913 987 0
77 -913 914 0
-914 988 0
78 -914 915 0
-915 989 0
79 -915 916 0
-916 990 0
80 -916 917 0
-917 991 0
81 -917 918 0
-918 992 0
82 -918 919 0
-919 993 0
83 -919 920 0
-920 994 0
84 -920 0
11 921 0
-921 995 0
12 -921 922 0
-922 996 0
13 -922 923 0
-923 997 0
14 -923 924 0
-924 998 0
15 -924 925 0
-925 999 0
16 -925 926 0
-926 1000 0
17 -926 927 0
-927 1001 0
18 -927 928 0
-928 1002 0
19 -928 929 0
-929 1003 0
20 -929 930 0
-930 1004 0
21 -930 931 0
-931 1005 0
22 -931 932 0
-932 1006 0
23 -932 933 0
-933 1007 0
24 -933 934 0
-934 1008 0
25 -934 935 0
-935 1009 0
26 -935 936 0
-936 1010 0
27 -936 937 0
-937 1011 0
28 -937 938 0
-938 1012 0
29 -938 939 0
-939 1013 0
30 -939 940 0
-940 1014 0
31 -940 941 0
-941 1015 0
32 -941 942 0
-942 1016 0
33 -942 943 0
-943 1017 0
34 -943 944 0
-944 1018 0
35 -944 945 0
-945 1019 0
36 -945 946 0
-946 1020 0
37 -946 947 0
-947 1021 0
38 -947 948 0
-948 1022 0
39 -948 949 0
-949 1023 0
40 -949 950 0
-950 1024 0
41 -950 951 0
-951 1025 0
42 -951 952 0
-952 1026 0
43 -952 953 0
-953 1027 0
44 -953 954 0
-954 1028 0
45 -954 955 0
-955 1029 0
46 -955 956 0
-956 1030 0
47 -956 957 0
-957 1031 0
48 -957 958 0
-958 1032 0
49 -958 959 0
-959 1033 0
50 -959 960 0
-960 1034 0
51 -960 961 0
-961 1035 0
52 -961 962 0
-962 1036 0
53 -962 963 0
-963 1037 0
54 -963 964 0
-964 1038 0
55 -964 965 0
-965 1039 0
56 -965 966 0
-966 1040 0
57 -966 967 0
-967 1041 0
58 -967 968 0
-968 1042 0
59 -968 969 0
-969 1043 0
60 -969 970 0
-970 1044 0
61 -970 971 0
-971 1045 0
62 -971 972 0
-972 1046 0
63 -972 973 0
-973 1047 0
64 -973 974 0
-974 1048 0
65 -974 975 0
-975 1049 0
66 -975 976 0
-976 1050 0
67 -976 977 0
-977 1051 0
68 -977 978 0
-978 1052 0
69 -978 979 0
-979 1053 0
70 -979 980 0
-980 1054 0
71 -980 981 0
-981 1055 0
72 -981 982 0
-982 1056 0
73 -982 983 0
-983 1057 0
74 -983 984 0
-984 1058 0
75 -984 985 0
-985 1059 0
76 -985 986 0
-986 1060 0
77 -986 987 0
-987 1061 0
78 -987 988 0
-988 1062 0
79 -988 989 0
-989 1063 0
80 -989 990 0
-990 1064 0
81 -990 991 0
-991 1065 0
82 -991 992 0
-992 1066 0
83 -992 993 0
-993 1067 0
84 -993 994 0
-994 1068 0
85 -994 0
12 995 0
-995 1069 0
13 -995 996 0
-996 1070 0
14 -996 997 0
-997 1071 0
15 -997 998 0
-998 1072 0
16 -998 999 0
-999 1073 0
17 -999 1000 0
-1000 1074 0
18 -1000 1001 0
-1001 1075 0
19 -1001 1002 0
-1002 1076 0
20 -1002 1003 0
-1003 1077 0
21 -1003 1004 0
-1004 1078 0
22 -1004 1005 0
-1005 1079 0
23 -1005 1006 0
-1006 1080 0
24 -1006 1007 0
-1007 1081 0
25 -1007 1008 0
-1008 1082 0
26 -1008 1009 0
-1009 1083 0
27 -1009 1010 0
-1010 1084 0
28 -1010 1011 0
-1011 1085 0
29 -1011 1012 0
-1012 1086 0
30 -1012 1013 0
-1013 1087 0
31 -1013 1014 0
-1014 1088 0
32 -1014 1015 0
-1015 1089 0
33 -1015 1016 0
-1016 1090 0
34 -1016 1017 0
-1017 1091 0
35 -1017 1018 0
-1018 1092 0
36 -1018 1019 0
-1019 1093 0
37 -1019 1020 0
-1020 1094 0
38 -1020 1021 0
-1021 1095 0
39 -1021 1022 0
-1022 1096 0
40 -1022 1023 0
-1023 1097 0
41 -1023 1024 0
-1024 1098 0
42 -1024 1025 0
-1025 1099 0
43 -1025 1026 0
-1026 1100 0
44 -1026 1027 0
-1027 1101 0
45 -1027 1028 0
-1028 1102 0
46 -1028 1029 0
-1029 1103 0
47 -1029 1030 0
-1030 1104 0
48 -1030 1031 0
-1031 1105 0
49 -1031 1032 0
-1032 1106 0
50 -1032 1033 0
-1033 1107 0
51 -1033 1034 0
-1034 1108 0
52 -1034 1035 0
-1035 1109 0
53 -1035 1036 0
-1036 1110 0
54 -1036 1037 0
-1037 1111 0
55 -1037 1038 0
-1038 1112 0
56 -1038 1039 0
-1039 1113 0
57 -1039 1040 0
-1040 1114 0
58 -1040 1041 0
-1041 1115 0
59 -1041 1042 0
-1042 1116 0
60 -1042 1043 0
-1043 1117 0
61 -1043 1044 0
-1044 1118 0
62 -1044 1045 0
-1045 1119 0
63 -1045 1046 0
-1046 1120 0
64 -1046 1047 0
-1047 1121 0
65 -1047 1048 0
-1048 1122 0
66 -1048 1049 0
-1049 1123 0
67 -1049 1050 0
-1050 1124 0
68 -1050 1051 0
-1051 1125 0
69 -1051 1052 0
-1052 1126 0
70 -1052 1053 0
-1053 1127 0
71 -1053 1054 0
-1054 1128 0
72 -1054 1055 0
-1055 1129 0
73 -1055 1056 0
-1056 1130 0
74 -1056 1057 0
-1057 1131 0
75 -1057 1058 0
-1058 1132 0
76 -1058 1059 0
-1059 1133 0
77 -1059 1060 0
-1060 1134 0
78 -1060 1061 0
-1061 1135 0
79 -1061 1062 0
-1062 1136 0
80 -1062 1063 0
-1063 1137 0
81 -1063 1064 0
-1064 1138 0
82 -1064 1065 0
-1065 1139 0
83 -1065 1066 0
-1066 1140 0
84 -1066 1067 0
-1067 1141 0
85 -1067 1068 0
-1068 1142 0
86 -1068 0
13 1069 0
-1069 1143 0
14 -1069 1070 0
-1070 1144 0
15 -1070 1071 0
-1071 1145 0
16 -1071 1072 0
-1072 1146 0
17 -1072 1073 0
-1073 1147 0
18 -1073 1074 0
-1074 1148 0
19 -1074 1075 0
-1075 1149 0
20 -1075 1076 0
-1076 1150 0
21 -1076 1077 0
-1077 1151 0
22 -1077 1078 0
-1078 1152 0
23 -1078 1079 0
-1079 1153 0
24 -1079 1080 0
-1080 1154 0
25 -1080 1081 0
-1081 1155 0
26 -1081 1082 0
-1082 1156 0
27 -1082 1083 0
-1083 1157 0
28 -1083 1084 0
-1084 1158 0
29 -1084 1085 0
-1085 1159 0
30 -1085 1086 0
-1086 1160 0
31 -1086 1087 0
-1087 1161 0
32 -1087 1088 0
-1088 1162 0
33 -1088 1089 0
-1089 1163 0
34 -1089 1090 0
-1090 1164 0
35 -1090 1091 0
-1091 1165 0
36 -1091 1092 0
-1092 1166 0
37 -1092 1093 0
-1093 1167 0
38 -1093 1094 0
-1094 1168 0
39 -1094 1095 0
-1095 1169 0
40 -1095 1096 0
-1096 1170 0
41 -1096 1097 0
-1097 1171 0
42 -1097 1098 0
-1098 1172 0
43 -1098 1099 0
-1099 1173 0
44 -1099 1100 0
-1100 1174 0
45 -1100 1101 0
-1101 1175 0
46 -1101 1102 0
-1102 1176 0
47 -1102 1103 0
-1103 1177 0
48 -1103 1104 0
-1104 1178 0
49 -1104 1105 0
-1105 1179 0
50 -1105 1106 0
-1106 1180 0
51 -1106 1107 0
-1107 1181 0
52 -1107 1108 0
-1108 1182 0
53 -1108 1109 0
-1109 1183 0
54 -1109 1110 0
-1110 1184 0
55 -1110 1111 0
-1111 1185 0
56 -1111 1112 0
-1112 1186 0
57 -1112 1113 0
-1113 1187 0
58 -1113 1114 0
-1114 1188 0
59 -1114 1115 0
-1115 1189 0
60 -1115 1116 0
-1116 1190 0
61 -1116 1117 0
-1117 1191 0
62 -1117 1118 0
-1118 1192 0
63 -1118 1119 0
-1119 1193 0
64 -1119 1120 0
-1120 1194 0
65 -1120 1121 0
-1121 1195 0
66 -1121 1122 0
-1122 1196 0
67 -1122 1123 0
-1123 1197 0
68 -1123 1124 0
-1124 1198 0
69 -1124 1125 0
-1125 1199 0
70 -1125 1126 0
-1126 1200 0
71 -1126 1127 0
-1127 1201 0
72 -1127 1128 0
-1128 1202 0
73 -1128 1129 0
-1129 1203 0
74 -1129 1130 0
-1130 1204 0
75 -1130 1131 0
-1131 1205 0
76 -1131 1132 0
-1132 1206 0
77 -1132 1133 0
-1133 1207 0
78 -1133 1134 0
-1134 1208 0
79 -1134 1135 0
-1135 1209 0
80 -1135 1136 0
-1136 1210 0
81 -1136 1137 0
-1137 1211 0
82 -1137 1138 0
-1138 1212 0
83 -1138 1139 0
-1139 1213 0
84 -1139 1140 0
-1140 1214 0
85 -1140 1141 0
-1141 1215 0
86 -1141 1142 0
-1142 1216 0
87 -1142 0
14 1143 0
-1143 1217 0
15 -1143 1144 0
-1144 1218 0
16 -1144 1145 0
-1145 1219 0
17 -1145 1146 0
-1146 1220 0
18 -1146 1147 0
-1147 1221 0
19 -1147 1148 0
-1148 1222 0
20 -1148 1149 0
-1149 1223 0
21 -1149 1150 0
-1150 1224 0
22 -1150 1151 0
-1151 1225 0
23 -1151 1152 0
-1152 1226 0
24 -1152 1153 0
-1153 1227 0
25 -1153 1154 0
-1154 1228 0
26 -1154 1155 0
-1155 1229 0
27 -1155 1156 0
-1156 1230 0
28 -1156 1157 0
-1157 1231 0
29 -1157 1158 0
-1158 1232 0
30 -1158 1159 0
-1159 1233 0
31 -1159 1160 0
-1160 1234 0
32 -1160 1161 0
-1161 1235 0
33 -1161 1162 0
-1162 1236 0
34 -1162 1163 0
-1163 1237 0
35 -1163 1164 0
-1164 1238 0
36 -1164 1165 0
-1165 1239 0
37 -1165 1166 0
-1166 1240 0
38 -1166 1167 0
-1167 1241 0
39 -1167 1168 0
-1168 1242 0
40 -1168 1169 0
-1169 1243 0
41 -1169 1170 0
-1170 1244 0
42 -1170 1171 0
-1171 1245 0
43 -1171 1172 0
-1172 1246 0
44 -1172 1173 0
-1173 1247 0
45 -1173 1174 0
-1174 1248 0
46 -1174 1175 0
-1175 1249 0
47 -1175 1176 0
-1176 1250 0
48 -1176 1177 0
-1177 1251 0
49 -1177 1178 0
-1178 1252 0
50 -1178 1179 0
-1179 1253 0
51 -1179 1180 0
-1180 1254 0
52 -1180 1181 0
-1181 1255 0
53 -1181 1182 0
-1182 1256 0
54 -1182 1183 0
-1183 1257 0
55 -1183 1184 0
-1184 1258 0
56 -1184 1185 0
-1185 1259 0
57 -1185 1186 0
-1186 1260 0
58 -1186 1187 0
-1187 1261 0
59 -1187 1188 0
-1188 1262 0
60 -1188 1189 0
-1189 1263 0
61 -1189 1190 0
-1190 1264 0
62 -1190 1191 0
-1191 1265 0
63 -1191 1192 0
-1192 1266 0
64 -1192 1193 0
-1193 1267 0
65 -1193 1194 0
-1194 1268 0
66 -1194 1195 0
-1195 1269 0
67 -1195 1196 0
-1196 1270 0
68 -1196 1197 0
-1197 1271 0
69 -1197 1198 0
-1198 1272 0
70 -1198 1199 0
-1199 1273 0
71 -1199 1200 0
-1200 1274 0
72 -1200 1201 0
-1201 1275 0
73 -1201 1202 0
-1202 1276 0
74 -1202 1203 0
-1203 1277 0
75 -1203 1204 0
-1204 1278 0
76 -1204 1205 0
-1205 1279 0
77 -1205 1206 0
-1206 1280 0
78 -1206 1207 0
-1207 1281 0
79 -1207 1208 0
-1208 1282 0
80 -1208 1209 0
-1209 1283 0
81 -1209 1210 0
-1210 1284 0
82 -1210 1211 0
-1211 1285 0
83 -1211 1212 0
-1212 1286 0
84 -1212 1213 0
-1213 1287 0
85 -1213 1214 0
-1214 1288 0
86 -1214 1215 0
-1215 1289 0
87 -1215 1216 0
-1216 1290 0
88 -1216 0
15 1217 0
-1217 1291 0
16 -1217 1218 0
-1218 1292 0
17 -1218 1219 0
-1219 1293 0
18 -1219 1220 0
-1220 1294 0
19 -1220 1221 0
-1221 1295 0
20 -1221 1222 0
-1222 1296 0
21 -1222 1223 0
-1223 1297 0
22 -1223 1224 0
-1224 1298 0
23 -1224 1225 0
-1225 1299 0
24 -1225 1226 0
-1226 1300 0
25 -1226 1227 0
-1227 1301 0
26 -1227 1228 0
-1228 1302 0
27 -1228 1229 0
-1229 1303 0
28 -1229 1230 0
-1230 1304 0
29 -1230 1231 0
-1231 1305 0
30 -1231 1232 0
-1232 1306 0
31 -1232 1233 0
-1233 1307 0
32 -1233 1234 0
-1234 1308 0
33 -1234 1235 0
-1235 1309 0
34 -1235 1236 0
-1236 1310 0
35 -1236 1237 0
-1237 1311 0
36 -1237 1238 0
-1238 1312 0
37 -1238 1239 0
-1239 1313 0
38 -1239 1240 0
-1240 1314 0
39 -1240 1241 0
-1241 1315 0
40 -1241 1242 0
-1242 1316 0
41 -1242 1243 0
-1243 1317 0
42 -1243 1244 0
-1244 1318 0
43 -1244 1245 0
-1245 1319 0
44 -1245 1246 0
-1246 1320 0
45 -1246 1247 0
-1247 1321 0
46 -1247 1248 0
-1248 1322 0
47 -1248 1249 0
-1249 1323 0
48 -1249 1250 0
-1250 1324 0
49 -1250 1251 0
-1251 1325 0
50 -1251 1252 0
-1252 1326 0
51 -1252 1253 0
-1253 1327 0
52 -1253 1254 0
-1254 1328 0
53 -1254 1255 0
-1255 1329 0
54 -1255 1256 0
-1256 1330 0
55 -1256 1257 0
-1257 1331 0
56 -1257 1258 0
-1258 1332 0
57 -1258 1259 0
-1259 1333 0
58 -1259 1260 0
-1260 1334 0
59 -1260 1261 0
-1261 1335 0
60 -1261 1262 0
-1262 1336 0
61 -1262 1263 0
-1263 1337 0
62 -1263 1264 0
-1264 1338 0
63 -1264 1265 0
-1265 1339 0
64 -1265 1266 0
-1266 1340 0
65 -1266 1267 0
-1267 1341 0
66 -1267 1268 0
-1268 1342 0
67 -1268 1269 0
-1269 1343 0
68 -1269 1270 0
-1270 1344 0
69 -1270 1271 0
-1271 1345 0
70 -1271 1272 0
-1272 1346 0
71 -1272 1273 0
-1273 1347 0
72 -1273 1274 0
-1274 1348 0
73 -1274 1275 0
-1275 1349 0
74 -1275 1276 0
-1276 1350 0
75 -1276 1277 0
-1277 1351 0
76 -1277 1278 0
-1278 1352 0
77 -1278 1279 0
-1279 1353 0
78 -1279 1280 0
-1280 1354 0
79 -1280 1281 0
-1281 1355 0
80 -1281 1282 0
-1282 1356 0
81 -1282 1283 0
-1283 1357 0
82 -1283 1284 0
-1284 1358 0
83 -1284 1285 0
-1285 1359 0
84 -1285 1286 0
-1286 1360 0
85 -1286 1287 0
-1287 1361 0
86 -1287 1288 0
-1288 1362 0
87 -1288 1289 0
-1289 1363 0
88 -1289 1290 0
-1290 1364 0
89 -1290 0
16 1291 0
17 -1291 1292 0
18 -1292 1293 0
19 -1293 1294 0
20 -1294 1295 0
21 -1295 1296 0
22 -1296 1297 0
23 -1297 1298 0
24 -1298 1299 0
25 -1299 1300 0
26 -1300 1301 0
27 -1301 1302 0
28 -1302 1303 0
29 -1303 1304 0
30 -1304 1305 0
31 -1305 1306 0
32 -1306 1307 0
33 -1307 1308 0
34 -1308 1309 0
35 -1309 1310 0
36 -1310 1311 0
37 -1311 1312 0
38 -1312 1313 0
39 -1313 1314 0
40 -1314 1315 0
41 -1315 1316 0
42 -1316 1317 0
43 -1317 1318 0
44 -1318 1319 0
45 -1319 1320 0
46 -1320 1321 0
47 -1321 1322 0
48 -1322 1323 0
49 -1323 1324 0
50 -1324 1325 0
51 -1325 1326 0
52 -1326 1327 0
53 -1327 1328 0
54 -1328 1329 0
55 -1329 1330 0
56 -1330 1331 0
57 -1331 1332 0
58 -1332 1333 0
59 -1333 1334 0
60 -1334 1335 0
61 -1335 1336 0
62 -1336 1337 0
63 -1337 1338 0
64 -1338 1339 0
65 -1339 1340 0
66 -1340 1341 0
67 -1341 1342 0
68 -1342 1343 0
69 -1343 1344 0
70 -1344 1345 0
71 -1345 1346 0
72 -1346 1347 0
73 -1347 1348 0
74 -1348 1349 0
75 -1349 1350 0
76 -1350 1351 0
77 -1351 1352 0
78 -1352 1353 0
79 -1353 1354 0
80 -1354 1355 0
81 -1355 1356 0
82 -1356 1357 0
83 -1357 1358 0
84 -1358 1359 0
85 -1359 1360 0
86 -1360 1361 0
87 -1361 1362 0
88 -1362 1363 0
89 -1363 1364 0
90 -1364 0
-1 1365 0
-1365 1366 0
-2 -1365 1367 0
-1367 1368 0
-3 -1367 1369 0
-1369 1370 0
-4 -1369 1371 0
-1371 1372 0
-5 -1371 1373 0
-1373 1374 0
-6 -1373 1375 0
-1375 1376 0
-7 -1375 1377 0
-1377 1378 0
-8 -1377 1379 0
-1379 1380 0
-9 -1379 1381 0
-1381 1382 0
-10 -1381 1383 0
-1383 1384 0
-11 -1383 1385 0
-1385 1386 0
-12 -1385 1387 0
-1387 1388 0
-13 -1387 1389 0
-1389 1390 0
-14 -1389 1391 0
-1391 1392 0
-15 -1391 1393 0
-1393 1394 0
-16 -1393 1395 0
-1395 1396 0
-17 -1395 0
-2 1366 0
-1366 1397 0
-3 -1366 1368 0
-1368 1398 0
-4 -1368 1370 0
-1370 1399 0
-5 -1370 1372 0
-1372 1400 0
-6 -1372 1374 0
-1374 1401 0
-7 -1374 1376 0
-1376 1402 0
-8 -1376 1378 0
-1378 1403 0
-9 -1378 1380 0
-1380 1404 0
-10 -1380 1382 0
-1382 1405 0
-11 -1382 1384 0
-1384 1406 0
-12 -1384 1386 0
-1386 1407 0
-13 -1386 1388 0
-1388 1408 0
-14 -1388 1390 0
-1390 1409 0
-15 -1390 1392 0
-1392 1410 0
-16 -1392 1394 0
-1394 1411 0
-17 -1394 1396 0
-1396 1412 0
-18 -1396 0
-3 1397 0
-1397 1413 0
-4 -1397 1398 0
-1398 1414 0
-5 -1398 1399 0
-1399 1415 0
-6 -1399 1400 0
-1400 1416 0
-7 -1400 1401 0
-1401 1417 0
-8 -1401 1402 0
-1402 1418 0
-9 -1402 1403 0
-1403 1419 0
-10 -1403 1404 0
-1404 1420 0
-11 -1404 1405 0
-1405 1421 0
-12 -1405 1406 0
-1406 1422 0
-13 -1406 1407 0
-1407 1423 0
-14 -1407 1408 0
-1408 1424 0
-15 -1408 1409 0
-1409 1425 0
-16 -1409 1410 0
-1410 1426 0
-17 -1410 1411 0
-1411 1427 0
-18 -1411 1412 0
-1412 1428 0
-19 -1412 0
-4 1413 0
-1413 1429 0
-5 -1413 1414 0
-1414 1430 0
-6 -1414 1415 0
-1415 1431 0
-7 -1415 1416 0
-1416 1432 0
-8 -1416 1417 0
-1417 1433 0
-9 -1417 1418 0
-1418 1434 0
-10 -1418 1419 0
-1419 1435 0
-11 -1419 1420 0
-1420 1436 0
-12 -1420 1421 0
-1421 1437 0
-13 -1421 1422 0
-1422 1438 0
-14 -1422 1423 0
-1423 1439 0
-15 -1423 1424 0
-1424 1440 0
-16 -1424 1425 0
-1425 1441 0
-17 -1425 1426 0
-1426 1442 0
-18 -1426 1427 0
-1427 1443 0
-19 -1427 1428 0
-1428 1444 0
-20 -1428 0
-5 1429 0
-1429 1445 0
-6 -1429 1430 0
-1430 1446 0
-7 -1430 1431 0
-1431 1447 0
-8 -1431 1432 0
-1432 1448 0
-9 -1432 1433 0
-1433 1449 0
-10 -1433 1434 0
-1434 1450 0
-11 -1434 1435 0
-1435 1451 0
-12 -1435 1436 0
-1436 1452 0
-13 -1436 1437 0
-1437 1453 0
-14 -1437 1438 0
-1438 1454 0
-15 -1438 1439 0
-1439 1455 0
-16 -1439 1440 0
-1440 1456 0
-17 -1440 1441 0
-1441 1457 0
-18 -1441 1442 0
-1442 1458 0
-19 -1442 1443 0
-1443 1459 0
-20 -1443 1444 0
-1444 1460 0
-21 -1444 0
-6 1445 0
-1445 1461 0
-7 -1445 1446 0
-1446 1462 0
-8 -1446 1447 0
-1447 1463 0
-9 -1447 1448 0
-1448 1464 0
-10 -1448 1449 0
-1449 1465 0
-11 -1449 1450 0
-1450 1466 0
-12 -1450 1451 0
-1451 1467 0
-13 -1451 1452 0
-1452 1468 0
-14 -1452 1453 0
-1453 1469 0
-15 -1453 1454 0
-1454 1470 0
-16 -1454 1455 0
-1455 1471 0
-17 -1455 1456 0
-1456 1472 0
-18 -1456 1457 0
-1457 1473 0
-19 -1457 1458 0
-1458 1474 0
-20 -1458 1459 0
-1459 1475 0
-21 -1459 1460 0
-1460 1476 0
-22 -1460 0
-7 1461 0
-1461 1477 0
-8 -1461 1462 0
-1462 1478 0
-9 -1462 1463 0
-1463 1479 0
-10 -1463 1464 0
-1464 1480 0
-11 -1464 1465 0
-1465 1481 0
-12 -1465 1466 0
-1466 1482 0
-13 -1466 1467 0
-1467 1483 0
-14 -1467 1468 0
-1468 1484 0
-15 -1468 1469 0
-1469 1485 0
-16 -1469 1470 0
-1470 1486 0
-17 -1470 1471 0
-1471 1487 0
-18 -1471 1472 0
-1472 1488 0
-19 -1472 1473 0
-1473 1489 0
-20 -1473 1474 0
-1474 1490 0
-21 -1474 1475 0
-1475 1491 0
-22 -1475 1476 0
-1476 1492 0
-23 -1476 0
-8 1477 0
-1477 1493 0
-9 -1477 1478 0
-1478 1494 0
-10 -1478 1479 0
-1479 1495 0
-11 -1479 1480 0
-1480 1496 0
-12 -1480 1481 0
-1481 1497 0
-13 -1481 1482 0
-1482 1498 0
-14 -1482 1483 0
-1483 1499 0
-15 -1483 1484 0
-1484 1500 0
-16 -1484 1485 0
-1485 1501 0
-17 -1485 1486 0
-1486 1502 0
-18 -1486 1487 0
-1487 1503 0
-19 -1487 1488 0
-1488 1504 0
-20 -1488 1489 0
-1489 1505 0
-21 -1489 1490 0
-1490 1506 0
-22 -1490 1491 0
-1491 1507 0
-23 -1491 1492 0
-1492 1508 0
-24 -1492 0
-9 1493 0
-1493 1509 0
-10 -1493 1494 0
-1494 1510 0
-11 -1494 1495 0
-1495 1511 0
-12 -1495 1496 0
-1496 1512 0
-13 -1496 1497 0
-1497 1513 0
-14 -1497 1498 0
-1498 1514 0
-15 -1498 1499 0
-1499 1515 0
-16 -1499 1500 0
-1500 1516 0
-17 -1500 1501 0
-1501 1517 0
-18 -1501 1502 0
-1502 1518 0
-19 -1502 1503 0
-1503 1519 0
-20 -1503 1504 0
-1504 1520 0
-21 -1504 1505 0
-1505 1521 0
-22 -1505 1506 0
-1506 1522 0
-23 -1506 1507 0
-1507 1523 0
-24 -1507 1508 0
-1508 1524 0
-25 -1508 0
-10 1509 0
-1509 1525 0
-11 -1509 1510 0
-1510 1526 0
-12 -1510 1511 0
-1511 1527 0
-13 -1511 1512 0
-1512 1528 0
-14 -1512 1513 0
-1513 1529 0
-15 -1513 1514 0
-1514 1530 0
-16 -1514 1515 0
-1515 1531 0
-17 -1515 1516 0
-1516 1532 0
-18 -1516 1517 0
-1517 1533 0
-19 -1517 1518 0
-1518 1534 0
-20 -1518 1519 0
-1519 1535 0
-21 -1519 1520 0
-1520 1536 0
-22 -1520 1521 0
-1521 1537 0
-23 -1521 1522 0
-1522 1538 0
-24 -1522 1523 0
-1523 1539 0
-25 -1523 1524 0
-1524 1540 0
-26 -1524 0
-11 1525 0
-1525 1541 0
-12 -1525 1526 0
-1526 1542 0
-13 -1526 1527 0
-1527 1543 0
-14 -1527 1528 0
-1528 1544 0
-15 -1528 1529 0
-1529 1545 0
-16 -1529 1530 0
-1530 1546 0
-17 -1530 1531 0
-1531 1547 0
-18 -1531 1532 0
-1532 1548 0
-19 -1532 1533 0
-1533 1549 0
-20 -1533 1534 0
-1534 1550 0
-21 -1534 1535 0
-1535 1551 0
-22 -1535 1536 0
-1536 1552 0
-23 -1536 1537 0
-1537 1553 0
-24 -1537 1538 0
-1538 1554 0
-25 -1538 1539 0
-1539 1555 0
-26 -1539 1540 0
-1540 1556 0
-27 -1540 0
-12 1541 0
-1541 1557 0
-13 -1541 1542 0
-1542 1558 0
-14 -1542 1543 0
-1543 1559 0
-15 -1543 1544 0
-1544 1560 0
-16 -1544 1545 0
-1545 1561 0
-17 -1545 1546 0
-1546 1562 0
-18 -1546 1547 0
-1547 1563 0
-19 -1547 1548 0
-1548 1564 0
-20 -1548 1549 0
-1549 1565 0
-21 -1549 1550 0
-1550 1566 0
-22 -1550 1551 0
-1551 1567 0
-23 -1551 1552 0
-1552 1568 0
-24 -1552 1553 0
-1553 1569 0
-25 -1553 1554 0
-1554 1570 0
-26 -1554 1555 0
-1555 1571 0
-27 -1555 1556 0
-1556 1572 0
-28 -1556 0
-13 1557 0
-1557 1573 0
-14 -1557 1558 0
-1558 1574 0
-15 -1558 1559 0
-1559 1575 0
-16 -1559 1560 0
-1560 1576 0
-17 -1560 1561 0
-1561 1577 0
-18 -1561 1562 0
-1562 1578 0
-19 -1562 1563 0
-1563 1579 0
-20 -1563 1564 0
-1564 1580 0
-21 -1564 1565 0
-1565 1581 0
-22 -1565 1566 0
-1566 1582 0
-23 -1566 1567 0
-1567 1583 0
-24 -1567 1568 0
-1568 1584 0
-25 -1568 1569 0
-1569 1585 0
-26 -1569 1570 0
-1570 1586 0
-27 -1570 1571 0
-1571 1587 0
-28 -1571 1572 0
-1572 1588 0
-29 -1572 0
-14 1573 0
-1573 1589 0
-15 -1573 1574 0
-1574 1590 0
-16 -1574 1575 0
-1575 1591 0
-17 -1575 1576 0
-1576 1592 0
-18 -1576 1577 0
-1577 1593 0
-19 -1577 1578 0
-1578 1594 0
-20 -1578 1579 0
-1579 1595 0
-21 -1579 1580 0
-1580 1596 0
-22 -1580 1581 0
-1581 1597 0
-23 -1581 1582 0
-1582 1598 0
-24 -1582 1583 0
-1583 1599 0
-25 -1583 1584 0
-1584 1600 0
-26 -1584 1585 0
-1585 1601 0
-27 -1585 1586 0
-1586 1602 0
-28 -1586 1587 0
-1587 1603 0
-29 -1587 1588 0
-1588 1604 0
-30 -1588 0
-15 1589 0
-1589 1605 0
-16 -1589 1590 0
-1590 1606 0
-17 -1590 1591 0
-1591 1607 0
-18 -1591 1592 0
-1592 1608 0
-19 -1592 1593 0
-1593 1609 0
-20 -1593 1594 0
-1594 1610 0
-21 -1594 1595 0
-1595 1611 0
-22 -1595 1596 0
-1596 1612 0
-23 -1596 1597 0
-1597 1613 0
-24 -1597 1598 0
-1598 1614 0
-25 -1598 1599 0
-1599 1615 0
-26 -1599 1600 0
-1600 1616 0
-27 -1600 1601 0
-1601 1617 0
-28 -1601 1602 0
-1602 1618 0
-29 -1602 1603 0
-1603 1619 0
-30 -1603 1604 0
-1604 1620 0
-31 -1604 0
-16 1605 0
-1605 1621 0
-17 -1605 1606 0
-1606 1622 0
-18 -1606 1607 0
-1607 1623 0
-19 -1607 1608 0
-1608 1624 0
-20 -1608 1609 0
-1609 1625 0
-21 -1609 1610 0
-1610 1626 0
-22 -1610 1611 0
-1611 1627 0
-23 -1611 1612 0
-1612 1628 0
-24 -1612 1613 0
-1613 1629 0
-25 -1613 1614 0
-1614 1630 0
-26 -1614 1615 0
-1615 1631 0
-27 -1615 1616 0
-1616 1632 0
-28 -1616 1617 0
-1617 1633 0
-29 -1617 1618 0
-1618 1634 0
-30 -1618 1619 0
-1619 1635 0
-31 -1619 1620 0
-1620 1636 0
-32 -1620 0
-17 1621 0
-1621 1637 0
-18 -1621 1622 0
-1622 1638 0
-19 -1622 1623 0
-1623 1639 0
-20 -1623 1624 0
-1624 1640 0
-21 -1624 1625 0
-1625 1641 0
-22 -1625 1626 0
-1626 1642 0
-23 -1626 1627 0
-1627 1643 0
-24 -1627 1628 0
-1628 1644 0
-25 -1628 1629 0
-1629 1645 0
-26 -1629 1630 0
-1630 1646 0
-27 -1630 1631 0
-1631 1647 0
-28 -1631 1632 0
-1632 1648 0
-29 -1632 1633 0
-1633 1649 0
-30 -1633 1634 0
-1634 1650 0
-31 -1634 1635 0
-1635 1651 0
-32 -1635 1636 0
-1636 1652 0
-33 -1636 0
-18 1637 0
-1637 1653 0
-19 -1637 1638 0
-1638 1654 0
-20 -1638 1639 0
-1639 1655 0
-21 -1639 1640 0
-1640 1656 0
-22 -1640 1641 0
-1641 1657 0
-23 -1641 1642 0
-1642 1658 0
-24 -1642 1643 0
-1643 1659 0
-25 -1643 1644 0
-1644 1660 0
-26 -1644 1645 0
-1645 1661 0
-27 -1645 1646 0
-1646 1662 0
-28 -1646 1647 0
-1647 1663 0
-29 -1647 1648 0
-1648 1664 0
-30 -1648 1649 0
-1649 1665 0
-31 -1649 1650 0
-1650 1666 0
-32 -1650 1651 0
-1651 1667 0
-33 -1651 1652 0
-1652 1668 0
-34 -1652 0
-19 1653 0
-1653 1669 0
-20 -1653 1654 0
-1654 1670 0
-21 -1654 1655 0
-1655 1671 0
-22 -1655 1656 0
-1656 1672 0
-23 -1656 1657 0
-1657 1673 0
-24 -1657 1658 0
-1658 1674 0
-25 -1658 1659 0
-1659 1675 0
-26 -1659 1660 0
-1660 1676 0
-27 -1660 1661 0
-1661 1677 0
-28 -1661 1662 0
-1662 1678 0
-29 -1662 1663 0
-1663 1679 0
-30 -1663 1664 0
-1664 1680 0
-31 -1664 1665 0
-1665 1681 0
-32 -1665 1666 0
-1666 1682 0
-33 -1666 1667 0
-1667 1683 0
-34 -1667 1668 0
-1668 1684 0
-35 -1668 0
-20 1669 0
-1669 1685 0
-21 -1669 1670 0
-1670 1686 0
-22 -1670 1671 0
-1671 1687 0
-23 -1671 1672 0
-1672 1688 0
-24 -1672 1673 0
-1673 1689 0
-25 -1673 1674 0
-1674 1690 0
-26 -1674 1675 0
-1675 1691 0
-27 -1675 1676 0
-1676 1692 0
-28 -1676 1677 0
-1677 1693 0
-29 -1677 1678 0
-1678 1694 0
-30 -1678 1679 0
-1679 1695 0
-31 -1679 1680 0
-1680 1696 0
-32 -1680 1681 0
-1681 1697 0
-33 -1681 1682 0
-1682 1698 0
-34 -1682 1683 0
-1683 1699 0
-35 -1683 1684 0
-1684 1700 0
-36 -1684 0
-21 1685 0
-1685 1701 0
-22 -1685 1686 0
-1686 1702 0
-23 -1686 1687 0
-1687 1703 0
-24 -1687 1688 0
-1688 1704 0
-25 -1688 1689 0
-1689 1705 0
-26 -1689 1690 0
-1690 1706 0
-27 -1690 1691 0
-1691 1707 0
-28 -1691 1692 0
-1692 1708 0
-29 -1692 1693 0
-1693 1709 0
-30 -1693 1694 0
-1694 1710 0
-31 -1694 1695 0
-1695 1711 0
-32 -1695 1696 0
-1696 1712 0
-33 -1696 1697 0
-1697 1713 0
-34 -1697 1698 0
-1698 1714 0
-35 -1698 1699 0
-1699 1715 0
-36 -1699 1700 0
-1700 1716 0
-37 -1700 0
-22 1701 0
-1701 1717 0
-23 -1701 1702 0
-1702 1718 0
-24 -1702 1703 0
-1703 1719 0
-25 -1703 1704 0
-1704 1720 0
-26 -1704 1705 0
-1705 1721 0
-27 -1705 1706 0
-1706 1722 0
-28 -1706 1707 0
-1707 1723 0
-29 -1707 1708 0
-1708 1724 0
-30 -1708 1709 0
-1709 1725 0
-31 -1709 1710 0
-1710 1726 0
-32 -1710 1711 0
-1711 1727 0
-33 -1711 1712 0
-1712 1728 0
-34 -1712 1713 0
-1713 1729 0
-35 -1713 1714 0
-1714 1730 0
-36 -1714 1715 0
-1715 1731 0
-37 -1715 1716 0
-1716 1732 0
-38 -1716 0
-23 1717 0
-1717 1733 0
-24 -1717 1718 0
-1718 1734 0
-25 -1718 1719 0
-1719 1735 0
-26 -1719 1720 0
-1720 1736 0
-27 -1720 1721 0
-1721 1737 0
-28 -1721 1722 0
-1722 1738 0
-29 -1722 1723 0
-1723 1739 0
-30 -1723 1724 0
-1724 1740 0
-31 -1724 1725 0
-1725 1741 0
-32 -1725 1726 0
-1726 1742 0
-33 -1726 1727 0
-1727 1743 0
-34 -1727 1728 0
-1728 1744 0
-35 -1728 1729 0
-1729 1745 0
-36 -1729 1730 0
-1730 1746 0
-37 -1730 1731 0
-1731 1747 0
-38 -1731 1732 0
-1732 1748 0
-39 -1732 0
-24 1733 0
-1733 1749 0
-25 -1733 1734 0
-1734 1750 0
-26 -1734 1735 0
-1735 1751 0
-27 -1735 1736 0
-1736 1752 0
-28 -1736 1737 0
-1737 1753 0
-29 -1737 1738 0
-1738 1754 0
-30 -1738 1739 0
-1739 1755 0
-31 -1739 1740 0
-1740 1756 0
-32 -1740 1741 0
-1741 1757 0
-33 -1741 1742 0
-1742 1758 0
-34 -1742 1743 0
-1743 1759 0
-35 -1743 1744 0
-1744 1760 0
-36 -1744 1745 0
-1745 1761 0
-37 -1745 1746 0
-1746 1762 0
-38 -1746 1747 0
-1747 1763 0
-39 -1747 1748 0
-1748 1764 0
-40 -1748 0
-25 1749 0
-1749 1765 0
-26 -1749 1750 0
-1750 1766 0
-27 -1750 1751 0
-1751 1767 0
-28 -1751 1752 0
-1752 1768 0
-29 -1752 1753 0
-1753 1769 0
-30 -1753 1754 0
-1754 1770 0
-31 -1754 1755 0
-1755 1771 0
-32 -1755 1756 0
-1756 1772 0
-33 -1756 1757 0
-1757 1773 0
-34 -1757 1758 0
-1758 1774 0
-35 -1758 1759 0
-1759 1775 0
-36 -1759 1760 0
-1760 1776 0
-37 -1760 1761 0
-1761 1777 0
-38 -1761 1762 0
-1762 1778 0
-39 -1762 1763 0
-1763 1779 0
-40 -1763 1764 0
-1764 1780 0
-41 -1764 0
-26 1765 0
-1765 1781 0
-27 -1765 1766 0
-1766 1782 0
-28 -1766 1767 0
-1767 1783 0
-29 -1767 1768 0
-1768 1784 0
-30 -1768 1769 0
-1769 1785 0
-31 -1769 1770 0
-1770 1786 0
-32 -1770 1771 0
-1771 1787 0
-33 -1771 1772 0
-1772 1788 0
-34 -1772 1773 0
-1773 1789 0
-35 -1773 1774 0
-1774 1790 0
-36 -1774 1775 0
-1775 1791 0
-37 -1775 1776 0
-1776 1792 0
-38 -1776 1777 0
-1777 1793 0
-39 -1777 1778 0
-1778 1794 0
-40 -1778 1779 0
-1779 1795 0
-41 -1779 1780 0
-1780 1796 0
-42 -1780 0
-27 1781 0
-1781 1797 0
-28 -1781 1782 0
-1782 1798 0
-29 -1782 1783 0
-1783 1799 0
-30 -1783 1784 0
-1784 1800 0
-31 -1784 1785 0
-1785 1801 0
-32 -1785 1786 0
-1786 1802 0
-33 -1786 1787 0
-1787 1803 0
-34 -1787 1788 0
-1788 1804 0
-35 -1788 1789 0
-1789 1805 0
-36 -1789 1790 0
-1790 1806 0
-37 -1790 1791 0
-1791 1807 0
-38 -1791 1792 0
-1792 1808 0
-39 -1792 1793 0
-1793 1809 0
-40 -1793 1794 0
-1794 1810 0
-41 -1794 1795 0
-1795 1811 0
-42 -1795 1796 0
-1796 1812 0
-43 -1796 0
-28 1797 0
-1797 1813 0
-29 -1797 1798 0
-1798 1814 0
-30 -1798 1799 0
-1799 1815 0
-31 -1799 1800 0
-1800 1816 0
-32 -1800 1801 0
-1801 1817 0
-33 -1801 1802 0
-1802 1818 0
-34 -1802 1803 0
-1803 1819 0
-35 -1803 1804 0
-1804 1820 0
-36 -1804 1805 0
-1805 1821 0
-37 -1805 1806 0
-1806 1822 0
-38 -1806 1807 0
-1807 1823 0
-39 -1807 1808 0
-1808 1824 0
-40 -1808 1809 0
-1809 1825 0
-41 -1809 1810 0
-1810 1826 0
-42 -1810 1811 0
-1811 1827 0
-43 -1811 1812 0
-1812 1828 0
-44 -1812 0
-29 1813 0
-1813 1829 0
-30 -1813 1814 0
-1814 1830 0
-31 -1814 1815 0
-1815 1831 0
-32 -1815 1816 0
-1816 1832 0
-33 -1816 1817 0
-1817 1833 0
-34 -1817 1818 0
-1818 1834 0
-35 -1818 1819 0
-1819 1835 0
-36 -1819 1820 0
-1820 1836 0
-37 -1820 1821 0
-1821 1837 0
-38 -1821 1822 0
-1822 1838 0
-39 -1822 1823 0
-1823 1839 0
-40 -1823 1824 0
-1824 1840 0
-41 -1824 1825 0
-1825 1841 0
-42 -1825 1826 0
-1826 1842 0
-43 -1826 1827 0
-1827 1843 0
-44 -1827 1828 0
-1828 1844 0
-45 -1828 0
-30 1829 0
-1829 1845 0
-31 -1829 1830 0
-1830 1846 0
-32 -1830 1831 0
-1831 1847 0
-33 -1831 1832 0
-1832 1848 0
-34 -1832 1833 0
-1833 1849 0
-35 -1833 1834 0
-1834 1850 0
-36 -1834 1835 0
-1835 1851 0
-37 -1835 1836 0
-1836 1852 0
-38 -1836 1837 0
-1837 1853 0
-39 -1837 1838 0
-1838 1854 0
-40 -1838 1839 0
-1839 1855 0
-41 -1839 1840 0
-1840 1856 0
-42 -1840 1841 0
-1841 1857 0
-43 -1841 1842 0
-1842 1858 0
-44 -1842 1843 0
-1843 1859 0
-45 -1843 1844 0
-1844 1860 0
-46 -1844 0
-31 1845 0
-1845 1861 0
-32 -1845 1846 0
-1846 1862 0
-33 -1846 1847 0
-1847 1863 0
-34 -1847 1848 0
-1848 1864 0
-35 -1848 1849 0
-1849 1865 0
-36 -1849 1850 0
-1850 1866 0
-37 -1850 1851 0
-1851 1867 0
-38 -1851 1852 0
-1852 1868 0
-39 -1852 1853 0
-1853 1869 0
-40 -1853 1854 0
-1854 1870 0
-41 -1854 1855 0
-1855 1871 0
-42 -1855 1856 0
-1856 1872 0
-43 -1856 1857 0
-1857 1873 0
-44 -1857 1858 0
-1858 1874 0
-45 -1858 1859 0
-1859 1875 0
-46 -1859 1860 0
-1860 1876 0
-47 -1860 0
-32 1861 0
-1861 1877 0
-33 -1861 1862 0
-1862 1878 0
-34 -1862 1863 0
-1863 1879 0
-35 -1863 1864 0
-1864 1880 0
-36 -1864 1865 0
-1865 1881 0
-37 -1865 1866 0
-1866 1882 0
-38 -1866 1867 0
-1867 1883 0
-39 -1867 1868 0
-1868 1884 0
-40 -1868 1869 0
-1869 1885 0
-41 -1869 1870 0
-1870 1886 0
-42 -1870 1871 0
-1871 1887 0
-43 -1871 1872 0
-1872 1888 0
-44 -1872 1873 0
-1873 1889 0
-45 -1873 1874 0
-1874 1890 0
-46 -1874 1875 0
-1875 1891 0
-47 -1875 1876 0
-1876 1892 0
-48 -1876 0
-33 1877 0
-1877 1893 0
-34 -1877 1878 0
-1878 1894 0
-35 -1878 1879 0
-1879 1895 0
-36 -1879 1880 0
-1880 1896 0
-37 -1880 1881 0
-1881 1897 0
-38 -1881 1882 0
-1882 1898 0
-39 -1882 1883 0
-1883 1899 0
-40 -1883 1884 0
-1884 1900 0
-41 -1884 1885 0
-1885 1901 0
-42 -1885 1886 0
-1886 1902 0
-43 -1886 1887 0
-1887 1903 0
-44 -1887 1888 0
-1888 1904 0
-45 -1888 1889 0
-1889 1905 0
-46 -1889 1890 0
-1890 1906 0
-47 -1890 1891 0
-1891 1907 0
-48 -1891 1892 0
-1892 1908 0
-49 -1892 0
-34 1893 0
-1893 1909 0
-35 -1893 1894 0
-1894 1910 0
-36 -1894 1895 0
-1895 1911 0
-37 -1895 1896 0
-1896 1912 0
-38 -1896 1897 0
-1897 1913 0
-39 -1897 1898 0
-1898 1914 0
-40 -1898 1899 0
-1899 1915 0
-41 -1899 1900 0
-1900 1916 0
-42 -1900 1901 0
-1901 1917 0
-43 -1901 1902 0
-1902 1918 0
-44 -1902 1903 0
-1903 1919 0
-45 -1903 1904 0
-1904 1920 0
-46 -1904 1905 0
-1905 1921 0
-47 -1905 1906 0
-1906 1922 0
-48 -1906 1907 0
-1907 1923 0
-49 -1907 1908 0
-1908 1924 0
-50 -1908 0
-35 1909 0
-1909 1925 0
-36 -1909 1910 0
-1910 1926 0
-37 -1910 1911 0
-1911 1927 0
-38 -1911 1912 0
-1912 1928 0
-39 -1912 1913 0
-1913 1929 0
-40 -1913 1914 0
-1914 1930 0
-41 -1914 1915 0
-1915 1931 0
-42 -1915 1916 0
-1916 1932 0
-43 -1916 1917 0
-1917 1933 0
-44 -1917 1918 0
-1918 1934 0
-45 -1918 1919 0
-1919 1935 0
-46 -1919 1920 0
-1920 1936 0
-47 -1920 1921 0
-1921 1937 0
-48 -1921 1922 0
-1922 1938 0
-49 -1922 1923 0
-1923 1939 0
-50 -1923 1924 0
-1924 1940 0
-51 -1924 0
-36 1925 0
-1925 1941 0
-37 -1925 1926 0
-1926 1942 0
-38 -1926 1927 0
-1927 1943 0
-39 -1927 1928 0
-1928 1944 0
-40 -1928 1929 0
-1929 1945 0
-41 -1929 1930 0
-1930 1946 0
-42 -1930 1931 0
-1931 1947 0
-43 -1931 1932 0
-1932 1948 0
-44 -1932 1933 0
-1933 1949 0
-45 -1933 1934 0
-1934 1950 0
-46 -1934 1935 0
-1935 1951 0
-47 -1935 1936 0
-1936 1952 0
-48 -1936 1937 0
-1937 1953 0
-49 -1937 1938 0
-1938 1954 0
-50 -1938 1939 0
-1939 1955 0
-51 -1939 1940 0
-1940 1956 0
-52 -1940 0
-37 1941 0
-1941 1957 0
-38 -1941 1942 0
-1942 1958 0
-39 -1942 1943 0
-1943 1959 0
-40 -1943 1944 0
-1944 1960 0
-41 -1944 1945 0
-1945 1961 0
-42 -1945 1946 0
-1946 1962 0
-43 -1946 1947 0
-1947 1963 0
-44 -1947 1948 0
-1948 1964 0
-45 -1948 1949 0
-1949 1965 0
-46 -1949 1950 0
-1950 1966 0
-47 -1950 1951 0
-1951 1967 0
-48 -1951 1952 0
-1952 1968 0
-49 -1952 1953 0
-1953 1969 0
-50 -1953 1954 0
-1954 1970 0
-51 -1954 1955 0
-1955 1971 0
-52 -1955 1956 0
-1956 1972 0
-53 -1956 0
-38 1957 0
-1957 1973 0
-39 -1957 1958 0
-1958 1974 0
-40 -1958 1959 0
-1959 1975 0
-41 -1959 1960 0
-1960 1976 0
-42 -1960 1961 0
-1961 1977 0
-43 -1961 1962 0
-1962 1978 0
-44 -1962 1963 0
-1963 1979 0
-45 -1963 1964 0
-1964 1980 0
-46 -1964 1965 0
-1965 1981 0
-47 -1965 1966 0
-1966 1982 0
-48 -1966 1967 0
-1967 1983 0
-49 -1967 1968 0
-1968 1984 0
-50 -1968 1969 0
-1969 1985 0
-51 -1969 1970 0
-1970 1986 0
-52 -1970 1971 0
-1971 1987 0
-53 -1971 1972 0
-1972 1988 0
-54 -1972 0
-39 1973 0
-1973 1989 0
-40 -1973 1974 0
-1974 1990 0
-41 -1974 1975 0
-1975 1991 0
-42 -1975 1976 0
-1976 1992 0
-43 -1976 1977 0
-1977 1993 0
-44 -1977 1978 0
-1978 1994 0
-45 -1978 1979 0
-1979 1995 0
-46 -1979 1980 0
-1980 1996 0
-47 -1980 1981 0
-1981 1997 0
-48 -1981 1982 0
-1982 1998 0
-49 -1982 1983 0
-1983 1999 0
-50 -1983 1984 0
-1984 2000 0
-51 -1984 1985 0
-1985 2001 0
-52 -1985 1986 0
-1986 2002 0
-53 -1986 1987 0
-1987 2003 0
-54 -1987 1988 0
-1988 2004 0
-55 -1988 0
-40 1989 0
-1989 2005 0
-41 -1989 1990 0
-1990 2006 0
-42 -1990 1991 0
-1991 2007 0
-43 -1991 1992 0
-1992 2008 0
-44 -1992 1993 0
-1993 2009 0
-45 -1993 1994 0
-1994 2010 0
-46 -1994 1995 0
-1995 2011 0
-47 -1995 1996 0
-1996 2012 0
-48 -1996 1997 0
-1997 2013 0
-49 -1997 1998 0
-1998 2014 0
-50 -1998 1999 0
-1999 2015 0
-51 -1999 2000 0
-2000 2016 0
-52 -2000 2001 0
-2001 2017 0
-53 -2001 2002 0
-2002 2018 0
-54 -2002 2003 0
-2003 2019 0
-55 -2003 2004 0
-2004 2020 0
-56 -2004 0
-41 2005 0
-2005 2021 0
-42 -2005 2006 0
-2006 2022 0
-43 -2006 2007 0
-2007 2023 0
-44 -2007 2008 0
-2008 2024 0
-45 -2008 2009 0
-2009 2025 0
-46 -2009 2010 0
-2010 2026 0
-47 -2010 2011 0
-2011 2027 0
-48 -2011 2012 0
-2012 2028 0
-49 -2012 2013 0
-2013 2029 0
-50 -2013 2014 0
-2014 2030 0
-51 -2014 2015 0
-2015 2031 0
-52 -2015 2016 0
-2016 2032 0
-53 -2016 2017 0
-2017 2033 0
-54 -2017 2018 0
-2018 2034 0
-55 -2018 2019 0
-2019 2035 0
-56 -2019 2020 0
-2020 2036 0
-57 -2020 0
-42 2021 0
-2021 2037 0
-43 -2021 2022 0
-2022 2038 0
-44 -2022 2023 0
-2023 2039 0
-45 -2023 2024 0
-2024 2040 0
-46 -2024 2025 0
-2025 2041 0
-47 -2025 2026 0
-2026 2042 0
-48 -2026 2027 0
-2027 2043 0
-49 -2027 2028 0
-2028 2044 0
-50 -2028 2029 0
-2029 2045 0
-51 -2029 2030 0
-2030 2046 0
-52 -2030 2031 0
-2031 2047 0
-53 -2031 2032 0
-2032 2048 0
-54 -2032 2033 0
-2033 2049 0
-55 -2033 2034 0
-2034 2050 0
-56 -2034 2035 0
-2035 2051 0
-57 -2035 2036 0
-2036 2052 0
-58 -2036 0
-43 2037 0
-2037 2053 0
-44 -2037 2038 0
-2038 2054 0
-45 -2038 2039 0
-2039 2055 0
-46 -2039 2040 0
-2040 2056 0
-47 -2040 2041 0
-2041 2057 0
-48 -2041 2042 0
-2042 2058 0
-49 -2042 2043 0
-2043 2059 0
-50 -2043 2044 0
-2044 2060 0
-51 -2044 2045 0
-2045 2061 0
-52 -2045 2046 0
-2046 2062 0
-53 -2046 2047 0
-2047 2063 0
-54 -2047 2048 0
-2048 2064 0
-55 -2048 2049 0
-2049 2065 0
-56 -2049 2050 0
-2050 2066 0
-57 -2050 2051 0
-2051 2067 0
-58 -2051 2052 0
-2052 2068 0
-59 -2052 0
-44 2053 0
-2053 2069 0
-45 -2053 2054 0
-2054 2070 0
-46 -2054 2055 0
-2055 2071 0
-47 -2055 2056 0
-2056 2072 0
-48 -2056 2057 0
-2057 2073 0
-49 -2057 2058 0
-2058 2074 0
-50 -2058 2059 0
-2059 2075 0
-51 -2059 2060 0
-2060 2076 0
-52 -2060 2061 0
-2061 2077 0
-53 -2061 2062 0
-2062 2078 0
-54 -2062 2063 0
-2063 2079 0
-55 -2063 2064 0
-2064 2080 0
-56 -2064 2065 0
-2065 2081 0
-57 -2065 2066 0
-2066 2082 0
-58 -2066 2067 0
-2067 2083 0
-59 -2067 2068 0
-2068 2084 0
-60 -2068 0
-45 2069 0
-2069 2085 0
-46 -2069 2070 0
-2070 2086 0
-47 -2070 2071 0
-2071 2087 0
-48 -2071 2072 0
-2072 2088 0
-49 -2072 2073 0
-2073 2089 0
-50 -2073 2074 0
-2074 2090 0
-51 -2074 2075 0
-2075 2091 0
-52 -2075 2076 0
-2076 2092 0
-53 -2076 2077 0
-2077 2093 0
-54 -2077 2078 0
-2078 2094 0
-55 -2078 2079 0
-2079 2095 0
-56 -2079 2080 0
-2080 2096 0
-57 -2080 2081 0
-2081 2097 0
-58 -2081 2082 0
-2082 2098 0
-59 -2082 2083 0
-2083 2099 0
-60 -2083 2084 0
-2084 2100 0
-61 -2084 0
-46 2085 0
-2085 2101 0
-47 -2085 2086 0
-2086 2102 0
-48 -2086 2087 0
-2087 2103 0
-49 -2087 2088 0
-2088 2104 0
-50 -2088 2089 0
-2089 2105 0
-51 -2089 2090 0
-2090 2106 0
-52 -2090 2091 0
-2091 2107 0
-53 -2091 2092 0
-2092 2108 0
-54 -2092 2093 0
-2093 2109 0
-55 -2093 2094 0
-2094 2110 0
-56 -2094 2095 0
-2095 2111 0
-57 -2095 2096 0
-2096 2112 0
-58 -2096 2097 0
-2097 2113 0
-59 -2097 2098 0
-2098 2114 0
-60 -2098 2099 0
-2099 2115 0
-61 -2099 2100 0
-2100 2116 0
-62 -2100 0
-47 2101 0
-2101 2117 0
-48 -2101 2102 0
-2102 2118 0
-49 -2102 2103 0
-2103 2119 0
-50 -2103 2104 0
-2104 2120 0
-51 -2104 2105 0
-2105 2121 0
-52 -2105 2106 0
-2106 2122 0
-53 -2106 2107 0
-2107 2123 0
-54 -2107 2108 0
-2108 2124 0
-55 -2108 2109 0
-2109 2125 0
-56 -2109 2110 0
-2110 2126 0
-57 -2110 2111 0
-2111 2127 0
-58 -2111 2112 0
-2112 2128 0
-59 -2112 2113 0
-2113 2129 0
-60 -2113 2114 0
-2114 2130 0
-61 -2114 2115 0
-2115 2131 0
-62 -2115 2116 0
-2116 2132 0
-63 -2116 0
-48 2117 0
-2117 2133 0
-49 -2117 2118 0
-2118 2134 0
-50 -2118 2119 0
-2119 2135 0
-51 -2119 2120 0
-2120 2136 0
-52 -2120 2121 0
-2121 2137 0
-53 -2121 2122 0
-2122 2138 0
-54 -2122 2123 0
-2123 2139 0
-55 -2123 2124 0
-2124 2140 0
-56 -2124 2125 0
-2125 2141 0
-57 -2125 2126 0
-2126 2142 0
-58 -2126 2127 0
-2127 2143 0
-59 -2127 2128 0
-2128 2144 0
-60 -2128 2129 0
-2129 2145 0
-61 -2129 2130 0
-2130 2146 0
-62 -2130 2131 0
-2131 2147 0
-63 -2131 2132 0
-2132 2148 0
-64 -2132 0
-49 2133 0
-2133 2149 0
-50 -2133 2134 0
-2134 2150 0
-51 -2134 2135 0
-2135 2151 0
-52 -2135 2136 0
-2136 2152 0
-53 -2136 2137 0
-2137 2153 0
-54 -2137 2138 0
-2138 2154 0
-55 -2138 2139 0
-2139 2155 0
-56 -2139 2140 0
-2140 2156 0
-57 -2140 2141 0
-2141 2157 0
-58 -2141 2142 0
-2142 2158 0
-59 -2142 2143 0
-2143 2159 0
-60 -2143 2144 0
-2144 2160 0
-61 -2144 2145 0
-2145 2161 0
-62 -2145 2146 0
-2146 2162 0
-63 -2146 2147 0
-2147 2163 0
-64 -2147 2148 0
-2148 2164 0
-65 -2148 0
-50 2149 0
-2149 2165 0
-51 -2149 2150 0
-2150 2166 0
-52 -2150 2151 0
-2151 2167 0
-53 -2151 2152 0
-2152 2168 0
-54 -2152 2153 0
-2153 2169 0
-55 -2153 2154 0
-2154 2170 0
-56 -2154 2155 0
-2155 2171 0
-57 -2155 2156 0
-2156 2172 0
-58 -2156 2157 0
-2157 2173 0
-59 -2157 2158 0
-2158 2174 0
-60 -2158 2159 0
-2159 2175 0
-61 -2159 2160 0
-2160 2176 0
-62 -2160 2161 0
-2161 2177 0
-63 -2161 2162 0
-2162 2178 0
-64 -2162 2163 0
-2163 2179 0
-65 -2163 2164 0
-2164 2180 0
-66 -2164 0
-51 2165 0
-2165 2181 0
-52 -2165 2166 0
-2166 2182 0
-53 -2166 2167 0
-2167 2183 0
-54 -2167 2168 0
-2168 2184 0
-55 -2168 2169 0
-2169 2185 0
-56 -2169 2170 0
-2170 2186 0
-57 -2170 2171 0
-2171 2187 0
-58 -2171 2172 0
-2172 2188 0
-59 -2172 2173 0
-2173 2189 0
-60 -2173 2174 0
-2174 2190 0
-61 -2174 2175 0
-2175 2191 0
-62 -2175 2176 0
-2176 2192 0
-63 -2176 2177 0
-2177 2193 0
-64 -2177 2178 0
-2178 2194 0
-65 -2178 2179 0
-2179 2195 0
-66 -2179 2180 0
-2180 2196 0
-67 -2180 0
-52 2181 0
-2181 2197 0
-53 -2181 2182 0
-2182 2198 0
-54 -2182 2183 0
-2183 2199 0
-55 -2183 2184 0
-2184 2200 0
-56 -2184 2185 0
-2185 2201 0
-57 -2185 2186 0
-2186 2202 0
-58 -2186 2187 0
-2187 2203 0
-59 -2187 2188 0
-2188 2204 0
-60 -2188 2189 0
-2189 2205 0
-61 -2189 2190 0
-2190 2206 0
-62 -2190 2191 0
-2191 2207 0
-63 -2191 2192 0
-2192 2208 0
-64 -2192 2193 0
-2193 2209 0
-65 -2193 2194 0
-2194 2210 0
-66 -2194 2195 0
-2195 2211 0
-67 -2195 2196 0
-2196 2212 0
-68 -2196 0
-53 2197 0
-2197 2213 0
-54 -2197 2198 0
-2198 2214 0
-55 -2198 2199 0
-2199 2215 0
-56 -2199 2200 0
-2200 2216 0
-57 -2200 2201 0
-2201 2217 0
-58 -2201 2202 0
-2202 2218 0
-59 -2202 2203 0
-2203 2219 0
-60 -2203 2204 0
-2204 2220 0
-61 -2204 2205 0
-2205 2221 0
-62 -2205 2206 0
-2206 2222 0
-63 -2206 2207 0
-2207 2223 0
-64 -2207 2208 0
-2208 2224 0
-65 -2208 2209 0
-2209 2225 0
-66 -2209 2210 0
-2210 2226 0
-67 -2210 2211 0
-2211 2227 0
-68 -2211 2212 0
-2212 2228 0
-69 -2212 0
-54 2213 0
-2213 2229 0
-55 -2213 2214 0
-2214 2230 0
-56 -2214 2215 0
-2215 2231 0
-57 -2215 2216 0
-2216 2232 0
-58 -2216 2217 0
-2217 2233 0
-59 -2217 2218 0
-2218 2234 0
-60 -2218 2219 0
-2219 2235 0
-61 -2219 2220 0
-2220 2236 0
-62 -2220 2221 0
-2221 2237 0
-63 -2221 2222 0
-2222 2238 0
-64 -2222 2223 0
-2223 2239 0
-65 -2223 2224 0
-2224 2240 0
-66 -2224 2225 0
-2225 2241 0
-67 -2225 2226 0
-2226 2242 0
-68 -2226 2227 0
-2227 2243 0
-69 -2227 2228 0
-2228 2244 0
-70 -2228 0
-55 2229 0
-2229 2245 0
-56 -2229 2230 0
-2230 2246 0
-57 -2230 2231 0
-2231 2247 0
-58 -2231 2232 0
-2232 2248 0
-59 -2232 2233 0
-2233 2249 0
-60 -2233 2234 0
-2234 2250 0
-61 -2234 2235 0
-2235 2251 0
-62 -2235 2236 0
-2236 2252 0
-63 -2236 2237 0
-2237 2253 0
-64 -2237 2238 0
-2238 2254 0
-65 -2238 2239 0
-2239 2255 0
-66 -2239 2240 0
-2240 2256 0
-67 -2240 2241 0
-2241 2257 0
-68 -2241 2242 0
-2242 2258 0
-69 -2242 2243 0
-2243 2259 0
-70 -2243 2244 0
-2244 2260 0
-71 -2244 0
-56 2245 0
-2245 2261 0
-57 -2245 2246 0
-2246 2262 0
-58 -2246 2247 0
-2247 2263 0
-59 -2247 2248 0
-2248 2264 0
-60 -2248 2249 0
-2249 2265 0
-61 -2249 2250 0
-2250 2266 0
-62 -2250 2251 0
-2251 2267 0
-63 -2251 2252 0
-2252 2268 0
-64 -2252 2253 0
-2253 2269 0
-65 -2253 2254 0
-2254 2270 0
-66 -2254 2255 0
-2255 2271 0
-67 -2255 2256 0
-2256 2272 0
-68 -2256 2257 0
-2257 2273 0
-69 -2257 2258 0
-2258 2274 0
-70 -2258 2259 0
-2259 2275 0
-71 -2259 2260 0
-2260 2276 0
-72 -2260 0
-57 2261 0
-2261 2277 0
-58 -2261 2262 0
-2262 2278 0
-59 -2262 2263 0
-2263 2279 0
-60 -2263 2264 0
-2264 2280 0
-61 -2264 2265 0
-2265 2281 0
-62 -2265 2266 0
-2266 2282 0
-63 -2266 2267 0
-2267 2283 0
-64 -2267 2268 0
-2268 2284 0
-65 -2268 2269 0
-2269 2285 0
-66 -2269 2270 0
-2270 2286 0
-67 -2270 2271 0
-2271 2287 0
-68 -2271 2272 0
-2272 2288 0
-69 -2272 2273 0
-2273 2289 0
-70 -2273 2274 0
-2274 2290 0
-71 -2274 2275 0
-2275 2291 0
-72 -2275 2276 0
-2276 2292 0
-73 -2276 0
-58 2277 0
-2277 2293 0
-59 -2277 2278 0
-2278 2294 0
-60 -2278 2279 0
-2279 2295 0
-61 -2279 2280 0
-2280 2296 0
-62 -2280 2281 0
-2281 2297 0
-63 -2281 2282 0
-2282 2298 0
-64 -2282 2283 0
-2283 2299 0
-65 -2283 2284 0
-2284 2300 0
-66 -2284 2285 0
-2285 2301 0
-67 -2285 2286 0
-2286 2302 0
-68 -2286 2287 0
-2287 2303 0
-69 -2287 2288 0
-2288 2304 0
-70 -2288 2289 0
-2289 2305 0
-71 -2289 2290 0
-2290 2306 0
-72 -2290 2291 0
-2291 2307 0
-73 -2291 2292 0
-2292 2308 0
-74 -2292 0
-59 2293 0
-2293 2309 0
-60 -2293 2294 0
-2294 2310 0
-61 -2294 2295 0
-2295 2311 0
-62 -2295 2296 0
-2296 2312 0
-63 -2296 2297 0
-2297 2313 0
-64 -2297 2298 0
-2298 2314 0
-65 -2298 2299 0
-2299 2315 0
-66 -2299 2300 0
-2300 2316 0
-67 -2300 2301 0
-2301 2317 0
-68 -2301 2302 0
-2302 2318 0
-69 -2302 2303 0
-2303 2319 0
-70 -2303 2304 0
-2304 2320 0
-71 -2304 2305 0
-2305 2321 0
-72 -2305 2306 0
-2306 2322 0
-73 -2306 2307 0
-2307 2323 0
-74 -2307 2308 0
-2308 2324 0
-75 -2308 0
-60 2309 0
-2309 2325 0
-61 -2309 2310 0
-2310 2326 0
-62 -2310 2311 0
-2311 2327 0
-63 -2311 2312 0
-2312 2328 0
-64 -2312 2313 0
-2313 2329 0
-65 -2313 2314 0
-2314 2330 0
-66 -2314 2315 0
-2315 2331 0
-67 -2315 2316 0
-2316 2332 0
-68 -2316 2317 0
-2317 2333 0
-69 -2317 2318 0
-2318 2334 0
-70 -2318 2319 0
-2319 2335 0
-71 -2319 2320 0
-2320 2336 0
-72 -2320 2321 0
-2321 2337 0
-73 -2321 2322 0
-2322 2338 0
-74 -2322 2323 0
-2323 2339 0
-75 -2323 2324 0
-2324 2340 0
-76 -2324 0
-61 2325 0
-2325 2341 0
-62 -2325 2326 0
-2326 2342 0
-63 -2326 2327 0
-2327 2343 0
-64 -2327 2328 0
-2328 2344 0
-65 -2328 2329 0
-2329 2345 0
-66 -2329 2330 0
-2330 2346 0
-67 -2330 2331 0
-2331 2347 0
-68 -2331 2332 0
-2332 2348 0
-69 -2332 2333 0
-2333 2349 0
-70 -2333 2334 0
-2334 2350 0
-71 -2334 2335 0
-2335 2351 0
-72 -2335 2336 0
-2336 2352 0
-73 -2336 2337 0
-2337 2353 0
-74 -2337 2338 0
-2338 2354 0
-75 -2338 2339 0
-2339 2355 0
-76 -2339 2340 0
-2340 2356 0
-77 -2340 0
-62 2341 0
-2341 2357 0
-63 -2341 2342 0
-2342 2358 0
-64 -2342 2343 0
-2343 2359 0
-65 -2343 2344 0
-2344 2360 0
-66 -2344 2345 0
-2345 2361 0
-67 -2345 2346 0
-2346 2362 0
-68 -2346 2347 0
-2347 2363 0
-69 -2347 2348 0
-2348 2364 0
-70 -2348 2349 0
-2349 2365 0
-71 -2349 2350 0
-2350 2366 0
-72 -2350 2351 0
-2351 2367 0
-73 -2351 2352 0
-2352 2368 0
-74 -2352 2353 0
-2353 2369 0
-75 -2353 2354 0
-2354 2370 0
-76 -2354 2355 0
-2355 2371 0
-77 -2355 2356 0
-2356 2372 0
-78 -2356 0
-63 2357 0
-2357 2373 0
-64 -2357 2358 0
-2358 2374 0
-65 -2358 2359 0
-2359 2375 0
-66 -2359 2360 0
-2360 2376 0
-67 -2360 2361 0
-2361 2377 0
-68 -2361 2362 0
-2362 2378 0
-69 -2362 2363 0
-2363 2379 0
-70 -2363 2364 0
-2364 2380 0
-71 -2364 2365 0
-2365 2381 0
-72 -2365 2366 0
-2366 2382 0
-73 -2366 2367 0
-2367 2383 0
-74 -2367 2368 0
-2368 2384 0
-75 -2368 2369 0
-2369 2385 0
-76 -2369 2370 0
-2370 2386 0
-77 -2370 2371 0
-2371 2387 0
-78 -2371 2372 0
-2372 2388 0
-79 -2372 0
-64 2373 0
-2373 2389 0
-65 -2373 2374 0
-2374 2390 0
-66 -2374 2375 0
-2375 2391 0
-67 -2375 2376 0
-2376 2392 0
-68 -2376 2377 0
-2377 2393 0
-69 -2377 2378 0
-2378 2394 0
-70 -2378 2379 0
-2379 2395 0
-71 -2379 2380 0
-2380 2396 0
-72 -2380 2381 0
-2381 2397 0
-73 -2381 2382 0
-2382 2398 0
-74 -2382 2383 0
-2383 2399 0
-75 -2383 2384 0
-2384 2400 0
-76 -2384 2385 0
-2385 2401 0
-77 -2385 2386 0
-2386 2402 0
-78 -2386 2387 0
-2387 2403 0
-79 -2387 2388 0
-2388 2404 0
-80 -2388 0
-65 2389 0
-2389 2405 0
-66 -2389 2390 0
-2390 2406 0
-67 -2390 2391 0
-2391 2407 0
-68 -2391 2392 0
-2392 2408 0
-69 -2392 2393 0
-2393 2409 0
-70 -2393 2394 0
-2394 2410 0
-71 -2394 2395 0
-2395 2411 0
-72 -2395 2396 0
-2396 2412 0
-73 -2396 2397 0
-2397 2413 0
-74 -2397 2398 0
-2398 2414 0
-75 -2398 2399 0
-2399 2415 0
-76 -2399 2400 0
-2400 2416 0
-77 -2400 2401 0
-2401 2417 0
-78 -2401 2402 0
-2402 2418 0
-79 -2402 2403 0
-2403 2419 0
-80 -2403 2404 0
-2404 2420 0
-81 -2404 0
-66 2405 0
-2405 2421 0
-67 -2405 2406 0
-2406 2422 0
-68 -2406 2407 0
-2407 2423 0
-69 -2407 2408 0
-2408 2424 0
-70 -2408 2409 0
-2409 2425 0
-71 -2409 2410 0
-2410 2426 0
-72 -2410 2411 0
-2411 2427 0
-73 -2411 2412 0
-2412 2428 0
-74 -2412 2413 0
-2413 2429 0
-75 -2413 2414 0
-2414 2430 0
-76 -2414 2415 0
-2415 2431 0
-77 -2415 2416 0
-2416 2432 0
-78 -2416 2417 0
-2417 2433 0
-79 -2417 2418 0
-2418 2434 0
-80 -2418 2419 0
-2419 2435 0
-81 -2419 2420 0
-2420 2436 0
-82 -2420 0
-67 2421 0
-2421 2437 0
-68 -2421 2422 0
-2422 2438 0
-69 -2422 2423 0
-2423 2439 0
-70 -2423 2424 0
-2424 2440 0
-71 -2424 2425 0
-2425 2441 0
-72 -2425 2426 0
-2426 2442 0
-73 -2426 2427 0
-2427 2443 0
-74 -2427 2428 0
-2428 2444 0
-75 -2428 2429 0
-2429 2445 0
-76 -2429 2430 0
-2430 2446 0
-77 -2430 2431 0
-2431 2447 0
-78 -2431 2432 0
-2432 2448 0
-79 -2432 2433 0
-2433 2449 0
-80 -2433 2434 0
-2434 2450 0
-81 -2434 2435 0
-2435 2451 0
-82 -2435 2436 0
-2436 2452 0
-83 -2436 0
-68 2437 0
-2437 2453 0
-69 -2437 2438 0
-2438 2454 0
-70 -2438 2439 0
-2439 2455 0
-71 -2439 2440 0
-2440 2456 0
-72 -2440 2441 0
-2441 2457 0
-73 -2441 2442 0
-2442 2458 0
-74 -2442 2443 0
-2443 2459 0
-75 -2443 2444 0
-2444 2460 0
-76 -2444 2445 0
-2445 2461 0
-77 -2445 2446 0
-2446 2462 0
-78 -2446 2447 0
-2447 2463 0
-79 -2447 2448 0
-2448 2464 0
-80 -2448 2449 0
-2449 2465 0
-81 -2449 2450 0
-2450 2466 0
-82 -2450 2451 0
-2451 2467 0
-83 -2451 2452 0
-2452 2468 0
-84 -2452 0
-69 2453 0
-2453 2469 0
-70 -2453 2454 0
-2454 2470 0
-71 -2454 2455 0
-2455 2471 0
-72 -2455 2456 0
-2456 2472 0
-73 -2456 2457 0
-2457 2473 0
-74 -2457 2458 0
-2458 2474 0
-75 -2458 2459 0
-2459 2475 0
-76 -2459 2460 0
-2460 2476 0
-77 -2460 2461 0
-2461 2477 0
-78 -2461 2462 0
-2462 2478 0
-79 -2462 2463 0
-2463 2479 0
-80 -2463 2464 0
-2464 2480 0
-81 -2464 2465 0
-2465 2481 0
-82 -2465 2466 0
-2466 2482 0
-83 -2466 2467 0
-2467 2483 0
-84 -2467 2468 0
-2468 2484 0
-85 -2468 0
-70 2469 0
-2469 2485 0
-71 -2469 2470 0
-2470 2486 0
-72 -2470 2471 0
-2471 2487 0
-73 -2471 2472 0
-2472 2488 0
-74 -2472 2473 0
-2473 2489 0
-75 -2473 2474 0
-2474 2490 0
-76 -2474 2475 0
-2475 2491 0
-77 -2475 2476 0
-2476 2492 0
-78 -2476 2477 0
-2477 2493 0
-79 -2477 2478 0
-2478 2494 0
-80 -2478 2479 0
-2479 2495 0
-81 -2479 2480 0
-2480 2496 0
-82 -2480 2481 0
-2481 2497 0
-83 -2481 2482 0
-2482 2498 0
-84 -2482 2483 0
-2483 2499 0
-85 -2483 2484 0
-2484 2500 0
-86 -2484 0
-71 2485 0
-2485 2501 0
-72 -2485 2486 0
-2486 2502 0
-73 -2486 2487 0
-2487 2503 0
-74 -2487 2488 0
-2488 2504 0
-75 -2488 2489 0
-2489 2505 0
-76 -2489 2490 0
-2490 2506 0
-77 -2490 2491 0
-2491 2507 0
-78 -2491 2492 0
-2492 2508 0
-79 -2492 2493 0
-2493 2509 0
-80 -2493 2494 0
-2494 2510 0
-81 -2494 2495 0
-2495 2511 0
-82 -2495 2496 0
-2496 2512 0
-83 -2496 2497 0
-2497 2513 0
-84 -2497 2498 0
-2498 2514 0
-85 -2498 2499 0
-2499 2515 0
-86 -2499 2500 0
-2500 2516 0
-87 -2500 0
-72 2501 0
-2501 2517 0
-73 -2501 2502 0
-2502 2518 0
-74 -2502 2503 0
-2503 2519 0
-75 -2503 2504 0
-2504 2520 0
-76 -2504 2505 0
-2505 2521 0
-77 -2505 2506 0
-2506 2522 0
-78 -2506 2507 0
-2507 2523 0
-79 -2507 2508 0
-2508 2524 0
-80 -2508 2509 0
-2509 2525 0
-81 -2509 2510 0
-2510 2526 0
-82 -2510 2511 0
-2511 2527 0
-83 -2511 2512 0
-2512 2528 0
-84 -2512 2513 0
-2513 2529 0
-85 -2513 2514 0
-2514 2530 0
-86 -2514 2515 0
-2515 2531 0
-87 -2515 2516 0
-2516 2532 0
-88 -2516 0
-73 2517 0
-2517 2533 0
-74 -2517 2518 0
-2518 2534 0
-75 -2518 2519 0
-2519 2535 0
-76 -2519 2520 0
-2520 2536 0
-77 -2520 2521 0
-2521 2537 0
-78 -2521 2522 0
-2522 2538 0
-79 -2522 2523 0
-2523 2539 0
-80 -2523 2524 0
-2524 2540 0
-81 -2524 2525 0
-2525 2541 0
-82 -2525 2526 0
-2526 2542 0
-83 -2526 2527 0
-2527 2543 0
-84 -2527 2528 0
-2528 2544 0
-85 -2528 2529 0
-2529 2545 0
-86 -2529 2530 0
-2530 2546 0
-87 -2530 2531 0
-2531 2547 0
-88 -2531 2532 0
-2532 2548 0
-89 -2532 0
-74 2533 0
-75 -2533 2534 0
-76 -2534 2535 0
-77 -2535 2536 0
-78 -2536 2537 0
-79 -2537 2538 0
-80 -2538 2539 0
-81 -2539 2540 0
-82 -2540 2541 0
-83 -2541 2542 0
-84 -2542 2543 0
-85 -2543 2544 0
-86 -2544 2545 0
-87 -2545 2546 0
-88 -2546 2547 0
-89 -2547 2548 0
-90 -2548 0
-91 2549 0
-2549 2550 0
-92 -2549 2551 0
-2551 2552 0
-93 -2551 2553 0
-2553 2554 0
-94 -2553 2555 0
-2555 2556 0
-95 -2555 2557 0
-2557 2558 0
-96 -2557 2559 0
-2559 2560 0
-97 -2559 2561 0
-2561 2562 0
-98 -2561 2563 0
-2563 2564 0
-99 -2563 2565 0
-2565 2566 0
-100 -2565 0
-92 2550 0
-2550 2567 0
-93 -2550 2552 0
-2552 2568 0
-94 -2552 2554 0
-2554 2569 0
-95 -2554 2556 0
-2556 2570 0
-96 -2556 2558 0
-2558 2571 0
-97 -2558 2560 0
-2560 2572 0
-98 -2560 2562 0
-2562 2573 0
-99 -2562 2564 0
-2564 2574 0
-100 -2564 2566 0
-2566 2575 0
-101 -2566 0
-93 2567 0
-2567 2576 0
-94 -2567 2568 0
-2568 2577 0
-95 -2568 2569 0
-2569 2578 0
-96 -2569 2570 0
-2570 2579 0
-97 -2570 2571 0
-2571 2580 0
-98 -2571 2572 0
-2572 2581 0
-99 -2572 2573 0
-2573 2582 0
-100 -2573 2574 0
-2574 2583 0
-101 -2574 2575 0
-2575 2584 0
-102 -2575 0
-94 2576 0
-2576 2585 0
-95 -2576 2577 0
-2577 2586 0
-96 -2577 2578 0
-2578 2587 0
-97 -2578 2579 0
-2579 2588 0
-98 -2579 2580 0
-2580 2589 0
-99 -2580 2581 0
-2581 2590 0
-100 -2581 2582 0
-2582 2591 0
-101 -2582 2583 0
-2583 2592 0
-102 -2583 2584 0
-2584 2593 0
-103 -2584 0
-95 2585 0
-2585 2594 0
-96 -2585 2586 0
-2586 2595 0
-97 -2586 2587 0
-2587 2596 0
-98 -2587 2588 0
-2588 2597 0
-99 -2588 2589 0
-2589 2598 0
-100 -2589 2590 0
-2590 2599 0
-101 -2590 2591 0
-2591 2600 0
-102 -2591 2592 0
-2592 2601 0
-103 -2592 2593 0
-2593 2602 0
-104 -2593 0
-96 2594 0
-2594 2603 0
-97 -2594 2595 0
-2595 2604 0
-98 -2595 2596 0
-2596 2605 0
-99 -2596 2597 0
-2597 2606 0
-100 -2597 2598 0
-2598 2607 0
-101 -2598 2599 0
-2599 2608 0
-102 -2599 2600 0
-2600 2609 0
-103 -2600 2601 0
-2601 2610 0
-104 -2601 2602 0
-2602 2611 0
-105 -2602 0
-97 2603 0
-2603 2612 0
-98 -2603 2604 0
-2604 2613 0
-99 -2604 2605 0
-2605 2614 0
-100 -2605 2606 0
-2606 2615 0
-101 -2606 2607 0
-2607 2616 0
-102 -2607 2608 0
-2608 2617 0
-103 -2608 2609 0
-2609 2618 0
-104 -2609 2610 0
-2610 2619 0
-105 -2610 2611 0
-2611 2620 0
-106 -2611 0
-98 2612 0
-2612 2621 0
-99 -2612 2613 0
-2613 2622 0
-100 -2613 2614 0
-2614 2623 0
-101 -2614 2615 0
-2615 2624 0
-102 -2615 2616 0
-2616 2625 0
-103 -2616 2617 0
-2617 2626 0
-104 -2617 2618 0
-2618 2627 0
-105 -2618 2619 0
-2619 2628 0
-106 -2619 2620 0
-2620 2629 0
-107 -2620 0
-99 2621 0
-2621 2630 0
-100 -2621 2622 0
-2622 2631 0
-101 -2622 2623 0
-2623 2632 0
-102 -2623 2624 0
-2624 2633 0
-103 -2624 2625 0
-2625 2634 0
-104 -2625 2626 0
-2626 2635 0
-105 -2626 2627 0
-2627 2636 0
-106 -2627 2628 0
-2628 2637 0
-107 -2628 2629 0
-2629 2638 0
-108 -2629 0
-100 2630 0
-2630 2639 0
-101 -2630 2631 0
-2631 2640 0
-102 -2631 2632 0
-2632 2641 0
-103 -2632 2633 0
-2633 2642 0
-104 -2633 2634 0
-2634 2643 0
-105 -2634 2635 0
-2635 2644 0
-106 -2635 2636 0
-2636 2645 0
-107 -2636 2637 0
-2637 2646 0
-108 -2637 2638 0
-2638 2647 0
-109 -2638 0
-101 2639 0
-2639 2648 0
-102 -2639 2640 0
-2640 2649 0
-103 -2640 2641 0
-2641 2650 0
-104 -2641 2642 0
-2642 2651 0
-105 -2642 2643 0
-2643 2652 0
-106 -2643 2644 0
-2644 2653 0
-107 -2644 2645 0
-2645 2654 0
-108 -2645 2646 0
-2646 2655 0
-109 -2646 2647 0
-2647 2656 0
-110 -2647 0
-102 2648 0
-2648 2657 0
-103 -2648 2649 0
-2649 2658 0
-104 -2649 2650 0
-2650 2659 0
-105 -2650 2651 0
-2651 2660 0
-106 -2651 2652 0
-2652 2661 0
-107 -2652 2653 0
-2653 2662 0
-108 -2653 2654 0
-2654 2663 0
-109 -2654 2655 0
-2655 2664 0
-110 -2655 2656 0
-2656 2665 0
-111 -2656 0
-103 2657 0
-2657 2666 0
-104 -2657 2658 0
-2658 2667 0
-105 -2658 2659 0
-2659 2668 0
-106 -2659 2660 0
-2660 2669 0
-107 -2660 2661 0
-2661 2670 0
-108 -2661 2662 0
-2662 2671 0
-109 -2662 2663 0
-2663 2672 0
-110 -2663 2664 0
-2664 2673 0
-111 -2664 2665 0
-2665 2674 0
-112 -2665 0
-104 2666 0
-2666 2675 0
-105 -2666 2667 0
-2667 2676 0
-106 -2667 2668 0
-2668 2677 0
-107 -2668 2669 0
-2669 2678 0
-108 -2669 2670 0
-2670 2679 0
-109 -2670 2671 0
-2671 2680 0
-110 -2671 2672 0
-2672 2681 0
-111 -2672 2673 0
-2673 2682 0
-112 -2673 2674 0
-2674 2683 0
-113 -2674 0
-105 2675 0
-2675 2684 0
-106 -2675 2676 0
-2676 2685 0
-107 -2676 2677 0
-2677 2686 0
-108 -2677 2678 0
-2678 2687 0
-109 -2678 2679 0
-2679 2688 0
-110 -2679 2680 0
-2680 2689 0
-111 -2680 2681 0
-2681 2690 0
-112 -2681 2682 0
-2682 2691 0
-113 -2682 2683 0
-2683 2692 0
-114 -2683 0
-106 2684 0
-2684 2693 0
-107 -2684 2685 0
-2685 2694 0
-108 -2685 2686 0
-2686 2695 0
-109 -2686 2687 0
-2687 2696 0
-110 -2687 2688 0
-2688 2697 0
-111 -2688 2689 0
-2689 2698 0
-112 -2689 2690 0
-2690 2699 0
-113 -2690 2691 0
-2691 2700 0
-114 -2691 2692 0
-2692 2701 0
-115 -2692 0
-107 2693 0
-2693 2702 0
-108 -2693 2694 0
-2694 2703 0
-109 -2694 2695 0
-2695 2704 0
-110 -2695 2696 0
-2696 2705 0
-111 -2696 2697 0
-2697 2706 0
-112 -2697 2698 0
-2698 2707 0
-113 -2698 2699 0
-2699 2708 0
-114 -2699 2700 0
-2700 2709 0
-115 -2700 2701 0
-2701 2710 0
-116 -2701 0
-108 2702 0
-2702 2711 0
-109 -2702 2703 0
-2703 2712 0
-110 -2703 2704 0
-2704 2713 0
-111 -2704 2705 0
-2705 2714 0
-112 -2705 2706 0
-2706 2715 0
-113 -2706 2707 0
-2707 2716 0
-114 -2707 2708 0
-2708 2717 0
-115 -2708 2709 0
-2709 2718 0
-116 -2709 2710 0
-2710 2719 0
-117 -2710 0
-109 2711 0
-2711 2720 0
-110 -2711 2712 0
-2712 2721 0
-111 -2712 2713 0
-2713 2722 0
-112 -2713 2714 0
-2714 2723 0
-113 -2714 2715 0
-2715 2724 0
-114 -2715 2716 0
-2716 2725 0
-115 -2716 2717 0
-2717 2726 0
-116 -2717 2718 0
-2718 2727 0
-117 -2718 2719 0
-2719 2728 0
-118 -2719 0
-110 2720 0
-2720 2729 0
-111 -2720 2721 0
-2721 2730 0
-112 -2721 2722 0
-2722 2731 0
-113 -2722 2723 0
-2723 2732 0
-114 -2723 2724 0
-2724 2733 0
-115 -2724 2725 0
-2725 2734 0
-116 -2725 2726 0
-2726 2735 0
-117 -2726 2727 0
-2727 2736 0
-118 -2727 2728 0
-2728 2737 0
-119 -2728 0
-111 2729 0
-2729 2738 0
-112 -2729 2730 0
-2730 2739 0
-113 -2730 2731 0
-2731 2740 0
-114 -2731 2732 0
-2732 2741 0
-115 -2732 2733 0
-2733 2742 0
-116 -2733 2734 0
-2734 2743 0
-117 -2734 2735 0
-2735 2744 0
-118 -2735 2736 0
-2736 2745 0
-119 -2736 2737 0
-2737 2746 0
-120 -2737 0
-112 2738 0
-2738 2747 0
-113 -2738 2739 0
-2739 2748 0
-114 -2739 2740 0
-2740 2749 0
-115 -2740 2741 0
-2741 2750 0
-116 -2741 2742 0
-2742 2751 0
-117 -2742 2743 0
-2743 2752 0
-118 -2743 2744 0
-2744 2753 0
-119 -2744 2745 0
-2745 2754 0
-120 -2745 2746 0
-2746 2755 0
-121 -2746 0
-113 2747 0
-2747 2756 0
-114 -2747 2748 0
-2748 2757 0
-115 -2748 2749 0
-2749 2758 0
-116 -2749 2750 0
-2750 2759 0
-117 -2750 2751 0
-2751 2760 0
-118 -2751 2752 0
-2752 2761 0
-119 -2752 2753 0
-2753 2762 0
-120 -2753 2754 0
-2754 2763 0
-121 -2754 2755 0
-2755 2764 0
-122 -2755 0
-114 2756 0
-2756 2765 0
-115 -2756 2757 0
-2757 2766 0
-116 -2757 2758 0
-2758 2767 0
-117 -2758 2759 0
-2759 2768 0
-118 -2759 2760 0
-2760 2769 0
-119 -2760 2761 0
-2761 2770 0
-120 -2761 2762 0
-2762 2771 0
-121 -2762 2763 0
-2763 2772 0
-122 -2763 2764 0
-2764 2773 0
-123 -2764 0
-115 2765 0
-2765 2774 0
-116 -2765 2766 0
-2766 2775 0
-117 -2766 2767 0
-2767 2776 0
-118 -2767 2768 0
-2768 2777 0
-119 -2768 2769 0
-2769 2778 0
-120 -2769 2770 0
-2770 2779 0
-121 -2770 2771 0
-2771 2780 0
-122 -2771 2772 0
-2772 2781 0
-123 -2772 2773 0
-2773 2782 0
-124 -2773 0
-116 2774 0
-2774 2783 0
-117 -2774 2775 0
-2775 2784 0
-118 -2775 2776 0
-2776 2785 0
-119 -2776 2777 0
-2777 2786 0
-120 -2777 2778 0
-2778 2787 0
-121 -2778 2779 0
-2779 2788 0
-122 -2779 2780 0
-2780 2789 0
-123 -2780 2781 0
-2781 2790 0
-124 -2781 2782 0
-2782 2791 0
-125 -2782 0
-117 2783 0
-2783 2792 0
-118 -2783 2784 0
-2784 2793 0
-119 -2784 2785 0
-2785 2794 0
-120 -2785 2786 0
-2786 2795 0
-121 -2786 2787 0
-2787 2796 0
-122 -2787 2788 0
-2788 2797 0
-123 -2788 2789 0
-2789 2798 0
-124 -2789 2790 0
-2790 2799 0
-125 -2790 2791 0
-2791 2800 0
-126 -2791 0
-118 2792 0
-2792 2801 0
-119 -2792 2793 0
-2793 2802 0
-120 -2793 2794 0
-2794 2803 0
-121 -2794 2795 0
-2795 2804 0
-122 -2795 2796 0
-2796 2805 0
-123 -2796 2797 0
-2797 2806 0
-124 -2797 2798 0
-2798 2807 0
-125 -2798 2799 0
-2799 2808 0
-126 -2799 2800 0
-2800 2809 0
-127 -2800 0
-119 2801 0
-2801 2810 0
-120 -2801 2802 0
-2802 2811 0
-121 -2802 2803 0
-2803 2812 0
-122 -2803 2804 0
-2804 2813 0
-123 -2804 2805 0
-2805 2814 0
-124 -2805 2806 0
-2806 2815 0
-125 -2806 2807 0
-2807 2816 0
-126 -2807 2808 0
-2808 2817 0
-127 -2808 2809 0
-2809 2818 0
-128 -2809 0
-120 2810 0
-2810 2819 0
-121 -2810 2811 0
-2811 2820 0
-122 -2811 2812 0
-2812 2821 0
-123 -2812 2813 0
-2813 2822 0
-124 -2813 2814 0
-2814 2823 0
-125 -2814 2815 0
-2815 2824 0
-126 -2815 2816 0
-2816 2825 0
-127 -2816 2817 0
-2817 2826 0
-128 -2817 2818 0
-2818 2827 0
-129 -2818 0
-121 2819 0
-2819 2828 0
-122 -2819 2820 0
-2820 2829 0
-123 -2820 2821 0
-2821 2830 0
-124 -2821 2822 0
-2822 2831 0
-125 -2822 2823 0
-2823 2832 0
-126 -2823 2824 0
-2824 2833 0
-127 -2824 2825 0
-2825 2834 0
-128 -2825 2826 0
-2826 2835 0
-129 -2826 2827 0
-2827 2836 0
-130 -2827 0
-122 2828 0
-2828 2837 0
-123 -2828 2829 0
-2829 2838 0
-124 -2829 2830 0
-2830 2839 0
-125 -2830 2831 0
-2831 2840 0
-126 -2831 2832 0
-2832 2841 0
-127 -2832 2833 0
-2833 2842 0
-128 -2833 2834 0
-2834 2843 0
-129 -2834 2835 0
-2835 2844 0
-130 -2835 2836 0
-2836 2845 0
-131 -2836 0
-123 2837 0
-2837 2846 0
-124 -2837 2838 0
-2838 2847 0
-125 -2838 2839 0
-2839 2848 0
-126 -2839 2840 0
-2840 2849 0
-127 -2840 2841 0
-2841 2850 0
-128 -2841 2842 0
-2842 2851 0
-129 -2842 2843 0
-2843 2852 0
-130 -2843 2844 0
-2844 2853 0
-131 -2844 2845 0
-2845 2854 0
-132 -2845 0
-124 2846 0
-2846 2855 0
-125 -2846 2847 0
-2847 2856 0
-126 -2847 2848 0
-2848 2857 0
-127 -2848 2849 0
-2849 2858 0
-128 -2849 2850 0
-2850 2859 0
-129 -2850 2851 0
-2851 2860 0
-130 -2851 2852 0
-2852 2861 0
-131 -2852 2853 0
-2853 2862 0
-132 -2853 2854 0
-2854 2863 0
-133 -2854 0
-125 2855 0
-2855 2864 0
-126 -2855 2856 0
-2856 2865 0
-127 -2856 2857 0
-2857 2866 0
-128 -2857 2858 0
-2858 2867 0
-129 -2858 2859 0
-2859 2868 0
-130 -2859 2860 0
-2860 2869 0
-131 -2860 2861 0
-2861 2870 0
-132 -2861 2862 0
-2862 2871 0
-133 -2862 2863 0
-2863 2872 0
-134 -2863 0
-126 2864 0
-2864 2873 0
-127 -2864 2865 0
-2865 2874 0
-128 -2865 2866 0
-2866 2875 0
-129 -2866 2867 0
-2867 2876 0
-130 -2867 2868 0
-2868 2877 0
-131 -2868 2869 0
-2869 2878 0
-132 -2869 2870 0
-2870 2879 0
-133 -2870 2871 0
-2871 2880 0
-134 -2871 2872 0
-2872 2881 0
-135 -2872 0
-127 2873 0
-2873 2882 0
-128 -2873 2874 0
-2874 2883 0
-129 -2874 2875 0
-2875 2884 0
-130 -2875 2876 0
-2876 2885 0
-131 -2876 2877 0
-2877 2886 0
-132 -2877 2878 0
-2878 2887 0
-133 -2878 2879 0
-2879 2888 0
-134 -2879 2880 0
-2880 2889 0
-135 -2880 2881 0
-2881 2890 0
-136 -2881 0
-128 2882 0
-2882 2891 0
-129 -2882 2883 0
-2883 2892 0
-130 -2883 2884 0
-2884 2893 0
-131 -2884 2885 0
-2885 2894 0
-132 -2885 2886 0
-2886 2895 0
-133 -2886 2887 0
-2887 2896 0
-134 -2887 2888 0
-2888 2897 0
-135 -2888 2889 0
-2889 2898 0
-136 -2889 2890 0
-2890 2899 0
-137 -2890 0
-129 2891 0
-2891 2900 0
-130 -2891 2892 0
-2892 2901 0
-131 -2892 2893 0
-2893 2902 0
-132 -2893 2894 0
-2894 2903 0
-133 -2894 2895 0
-2895 2904 0
-134 -2895 2896 0
-2896 2905 0
-135 -2896 2897 0
-2897 2906 0
-136 -2897 2898 0
-2898 2907 0
-137 -2898 2899 0
-2899 2908 0
-138 -2899 0
-130 2900 0
-2900 2909 0
-131 -2900 2901 0
-2901 2910 0
-132 -2901 2902 0
-2902 2911 0
-133 -2902 2903 0
-2903 2912 0
-134 -2903 2904 0
-2904 2913 0
-135 -2904 2905 0
-2905 2914 0
-136 -2905 2906 0
-2906 2915 0
-137 -2906 2907 0
-2907 2916 0
-138 -2907 2908 0
-2908 2917 0
-139 -2908 0
-131 2909 0
-2909 2918 0
-132 -2909 2910 0
-2910 2919 0
-133 -2910 2911 0
-2911 2920 0
-134 -2911 2912 0
-2912 2921 0
-135 -2912 2913 0
-2913 2922 0
-136 -2913 2914 0
-2914 2923 0
-137 -2914 2915 0
-2915 2924 0
-138 -2915 2916 0
-2916 2925 0
-139 -2916 2917 0
-2917 2926 0
-140 -2917 0
-132 2918 0
-2918 2927 0
-133 -2918 2919 0
-2919 2928 0
-134 -2919 2920 0
-2920 2929 0
-135 -2920 2921 0
-2921 2930 0
-136 -2921 2922 0
-2922 2931 0
-137 -2922 2923 0
-2923 2932 0
-138 -2923 2924 0
-2924 2933 0
-139 -2924 2925 0
-2925 2934 0
-140 -2925 2926 0
-2926 2935 0
-141 -2926 0
-133 2927 0
-2927 2936 0
-134 -2927 2928 0
-2928 2937 0
-135 -2928 2929 0
-2929 2938 0
-136 -2929 2930 0
-2930 2939 0
-137 -2930 2931 0
-2931 2940 0
-138 -2931 2932 0
-2932 2941 0
-139 -2932 2933 0
-2933 2942 0
-140 -2933 2934 0
-2934 2943 0
-141 -2934 2935 0
-2935 2944 0
-142 -2935 0
-134 2936 0
-2936 2945 0
-135 -2936 2937 0
-2937 2946 0
-136 -2937 2938 0
-2938 2947 0
-137 -2938 2939 0
-2939 2948 0
-138 -2939 2940 0
-2940 2949 0
-139 -2940 2941 0
-2941 2950 0
-140 -2941 2942 0
-2942 2951 0
-141 -2942 2943 0
-2943 2952 0
-142 -2943 2944 0
-2944 2953 0
-143 -2944 0
-135 2945 0
-2945 2954 0
-136 -2945 2946 0
-2946 2955 0
-137 -2946 2947 0
-2947 2956 0
-138 -2947 2948 0
-2948 2957 0
-139 -2948 2949 0
-2949 2958 0
-140 -2949 2950 0
-2950 2959 0
-141 -2950 2951 0
-2951 2960 0
-142 -2951 2952 0
-2952 2961 0
-143 -2952 2953 0
-2953 2962 0
-144 -2953 0
-136 2954 0
-2954 2963 0
-137 -2954 2955 0
-2955 2964 0
-138 -2955 2956 0
-2956 2965 0
-139 -2956 2957 0
-2957 2966 0
-140 -2957 2958 0
-2958 2967 0
-141 -2958 2959 0
-2959 2968 0
-142 -2959 2960 0
-2960 2969 0
-143 -2960 2961 0
-2961 2970 0
-144 -2961 2962 0
-2962 2971 0
-145 -2962 0
-137 2963 0
-2963 2972 0
-138 -2963 2964 0
-2964 2973 0
-139 -2964 2965 0
-2965 2974 0
-140 -2965 2966 0
-2966 2975 0
-141 -2966 2967 0
-2967 2976 0
-142 -2967 2968 0
-2968 2977 0
-143 -2968 2969 0
-2969 2978 0
-144 -2969 2970 0
-2970 2979 0
-145 -2970 2971 0
-2971 2980 0
-146 -2971 0
-138 2972 0
-2972 2981 0
-139 -2972 2973 0
-2973 2982 0
-140 -2973 2974 0
-2974 2983 0
-141 -2974 2975 0
-2975 2984 0
-142 -2975 2976 0
-2976 2985 0
-143 -2976 2977 0
-2977 2986 0
-144 -2977 2978 0
-2978 2987 0
-145 -2978 2979 0
-2979 2988 0
-146 -2979 2980 0
-2980 2989 0
-147 -2980 0
-139 2981 0
-2981 2990 0
-140 -2981 2982 0
-2982 2991 0
-141 -2982 2983 0
-2983 2992 0
-142 -2983 2984 0
-2984 2993 0
-143 -2984 2985 0
-2985 2994 0
-144 -2985 2986 0
-2986 2995 0
-145 -2986 2987 0
-2987 2996 0
-146 -2987 2988 0
-2988 2997 0
-147 -2988 2989 0
-2989 2998 0
-148 -2989 0
-140 2990 0
-2990 2999 0
-141 -2990 2991 0
-2991 3000 0
-142 -2991 2992 0
-2992 3001 0
-143 -2992 2993 0
-2993 3002 0
-144 -2993 2994 0
-2994 3003 0
-145 -2994 2995 0
-2995 3004 0
-146 -2995 2996 0
-2996 3005 0
-147 -2996 2997 0
-2997 3006 0
-148 -2997 2998 0
-2998 3007 0
-149 -2998 0
-141 2999 0
-2999 3008 0
-142 -2999 3000 0
-3000 3009 0
-143 -3000 3001 0
-3001 3010 0
-144 -3001 3002 0
-3002 3011 0
-145 -3002 3003 0
-3003 3012 0
-146 -3003 3004 0
-3004 3013 0
-147 -3004 3005 0
-3005 3014 0
-148 -3005 3006 0
-3006 3015 0
-149 -3006 3007 0
-3007 3016 0
-150 -3007 0
-142 3008 0
-3008 3017 0
-143 -3008 3009 0
-3009 3018 0
-144 -3009 3010 0
-3010 3019 0
-145 -3010 3011 0
-3011 3020 0
-146 -3011 3012 0
-3012 3021 0
-147 -3012 3013 0
-3013 3022 0
-148 -3013 3014 0
-3014 3023 0
-149 -3014 3015 0
-3015 3024 0
-150 -3015 3016 0
-3016 3025 0
-151 -3016 0
-143 3017 0
-3017 3026 0
-144 -3017 3018 0
-3018 3027 0
-145 -3018 3019 0
-3019 3028 0
-146 -3019 3020 0
-3020 3029 0
-147 -3020 3021 0
-3021 3030 0
-148 -3021 3022 0
-3022 3031 0
-149 -3022 3023 0
-3023 3032 0
-150 -3023 3024 0
-3024 3033 0
-151 -3024 3025 0
-3025 3034 0
-152 -3025 0
-144 3026 0
-3026 3035 0
-145 -3026 3027 0
-3027 3036 0
-146 -3027 3028 0
-3028 3037 0
-147 -3028 3029 0
-3029 3038 0
-148 -3029 3030 0
-3030 3039 0
-149 -3030 3031 0
-3031 3040 0
-150 -3031 3032 0
-3032 3041 0
-151 -3032 3033 0
-3033 3042 0
-152 -3033 3034 0
-3034 3043 0
-153 -3034 0
-145 3035 0
-3035 3044 0
-146 -3035 3036 0
-3036 3045 0
-147 -3036 3037 0
-3037 3046 0
-148 -3037 3038 0
-3038 3047 0
-149 -3038 3039 0
-3039 3048 0
-150 -3039 3040 0
-3040 3049 0
-151 -3040 3041 0
-3041 3050 0
-152 -3041 3042 0
-3042 3051 0
-153 -3042 3043 0
-3043 3052 0
-154 -3043 0
-146 3044 0
-3044 3053 0
-147 -3044 3045 0
-3045 3054 0
-148 -3045 3046 0
-3046 3055 0
-149 -3046 3047 0
-3047 3056 0
-150 -3047 3048 0
-3048 3057 0
-151 -3048 3049 0
-3049 3058 0
-152 -3049 3050 0
-3050 3059 0
-153 -3050 3051 0
-3051 3060 0
-154 -3051 3052 0
-3052 3061 0
-155 -3052 0
-147 3053 0
-3053 3062 0
-148 -3053 3054 0
-3054 3063 0
-149 -3054 3055 0
-3055 3064 0
-150 -3055 3056 0
-3056 3065 0
-151 -3056 3057 0
-3057 3066 0
-152 -3057 3058 0
-3058 3067 0
-153 -3058 3059 0
-3059 3068 0
-154 -3059 3060 0
-3060 3069 0
-155 -3060 3061 0
-3061 3070 0
-156 -3061 0
-148 3062 0
-3062 3071 0
-149 -3062 3063 0
-3063 3072 0
-150 -3063 3064 0
-3064 3073 0
-151 -3064 3065 0
-3065 3074 0
-152 -3065 3066 0
-3066 3075 0
-153 -3066 3067 0
-3067 3076 0
-154 -3067 3068 0
-3068 3077 0
-155 -3068 3069 0
-3069 3078 0
-156 -3069 3070 0
-3070 3079 0
-157 -3070 0
-149 3071 0
-3071 3080 0
-150 -3071 3072 0
-3072 3081 0
-151 -3072 3073 0
-3073 3082 0
-152 -3073 3074 0
-3074 3083 0
-153 -3074 3075 0
-3075 3084 0
-154 -3075 3076 0
-3076 3085 0
-155 -3076 3077 0
-3077 3086 0
-156 -3077 3078 0
-3078 3087 0
-157 -3078 3079 0
-3079 3088 0
-158 -3079 0
-150 3080 0
-3080 3089 0
-151 -3080 3081 0
-3081 3090 0
-152 -3081 3082 0
-3082 3091 0
-153 -3082 3083 0
-3083 3092 0
-154 -3083 3084 0
-3084 3093 0
-155 -3084 3085 0
-3085 3094 0
-156 -3085 3086 0
-3086 3095 0
-157 -3086 3087 0
-3087 3096 0
-158 -3087 3088 0
-3088 3097 0
-159 -3088 0
-151 3089 0
-3089 3098 0
-152 -3089 3090 0
-3090 3099 0
-153 -3090 3091 0
-3091 3100 0
-154 -3091 3092 0
-3092 3101 0
-155 -3092 3093 0
-3093 3102 0
-156 -3093 3094 0
-3094 3103 0
-157 -3094 3095 0
-3095 3104 0
-158 -3095 3096 0
-3096 3105 0
-159 -3096 3097 0
-3097 3106 0
-160 -3097 0
-152 3098 0
-3098 3107 0
-153 -3098 3099 0
-3099 3108 0
-154 -3099 3100 0
-3100 3109 0
-155 -3100 3101 0
-3101 3110 0
-156 -3101 3102 0
-3102 3111 0
-157 -3102 3103 0
-3103 3112 0
-158 -3103 3104 0
-3104 3113 0
-159 -3104 3105 0
-3105 3114 0
-160 -3105 3106 0
-3106 3115 0
-161 -3106 0
-153 3107 0
-3107 3116 0
-154 -3107 3108 0
-3108 3117 0
-155 -3108 3109 0
-3109 3118 0
-156 -3109 3110 0
-3110 3119 0
-157 -3110 3111 0
-3111 3120 0
-158 -3111 3112 0
-3112 3121 0
-159 -3112 3113 0
-3113 3122 0
-160 -3113 3114 0
-3114 3123 0
-161 -3114 3115 0
-3115 3124 0
-162 -3115 0
-154 3116 0
-3116 3125 0
-155 -3116 3117 0
-3117 3126 0
-156 -3117 3118 0
-3118 3127 0
-157 -3118 3119 0
-3119 3128 0
-158 -3119 3120 0
-3120 3129 0
-159 -3120 3121 0
-3121 3130 0
-160 -3121 3122 0
-3122 3131 0
-161 -3122 3123 0
-3123 3132 0
-162 -3123 3124 0
-3124 3133 0
-163 -3124 0
-155 3125 0
-3125 3134 0
-156 -3125 3126 0
-3126 3135 0
-157 -3126 3127 0
-3127 3136 0
-158 -3127 3128 0
-3128 3137 0
-159 -3128 3129 0
-3129 3138 0
-160 -3129 3130 0
-3130 3139 0
-161 -3130 3131 0
-3131 3140 0
-162 -3131 3132 0
-3132 3141 0
-163 -3132 3133 0
-3133 3142 0
-164 -3133 0
-156 3134 0
-3134 3143 0
-157 -3134 3135 0
-3135 3144 0
-158 -3135 3136 0
-3136 3145 0
-159 -3136 3137 0
-3137 3146 0
-160 -3137 3138 0
-3138 3147 0
-161 -3138 3139 0
-3139 3148 0
-162 -3139 3140 0
-3140 3149 0
-163 -3140 3141 0
-3141 3150 0
-164 -3141 3142 0
-3142 3151 0
-165 -3142 0
-157 3143 0
-3143 3152 0
-158 -3143 3144 0
-3144 3153 0
-159 -3144 3145 0
-3145 3154 0
-160 -3145 3146 0
-3146 3155 0
-161 -3146 3147 0
-3147 3156 0
-162 -3147 3148 0
-3148 3157 0
-163 -3148 3149 0
-3149 3158 0
-164 -3149 3150 0
-3150 3159 0
-165 -3150 3151 0
-3151 3160 0
-166 -3151 0
-158 3152 0
-3152 3161 0
-159 -3152 3153 0
-3153 3162 0
-160 -3153 3154 0
-3154 3163 0
-161 -3154 3155 0
-3155 3164 0
-162 -3155 3156 0
-3156 3165 0
-163 -3156 3157 0
-3157 3166 0
-164 -3157 3158 0
-3158 3167 0
-165 -3158 3159 0
-3159 3168 0
-166 -3159 3160 0
-3160 3169 0
-167 -3160 0
-159 3161 0
-3161 3170 0
-160 -3161 3162 0
-3162 3171 0
-161 -3162 3163 0
-3163 3172 0
-162 -3163 3164 0
-3164 3173 0
-163 -3164 3165 0
-3165 3174 0
-164 -3165 3166 0
-3166 3175 0
-165 -3166 3167 0
-3167 3176 0
-166 -3167 3168 0
-3168 3177 0
-167 -3168 3169 0
-3169 3178 0
-168 -3169 0
-160 3170 0
-3170 3179 0
-161 -3170 3171 0
-3171 3180 0
-162 -3171 3172 0
-3172 3181 0
-163 -3172 3173 0
-3173 3182 0
-164 -3173 3174 0
-3174 3183 0
-165 -3174 3175 0
-3175 3184 0
-166 -3175 3176 0
-3176 3185 0
-167 -3176 3177 0
-3177 3186 0
-168 -3177 3178 0
-3178 3187 0
-169 -3178 0
-161 3179 0
-3179 3188 0
-162 -3179 3180 0
-3180 3189 0
-163 -3180 3181 0
-3181 3190 0
-164 -3181 3182 0
-3182 3191 0
-165 -3182 3183 0
-3183 3192 0
-166 -3183 3184 0
-3184 3193 0
-167 -3184 3185 0
-3185 3194 0
-168 -3185 3186 0
-3186 3195 0
-169 -3186 3187 0
-3187 3196 0
-170 -3187 0
-162 3188 0
-3188 3197 0
-163 -3188 3189 0
-3189 3198 0
-164 -3189 3190 0
-3190 3199 0
-165 -3190 3191 0
-3191 3200 0
-166 -3191 3192 0
-3192 3201 0
-167 -3192 3193 0
-3193 3202 0
-168 -3193 3194 0
-3194 3203 0
-169 -3194 3195 0
-3195 3204 0
-170 -3195 3196 0
-3196 3205 0
-171 -3196 0
-163 3197 0
-3197 3206 0
-164 -3197 3198 0
-3198 3207 0
-165 -3198 3199 0
-3199 3208 0
-166 -3199 3200 0
-3200 3209 0
-167 -3200 3201 0
-3201 3210 0
-168 -3201 3202 0
-3202 3211 0
-169 -3202 3203 0
-3203 3212 0
-170 -3203 3204 0
-3204 3213 0
-171 -3204 3205 0
-3205 3214 0
-172 -3205 0
-164 3206 0
-3206 3215 0
-165 -3206 3207 0
-3207 3216 0
-166 -3207 3208 0
-3208 3217 0
-167 -3208 3209 0
-3209 3218 0
-168 -3209 3210 0
-3210 3219 0
-169 -3210 3211 0
-3211 3220 0
-170 -3211 3212 0
-3212 3221 0
-171 -3212 3213 0
-3213 3222 0
-172 -3213 3214 0
-3214 3223 0
-173 -3214 0
-165 3215 0
-3215 3224 0
-166 -3215 3216 0
-3216 3225 0
-167 -3216 3217 0
-3217 3226 0
-168 -3217 3218 0
-3218 3227 0
-169 -3218 3219 0
-3219 3228 0
-170 -3219 3220 0
-3220 3229 0
-171 -3220 3221 0
-3221 3230 0
-172 -3221 3222 0
-3222 3231 0
-173 -3222 3223 0
-3223 3232 0
-174 -3223 0
-166 3224 0
-3224 3233 0
-167 -3224 3225 0
-3225 3234 0
-168 -3225 3226 0
-3226 3235 0
-169 -3226 3227 0
-3227 3236 0
-170 -3227 3228 0
-3228 3237 0
-171 -3228 3229 0
-3229 3238 0
-172 -3229 3230 0
-3230 3239 0
-173 -3230 3231 0
-3231 3240 0
-174 -3231 3232 0
-3232 3241 0
-175 -3232 0
-167 3233 0
-3233 3242 0
-168 -3233 3234 0
-3234 3243 0
-169 -3234 3235 0
-3235 3244 0
-170 -3235 3236 0
-3236 3245 0
-171 -3236 3237 0
-3237 3246 0
-172 -3237 3238 0
-3238 3247 0
-173 -3238 3239 0
-3239 3248 0
-174 -3239 3240 0
-3240 3249 0
-175 -3240 3241 0
-3241 3250 0
-176 -3241 0
-168 3242 0
-3242 3251 0
-169 -3242 3243 0
-3243 3252 0
-170 -3243 3244 0
-3244 3253 0
-171 -3244 3245 0
-3245 3254 0
-172 -3245 3246 0
-3246 3255 0
-173 -3246 3247 0
-3247 3256 0
-174 -3247 3248 0
-3248 3257 0
-175 -3248 3249 0
-3249 3258 0
-176 -3249 3250 0
-3250 3259 0
-177 -3250 0
-169 3251 0
-3251 3260 0
-170 -3251 3252 0
-3252 3261 0
-171 -3252 3253 0
-3253 3262 0
-172 -3253 3254 0
-3254 3263 0
-173 -3254 3255 0
-3255 3264 0
-174 -3255 3256 0
-3256 3265 0
-175 -3256 3257 0
-3257 3266 0
-176 -3257 3258 0
-3258 3267 0
-177 -3258 3259 0
-3259 3268 0
-178 -3259 0
-170 3260 0
-3260 3269 0
-171 -3260 3261 0
-3261 3270 0
-172 -3261 3262 0
-3262 3271 0
-173 -3262 3263 0
-3263 3272 0
-174 -3263 3264 0
-3264 3273 0
-175 -3264 3265 0
-3265 3274 0
-176 -3265 3266 0
-3266 3275 0
-177 -3266 3267 0
-3267 3276 0
-178 -3267 3268 0
-3268 3277 0
-179 -3268 0
-171 3269 0
-172 -3269 3270 0
-173 -3270 3271 0
-174 -3271 3272 0
-175 -3272 3273 0
-176 -3273 3274 0
-177 -3274 3275 0
-178 -3275 3276 0
-179 -3276 3277 0
-180 -3277 0
1 46 0
