p cnf 8179 16749
-205 -1 0
-205 2 102 103 0
-2 1 205 0
-102 1 205 0
-103 1 205 0
-206 -2 0
-206 1 3 104 0
-1 2 206 0
-3 2 206 0
-104 2 206 0
-207 -3 0
-207 2 4 105 0
-2 3 207 0
-4 3 207 0
-105 3 207 0
-208 -4 0
-208 3 5 106 0
-3 4 208 0
-5 4 208 0
-106 4 208 0
-209 -5 0
-209 4 6 107 0
-4 5 209 0
-6 5 209 0
-107 5 209 0
-210 -6 0
-210 5 7 108 0
-5 6 210 0
-7 6 210 0
-108 6 210 0
-211 -7 0
-211 6 8 109 0
-6 7 211 0
-8 7 211 0
-109 7 211 0
-212 -8 0
-212 7 9 110 0
-7 8 212 0
-9 8 212 0
-110 8 212 0
-213 -9 0
-213 8 10 111 0
-8 9 213 0
-10 9 213 0
-111 9 213 0
-214 -10 0
-214 9 11 112 0
-9 10 214 0
-11 10 214 0
-112 10 214 0
-215 -11 0
-215 10 12 113 0
-10 11 215 0
-12 11 215 0
-113 11 215 0
-216 -12 0
-216 11 13 114 0
-11 12 216 0
-13 12 216 0
-114 12 216 0
-217 -13 0
-217 12 14 115 0
-12 13 217 0
-14 13 217 0
-115 13 217 0
-218 -14 0
-218 13 15 116 0
-13 14 218 0
-15 14 218 0
-116 14 218 0
-219 -15 0
-219 14 16 117 0
-14 15 219 0
-16 15 219 0
-117 15 219 0
-220 -16 0
-220 15 17 118 0
-15 16 220 0
-17 16 220 0
-118 16 220 0
-221 -17 0
-221 16 18 119 0
-16 17 221 0
-18 17 221 0
-119 17 221 0
-222 -18 0
-222 17 19 120 0
-17 18 222 0
-19 18 222 0
-120 18 222 0
-223 -19 0
-223 18 20 121 0
-18 19 223 0
-20 19 223 0
-121 19 223 0
-224 -20 0
-224 19 21 122 0
-19 20 224 0
-21 20 224 0
-122 20 224 0
-225 -21 0
-225 20 22 123 0
-20 21 225 0
-22 21 225 0
-123 21 225 0
-226 -22 0
-226 21 23 124 0
-21 22 226 0
-23 22 226 0
-124 22 226 0
-227 -23 0
-227 22 24 125 0
-22 23 227 0
-24 23 227 0
-125 23 227 0
-228 -24 0
-228 23 25 126 0
-23 24 228 0
-25 24 228 0
-126 24 228 0
-229 -25 0
-229 24 26 127 0
-24 25 229 0
-26 25 229 0
-127 25 229 0
-230 -26 0
-230 25 27 128 0
-25 26 230 0
-27 26 230 0
-128 26 230 0
-231 -27 0
-231 26 28 129 0
-26 27 231 0
-28 27 231 0
-129 27 231 0
-232 -28 0
-232 27 29 130 0
-27 28 232 0
-29 28 232 0
-130 28 232 0
-233 -29 0
-233 28 30 131 0
-28 29 233 0
-30 29 233 0
-131 29 233 0
-234 -30 0
-234 29 31 132 0
-29 30 234 0
-31 30 234 0
-132 30 234 0
-235 -31 0
-235 30 32 133 0
-30 31 235 0
-32 31 235 0
-133 31 235 0
-236 -32 0
-236 31 33 134 0
-31 32 236 0
-33 32 236 0
-134 32 236 0
-237 -33 0
-237 32 34 135 0
-32 33 237 0
-34 33 237 0
-135 33 237 0
-238 -34 0
-238 33 35 136 0
-33 34 238 0
-35 34 238 0
-136 34 238 0
-239 -35 0
-239 34 36 137 0
-34 35 239 0
-36 35 239 0
-137 35 239 0
-240 -36 0
-240 35 37 138 0
-35 36 240 0
-37 36 240 0
-138 36 240 0
-241 -37 0
-241 36 38 139 0
-36 37 241 0
-38 37 241 0
-139 37 241 0
-242 -38 0
-242 37 39 140 0
-37 38 242 0
-39 38 242 0
-140 38 242 0
-243 -39 0
-243 38 40 141 0
-38 39 243 0
-40 39 243 0
-141 39 243 0
-244 -40 0
-244 39 41 142 0
-39 40 244 0
-41 40 244 0
-142 40 244 0
-245 -41 0
-245 40 42 143 0
-40 41 245 0
-42 41 245 0
-143 41 245 0
-246 -42 0
-246 41 43 144 0
-41 42 246 0
-43 42 246 0
-144 42 246 0
-247 -43 0
-247 42 44 145 0
-42 43 247 0
-44 43 247 0
-145 43 247 0
-248 -44 0
-248 43 45 146 0
-43 44 248 0
-45 44 248 0
-146 44 248 0
-249 -45 0
-249 44 46 147 0
-44 45 249 0
-46 45 249 0
-147 45 249 0
-250 -46 0
-250 45 47 148 0
-45 46 250 0
-47 46 250 0
-148 46 250 0
-251 -47 0
-251 46 48 149 0
-46 47 251 0
-48 47 251 0
-149 47 251 0
-252 -48 0
-252 47 49 150 0
-47 48 252 0
-49 48 252 0
-150 48 252 0
-253 -49 0
-253 48 50 151 0
-48 49 253 0
-50 49 253 0
-151 49 253 0
-254 -50 0
-254 49 51 152 0
-49 50 254 0
-51 50 254 0
-152 50 254 0
-255 -51 0
-255 50 52 153 0
-50 51 255 0
-52 51 255 0
-153 51 255 0
-256 -52 0
-256 51 53 154 0
-51 52 256 0
-53 52 256 0
-154 52 256 0
-257 -53 0
-257 52 54 155 0
-52 53 257 0
-54 53 257 0
-155 53 257 0
-258 -54 0
-258 53 55 156 0
-53 54 258 0
-55 54 258 0
-156 54 258 0
-259 -55 0
-259 54 56 157 0
-54 55 259 0
-56 55 259 0
-157 55 259 0
-260 -56 0
-260 55 57 158 0
-55 56 260 0
-57 56 260 0
-158 56 260 0
-261 -57 0
-261 56 58 159 0
-56 57 261 0
-58 57 261 0
-159 57 261 0
-262 -58 0
-262 57 59 160 0
-57 58 262 0
-59 58 262 0
-160 58 262 0
-263 -59 0
-263 58 60 161 0
-58 59 263 0
-60 59 263 0
-161 59 263 0
-264 -60 0
-264 59 61 162 0
-59 60 264 0
-61 60 264 0
-162 60 264 0
-265 -61 0
-265 60 62 163 0
-60 61 265 0
-62 61 265 0
-163 61 265 0
-266 -62 0
-266 61 63 164 0
-61 62 266 0
-63 62 266 0
-164 62 266 0
-267 -63 0
-267 62 64 165 0
-62 63 267 0
-64 63 267 0
-165 63 267 0
-268 -64 0
-268 63 65 166 0
-63 64 268 0
-65 64 268 0
-166 64 268 0
-269 -65 0
-269 64 66 167 0
-64 65 269 0
-66 65 269 0
-167 65 269 0
-270 -66 0
-270 65 67 168 0
-65 66 270 0
-67 66 270 0
-168 66 270 0
-271 -67 0
-271 66 68 169 0
-66 67 271 0
-68 67 271 0
-169 67 271 0
-272 -68 0
-272 67 69 170 0
-67 68 272 0
-69 68 272 0
-170 68 272 0
-273 -69 0
-273 68 70 171 0
-68 69 273 0
-70 69 273 0
-171 69 273 0
-274 -70 0
-274 69 71 172 0
-69 70 274 0
-71 70 274 0
-172 70 274 0
-275 -71 0
-275 70 72 173 0
-70 71 275 0
-72 71 275 0
-173 71 275 0
-276 -72 0
-276 71 73 174 0
-71 72 276 0
-73 72 276 0
-174 72 276 0
-277 -73 0
-277 72 74 175 0
-72 73 277 0
-74 73 277 0
-175 73 277 0
-278 -74 0
-278 73 75 176 0
-73 74 278 0
-75 74 278 0
-176 74 278 0
-279 -75 0
-279 74 76 177 0
-74 75 279 0
-76 75 279 0
-177 75 279 0
-280 -76 0
-280 75 77 178 0
-75 76 280 0
-77 76 280 0
-178 76 280 0
-281 -77 0
-281 76 78 179 0
-76 77 281 0
-78 77 281 0
-179 77 281 0
-282 -78 0
-282 77 79 180 0
-77 78 282 0
-79 78 282 0
-180 78 282 0
-283 -79 0
-283 78 80 181 0
-78 79 283 0
-80 79 283 0
-181 79 283 0
-284 -80 0
-284 79 81 182 0
-79 80 284 0
-81 80 284 0
-182 80 284 0
-285 -81 0
-285 80 82 183 0
-80 81 285 0
-82 81 285 0
-183 81 285 0
-286 -82 0
-286 81 83 184 0
-81 82 286 0
-83 82 286 0
-184 82 286 0
-287 -83 0
-287 82 84 185 0
-82 83 287 0
-84 83 287 0
-185 83 287 0
-288 -84 0
-288 83 85 186 0
-83 84 288 0
-85 84 288 0
-186 84 288 0
-289 -85 0
-289 84 86 187 0
-84 85 289 0
-86 85 289 0
-187 85 289 0
-290 -86 0
-290 85 87 188 0
-85 86 290 0
-87 86 290 0
-188 86 290 0
-291 -87 0
-291 86 88 189 0
-86 87 291 0
-88 87 291 0
-189 87 291 0
-292 -88 0
-292 87 89 190 0
-87 88 292 0
-89 88 292 0
-190 88 292 0
-293 -89 0
-293 88 90 191 0
-88 89 293 0
-90 89 293 0
-191 89 293 0
-294 -90 0
-294 89 91 192 0
-89 90 294 0
-91 90 294 0
-192 90 294 0
-295 -91 0
-295 90 92 193 0
-90 91 295 0
-92 91 295 0
-193 91 295 0
-296 -92 0
-296 91 93 194 0
-91 92 296 0
-93 92 296 0
-194 92 296 0
-297 -93 0
-297 92 94 195 0
-92 93 297 0
-94 93 297 0
-195 93 297 0
-298 -94 0
-298 93 95 196 0
-93 94 298 0
-95 94 298 0
-196 94 298 0
-299 -95 0
-299 94 96 197 0
-94 95 299 0
-96 95 299 0
-197 95 299 0
-300 -96 0
-300 95 97 198 0
-95 96 300 0
-97 96 300 0
-198 96 300 0
-301 -97 0
-301 96 98 199 0
-96 97 301 0
-98 97 301 0
-199 97 301 0
-302 -98 0
-302 97 99 200 0
-97 98 302 0
-99 98 302 0
-200 98 302 0
-303 -99 0
-303 98 100 201 0
-98 99 303 0
-100 99 303 0
-201 99 303 0
-304 -100 0
-304 99 101 202 0
-99 100 304 0
-101 100 304 0
-202 100 304 0
-305 -101 0
-305 100 102 203 0
-100 101 305 0
-102 101 305 0
-203 101 305 0
-306 -102 0
-306 1 101 204 0
-1 102 306 0
-101 102 306 0
-204 102 306 0
-307 -103 0
-307 1 107 201 0
-1 103 307 0
-107 103 307 0
-201 103 307 0
-308 -104 0
-308 2 108 202 0
-2 104 308 0
-108 104 308 0
-202 104 308 0
-309 -105 0
-309 3 109 203 0
-3 105 309 0
-109 105 309 0
-203 105 309 0
-310 -106 0
-310 4 110 204 0
-4 106 310 0
-110 106 310 0
-204 106 310 0
-311 -107 0
-311 5 103 111 0
-5 107 311 0
-103 107 311 0
-111 107 311 0
-312 -108 0
-312 6 104 112 0
-6 108 312 0
-104 108 312 0
-112 108 312 0
-313 -109 0
-313 7 105 113 0
-7 109 313 0
-105 109 313 0
-113 109 313 0
-314 -110 0
-314 8 106 114 0
-8 110 314 0
-106 110 314 0
-114 110 314 0
-315 -111 0
-315 9 107 115 0
-9 111 315 0
-107 111 315 0
-115 111 315 0
-316 -112 0
-316 10 108 116 0
-10 112 316 0
-108 112 316 0
-116 112 316 0
-317 -113 0
-317 11 109 117 0
-11 113 317 0
-109 113 317 0
-117 113 317 0
-318 -114 0
-318 12 110 118 0
-12 114 318 0
-110 114 318 0
-118 114 318 0
-319 -115 0
-319 13 111 119 0
-13 115 319 0
-111 115 319 0
-119 115 319 0
-320 -116 0
-320 14 112 120 0
-14 116 320 0
-112 116 320 0
-120 116 320 0
-321 -117 0
-321 15 113 121 0
-15 117 321 0
-113 117 321 0
-121 117 321 0
-322 -118 0
-322 16 114 122 0
-16 118 322 0
-114 118 322 0
-122 118 322 0
-323 -119 0
-323 17 115 123 0
-17 119 323 0
-115 119 323 0
-123 119 323 0
-324 -120 0
-324 18 116 124 0
-18 120 324 0
-116 120 324 0
-124 120 324 0
-325 -121 0
-325 19 117 125 0
-19 121 325 0
-117 121 325 0
-125 121 325 0
-326 -122 0
-326 20 118 126 0
-20 122 326 0
-118 122 326 0
-126 122 326 0
-327 -123 0
-327 21 119 127 0
-21 123 327 0
-119 123 327 0
-127 123 327 0
-328 -124 0
-328 22 120 128 0
-22 124 328 0
-120 124 328 0
-128 124 328 0
-329 -125 0
-329 23 121 129 0
-23 125 329 0
-121 125 329 0
-129 125 329 0
-330 -126 0
-330 24 122 130 0
-24 126 330 0
-122 126 330 0
-130 126 330 0
-331 -127 0
-331 25 123 131 0
-25 127 331 0
-123 127 331 0
-131 127 331 0
-332 -128 0
-332 26 124 132 0
-26 128 332 0
-124 128 332 0
-132 128 332 0
-333 -129 0
-333 27 125 133 0
-27 129 333 0
-125 129 333 0
-133 129 333 0
-334 -130 0
-334 28 126 134 0
-28 130 334 0
-126 130 334 0
-134 130 334 0
-335 -131 0
-335 29 127 135 0
-29 131 335 0
-127 131 335 0
-135 131 335 0
-336 -132 0
-336 30 128 136 0
-30 132 336 0
-128 132 336 0
-136 132 336 0
-337 -133 0
-337 31 129 137 0
-31 133 337 0
-129 133 337 0
-137 133 337 0
-338 -134 0
-338 32 130 138 0
-32 134 338 0
-130 134 338 0
-138 134 338 0
-339 -135 0
-339 33 131 139 0
-33 135 339 0
-131 135 339 0
-139 135 339 0
-340 -136 0
-340 34 132 140 0
-34 136 340 0
-132 136 340 0
-140 136 340 0
-341 -137 0
-341 35 133 141 0
-35 137 341 0
-133 137 341 0
-141 137 341 0
-342 -138 0
-342 36 134 142 0
-36 138 342 0
-134 138 342 0
-142 138 342 0
-343 -139 0
-343 37 135 143 0
-37 139 343 0
-135 139 343 0
-143 139 343 0
-344 -140 0
-344 38 136 144 0
-38 140 344 0
-136 140 344 0
-144 140 344 0
-345 -141 0
-345 39 137 145 0
-39 141 345 0
-137 141 345 0
-145 141 345 0
-346 -142 0
-346 40 138 146 0
-40 142 346 0
-138 142 346 0
-146 142 346 0
-347 -143 0
-347 41 139 147 0
-41 143 347 0
-139 143 347 0
-147 143 347 0
-348 -144 0
-348 42 140 148 0
-42 144 348 0
-140 144 348 0
-148 144 348 0
-349 -145 0
-349 43 141 149 0
-43 145 349 0
-141 145 349 0
-149 145 349 0
-350 -146 0
-350 44 142 150 0
-44 146 350 0
-142 146 350 0
-150 146 350 0
-351 -147 0
-351 45 143 151 0
-45 147 351 0
-143 147 351 0
-151 147 351 0
-352 -148 0
-352 46 144 152 0
-46 148 352 0
-144 148 352 0
-152 148 352 0
-353 -149 0
-353 47 145 153 0
-47 149 353 0
-145 149 353 0
-153 149 353 0
-354 -150 0
-354 48 146 154 0
-48 150 354 0
-146 150 354 0
-154 150 354 0
-355 -151 0
-355 49 147 155 0
-49 151 355 0
-147 151 355 0
-155 151 355 0
-356 -152 0
-356 50 148 156 0
-50 152 356 0
-148 152 356 0
-156 152 356 0
-357 -153 0
-357 51 149 157 0
-51 153 357 0
-149 153 357 0
-157 153 357 0
-358 -154 0
-358 52 150 158 0
-52 154 358 0
-150 154 358 0
-158 154 358 0
-359 -155 0
-359 53 151 159 0
-53 155 359 0
-151 155 359 0
-159 155 359 0
-360 -156 0
-360 54 152 160 0
-54 156 360 0
-152 156 360 0
-160 156 360 0
-361 -157 0
-361 55 153 161 0
-55 157 361 0
-153 157 361 0
-161 157 361 0
-362 -158 0
-362 56 154 162 0
-56 158 362 0
-154 158 362 0
-162 158 362 0
-363 -159 0
-363 57 155 163 0
-57 159 363 0
-155 159 363 0
-163 159 363 0
-364 -160 0
-364 58 156 164 0
-58 160 364 0
-156 160 364 0
-164 160 364 0
-365 -161 0
-365 59 157 165 0
-59 161 365 0
-157 161 365 0
-165 161 365 0
-366 -162 0
-366 60 158 166 0
-60 162 366 0
-158 162 366 0
-166 162 366 0
-367 -163 0
-367 61 159 167 0
-61 163 367 0
-159 163 367 0
-167 163 367 0
-368 -164 0
-368 62 160 168 0
-62 164 368 0
-160 164 368 0
-168 164 368 0
-369 -165 0
-369 63 161 169 0
-63 165 369 0
-161 165 369 0
-169 165 369 0
-370 -166 0
-370 64 162 170 0
-64 166 370 0
-162 166 370 0
-170 166 370 0
-371 -167 0
-371 65 163 171 0
-65 167 371 0
-163 167 371 0
-171 167 371 0
-372 -168 0
-372 66 164 172 0
-66 168 372 0
-164 168 372 0
-172 168 372 0
-373 -169 0
-373 67 165 173 0
-67 169 373 0
-165 169 373 0
-173 169 373 0
-374 -170 0
-374 68 166 174 0
-68 170 374 0
-166 170 374 0
-174 170 374 0
-375 -171 0
-375 69 167 175 0
-69 171 375 0
-167 171 375 0
-175 171 375 0
-376 -172 0
-376 70 168 176 0
-70 172 376 0
-168 172 376 0
-176 172 376 0
-377 -173 0
-377 71 169 177 0
-71 173 377 0
-169 173 377 0
-177 173 377 0
-378 -174 0
-378 72 170 178 0
-72 174 378 0
-170 174 378 0
-178 174 378 0
-379 -175 0
-379 73 171 179 0
-73 175 379 0
-171 175 379 0
-179 175 379 0
-380 -176 0
-380 74 172 180 0
-74 176 380 0
-172 176 380 0
-180 176 380 0
-381 -177 0
-381 75 173 181 0
-75 177 381 0
-173 177 381 0
-181 177 381 0
-382 -178 0
-382 76 174 182 0
-76 178 382 0
-174 178 382 0
-182 178 382 0
-383 -179 0
-383 77 175 183 0
-77 179 383 0
-175 179 383 0
-183 179 383 0
-384 -180 0
-384 78 176 184 0
-78 180 384 0
-176 180 384 0
-184 180 384 0
-385 -181 0
-385 79 177 185 0
-79 181 385 0
-177 181 385 0
-185 181 385 0
-386 -182 0
-386 80 178 186 0
-80 182 386 0
-178 182 386 0
-186 182 386 0
-387 -183 0
-387 81 179 187 0
-81 183 387 0
-179 183 387 0
-187 183 387 0
-388 -184 0
-388 82 180 188 0
-82 184 388 0
-180 184 388 0
-188 184 388 0
-389 -185 0
-389 83 181 189 0
-83 185 389 0
-181 185 389 0
-189 185 389 0
-390 -186 0
-390 84 182 190 0
-84 186 390 0
-182 186 390 0
-190 186 390 0
-391 -187 0
-391 85 183 191 0
-85 187 391 0
-183 187 391 0
-191 187 391 0
-392 -188 0
-392 86 184 192 0
-86 188 392 0
-184 188 392 0
-192 188 392 0
-393 -189 0
-393 87 185 193 0
-87 189 393 0
-185 189 393 0
-193 189 393 0
-394 -190 0
-394 88 186 194 0
-88 190 394 0
-186 190 394 0
-194 190 394 0
-395 -191 0
-395 89 187 195 0
-89 191 395 0
-187 191 395 0
-195 191 395 0
-396 -192 0
-396 90 188 196 0
-90 192 396 0
-188 192 396 0
-196 192 396 0
-397 -193 0
-397 91 189 197 0
-91 193 397 0
-189 193 397 0
-197 193 397 0
-398 -194 0
-398 92 190 198 0
-92 194 398 0
-190 194 398 0
-198 194 398 0
-399 -195 0
-399 93 191 199 0
-93 195 399 0
-191 195 399 0
-199 195 399 0
-400 -196 0
-400 94 192 200 0
-94 196 400 0
-192 196 400 0
-200 196 400 0
-401 -197 0
-401 95 193 201 0
-95 197 401 0
-193 197 401 0
-201 197 401 0
-402 -198 0
-402 96 194 202 0
-96 198 402 0
-194 198 402 0
-202 198 402 0
-403 -199 0
-403 97 195 203 0
-97 199 403 0
-195 199 403 0
-203 199 403 0
-404 -200 0
-404 98 196 204 0
-98 200 404 0
-196 200 404 0
-204 200 404 0
-405 -201 0
-405 99 103 197 0
-99 201 405 0
-103 201 405 0
-197 201 405 0
-406 -202 0
-406 100 104 198 0
-100 202 406 0
-104 202 406 0
-198 202 406 0
-407 -203 0
-407 101 105 199 0
-101 203 407 0
-105 203 407 0
-199 203 407 0
-408 -204 0
-408 102 106 200 0
-102 204 408 0
-106 204 408 0
-200 204 408 0
1 409 0
-409 410 0
2 -409 411 0
-411 412 0
3 -411 413 0
-413 414 0
4 -413 415 0
-415 416 0
5 -415 417 0
-417 418 0
6 -417 419 0
-419 420 0
7 -419 421 0
-421 422 0
8 -421 423 0
-423 424 0
9 -423 425 0
-425 426 0
10 -425 427 0
-427 428 0
11 -427 429 0
-429 430 0
12 -429 431 0
-431 432 0
13 -431 433 0
-433 434 0
14 -433 435 0
-435 436 0
15 -435 437 0
-437 438 0
16 -437 439 0
-439 440 0
17 -439 441 0
-441 442 0
18 -441 443 0
-443 444 0
19 -443 445 0
-445 446 0
20 -445 447 0
-447 448 0
21 -447 449 0
-449 450 0
22 -449 451 0
-451 452 0
23 -451 453 0
-453 454 0
24 -453 455 0
-455 456 0
25 -455 457 0
-457 458 0
26 -457 459 0
-459 460 0
27 -459 461 0
-461 462 0
28 -461 463 0
-463 464 0
29 -463 465 0
-465 466 0
30 -465 467 0
-467 468 0
31 -467 469 0
-469 470 0
32 -469 471 0
-471 472 0
33 -471 473 0
-473 474 0
34 -473 475 0
-475 476 0
35 -475 477 0
-477 478 0
36 -477 479 0
-479 480 0
37 -479 481 0
-481 482 0
38 -481 483 0
-483 484 0
39 -483 485 0
-485 486 0
40 -485 487 0
-487 488 0
41 -487 489 0
-489 490 0
42 -489 491 0
-491 492 0
43 -491 493 0
-493 494 0
44 -493 495 0
-495 496 0
45 -495 497 0
-497 498 0
46 -497 499 0
-499 500 0
47 -499 501 0
-501 502 0
48 -501 503 0
-503 504 0
49 -503 505 0
-505 506 0
50 -505 507 0
-507 508 0
51 -507 509 0
-509 510 0
52 -509 511 0
-511 512 0
53 -511 513 0
-513 514 0
54 -513 515 0
-515 516 0
55 -515 517 0
-517 518 0
56 -517 519 0
-519 520 0
57 -519 521 0
-521 522 0
58 -521 523 0
-523 524 0
59 -523 525 0
-525 526 0
60 -525 527 0
-527 528 0
61 -527 529 0
-529 530 0
62 -529 531 0
-531 532 0
63 -531 533 0
-533 534 0
64 -533 535 0
-535 536 0
65 -535 537 0
-537 538 0
66 -537 539 0
-539 540 0
67 -539 541 0
-541 542 0
68 -541 543 0
-543 544 0
69 -543 545 0
-545 546 0
70 -545 547 0
-547 548 0
71 -547 549 0
-549 550 0
72 -549 551 0
-551 552 0
73 -551 553 0
-553 554 0
74 -553 555 0
-555 556 0
75 -555 557 0
-557 558 0
76 -557 559 0
-559 560 0
77 -559 561 0
-561 562 0
78 -561 563 0
-563 564 0
79 -563 565 0
-565 566 0
80 -565 567 0
-567 568 0
81 -567 569 0
-569 570 0
82 -569 571 0
-571 572 0
83 -571 573 0
-573 574 0
84 -573 575 0
-575 576 0
85 -575 577 0
-577 578 0
86 -577 579 0
-579 580 0
87 -579 581 0
-581 582 0
88 -581 583 0
-583 584 0
89 -583 585 0
-585 586 0
90 -585 587 0
-587 588 0
91 -587 589 0
-589 590 0
92 -589 591 0
-591 592 0
93 -591 593 0
-593 594 0
94 -593 595 0
-595 596 0
95 -595 597 0
-597 598 0
96 -597 599 0
-599 600 0
97 -599 601 0
-601 602 0
98 -601 603 0
-603 604 0
99 -603 605 0
-605 606 0
100 -605 607 0
-607 608 0
101 -607 609 0
-609 610 0
102 -609 611 0
-611 612 0
103 -611 613 0
-613 614 0
104 -613 615 0
-615 616 0
105 -615 617 0
-617 618 0
106 -617 619 0
-619 620 0
107 -619 621 0
-621 622 0
108 -621 623 0
-623 624 0
109 -623 625 0
-625 626 0
110 -625 627 0
-627 628 0
111 -627 629 0
-629 630 0
112 -629 631 0
-631 632 0
113 -631 633 0
-633 634 0
114 -633 635 0
-635 636 0
115 -635 637 0
-637 638 0
116 -637 639 0
-639 640 0
117 -639 641 0
-641 642 0
118 -641 643 0
-643 644 0
119 -643 645 0
-645 646 0
120 -645 647 0
-647 648 0
121 -647 649 0
-649 650 0
122 -649 651 0
-651 652 0
123 -651 653 0
-653 654 0
124 -653 655 0
-655 656 0
125 -655 657 0
-657 658 0
126 -657 659 0
-659 660 0
127 -659 661 0
-661 662 0
128 -661 663 0
-663 664 0
129 -663 665 0
-665 666 0
130 -665 667 0
-667 668 0
131 -667 669 0
-669 670 0
132 -669 671 0
-671 672 0
133 -671 673 0
-673 674 0
134 -673 675 0
-675 676 0
135 -675 677 0
-677 678 0
136 -677 679 0
-679 680 0
137 -679 681 0
-681 682 0
138 -681 683 0
-683 684 0
139 -683 685 0
-685 686 0
140 -685 687 0
-687 688 0
141 -687 689 0
-689 690 0
142 -689 691 0
-691 692 0
143 -691 693 0
-693 694 0
144 -693 695 0
-695 696 0
145 -695 697 0
-697 698 0
146 -697 699 0
-699 700 0
147 -699 701 0
-701 702 0
148 -701 703 0
-703 704 0
149 -703 705 0
-705 706 0
150 -705 707 0
-707 708 0
151 -707 709 0
-709 710 0
152 -709 711 0
-711 712 0
153 -711 713 0
-713 714 0
154 -713 715 0
-715 716 0
155 -715 717 0
-717 718 0
156 -717 719 0
-719 720 0
157 -719 721 0
-721 722 0
158 -721 723 0
-723 724 0
159 -723 725 0
-725 726 0
160 -725 727 0
-727 728 0
161 -727 729 0
-729 730 0
162 -729 731 0
-731 732 0
163 -731 733 0
-733 734 0
164 -733 735 0
-735 736 0
165 -735 737 0
-737 738 0
166 -737 739 0
-739 740 0
167 -739 741 0
-741 742 0
168 -741 743 0
-743 744 0
169 -743 745 0
-745 746 0
170 -745 747 0
-747 748 0
171 -747 749 0
-749 750 0
172 -749 751 0
-751 752 0
173 -751 753 0
-753 754 0
174 -753 755 0
-755 756 0
175 -755 757 0
-757 758 0
176 -757 759 0
-759 760 0
177 -759 761 0
-761 762 0
178 -761 763 0
-763 764 0
179 -763 765 0
-765 766 0
180 -765 767 0
-767 768 0
181 -767 769 0
-769 770 0
182 -769 771 0
-771 772 0
183 -771 773 0
-773 774 0
184 -773 775 0
-775 776 0
185 -775 777 0
-777 778 0
186 -777 779 0
-779 780 0
187 -779 781 0
-781 782 0
188 -781 783 0
-783 784 0
189 -783 0
2 410 0
-410 785 0
3 -410 412 0
-412 786 0
4 -412 414 0
-414 787 0
5 -414 416 0
-416 788 0
6 -416 418 0
-418 789 0
7 -418 420 0
-420 790 0
8 -420 422 0
-422 791 0
9 -422 424 0
-424 792 0
10 -424 426 0
-426 793 0
11 -426 428 0
-428 794 0
12 -428 430 0
-430 795 0
13 -430 432 0
-432 796 0
14 -432 434 0
-434 797 0
15 -434 436 0
-436 798 0
16 -436 438 0
-438 799 0
17 -438 440 0
-440 800 0
18 -440 442 0
-442 801 0
19 -442 444 0
-444 802 0
20 -444 446 0
-446 803 0
21 -446 448 0
-448 804 0
22 -448 450 0
-450 805 0
23 -450 452 0
-452 806 0
24 -452 454 0
-454 807 0
25 -454 456 0
-456 808 0
26 -456 458 0
-458 809 0
27 -458 460 0
-460 810 0
28 -460 462 0
-462 811 0
29 -462 464 0
-464 812 0
30 -464 466 0
-466 813 0
31 -466 468 0
-468 814 0
32 -468 470 0
-470 815 0
33 -470 472 0
-472 816 0
34 -472 474 0
-474 817 0
35 -474 476 0
-476 818 0
36 -476 478 0
-478 819 0
37 -478 480 0
-480 820 0
38 -480 482 0
-482 821 0
39 -482 484 0
-484 822 0
40 -484 486 0
-486 823 0
41 -486 488 0
-488 824 0
42 -488 490 0
-490 825 0
43 -490 492 0
-492 826 0
44 -492 494 0
-494 827 0
45 -494 496 0
-496 828 0
46 -496 498 0
-498 829 0
47 -498 500 0
-500 830 0
48 -500 502 0
-502 831 0
49 -502 504 0
-504 832 0
50 -504 506 0
-506 833 0
51 -506 508 0
-508 834 0
52 -508 510 0
-510 835 0
53 -510 512 0
-512 836 0
54 -512 514 0
-514 837 0
55 -514 516 0
-516 838 0
56 -516 518 0
-518 839 0
57 -518 520 0
-520 840 0
58 -520 522 0
-522 841 0
59 -522 524 0
-524 842 0
60 -524 526 0
-526 843 0
61 -526 528 0
-528 844 0
62 -528 530 0
-530 845 0
63 -530 532 0
-532 846 0
64 -532 534 0
-534 847 0
65 -534 536 0
-536 848 0
66 -536 538 0
-538 849 0
67 -538 540 0
-540 850 0
68 -540 542 0
-542 851 0
69 -542 544 0
-544 852 0
70 -544 546 0
-546 853 0
71 -546 548 0
-548 854 0
72 -548 550 0
-550 855 0
73 -550 552 0
-552 856 0
74 -552 554 0
-554 857 0
75 -554 556 0
-556 858 0
76 -556 558 0
-558 859 0
77 -558 560 0
-560 860 0
78 -560 562 0
-562 861 0
79 -562 564 0
-564 862 0
80 -564 566 0
-566 863 0
81 -566 568 0
-568 864 0
82 -568 570 0
-570 865 0
83 -570 572 0
-572 866 0
84 -572 574 0
-574 867 0
85 -574 576 0
-576 868 0
86 -576 578 0
-578 869 0
87 -578 580 0
-580 870 0
88 -580 582 0
-582 871 0
89 -582 584 0
-584 872 0
90 -584 586 0
-586 873 0
91 -586 588 0
-588 874 0
92 -588 590 0
-590 875 0
93 -590 592 0
-592 876 0
94 -592 594 0
-594 877 0
95 -594 596 0
-596 878 0
96 -596 598 0
-598 879 0
97 -598 600 0
-600 880 0
98 -600 602 0
-602 881 0
99 -602 604 0
-604 882 0
100 -604 606 0
-606 883 0
101 -606 608 0
-608 884 0
102 -608 610 0
-610 885 0
103 -610 612 0
-612 886 0
104 -612 614 0
-614 887 0
105 -614 616 0
-616 888 0
106 -616 618 0
-618 889 0
107 -618 620 0
-620 890 0
108 -620 622 0
-622 891 0
109 -622 624 0
-624 892 0
110 -624 626 0
-626 893 0
111 -626 628 0
-628 894 0
112 -628 630 0
-630 895 0
113 -630 632 0
-632 896 0
114 -632 634 0
-634 897 0
115 -634 636 0
-636 898 0
116 -636 638 0
-638 899 0
117 -638 640 0
-640 900 0
118 -640 642 0
-642 901 0
119 -642 644 0
-644 902 0
120 -644 646 0
-646 903 0
121 -646 648 0
-648 904 0
122 -648 650 0
-650 905 0
123 -650 652 0
-652 906 0
124 -652 654 0
-654 907 0
125 -654 656 0
-656 908 0
126 -656 658 0
-658 909 0
127 -658 660 0
-660 910 0
128 -660 662 0
-662 911 0
129 -662 664 0
-664 912 0
130 -664 666 0
-666 913 0
131 -666 668 0
-668 914 0
132 -668 670 0
-670 915 0
133 -670 672 0
-672 916 0
134 -672 674 0
-674 917 0
135 -674 676 0
-676 918 0
136 -676 678 0
-678 919 0
137 -678 680 0
-680 920 0
138 -680 682 0
-682 921 0
139 -682 684 0
-684 922 0
140 -684 686 0
-686 923 0
141 -686 688 0
-688 924 0
142 -688 690 0
-690 925 0
143 -690 692 0
-692 926 0
144 -692 694 0
-694 927 0
145 -694 696 0
-696 928 0
146 -696 698 0
-698 929 0
147 -698 700 0
-700 930 0
148 -700 702 0
-702 931 0
149 -702 704 0
-704 932 0
150 -704 706 0
-706 933 0
151 -706 708 0
-708 934 0
152 -708 710 0
-710 935 0
153 -710 712 0
-712 936 0
154 -712 714 0
-714 937 0
155 -714 716 0
-716 938 0
156 -716 718 0
-718 939 0
157 -718 720 0
-720 940 0
158 -720 722 0
-722 941 0
159 -722 724 0
-724 942 0
160 -724 726 0
-726 943 0
161 -726 728 0
-728 944 0
162 -728 730 0
-730 945 0
163 -730 732 0
-732 946 0
164 -732 734 0
-734 947 0
165 -734 736 0
-736 948 0
166 -736 738 0
-738 949 0
167 -738 740 0
-740 950 0
168 -740 742 0
-742 951 0
169 -742 744 0
-744 952 0
170 -744 746 0
-746 953 0
171 -746 748 0
-748 954 0
172 -748 750 0
-750 955 0
173 -750 752 0
-752 956 0
174 -752 754 0
-754 957 0
175 -754 756 0
-756 958 0
176 -756 758 0
-758 959 0
177 -758 760 0
-760 960 0
178 -760 762 0
-762 961 0
179 -762 764 0
-764 962 0
180 -764 766 0
-766 963 0
181 -766 768 0
-768 964 0
182 -768 770 0
-770 965 0
183 -770 772 0
-772 966 0
184 -772 774 0
-774 967 0
185 -774 776 0
-776 968 0
186 -776 778 0
-778 969 0
187 -778 780 0
-780 970 0
188 -780 782 0
-782 971 0
189 -782 784 0
-784 972 0
190 -784 0
3 785 0
-785 973 0
4 -785 786 0
-786 974 0
5 -786 787 0
-787 975 0
6 -787 788 0
-788 976 0
7 -788 789 0
-789 977 0
8 -789 790 0
-790 978 0
9 -790 791 0
-791 979 0
10 -791 792 0
-792 980 0
11 -792 793 0
-793 981 0
12 -793 794 0
-794 982 0
13 -794 795 0
-795 983 0
14 -795 796 0
-796 984 0
15 -796 797 0
-797 985 0
16 -797 798 0
-798 986 0
17 -798 799 0
-799 987 0
18 -799 800 0
-800 988 0
19 -800 801 0
-801 989 0
20 -801 802 0
-802 990 0
21 -802 803 0
-803 991 0
22 -803 804 0
-804 992 0
23 -804 805 0
-805 993 0
24 -805 806 0
-806 994 0
25 -806 807 0
-807 995 0
26 -807 808 0
-808 996 0
27 -808 809 0
-809 997 0
28 -809 810 0
-810 998 0
29 -810 811 0
-811 999 0
30 -811 812 0
-812 1000 0
31 -812 813 0
-813 1001 0
32 -813 814 0
-814 1002 0
33 -814 815 0
-815 1003 0
34 -815 816 0
-816 1004 0
35 -816 817 0
-817 1005 0
36 -817 818 0
-818 1006 0
37 -818 819 0
-819 1007 0
38 -819 820 0
-820 1008 0
39 -820 821 0
-821 1009 0
40 -821 822 0
-822 1010 0
41 -822 823 0
-823 1011 0
42 -823 824 0
-824 1012 0
43 -824 825 0
-825 1013 0
44 -825 826 0
-826 1014 0
45 -826 827 0
-827 1015 0
46 -827 828 0
-828 1016 0
47 -828 829 0
-829 1017 0
48 -829 830 0
-830 1018 0
49 -830 831 0
-831 1019 0
50 -831 832 0
-832 1020 0
51 -832 833 0
-833 1021 0
52 -833 834 0
-834 1022 0
53 -834 835 0
-835 1023 0
54 -835 836 0
-836 1024 0
55 -836 837 0
-837 1025 0
56 -837 838 0
-838 1026 0
57 -838 839 0
-839 1027 0
58 -839 840 0
-840 1028 0
59 -840 841 0
-841 1029 0
60 -841 842 0
-842 1030 0
61 -842 843 0
-843 1031 0
62 -843 844 0
-844 1032 0
63 -844 845 0
-845 1033 0
64 -845 846 0
-846 1034 0
65 -846 847 0
-847 1035 0
66 -847 848 0
-848 1036 0
67 -848 849 0
-849 1037 0
68 -849 850 0
-850 1038 0
69 -850 851 0
-851 1039 0
70 -851 852 0
-852 1040 0
71 -852 853 0
-853 1041 0
72 -853 854 0
-854 1042 0
73 -854 855 0
-855 1043 0
74 -855 856 0
-856 1044 0
75 -856 857 0
-857 1045 0
76 -857 858 0
-858 1046 0
77 -858 859 0
-859 1047 0
78 -859 860 0
-860 1048 0
79 -860 861 0
-861 1049 0
80 -861 862 0
-862 1050 0
81 -862 863 0
-863 1051 0
82 -863 864 0
-864 1052 0
83 -864 865 0
-865 1053 0
84 -865 866 0
-866 1054 0
85 -866 867 0
-867 1055 0
86 -867 868 0
-868 1056 0
87 -868 869 0
-869 1057 0
88 -869 870 0
-870 1058 0
89 -870 871 0
-871 1059 0
90 -871 872 0
-872 1060 0
91 -872 873 0
-873 1061 0
92 -873 874 0
-874 1062 0
93 -874 875 0
-875 1063 0
94 -875 876 0
-876 1064 0
95 -876 877 0
-877 1065 0
96 -877 878 0
-878 1066 0
97 -878 879 0
-879 1067 0
98 -879 880 0
-880 1068 0
99 -880 881 0
-881 1069 0
100 -881 882 0
-882 1070 0
101 -882 883 0
-883 1071 0
102 -883 884 0
-884 1072 0
103 -884 885 0
-885 1073 0
104 -885 886 0
-886 1074 0
105 -886 887 0
-887 1075 0
106 -887 888 0
-888 1076 0
107 -888 889 0
-889 1077 0
108 -889 890 0
-890 1078 0
109 -890 891 0
-891 1079 0
110 -891 892 0
-892 1080 0
111 -892 893 0
-893 1081 0
112 -893 894 0
-894 1082 0
113 -894 895 0
-895 1083 0
114 -895 896 0
-896 1084 0
115 -896 897 0
-897 1085 0
116 -897 898 0
-898 1086 0
117 -898 899 0
-899 1087 0
118 -899 900 0
-900 1088 0
119 -900 901 0
-901 1089 0
120 -901 902 0
-902 1090 0
121 -902 903 0
-903 1091 0
122 -903 904 0
-904 1092 0
123 -904 905 0
-905 1093 0
124 -905 906 0
-906 1094 0
125 -906 907 0
-907 1095 0
126 -907 908 0
-908 1096 0
127 -908 909 0
-909 1097 0
128 -909 910 0
-910 1098 0
129 -910 911 0
-911 1099 0
130 -911 912 0
-912 1100 0
131 -912 913 0
-913 1101 0
132 -913 914 0
-914 1102 0
133 -914 915 0
-915 1103 0
134 -915 916 0
-916 1104 0
135 -916 917 0
-917 1105 0
136 -917 918 0
-918 1106 0
137 -918 919 0
-919 1107 0
138 -919 920 0
-920 1108 0
139 -920 921 0
-921 1109 0
140 -921 922 0
-922 1110 0
141 -922 923 0
-923 1111 0
142 -923 924 0
-924 1112 0
143 -924 925 0
-925 1113 0
144 -925 926 0
-926 1114 0
145 -926 927 0
-927 1115 0
146 -927 928 0
-928 1116 0
147 -928 929 0
-929 1117 0
148 -929 930 0
-930 1118 0
149 -930 931 0
-931 1119 0
150 -931 932 0
-932 1120 0
151 -932 933 0
-933 1121 0
152 -933 934 0
-934 1122 0
153 -934 935 0
-935 1123 0
154 -935 936 0
-936 1124 0
155 -936 937 0
-937 1125 0
156 -937 938 0
-938 1126 0
157 -938 939 0
-939 1127 0
158 -939 940 0
-940 1128 0
159 -940 941 0
-941 1129 0
160 -941 942 0
-942 1130 0
161 -942 943 0
-943 1131 0
162 -943 944 0
-944 1132 0
163 -944 945 0
-945 1133 0
164 -945 946 0
-946 1134 0
165 -946 947 0
-947 1135 0
166 -947 948 0
-948 1136 0
167 -948 949 0
-949 1137 0
168 -949 950 0
-950 1138 0
169 -950 951 0
-951 1139 0
170 -951 952 0
-952 1140 0
171 -952 953 0
-953 1141 0
172 -953 954 0
-954 1142 0
173 -954 955 0
-955 1143 0
174 -955 956 0
-956 1144 0
175 -956 957 0
-957 1145 0
176 -957 958 0
-958 1146 0
177 -958 959 0
-959 1147 0
178 -959 960 0
-960 1148 0
179 -960 961 0
-961 1149 0
180 -961 962 0
-962 1150 0
181 -962 963 0
-963 1151 0
182 -963 964 0
-964 1152 0
183 -964 965 0
-965 1153 0
184 -965 966 0
-966 1154 0
185 -966 967 0
-967 1155 0
186 -967 968 0
-968 1156 0
187 -968 969 0
-969 1157 0
188 -969 970 0
-970 1158 0
189 -970 971 0
-971 1159 0
190 -971 972 0
-972 1160 0
191 -972 0
4 973 0
-973 1161 0
5 -973 974 0
-974 1162 0
6 -974 975 0
-975 1163 0
7 -975 976 0
-976 1164 0
8 -976 977 0
-977 1165 0
9 -977 978 0
-978 1166 0
10 -978 979 0
-979 1167 0
11 -979 980 0
-980 1168 0
12 -980 981 0
-981 1169 0
13 -981 982 0
-982 1170 0
14 -982 983 0
-983 1171 0
15 -983 984 0
-984 1172 0
16 -984 985 0
-985 1173 0
17 -985 986 0
-986 1174 0
18 -986 987 0
-987 1175 0
19 -987 988 0
-988 1176 0
20 -988 989 0
-989 1177 0
21 -989 990 0
-990 1178 0
22 -990 991 0
-991 1179 0
23 -991 992 0
-992 1180 0
24 -992 993 0
-993 1181 0
25 -993 994 0
-994 1182 0
26 -994 995 0
-995 1183 0
27 -995 996 0
-996 1184 0
28 -996 997 0
-997 1185 0
29 -997 998 0
-998 1186 0
30 -998 999 0
-999 1187 0
31 -999 1000 0
-1000 1188 0
32 -1000 1001 0
-1001 1189 0
33 -1001 1002 0
-1002 1190 0
34 -1002 1003 0
-1003 1191 0
35 -1003 1004 0
-1004 1192 0
36 -1004 1005 0
-1005 1193 0
37 -1005 1006 0
-1006 1194 0
38 -1006 1007 0
-1007 1195 0
39 -1007 1008 0
-1008 1196 0
40 -1008 1009 0
-1009 1197 0
41 -1009 1010 0
-1010 1198 0
42 -1010 1011 0
-1011 1199 0
43 -1011 1012 0
-1012 1200 0
44 -1012 1013 0
-1013 1201 0
45 -1013 1014 0
-1014 1202 0
46 -1014 1015 0
-1015 1203 0
47 -1015 1016 0
-1016 1204 0
48 -1016 1017 0
-1017 1205 0
49 -1017 1018 0
-1018 1206 0
50 -1018 1019 0
-1019 1207 0
51 -1019 1020 0
-1020 1208 0
52 -1020 1021 0
-1021 1209 0
53 -1021 1022 0
-1022 1210 0
54 -1022 1023 0
-1023 1211 0
55 -1023 1024 0
-1024 1212 0
56 -1024 1025 0
-1025 1213 0
57 -1025 1026 0
-1026 1214 0
58 -1026 1027 0
-1027 1215 0
59 -1027 1028 0
-1028 1216 0
60 -1028 1029 0
-1029 1217 0
61 -1029 1030 0
-1030 1218 0
62 -1030 1031 0
-1031 1219 0
63 -1031 1032 0
-1032 1220 0
64 -1032 1033 0
-1033 1221 0
65 -1033 1034 0
-1034 1222 0
66 -1034 1035 0
-1035 1223 0
67 -1035 1036 0
-1036 1224 0
68 -1036 1037 0
-1037 1225 0
69 -1037 1038 0
-1038 1226 0
70 -1038 1039 0
-1039 1227 0
71 -1039 1040 0
-1040 1228 0
72 -1040 1041 0
-1041 1229 0
73 -1041 1042 0
-1042 1230 0
74 -1042 1043 0
-1043 1231 0
75 -1043 1044 0
-1044 1232 0
76 -1044 1045 0
-1045 1233 0
77 -1045 1046 0
-1046 1234 0
78 -1046 1047 0
-1047 1235 0
79 -1047 1048 0
-1048 1236 0
80 -1048 1049 0
-1049 1237 0
81 -1049 1050 0
-1050 1238 0
82 -1050 1051 0
-1051 1239 0
83 -1051 1052 0
-1052 1240 0
84 -1052 1053 0
-1053 1241 0
85 -1053 1054 0
-1054 1242 0
86 -1054 1055 0
-1055 1243 0
87 -1055 1056 0
-1056 1244 0
88 -1056 1057 0
-1057 1245 0
89 -1057 1058 0
-1058 1246 0
90 -1058 1059 0
-1059 1247 0
91 -1059 1060 0
-1060 1248 0
92 -1060 1061 0
-1061 1249 0
93 -1061 1062 0
-1062 1250 0
94 -1062 1063 0
-1063 1251 0
95 -1063 1064 0
-1064 1252 0
96 -1064 1065 0
-1065 1253 0
97 -1065 1066 0
-1066 1254 0
98 -1066 1067 0
-1067 1255 0
99 -1067 1068 0
-1068 1256 0
100 -1068 1069 0
-1069 1257 0
101 -1069 1070 0
-1070 1258 0
102 -1070 1071 0
-1071 1259 0
103 -1071 1072 0
-1072 1260 0
104 -1072 1073 0
-1073 1261 0
105 -1073 1074 0
-1074 1262 0
106 -1074 1075 0
-1075 1263 0
107 -1075 1076 0
-1076 1264 0
108 -1076 1077 0
-1077 1265 0
109 -1077 1078 0
-1078 1266 0
110 -1078 1079 0
-1079 1267 0
111 -1079 1080 0
-1080 1268 0
112 -1080 1081 0
-1081 1269 0
113 -1081 1082 0
-1082 1270 0
114 -1082 1083 0
-1083 1271 0
115 -1083 1084 0
-1084 1272 0
116 -1084 1085 0
-1085 1273 0
117 -1085 1086 0
-1086 1274 0
118 -1086 1087 0
-1087 1275 0
119 -1087 1088 0
-1088 1276 0
120 -1088 1089 0
-1089 1277 0
121 -1089 1090 0
-1090 1278 0
122 -1090 1091 0
-1091 1279 0
123 -1091 1092 0
-1092 1280 0
124 -1092 1093 0
-1093 1281 0
125 -1093 1094 0
-1094 1282 0
126 -1094 1095 0
-1095 1283 0
127 -1095 1096 0
-1096 1284 0
128 -1096 1097 0
-1097 1285 0
129 -1097 1098 0
-1098 1286 0
130 -1098 1099 0
-1099 1287 0
131 -1099 1100 0
-1100 1288 0
132 -1100 1101 0
-1101 1289 0
133 -1101 1102 0
-1102 1290 0
134 -1102 1103 0
-1103 1291 0
135 -1103 1104 0
-1104 1292 0
136 -1104 1105 0
-1105 1293 0
137 -1105 1106 0
-1106 1294 0
138 -1106 1107 0
-1107 1295 0
139 -1107 1108 0
-1108 1296 0
140 -1108 1109 0
-1109 1297 0
141 -1109 1110 0
-1110 1298 0
142 -1110 1111 0
-1111 1299 0
143 -1111 1112 0
-1112 1300 0
144 -1112 1113 0
-1113 1301 0
145 -1113 1114 0
-1114 1302 0
146 -1114 1115 0
-1115 1303 0
147 -1115 1116 0
-1116 1304 0
148 -1116 1117 0
-1117 1305 0
149 -1117 1118 0
-1118 1306 0
150 -1118 1119 0
-1119 1307 0
151 -1119 1120 0
-1120 1308 0
152 -1120 1121 0
-1121 1309 0
153 -1121 1122 0
-1122 1310 0
154 -1122 1123 0
-1123 1311 0
155 -1123 1124 0
-1124 1312 0
156 -1124 1125 0
-1125 1313 0
157 -1125 1126 0
-1126 1314 0
158 -1126 1127 0
-1127 1315 0
159 -1127 1128 0
-1128 1316 0
160 -1128 1129 0
-1129 1317 0
161 -1129 1130 0
-1130 1318 0
162 -1130 1131 0
-1131 1319 0
163 -1131 1132 0
-1132 1320 0
164 -1132 1133 0
-1133 1321 0
165 -1133 1134 0
-1134 1322 0
166 -1134 1135 0
-1135 1323 0
167 -1135 1136 0
-1136 1324 0
168 -1136 1137 0
-1137 1325 0
169 -1137 1138 0
-1138 1326 0
170 -1138 1139 0
-1139 1327 0
171 -1139 1140 0
-1140 1328 0
172 -1140 1141 0
-1141 1329 0
173 -1141 1142 0
-1142 1330 0
174 -1142 1143 0
-1143 1331 0
175 -1143 1144 0
-1144 1332 0
176 -1144 1145 0
-1145 1333 0
177 -1145 1146 0
-1146 1334 0
178 -1146 1147 0
-1147 1335 0
179 -1147 1148 0
-1148 1336 0
180 -1148 1149 0
-1149 1337 0
181 -1149 1150 0
-1150 1338 0
182 -1150 1151 0
-1151 1339 0
183 -1151 1152 0
-1152 1340 0
184 -1152 1153 0
-1153 1341 0
185 -1153 1154 0
-1154 1342 0
186 -1154 1155 0
-1155 1343 0
187 -1155 1156 0
-1156 1344 0
188 -1156 1157 0
-1157 1345 0
189 -1157 1158 0
-1158 1346 0
190 -1158 1159 0
-1159 1347 0
191 -1159 1160 0
-1160 1348 0
192 -1160 0
5 1161 0
-1161 1349 0
6 -1161 1162 0
-1162 1350 0
7 -1162 1163 0
-1163 1351 0
8 -1163 1164 0
-1164 1352 0
9 -1164 1165 0
-1165 1353 0
10 -1165 1166 0
-1166 1354 0
11 -1166 1167 0
-1167 1355 0
12 -1167 1168 0
-1168 1356 0
13 -1168 1169 0
-1169 1357 0
14 -1169 1170 0
-1170 1358 0
15 -1170 1171 0
-1171 1359 0
16 -1171 1172 0
-1172 1360 0
17 -1172 1173 0
-1173 1361 0
18 -1173 1174 0
-1174 1362 0
19 -1174 1175 0
-1175 1363 0
20 -1175 1176 0
-1176 1364 0
21 -1176 1177 0
-1177 1365 0
22 -1177 1178 0
-1178 1366 0
23 -1178 1179 0
-1179 1367 0
24 -1179 1180 0
-1180 1368 0
25 -1180 1181 0
-1181 1369 0
26 -1181 1182 0
-1182 1370 0
27 -1182 1183 0
-1183 1371 0
28 -1183 1184 0
-1184 1372 0
29 -1184 1185 0
-1185 1373 0
30 -1185 1186 0
-1186 1374 0
31 -1186 1187 0
-1187 1375 0
32 -1187 1188 0
-1188 1376 0
33 -1188 1189 0
-1189 1377 0
34 -1189 1190 0
-1190 1378 0
35 -1190 1191 0
-1191 1379 0
36 -1191 1192 0
-1192 1380 0
37 -1192 1193 0
-1193 1381 0
38 -1193 1194 0
-1194 1382 0
39 -1194 1195 0
-1195 1383 0
40 -1195 1196 0
-1196 1384 0
41 -1196 1197 0
-1197 1385 0
42 -1197 1198 0
-1198 1386 0
43 -1198 1199 0
-1199 1387 0
44 -1199 1200 0
-1200 1388 0
45 -1200 1201 0
-1201 1389 0
46 -1201 1202 0
-1202 1390 0
47 -1202 1203 0
-1203 1391 0
48 -1203 1204 0
-1204 1392 0
49 -1204 1205 0
-1205 1393 0
50 -1205 1206 0
-1206 1394 0
51 -1206 1207 0
-1207 1395 0
52 -1207 1208 0
-1208 1396 0
53 -1208 1209 0
-1209 1397 0
54 -1209 1210 0
-1210 1398 0
55 -1210 1211 0
-1211 1399 0
56 -1211 1212 0
-1212 1400 0
57 -1212 1213 0
-1213 1401 0
58 -1213 1214 0
-1214 1402 0
59 -1214 1215 0
-1215 1403 0
60 -1215 1216 0
-1216 1404 0
61 -1216 1217 0
-1217 1405 0
62 -1217 1218 0
-1218 1406 0
63 -1218 1219 0
-1219 1407 0
64 -1219 1220 0
-1220 1408 0
65 -1220 1221 0
-1221 1409 0
66 -1221 1222 0
-1222 1410 0
67 -1222 1223 0
-1223 1411 0
68 -1223 1224 0
-1224 1412 0
69 -1224 1225 0
-1225 1413 0
70 -1225 1226 0
-1226 1414 0
71 -1226 1227 0
-1227 1415 0
72 -1227 1228 0
-1228 1416 0
73 -1228 1229 0
-1229 1417 0
74 -1229 1230 0
-1230 1418 0
75 -1230 1231 0
-1231 1419 0
76 -1231 1232 0
-1232 1420 0
77 -1232 1233 0
-1233 1421 0
78 -1233 1234 0
-1234 1422 0
79 -1234 1235 0
-1235 1423 0
80 -1235 1236 0
-1236 1424 0
81 -1236 1237 0
-1237 1425 0
82 -1237 1238 0
-1238 1426 0
83 -1238 1239 0
-1239 1427 0
84 -1239 1240 0
-1240 1428 0
85 -1240 1241 0
-1241 1429 0
86 -1241 1242 0
-1242 1430 0
87 -1242 1243 0
-1243 1431 0
88 -1243 1244 0
-1244 1432 0
89 -1244 1245 0
-1245 1433 0
90 -1245 1246 0
-1246 1434 0
91 -1246 1247 0
-1247 1435 0
92 -1247 1248 0
-1248 1436 0
93 -1248 1249 0
-1249 1437 0
94 -1249 1250 0
-1250 1438 0
95 -1250 1251 0
-1251 1439 0
96 -1251 1252 0
-1252 1440 0
97 -1252 1253 0
-1253 1441 0
98 -1253 1254 0
-1254 1442 0
99 -1254 1255 0
-1255 1443 0
100 -1255 1256 0
-1256 1444 0
101 -1256 1257 0
-1257 1445 0
102 -1257 1258 0
-1258 1446 0
103 -1258 1259 0
-1259 1447 0
104 -1259 1260 0
-1260 1448 0
105 -1260 1261 0
-1261 1449 0
106 -1261 1262 0
-1262 1450 0
107 -1262 1263 0
-1263 1451 0
108 -1263 1264 0
-1264 1452 0
109 -1264 1265 0
-1265 1453 0
110 -1265 1266 0
-1266 1454 0
111 -1266 1267 0
-1267 1455 0
112 -1267 1268 0
-1268 1456 0
113 -1268 1269 0
-1269 1457 0
114 -1269 1270 0
-1270 1458 0
115 -1270 1271 0
-1271 1459 0
116 -1271 1272 0
-1272 1460 0
117 -1272 1273 0
-1273 1461 0
118 -1273 1274 0
-1274 1462 0
119 -1274 1275 0
-1275 1463 0
120 -1275 1276 0
-1276 1464 0
121 -1276 1277 0
-1277 1465 0
122 -1277 1278 0
-1278 1466 0
123 -1278 1279 0
-1279 1467 0
124 -1279 1280 0
-1280 1468 0
125 -1280 1281 0
-1281 1469 0
126 -1281 1282 0
-1282 1470 0
127 -1282 1283 0
-1283 1471 0
128 -1283 1284 0
-1284 1472 0
129 -1284 1285 0
-1285 1473 0
130 -1285 1286 0
-1286 1474 0
131 -1286 1287 0
-1287 1475 0
132 -1287 1288 0
-1288 1476 0
133 -1288 1289 0
-1289 1477 0
134 -1289 1290 0
-1290 1478 0
135 -1290 1291 0
-1291 1479 0
136 -1291 1292 0
-1292 1480 0
137 -1292 1293 0
-1293 1481 0
138 -1293 1294 0
-1294 1482 0
139 -1294 1295 0
-1295 1483 0
140 -1295 1296 0
-1296 1484 0
141 -1296 1297 0
-1297 1485 0
142 -1297 1298 0
-1298 1486 0
143 -1298 1299 0
-1299 1487 0
144 -1299 1300 0
-1300 1488 0
145 -1300 1301 0
-1301 1489 0
146 -1301 1302 0
-1302 1490 0
147 -1302 1303 0
-1303 1491 0
148 -1303 1304 0
-1304 1492 0
149 -1304 1305 0
-1305 1493 0
150 -1305 1306 0
-1306 1494 0
151 -1306 1307 0
-1307 1495 0
152 -1307 1308 0
-1308 1496 0
153 -1308 1309 0
-1309 1497 0
154 -1309 1310 0
-1310 1498 0
155 -1310 1311 0
-1311 1499 0
156 -1311 1312 0
-1312 1500 0
157 -1312 1313 0
-1313 1501 0
158 -1313 1314 0
-1314 1502 0
159 -1314 1315 0
-1315 1503 0
160 -1315 1316 0
-1316 1504 0
161 -1316 1317 0
-1317 1505 0
162 -1317 1318 0
-1318 1506 0
163 -1318 1319 0
-1319 1507 0
164 -1319 1320 0
-1320 1508 0
165 -1320 1321 0
-1321 1509 0
166 -1321 1322 0
-1322 1510 0
167 -1322 1323 0
-1323 1511 0
168 -1323 1324 0
-1324 1512 0
169 -1324 1325 0
-1325 1513 0
170 -1325 1326 0
-1326 1514 0
171 -1326 1327 0
-1327 1515 0
172 -1327 1328 0
-1328 1516 0
173 -1328 1329 0
-1329 1517 0
174 -1329 1330 0
-1330 1518 0
175 -1330 1331 0
-1331 1519 0
176 -1331 1332 0
-1332 1520 0
177 -1332 1333 0
-1333 1521 0
178 -1333 1334 0
-1334 1522 0
179 -1334 1335 0
-1335 1523 0
180 -1335 1336 0
-1336 1524 0
181 -1336 1337 0
-1337 1525 0
182 -1337 1338 0
-1338 1526 0
183 -1338 1339 0
-1339 1527 0
184 -1339 1340 0
-1340 1528 0
185 -1340 1341 0
-1341 1529 0
186 -1341 1342 0
-1342 1530 0
187 -1342 1343 0
-1343 1531 0
188 -1343 1344 0
-1344 1532 0
189 -1344 1345 0
-1345 1533 0
190 -1345 1346 0
-1346 1534 0
191 -1346 1347 0
-1347 1535 0
192 -1347 1348 0
-1348 1536 0
193 -1348 0
6 1349 0
-1349 1537 0
7 -1349 1350 0
-1350 1538 0
8 -1350 1351 0
-1351 1539 0
9 -1351 1352 0
-1352 1540 0
10 -1352 1353 0
-1353 1541 0
11 -1353 1354 0
-1354 1542 0
12 -1354 1355 0
-1355 1543 0
13 -1355 1356 0
-1356 1544 0
14 -1356 1357 0
-1357 1545 0
15 -1357 1358 0
-1358 1546 0
16 -1358 1359 0
-1359 1547 0
17 -1359 1360 0
-1360 1548 0
18 -1360 1361 0
-1361 1549 0
19 -1361 1362 0
-1362 1550 0
20 -1362 1363 0
-1363 1551 0
21 -1363 1364 0
-1364 1552 0
22 -1364 1365 0
-1365 1553 0
23 -1365 1366 0
-1366 1554 0
24 -1366 1367 0
-1367 1555 0
25 -1367 1368 0
-1368 1556 0
26 -1368 1369 0
-1369 1557 0
27 -1369 1370 0
-1370 1558 0
28 -1370 1371 0
-1371 1559 0
29 -1371 1372 0
-1372 1560 0
30 -1372 1373 0
-1373 1561 0
31 -1373 1374 0
-1374 1562 0
32 -1374 1375 0
-1375 1563 0
33 -1375 1376 0
-1376 1564 0
34 -1376 1377 0
-1377 1565 0
35 -1377 1378 0
-1378 1566 0
36 -1378 1379 0
-1379 1567 0
37 -1379 1380 0
-1380 1568 0
38 -1380 1381 0
-1381 1569 0
39 -1381 1382 0
-1382 1570 0
40 -1382 1383 0
-1383 1571 0
41 -1383 1384 0
-1384 1572 0
42 -1384 1385 0
-1385 1573 0
43 -1385 1386 0
-1386 1574 0
44 -1386 1387 0
-1387 1575 0
45 -1387 1388 0
-1388 1576 0
46 -1388 1389 0
-1389 1577 0
47 -1389 1390 0
-1390 1578 0
48 -1390 1391 0
-1391 1579 0
49 -1391 1392 0
-1392 1580 0
50 -1392 1393 0
-1393 1581 0
51 -1393 1394 0
-1394 1582 0
52 -1394 1395 0
-1395 1583 0
53 -1395 1396 0
-1396 1584 0
54 -1396 1397 0
-1397 1585 0
55 -1397 1398 0
-1398 1586 0
56 -1398 1399 0
-1399 1587 0
57 -1399 1400 0
-1400 1588 0
58 -1400 1401 0
-1401 1589 0
59 -1401 1402 0
-1402 1590 0
60 -1402 1403 0
-1403 1591 0
61 -1403 1404 0
-1404 1592 0
62 -1404 1405 0
-1405 1593 0
63 -1405 1406 0
-1406 1594 0
64 -1406 1407 0
-1407 1595 0
65 -1407 1408 0
-1408 1596 0
66 -1408 1409 0
-1409 1597 0
67 -1409 1410 0
-1410 1598 0
68 -1410 1411 0
-1411 1599 0
69 -1411 1412 0
-1412 1600 0
70 -1412 1413 0
-1413 1601 0
71 -1413 1414 0
-1414 1602 0
72 -1414 1415 0
-1415 1603 0
73 -1415 1416 0
-1416 1604 0
74 -1416 1417 0
-1417 1605 0
75 -1417 1418 0
-1418 1606 0
76 -1418 1419 0
-1419 1607 0
77 -1419 1420 0
-1420 1608 0
78 -1420 1421 0
-1421 1609 0
79 -1421 1422 0
-1422 1610 0
80 -1422 1423 0
-1423 1611 0
81 -1423 1424 0
-1424 1612 0
82 -1424 1425 0
-1425 1613 0
83 -1425 1426 0
-1426 1614 0
84 -1426 1427 0
-1427 1615 0
85 -1427 1428 0
-1428 1616 0
86 -1428 1429 0
-1429 1617 0
87 -1429 1430 0
-1430 1618 0
88 -1430 1431 0
-1431 1619 0
89 -1431 1432 0
-1432 1620 0
90 -1432 1433 0
-1433 1621 0
91 -1433 1434 0
-1434 1622 0
92 -1434 1435 0
-1435 1623 0
93 -1435 1436 0
-1436 1624 0
94 -1436 1437 0
-1437 1625 0
95 -1437 1438 0
-1438 1626 0
96 -1438 1439 0
-1439 1627 0
97 -1439 1440 0
-1440 1628 0
98 -1440 1441 0
-1441 1629 0
99 -1441 1442 0
-1442 1630 0
100 -1442 1443 0
-1443 1631 0
101 -1443 1444 0
-1444 1632 0
102 -1444 1445 0
-1445 1633 0
103 -1445 1446 0
-1446 1634 0
104 -1446 1447 0
-1447 1635 0
105 -1447 1448 0
-1448 1636 0
106 -1448 1449 0
-1449 1637 0
107 -1449 1450 0
-1450 1638 0
108 -1450 1451 0
-1451 1639 0
109 -1451 1452 0
-1452 1640 0
110 -1452 1453 0
-1453 1641 0
111 -1453 1454 0
-1454 1642 0
112 -1454 1455 0
-1455 1643 0
113 -1455 1456 0
-1456 1644 0
114 -1456 1457 0
-1457 1645 0
115 -1457 1458 0
-1458 1646 0
116 -1458 1459 0
-1459 1647 0
117 -1459 1460 0
-1460 1648 0
118 -1460 1461 0
-1461 1649 0
119 -1461 1462 0
-1462 1650 0
120 -1462 1463 0
-1463 1651 0
121 -1463 1464 0
-1464 1652 0
122 -1464 1465 0
-1465 1653 0
123 -1465 1466 0
-1466 1654 0
124 -1466 1467 0
-1467 1655 0
125 -1467 1468 0
-1468 1656 0
126 -1468 1469 0
-1469 1657 0
127 -1469 1470 0
-1470 1658 0
128 -1470 1471 0
-1471 1659 0
129 -1471 1472 0
-1472 1660 0
130 -1472 1473 0
-1473 1661 0
131 -1473 1474 0
-1474 1662 0
132 -1474 1475 0
-1475 1663 0
133 -1475 1476 0
-1476 1664 0
134 -1476 1477 0
-1477 1665 0
135 -1477 1478 0
-1478 1666 0
136 -1478 1479 0
-1479 1667 0
137 -1479 1480 0
-1480 1668 0
138 -1480 1481 0
-1481 1669 0
139 -1481 1482 0
-1482 1670 0
140 -1482 1483 0
-1483 1671 0
141 -1483 1484 0
-1484 1672 0
142 -1484 1485 0
-1485 1673 0
143 -1485 1486 0
-1486 1674 0
144 -1486 1487 0
-1487 1675 0
145 -1487 1488 0
-1488 1676 0
146 -1488 1489 0
-1489 1677 0
147 -1489 1490 0
-1490 1678 0
148 -1490 1491 0
-1491 1679 0
149 -1491 1492 0
-1492 1680 0
150 -1492 1493 0
-1493 1681 0
151 -1493 1494 0
-1494 1682 0
152 -1494 1495 0
-1495 1683 0
153 -1495 1496 0
-1496 1684 0
154 -1496 1497 0
-1497 1685 0
155 -1497 1498 0
-1498 1686 0
156 -1498 1499 0
-1499 1687 0
157 -1499 1500 0
-1500 1688 0
158 -1500 1501 0
-1501 1689 0
159 -1501 1502 0
-1502 1690 0
160 -1502 1503 0
-1503 1691 0
161 -1503 1504 0
-1504 1692 0
162 -1504 1505 0
-1505 1693 0
163 -1505 1506 0
-1506 1694 0
164 -1506 1507 0
-1507 1695 0
165 -1507 1508 0
-1508 1696 0
166 -1508 1509 0
-1509 1697 0
167 -1509 1510 0
-1510 1698 0
168 -1510 1511 0
-1511 1699 0
169 -1511 1512 0
-1512 1700 0
170 -1512 1513 0
-1513 1701 0
171 -1513 1514 0
-1514 1702 0
172 -1514 1515 0
-1515 1703 0
173 -1515 1516 0
-1516 1704 0
174 -1516 1517 0
-1517 1705 0
175 -1517 1518 0
-1518 1706 0
176 -1518 1519 0
-1519 1707 0
177 -1519 1520 0
-1520 1708 0
178 -1520 1521 0
-1521 1709 0
179 -1521 1522 0
-1522 1710 0
180 -1522 1523 0
-1523 1711 0
181 -1523 1524 0
-1524 1712 0
182 -1524 1525 0
-1525 1713 0
183 -1525 1526 0
-1526 1714 0
184 -1526 1527 0
-1527 1715 0
185 -1527 1528 0
-1528 1716 0
186 -1528 1529 0
-1529 1717 0
187 -1529 1530 0
-1530 1718 0
188 -1530 1531 0
-1531 1719 0
189 -1531 1532 0
-1532 1720 0
190 -1532 1533 0
-1533 1721 0
191 -1533 1534 0
-1534 1722 0
192 -1534 1535 0
-1535 1723 0
193 -1535 1536 0
-1536 1724 0
194 -1536 0
7 1537 0
-1537 1725 0
8 -1537 1538 0
-1538 1726 0
9 -1538 1539 0
-1539 1727 0
10 -1539 1540 0
-1540 1728 0
11 -1540 1541 0
-1541 1729 0
12 -1541 1542 0
-1542 1730 0
13 -1542 1543 0
-1543 1731 0
14 -1543 1544 0
-1544 1732 0
15 -1544 1545 0
-1545 1733 0
16 -1545 1546 0
-1546 1734 0
17 -1546 1547 0
-1547 1735 0
18 -1547 1548 0
-1548 1736 0
19 -1548 1549 0
-1549 1737 0
20 -1549 1550 0
-1550 1738 0
21 -1550 1551 0
-1551 1739 0
22 -1551 1552 0
-1552 1740 0
23 -1552 1553 0
-1553 1741 0
24 -1553 1554 0
-1554 1742 0
25 -1554 1555 0
-1555 1743 0
26 -1555 1556 0
-1556 1744 0
27 -1556 1557 0
-1557 1745 0
28 -1557 1558 0
-1558 1746 0
29 -1558 1559 0
-1559 1747 0
30 -1559 1560 0
-1560 1748 0
31 -1560 1561 0
-1561 1749 0
32 -1561 1562 0
-1562 1750 0
33 -1562 1563 0
-1563 1751 0
34 -1563 1564 0
-1564 1752 0
35 -1564 1565 0
-1565 1753 0
36 -1565 1566 0
-1566 1754 0
37 -1566 1567 0
-1567 1755 0
38 -1567 1568 0
-1568 1756 0
39 -1568 1569 0
-1569 1757 0
40 -1569 1570 0
-1570 1758 0
41 -1570 1571 0
-1571 1759 0
42 -1571 1572 0
-1572 1760 0
43 -1572 1573 0
-1573 1761 0
44 -1573 1574 0
-1574 1762 0
45 -1574 1575 0
-1575 1763 0
46 -1575 1576 0
-1576 1764 0
47 -1576 1577 0
-1577 1765 0
48 -1577 1578 0
-1578 1766 0
49 -1578 1579 0
-1579 1767 0
50 -1579 1580 0
-1580 1768 0
51 -1580 1581 0
-1581 1769 0
52 -1581 1582 0
-1582 1770 0
53 -1582 1583 0
-1583 1771 0
54 -1583 1584 0
-1584 1772 0
55 -1584 1585 0
-1585 1773 0
56 -1585 1586 0
-1586 1774 0
57 -1586 1587 0
-1587 1775 0
58 -1587 1588 0
-1588 1776 0
59 -1588 1589 0
-1589 1777 0
60 -1589 1590 0
-1590 1778 0
61 -1590 1591 0
-1591 1779 0
62 -1591 1592 0
-1592 1780 0
63 -1592 1593 0
-1593 1781 0
64 -1593 1594 0
-1594 1782 0
65 -1594 1595 0
-1595 1783 0
66 -1595 1596 0
-1596 1784 0
67 -1596 1597 0
-1597 1785 0
68 -1597 1598 0
-1598 1786 0
69 -1598 1599 0
-1599 1787 0
70 -1599 1600 0
-1600 1788 0
71 -1600 1601 0
-1601 1789 0
72 -1601 1602 0
-1602 1790 0
73 -1602 1603 0
-1603 1791 0
74 -1603 1604 0
-1604 1792 0
75 -1604 1605 0
-1605 1793 0
76 -1605 1606 0
-1606 1794 0
77 -1606 1607 0
-1607 1795 0
78 -1607 1608 0
-1608 1796 0
79 -1608 1609 0
-1609 1797 0
80 -1609 1610 0
-1610 1798 0
81 -1610 1611 0
-1611 1799 0
82 -1611 1612 0
-1612 1800 0
83 -1612 1613 0
-1613 1801 0
84 -1613 1614 0
-1614 1802 0
85 -1614 1615 0
-1615 1803 0
86 -1615 1616 0
-1616 1804 0
87 -1616 1617 0
-1617 1805 0
88 -1617 1618 0
-1618 1806 0
89 -1618 1619 0
-1619 1807 0
90 -1619 1620 0
-1620 1808 0
91 -1620 1621 0
-1621 1809 0
92 -1621 1622 0
-1622 1810 0
93 -1622 1623 0
-1623 1811 0
94 -1623 1624 0
-1624 1812 0
95 -1624 1625 0
-1625 1813 0
96 -1625 1626 0
-1626 1814 0
97 -1626 1627 0
-1627 1815 0
98 -1627 1628 0
-1628 1816 0
99 -1628 1629 0
-1629 1817 0
100 -1629 1630 0
-1630 1818 0
101 -1630 1631 0
-1631 1819 0
102 -1631 1632 0
-1632 1820 0
103 -1632 1633 0
-1633 1821 0
104 -1633 1634 0
-1634 1822 0
105 -1634 1635 0
-1635 1823 0
106 -1635 1636 0
-1636 1824 0
107 -1636 1637 0
-1637 1825 0
108 -1637 1638 0
-1638 1826 0
109 -1638 1639 0
-1639 1827 0
110 -1639 1640 0
-1640 1828 0
111 -1640 1641 0
-1641 1829 0
112 -1641 1642 0
-1642 1830 0
113 -1642 1643 0
-1643 1831 0
114 -1643 1644 0
-1644 1832 0
115 -1644 1645 0
-1645 1833 0
116 -1645 1646 0
-1646 1834 0
117 -1646 1647 0
-1647 1835 0
118 -1647 1648 0
-1648 1836 0
119 -1648 1649 0
-1649 1837 0
120 -1649 1650 0
-1650 1838 0
121 -1650 1651 0
-1651 1839 0
122 -1651 1652 0
-1652 1840 0
123 -1652 1653 0
-1653 1841 0
124 -1653 1654 0
-1654 1842 0
125 -1654 1655 0
-1655 1843 0
126 -1655 1656 0
-1656 1844 0
127 -1656 1657 0
-1657 1845 0
128 -1657 1658 0
-1658 1846 0
129 -1658 1659 0
-1659 1847 0
130 -1659 1660 0
-1660 1848 0
131 -1660 1661 0
-1661 1849 0
132 -1661 1662 0
-1662 1850 0
133 -1662 1663 0
-1663 1851 0
134 -1663 1664 0
-1664 1852 0
135 -1664 1665 0
-1665 1853 0
136 -1665 1666 0
-1666 1854 0
137 -1666 1667 0
-1667 1855 0
138 -1667 1668 0
-1668 1856 0
139 -1668 1669 0
-1669 1857 0
140 -1669 1670 0
-1670 1858 0
141 -1670 1671 0
-1671 1859 0
142 -1671 1672 0
-1672 1860 0
143 -1672 1673 0
-1673 1861 0
144 -1673 1674 0
-1674 1862 0
145 -1674 1675 0
-1675 1863 0
146 -1675 1676 0
-1676 1864 0
147 -1676 1677 0
-1677 1865 0
148 -1677 1678 0
-1678 1866 0
149 -1678 1679 0
-1679 1867 0
150 -1679 1680 0
-1680 1868 0
151 -1680 1681 0
-1681 1869 0
152 -1681 1682 0
-1682 1870 0
153 -1682 1683 0
-1683 1871 0
154 -1683 1684 0
-1684 1872 0
155 -1684 1685 0
-1685 1873 0
156 -1685 1686 0
-1686 1874 0
157 -1686 1687 0
-1687 1875 0
158 -1687 1688 0
-1688 1876 0
159 -1688 1689 0
-1689 1877 0
160 -1689 1690 0
-1690 1878 0
161 -1690 1691 0
-1691 1879 0
162 -1691 1692 0
-1692 1880 0
163 -1692 1693 0
-1693 1881 0
164 -1693 1694 0
-1694 1882 0
165 -1694 1695 0
-1695 1883 0
166 -1695 1696 0
-1696 1884 0
167 -1696 1697 0
-1697 1885 0
168 -1697 1698 0
-1698 1886 0
169 -1698 1699 0
-1699 1887 0
170 -1699 1700 0
-1700 1888 0
171 -1700 1701 0
-1701 1889 0
172 -1701 1702 0
-1702 1890 0
173 -1702 1703 0
-1703 1891 0
174 -1703 1704 0
-1704 1892 0
175 -1704 1705 0
-1705 1893 0
176 -1705 1706 0
-1706 1894 0
177 -1706 1707 0
-1707 1895 0
178 -1707 1708 0
-1708 1896 0
179 -1708 1709 0
-1709 1897 0
180 -1709 1710 0
-1710 1898 0
181 -1710 1711 0
-1711 1899 0
182 -1711 1712 0
-1712 1900 0
183 -1712 1713 0
-1713 1901 0
184 -1713 1714 0
-1714 1902 0
185 -1714 1715 0
-1715 1903 0
186 -1715 1716 0
-1716 1904 0
187 -1716 1717 0
-1717 1905 0
188 -1717 1718 0
-1718 1906 0
189 -1718 1719 0
-1719 1907 0
190 -1719 1720 0
-1720 1908 0
191 -1720 1721 0
-1721 1909 0
192 -1721 1722 0
-1722 1910 0
193 -1722 1723 0
-1723 1911 0
194 -1723 1724 0
-1724 1912 0
195 -1724 0
8 1725 0
-1725 1913 0
9 -1725 1726 0
-1726 1914 0
10 -1726 1727 0
-1727 1915 0
11 -1727 1728 0
-1728 1916 0
12 -1728 1729 0
-1729 1917 0
13 -1729 1730 0
-1730 1918 0
14 -1730 1731 0
-1731 1919 0
15 -1731 1732 0
-1732 1920 0
16 -1732 1733 0
-1733 1921 0
17 -1733 1734 0
-1734 1922 0
18 -1734 1735 0
-1735 1923 0
19 -1735 1736 0
-1736 1924 0
20 -1736 1737 0
-1737 1925 0
21 -1737 1738 0
-1738 1926 0
22 -1738 1739 0
-1739 1927 0
23 -1739 1740 0
-1740 1928 0
24 -1740 1741 0
-1741 1929 0
25 -1741 1742 0
-1742 1930 0
26 -1742 1743 0
-1743 1931 0
27 -1743 1744 0
-1744 1932 0
28 -1744 1745 0
-1745 1933 0
29 -1745 1746 0
-1746 1934 0
30 -1746 1747 0
-1747 1935 0
31 -1747 1748 0
-1748 1936 0
32 -1748 1749 0
-1749 1937 0
33 -1749 1750 0
-1750 1938 0
34 -1750 1751 0
-1751 1939 0
35 -1751 1752 0
-1752 1940 0
36 -1752 1753 0
-1753 1941 0
37 -1753 1754 0
-1754 1942 0
38 -1754 1755 0
-1755 1943 0
39 -1755 1756 0
-1756 1944 0
40 -1756 1757 0
-1757 1945 0
41 -1757 1758 0
-1758 1946 0
42 -1758 1759 0
-1759 1947 0
43 -1759 1760 0
-1760 1948 0
44 -1760 1761 0
-1761 1949 0
45 -1761 1762 0
-1762 1950 0
46 -1762 1763 0
-1763 1951 0
47 -1763 1764 0
-1764 1952 0
48 -1764 1765 0
-1765 1953 0
49 -1765 1766 0
-1766 1954 0
50 -1766 1767 0
-1767 1955 0
51 -1767 1768 0
-1768 1956 0
52 -1768 1769 0
-1769 1957 0
53 -1769 1770 0
-1770 1958 0
54 -1770 1771 0
-1771 1959 0
55 -1771 1772 0
-1772 1960 0
56 -1772 1773 0
-1773 1961 0
57 -1773 1774 0
-1774 1962 0
58 -1774 1775 0
-1775 1963 0
59 -1775 1776 0
-1776 1964 0
60 -1776 1777 0
-1777 1965 0
61 -1777 1778 0
-1778 1966 0
62 -1778 1779 0
-1779 1967 0
63 -1779 1780 0
-1780 1968 0
64 -1780 1781 0
-1781 1969 0
65 -1781 1782 0
-1782 1970 0
66 -1782 1783 0
-1783 1971 0
67 -1783 1784 0
-1784 1972 0
68 -1784 1785 0
-1785 1973 0
69 -1785 1786 0
-1786 1974 0
70 -1786 1787 0
-1787 1975 0
71 -1787 1788 0
-1788 1976 0
72 -1788 1789 0
-1789 1977 0
73 -1789 1790 0
-1790 1978 0
74 -1790 1791 0
-1791 1979 0
75 -1791 1792 0
-1792 1980 0
76 -1792 1793 0
-1793 1981 0
77 -1793 1794 0
-1794 1982 0
78 -1794 1795 0
-1795 1983 0
79 -1795 1796 0
-1796 1984 0
80 -1796 1797 0
-1797 1985 0
81 -1797 1798 0
-1798 1986 0
82 -1798 1799 0
-1799 1987 0
83 -1799 1800 0
-1800 1988 0
84 -1800 1801 0
-1801 1989 0
85 -1801 1802 0
-1802 1990 0
86 -1802 1803 0
-1803 1991 0
87 -1803 1804 0
-1804 1992 0
88 -1804 1805 0
-1805 1993 0
89 -1805 1806 0
-1806 1994 0
90 -1806 1807 0
-1807 1995 0
91 -1807 1808 0
-1808 1996 0
92 -1808 1809 0
-1809 1997 0
93 -1809 1810 0
-1810 1998 0
94 -1810 1811 0
-1811 1999 0
95 -1811 1812 0
-1812 2000 0
96 -1812 1813 0
-1813 2001 0
97 -1813 1814 0
-1814 2002 0
98 -1814 1815 0
-1815 2003 0
99 -1815 1816 0
-1816 2004 0
100 -1816 1817 0
-1817 2005 0
101 -1817 1818 0
-1818 2006 0
102 -1818 1819 0
-1819 2007 0
103 -1819 1820 0
-1820 2008 0
104 -1820 1821 0
-1821 2009 0
105 -1821 1822 0
-1822 2010 0
106 -1822 1823 0
-1823 2011 0
107 -1823 1824 0
-1824 2012 0
108 -1824 1825 0
-1825 2013 0
109 -1825 1826 0
-1826 2014 0
110 -1826 1827 0
-1827 2015 0
111 -1827 1828 0
-1828 2016 0
112 -1828 1829 0
-1829 2017 0
113 -1829 1830 0
-1830 2018 0
114 -1830 1831 0
-1831 2019 0
115 -1831 1832 0
-1832 2020 0
116 -1832 1833 0
-1833 2021 0
117 -1833 1834 0
-1834 2022 0
118 -1834 1835 0
-1835 2023 0
119 -1835 1836 0
-1836 2024 0
120 -1836 1837 0
-1837 2025 0
121 -1837 1838 0
-1838 2026 0
122 -1838 1839 0
-1839 2027 0
123 -1839 1840 0
-1840 2028 0
124 -1840 1841 0
-1841 2029 0
125 -1841 1842 0
-1842 2030 0
126 -1842 1843 0
-1843 2031 0
127 -1843 1844 0
-1844 2032 0
128 -1844 1845 0
-1845 2033 0
129 -1845 1846 0
-1846 2034 0
130 -1846 1847 0
-1847 2035 0
131 -1847 1848 0
-1848 2036 0
132 -1848 1849 0
-1849 2037 0
133 -1849 1850 0
-1850 2038 0
134 -1850 1851 0
-1851 2039 0
135 -1851 1852 0
-1852 2040 0
136 -1852 1853 0
-1853 2041 0
137 -1853 1854 0
-1854 2042 0
138 -1854 1855 0
-1855 2043 0
139 -1855 1856 0
-1856 2044 0
140 -1856 1857 0
-1857 2045 0
141 -1857 1858 0
-1858 2046 0
142 -1858 1859 0
-1859 2047 0
143 -1859 1860 0
-1860 2048 0
144 -1860 1861 0
-1861 2049 0
145 -1861 1862 0
-1862 2050 0
146 -1862 1863 0
-1863 2051 0
147 -1863 1864 0
-1864 2052 0
148 -1864 1865 0
-1865 2053 0
149 -1865 1866 0
-1866 2054 0
150 -1866 1867 0
-1867 2055 0
151 -1867 1868 0
-1868 2056 0
152 -1868 1869 0
-1869 2057 0
153 -1869 1870 0
-1870 2058 0
154 -1870 1871 0
-1871 2059 0
155 -1871 1872 0
-1872 2060 0
156 -1872 1873 0
-1873 2061 0
157 -1873 1874 0
-1874 2062 0
158 -1874 1875 0
-1875 2063 0
159 -1875 1876 0
-1876 2064 0
160 -1876 1877 0
-1877 2065 0
161 -1877 1878 0
-1878 2066 0
162 -1878 1879 0
-1879 2067 0
163 -1879 1880 0
-1880 2068 0
164 -1880 1881 0
-1881 2069 0
165 -1881 1882 0
-1882 2070 0
166 -1882 1883 0
-1883 2071 0
167 -1883 1884 0
-1884 2072 0
168 -1884 1885 0
-1885 2073 0
169 -1885 1886 0
-1886 2074 0
170 -1886 1887 0
-1887 2075 0
171 -1887 1888 0
-1888 2076 0
172 -1888 1889 0
-1889 2077 0
173 -1889 1890 0
-1890 2078 0
174 -1890 1891 0
-1891 2079 0
175 -1891 1892 0
-1892 2080 0
176 -1892 1893 0
-1893 2081 0
177 -1893 1894 0
-1894 2082 0
178 -1894 1895 0
-1895 2083 0
179 -1895 1896 0
-1896 2084 0
180 -1896 1897 0
-1897 2085 0
181 -1897 1898 0
-1898 2086 0
182 -1898 1899 0
-1899 2087 0
183 -1899 1900 0
-1900 2088 0
184 -1900 1901 0
-1901 2089 0
185 -1901 1902 0
-1902 2090 0
186 -1902 1903 0
-1903 2091 0
187 -1903 1904 0
-1904 2092 0
188 -1904 1905 0
-1905 2093 0
189 -1905 1906 0
-1906 2094 0
190 -1906 1907 0
-1907 2095 0
191 -1907 1908 0
-1908 2096 0
192 -1908 1909 0
-1909 2097 0
193 -1909 1910 0
-1910 2098 0
194 -1910 1911 0
-1911 2099 0
195 -1911 1912 0
-1912 2100 0
196 -1912 0
9 1913 0
-1913 2101 0
10 -1913 1914 0
-1914 2102 0
11 -1914 1915 0
-1915 2103 0
12 -1915 1916 0
-1916 2104 0
13 -1916 1917 0
-1917 2105 0
14 -1917 1918 0
-1918 2106 0
15 -1918 1919 0
-1919 2107 0
16 -1919 1920 0
-1920 2108 0
17 -1920 1921 0
-1921 2109 0
18 -1921 1922 0
-1922 2110 0
19 -1922 1923 0
-1923 2111 0
20 -1923 1924 0
-1924 2112 0
21 -1924 1925 0
-1925 2113 0
22 -1925 1926 0
-1926 2114 0
23 -1926 1927 0
-1927 2115 0
24 -1927 1928 0
-1928 2116 0
25 -1928 1929 0
-1929 2117 0
26 -1929 1930 0
-1930 2118 0
27 -1930 1931 0
-1931 2119 0
28 -1931 1932 0
-1932 2120 0
29 -1932 1933 0
-1933 2121 0
30 -1933 1934 0
-1934 2122 0
31 -1934 1935 0
-1935 2123 0
32 -1935 1936 0
-1936 2124 0
33 -1936 1937 0
-1937 2125 0
34 -1937 1938 0
-1938 2126 0
35 -1938 1939 0
-1939 2127 0
36 -1939 1940 0
-1940 2128 0
37 -1940 1941 0
-1941 2129 0
38 -1941 1942 0
-1942 2130 0
39 -1942 1943 0
-1943 2131 0
40 -1943 1944 0
-1944 2132 0
41 -1944 1945 0
-1945 2133 0
42 -1945 1946 0
-1946 2134 0
43 -1946 1947 0
-1947 2135 0
44 -1947 1948 0
-1948 2136 0
45 -1948 1949 0
-1949 2137 0
46 -1949 1950 0
-1950 2138 0
47 -1950 1951 0
-1951 2139 0
48 -1951 1952 0
-1952 2140 0
49 -1952 1953 0
-1953 2141 0
50 -1953 1954 0
-1954 2142 0
51 -1954 1955 0
-1955 2143 0
52 -1955 1956 0
-1956 2144 0
53 -1956 1957 0
-1957 2145 0
54 -1957 1958 0
-1958 2146 0
55 -1958 1959 0
-1959 2147 0
56 -1959 1960 0
-1960 2148 0
57 -1960 1961 0
-1961 2149 0
58 -1961 1962 0
-1962 2150 0
59 -1962 1963 0
-1963 2151 0
60 -1963 1964 0
-1964 2152 0
61 -1964 1965 0
-1965 2153 0
62 -1965 1966 0
-1966 2154 0
63 -1966 1967 0
-1967 2155 0
64 -1967 1968 0
-1968 2156 0
65 -1968 1969 0
-1969 2157 0
66 -1969 1970 0
-1970 2158 0
67 -1970 1971 0
-1971 2159 0
68 -1971 1972 0
-1972 2160 0
69 -1972 1973 0
-1973 2161 0
70 -1973 1974 0
-1974 2162 0
71 -1974 1975 0
-1975 2163 0
72 -1975 1976 0
-1976 2164 0
73 -1976 1977 0
-1977 2165 0
74 -1977 1978 0
-1978 2166 0
75 -1978 1979 0
-1979 2167 0
76 -1979 1980 0
-1980 2168 0
77 -1980 1981 0
-1981 2169 0
78 -1981 1982 0
-1982 2170 0
79 -1982 1983 0
-1983 2171 0
80 -1983 1984 0
-1984 2172 0
81 -1984 1985 0
-1985 2173 0
82 -1985 1986 0
-1986 2174 0
83 -1986 1987 0
-1987 2175 0
84 -1987 1988 0
-1988 2176 0
85 -1988 1989 0
-1989 2177 0
86 -1989 1990 0
-1990 2178 0
87 -1990 1991 0
-1991 2179 0
88 -1991 1992 0
-1992 2180 0
89 -1992 1993 0
-1993 2181 0
90 -1993 1994 0
-1994 2182 0
91 -1994 1995 0
-1995 2183 0
92 -1995 1996 0
-1996 2184 0
93 -1996 1997 0
-1997 2185 0
94 -1997 1998 0
-1998 2186 0
95 -1998 1999 0
-1999 2187 0
96 -1999 2000 0
-2000 2188 0
97 -2000 2001 0
-2001 2189 0
98 -2001 2002 0
-2002 2190 0
99 -2002 2003 0
-2003 2191 0
100 -2003 2004 0
-2004 2192 0
101 -2004 2005 0
-2005 2193 0
102 -2005 2006 0
-2006 2194 0
103 -2006 2007 0
-2007 2195 0
104 -2007 2008 0
-2008 2196 0
105 -2008 2009 0
-2009 2197 0
106 -2009 2010 0
-2010 2198 0
107 -2010 2011 0
-2011 2199 0
108 -2011 2012 0
-2012 2200 0
109 -2012 2013 0
-2013 2201 0
110 -2013 2014 0
-2014 2202 0
111 -2014 2015 0
-2015 2203 0
112 -2015 2016 0
-2016 2204 0
113 -2016 2017 0
-2017 2205 0
114 -2017 2018 0
-2018 2206 0
115 -2018 2019 0
-2019 2207 0
116 -2019 2020 0
-2020 2208 0
117 -2020 2021 0
-2021 2209 0
118 -2021 2022 0
-2022 2210 0
119 -2022 2023 0
-2023 2211 0
120 -2023 2024 0
-2024 2212 0
121 -2024 2025 0
-2025 2213 0
122 -2025 2026 0
-2026 2214 0
123 -2026 2027 0
-2027 2215 0
124 -2027 2028 0
-2028 2216 0
125 -2028 2029 0
-2029 2217 0
126 -2029 2030 0
-2030 2218 0
127 -2030 2031 0
-2031 2219 0
128 -2031 2032 0
-2032 2220 0
129 -2032 2033 0
-2033 2221 0
130 -2033 2034 0
-2034 2222 0
131 -2034 2035 0
-2035 2223 0
132 -2035 2036 0
-2036 2224 0
133 -2036 2037 0
-2037 2225 0
134 -2037 2038 0
-2038 2226 0
135 -2038 2039 0
-2039 2227 0
136 -2039 2040 0
-2040 2228 0
137 -2040 2041 0
-2041 2229 0
138 -2041 2042 0
-2042 2230 0
139 -2042 2043 0
-2043 2231 0
140 -2043 2044 0
-2044 2232 0
141 -2044 2045 0
-2045 2233 0
142 -2045 2046 0
-2046 2234 0
143 -2046 2047 0
-2047 2235 0
144 -2047 2048 0
-2048 2236 0
145 -2048 2049 0
-2049 2237 0
146 -2049 2050 0
-2050 2238 0
147 -2050 2051 0
-2051 2239 0
148 -2051 2052 0
-2052 2240 0
149 -2052 2053 0
-2053 2241 0
150 -2053 2054 0
-2054 2242 0
151 -2054 2055 0
-2055 2243 0
152 -2055 2056 0
-2056 2244 0
153 -2056 2057 0
-2057 2245 0
154 -2057 2058 0
-2058 2246 0
155 -2058 2059 0
-2059 2247 0
156 -2059 2060 0
-2060 2248 0
157 -2060 2061 0
-2061 2249 0
158 -2061 2062 0
-2062 2250 0
159 -2062 2063 0
-2063 2251 0
160 -2063 2064 0
-2064 2252 0
161 -2064 2065 0
-2065 2253 0
162 -2065 2066 0
-2066 2254 0
163 -2066 2067 0
-2067 2255 0
164 -2067 2068 0
-2068 2256 0
165 -2068 2069 0
-2069 2257 0
166 -2069 2070 0
-2070 2258 0
167 -2070 2071 0
-2071 2259 0
168 -2071 2072 0
-2072 2260 0
169 -2072 2073 0
-2073 2261 0
170 -2073 2074 0
-2074 2262 0
171 -2074 2075 0
-2075 2263 0
172 -2075 2076 0
-2076 2264 0
173 -2076 2077 0
-2077 2265 0
174 -2077 2078 0
-2078 2266 0
175 -2078 2079 0
-2079 2267 0
176 -2079 2080 0
-2080 2268 0
177 -2080 2081 0
-2081 2269 0
178 -2081 2082 0
-2082 2270 0
179 -2082 2083 0
-2083 2271 0
180 -2083 2084 0
-2084 2272 0
181 -2084 2085 0
-2085 2273 0
182 -2085 2086 0
-2086 2274 0
183 -2086 2087 0
-2087 2275 0
184 -2087 2088 0
-2088 2276 0
185 -2088 2089 0
-2089 2277 0
186 -2089 2090 0
-2090 2278 0
187 -2090 2091 0
-2091 2279 0
188 -2091 2092 0
-2092 2280 0
189 -2092 2093 0
-2093 2281 0
190 -2093 2094 0
-2094 2282 0
191 -2094 2095 0
-2095 2283 0
192 -2095 2096 0
-2096 2284 0
193 -2096 2097 0
-2097 2285 0
194 -2097 2098 0
-2098 2286 0
195 -2098 2099 0
-2099 2287 0
196 -2099 2100 0
-2100 2288 0
197 -2100 0
10 2101 0
-2101 2289 0
11 -2101 2102 0
-2102 2290 0
12 -2102 2103 0
-2103 2291 0
13 -2103 2104 0
-2104 2292 0
14 -2104 2105 0
-2105 2293 0
15 -2105 2106 0
-2106 2294 0
16 -2106 2107 0
-2107 2295 0
17 -2107 2108 0
-2108 2296 0
18 -2108 2109 0
-2109 2297 0
19 -2109 2110 0
-2110 2298 0
20 -2110 2111 0
-2111 2299 0
21 -2111 2112 0
-2112 2300 0
22 -2112 2113 0
-2113 2301 0
23 -2113 2114 0
-2114 2302 0
24 -2114 2115 0
-2115 2303 0
25 -2115 2116 0
-2116 2304 0
26 -2116 2117 0
-2117 2305 0
27 -2117 2118 0
-2118 2306 0
28 -2118 2119 0
-2119 2307 0
29 -2119 2120 0
-2120 2308 0
30 -2120 2121 0
-2121 2309 0
31 -2121 2122 0
-2122 2310 0
32 -2122 2123 0
-2123 2311 0
33 -2123 2124 0
-2124 2312 0
34 -2124 2125 0
-2125 2313 0
35 -2125 2126 0
-2126 2314 0
36 -2126 2127 0
-2127 2315 0
37 -2127 2128 0
-2128 2316 0
38 -2128 2129 0
-2129 2317 0
39 -2129 2130 0
-2130 2318 0
40 -2130 2131 0
-2131 2319 0
41 -2131 2132 0
-2132 2320 0
42 -2132 2133 0
-2133 2321 0
43 -2133 2134 0
-2134 2322 0
44 -2134 2135 0
-2135 2323 0
45 -2135 2136 0
-2136 2324 0
46 -2136 2137 0
-2137 2325 0
47 -2137 2138 0
-2138 2326 0
48 -2138 2139 0
-2139 2327 0
49 -2139 2140 0
-2140 2328 0
50 -2140 2141 0
-2141 2329 0
51 -2141 2142 0
-2142 2330 0
52 -2142 2143 0
-2143 2331 0
53 -2143 2144 0
-2144 2332 0
54 -2144 2145 0
-2145 2333 0
55 -2145 2146 0
-2146 2334 0
56 -2146 2147 0
-2147 2335 0
57 -2147 2148 0
-2148 2336 0
58 -2148 2149 0
-2149 2337 0
59 -2149 2150 0
-2150 2338 0
60 -2150 2151 0
-2151 2339 0
61 -2151 2152 0
-2152 2340 0
62 -2152 2153 0
-2153 2341 0
63 -2153 2154 0
-2154 2342 0
64 -2154 2155 0
-2155 2343 0
65 -2155 2156 0
-2156 2344 0
66 -2156 2157 0
-2157 2345 0
67 -2157 2158 0
-2158 2346 0
68 -2158 2159 0
-2159 2347 0
69 -2159 2160 0
-2160 2348 0
70 -2160 2161 0
-2161 2349 0
71 -2161 2162 0
-2162 2350 0
72 -2162 2163 0
-2163 2351 0
73 -2163 2164 0
-2164 2352 0
74 -2164 2165 0
-2165 2353 0
75 -2165 2166 0
-2166 2354 0
76 -2166 2167 0
-2167 2355 0
77 -2167 2168 0
-2168 2356 0
78 -2168 2169 0
-2169 2357 0
79 -2169 2170 0
-2170 2358 0
80 -2170 2171 0
-2171 2359 0
81 -2171 2172 0
-2172 2360 0
82 -2172 2173 0
-2173 2361 0
83 -2173 2174 0
-2174 2362 0
84 -2174 2175 0
-2175 2363 0
85 -2175 2176 0
-2176 2364 0
86 -2176 2177 0
-2177 2365 0
87 -2177 2178 0
-2178 2366 0
88 -2178 2179 0
-2179 2367 0
89 -2179 2180 0
-2180 2368 0
90 -2180 2181 0
-2181 2369 0
91 -2181 2182 0
-2182 2370 0
92 -2182 2183 0
-2183 2371 0
93 -2183 2184 0
-2184 2372 0
94 -2184 2185 0
-2185 2373 0
95 -2185 2186 0
-2186 2374 0
96 -2186 2187 0
-2187 2375 0
97 -2187 2188 0
-2188 2376 0
98 -2188 2189 0
-2189 2377 0
99 -2189 2190 0
-2190 2378 0
100 -2190 2191 0
-2191 2379 0
101 -2191 2192 0
-2192 2380 0
102 -2192 2193 0
-2193 2381 0
103 -2193 2194 0
-2194 2382 0
104 -2194 2195 0
-2195 2383 0
105 -2195 2196 0
-2196 2384 0
106 -2196 2197 0
-2197 2385 0
107 -2197 2198 0
-2198 2386 0
108 -2198 2199 0
-2199 2387 0
109 -2199 2200 0
-2200 2388 0
110 -2200 2201 0
-2201 2389 0
111 -2201 2202 0
-2202 2390 0
112 -2202 2203 0
-2203 2391 0
113 -2203 2204 0
-2204 2392 0
114 -2204 2205 0
-2205 2393 0
115 -2205 2206 0
-2206 2394 0
116 -2206 2207 0
-2207 2395 0
117 -2207 2208 0
-2208 2396 0
118 -2208 2209 0
-2209 2397 0
119 -2209 2210 0
-2210 2398 0
120 -2210 2211 0
-2211 2399 0
121 -2211 2212 0
-2212 2400 0
122 -2212 2213 0
-2213 2401 0
123 -2213 2214 0
-2214 2402 0
124 -2214 2215 0
-2215 2403 0
125 -2215 2216 0
-2216 2404 0
126 -2216 2217 0
-2217 2405 0
127 -2217 2218 0
-2218 2406 0
128 -2218 2219 0
-2219 2407 0
129 -2219 2220 0
-2220 2408 0
130 -2220 2221 0
-2221 2409 0
131 -2221 2222 0
-2222 2410 0
132 -2222 2223 0
-2223 2411 0
133 -2223 2224 0
-2224 2412 0
134 -2224 2225 0
-2225 2413 0
135 -2225 2226 0
-2226 2414 0
136 -2226 2227 0
-2227 2415 0
137 -2227 2228 0
-2228 2416 0
138 -2228 2229 0
-2229 2417 0
139 -2229 2230 0
-2230 2418 0
140 -2230 2231 0
-2231 2419 0
141 -2231 2232 0
-2232 2420 0
142 -2232 2233 0
-2233 2421 0
143 -2233 2234 0
-2234 2422 0
144 -2234 2235 0
-2235 2423 0
145 -2235 2236 0
-2236 2424 0
146 -2236 2237 0
-2237 2425 0
147 -2237 2238 0
-2238 2426 0
148 -2238 2239 0
-2239 2427 0
149 -2239 2240 0
-2240 2428 0
150 -2240 2241 0
-2241 2429 0
151 -2241 2242 0
-2242 2430 0
152 -2242 2243 0
-2243 2431 0
153 -2243 2244 0
-2244 2432 0
154 -2244 2245 0
-2245 2433 0
155 -2245 2246 0
-2246 2434 0
156 -2246 2247 0
-2247 2435 0
157 -2247 2248 0
-2248 2436 0
158 -2248 2249 0
-2249 2437 0
159 -2249 2250 0
-2250 2438 0
160 -2250 2251 0
-2251 2439 0
161 -2251 2252 0
-2252 2440 0
162 -2252 2253 0
-2253 2441 0
163 -2253 2254 0
-2254 2442 0
164 -2254 2255 0
-2255 2443 0
165 -2255 2256 0
-2256 2444 0
166 -2256 2257 0
-2257 2445 0
167 -2257 2258 0
-2258 2446 0
168 -2258 2259 0
-2259 2447 0
169 -2259 2260 0
-2260 2448 0
170 -2260 2261 0
-2261 2449 0
171 -2261 2262 0
-2262 2450 0
172 -2262 2263 0
-2263 2451 0
173 -2263 2264 0
-2264 2452 0
174 -2264 2265 0
-2265 2453 0
175 -2265 2266 0
-2266 2454 0
176 -2266 2267 0
-2267 2455 0
177 -2267 2268 0
-2268 2456 0
178 -2268 2269 0
-2269 2457 0
179 -2269 2270 0
-2270 2458 0
180 -2270 2271 0
-2271 2459 0
181 -2271 2272 0
-2272 2460 0
182 -2272 2273 0
-2273 2461 0
183 -2273 2274 0
-2274 2462 0
184 -2274 2275 0
-2275 2463 0
185 -2275 2276 0
-2276 2464 0
186 -2276 2277 0
-2277 2465 0
187 -2277 2278 0
-2278 2466 0
188 -2278 2279 0
-2279 2467 0
189 -2279 2280 0
-2280 2468 0
190 -2280 2281 0
-2281 2469 0
191 -2281 2282 0
-2282 2470 0
192 -2282 2283 0
-2283 2471 0
193 -2283 2284 0
-2284 2472 0
194 -2284 2285 0
-2285 2473 0
195 -2285 2286 0
-2286 2474 0
196 -2286 2287 0
-2287 2475 0
197 -2287 2288 0
-2288 2476 0
198 -2288 0
11 2289 0
-2289 2477 0
12 -2289 2290 0
-2290 2478 0
13 -2290 2291 0
-2291 2479 0
14 -2291 2292 0
-2292 2480 0
15 -2292 2293 0
-2293 2481 0
16 -2293 2294 0
-2294 2482 0
17 -2294 2295 0
-2295 2483 0
18 -2295 2296 0
-2296 2484 0
19 -2296 2297 0
-2297 2485 0
20 -2297 2298 0
-2298 2486 0
21 -2298 2299 0
-2299 2487 0
22 -2299 2300 0
-2300 2488 0
23 -2300 2301 0
-2301 2489 0
24 -2301 2302 0
-2302 2490 0
25 -2302 2303 0
-2303 2491 0
26 -2303 2304 0
-2304 2492 0
27 -2304 2305 0
-2305 2493 0
28 -2305 2306 0
-2306 2494 0
29 -2306 2307 0
-2307 2495 0
30 -2307 2308 0
-2308 2496 0
31 -2308 2309 0
-2309 2497 0
32 -2309 2310 0
-2310 2498 0
33 -2310 2311 0
-2311 2499 0
34 -2311 2312 0
-2312 2500 0
35 -2312 2313 0
-2313 2501 0
36 -2313 2314 0
-2314 2502 0
37 -2314 2315 0
-2315 2503 0
38 -2315 2316 0
-2316 2504 0
39 -2316 2317 0
-2317 2505 0
40 -2317 2318 0
-2318 2506 0
41 -2318 2319 0
-2319 2507 0
42 -2319 2320 0
-2320 2508 0
43 -2320 2321 0
-2321 2509 0
44 -2321 2322 0
-2322 2510 0
45 -2322 2323 0
-2323 2511 0
46 -2323 2324 0
-2324 2512 0
47 -2324 2325 0
-2325 2513 0
48 -2325 2326 0
-2326 2514 0
49 -2326 2327 0
-2327 2515 0
50 -2327 2328 0
-2328 2516 0
51 -2328 2329 0
-2329 2517 0
52 -2329 2330 0
-2330 2518 0
53 -2330 2331 0
-2331 2519 0
54 -2331 2332 0
-2332 2520 0
55 -2332 2333 0
-2333 2521 0
56 -2333 2334 0
-2334 2522 0
57 -2334 2335 0
-2335 2523 0
58 -2335 2336 0
-2336 2524 0
59 -2336 2337 0
-2337 2525 0
60 -2337 2338 0
-2338 2526 0
61 -2338 2339 0
-2339 2527 0
62 -2339 2340 0
-2340 2528 0
63 -2340 2341 0
-2341 2529 0
64 -2341 2342 0
-2342 2530 0
65 -2342 2343 0
-2343 2531 0
66 -2343 2344 0
-2344 2532 0
67 -2344 2345 0
-2345 2533 0
68 -2345 2346 0
-2346 2534 0
69 -2346 2347 0
-2347 2535 0
70 -2347 2348 0
-2348 2536 0
71 -2348 2349 0
-2349 2537 0
72 -2349 2350 0
-2350 2538 0
73 -2350 2351 0
-2351 2539 0
74 -2351 2352 0
-2352 2540 0
75 -2352 2353 0
-2353 2541 0
76 -2353 2354 0
-2354 2542 0
77 -2354 2355 0
-2355 2543 0
78 -2355 2356 0
-2356 2544 0
79 -2356 2357 0
-2357 2545 0
80 -2357 2358 0
-2358 2546 0
81 -2358 2359 0
-2359 2547 0
82 -2359 2360 0
-2360 2548 0
83 -2360 2361 0
-2361 2549 0
84 -2361 2362 0
-2362 2550 0
85 -2362 2363 0
-2363 2551 0
86 -2363 2364 0
-2364 2552 0
87 -2364 2365 0
-2365 2553 0
88 -2365 2366 0
-2366 2554 0
89 -2366 2367 0
-2367 2555 0
90 -2367 2368 0
-2368 2556 0
91 -2368 2369 0
-2369 2557 0
92 -2369 2370 0
-2370 2558 0
93 -2370 2371 0
-2371 2559 0
94 -2371 2372 0
-2372 2560 0
95 -2372 2373 0
-2373 2561 0
96 -2373 2374 0
-2374 2562 0
97 -2374 2375 0
-2375 2563 0
98 -2375 2376 0
-2376 2564 0
99 -2376 2377 0
-2377 2565 0
100 -2377 2378 0
-2378 2566 0
101 -2378 2379 0
-2379 2567 0
102 -2379 2380 0
-2380 2568 0
103 -2380 2381 0
-2381 2569 0
104 -2381 2382 0
-2382 2570 0
105 -2382 2383 0
-2383 2571 0
106 -2383 2384 0
-2384 2572 0
107 -2384 2385 0
-2385 2573 0
108 -2385 2386 0
-2386 2574 0
109 -2386 2387 0
-2387 2575 0
110 -2387 2388 0
-2388 2576 0
111 -2388 2389 0
-2389 2577 0
112 -2389 2390 0
-2390 2578 0
113 -2390 2391 0
-2391 2579 0
114 -2391 2392 0
-2392 2580 0
115 -2392 2393 0
-2393 2581 0
116 -2393 2394 0
-2394 2582 0
117 -2394 2395 0
-2395 2583 0
118 -2395 2396 0
-2396 2584 0
119 -2396 2397 0
-2397 2585 0
120 -2397 2398 0
-2398 2586 0
121 -2398 2399 0
-2399 2587 0
122 -2399 2400 0
-2400 2588 0
123 -2400 2401 0
-2401 2589 0
124 -2401 2402 0
-2402 2590 0
125 -2402 2403 0
-2403 2591 0
126 -2403 2404 0
-2404 2592 0
127 -2404 2405 0
-2405 2593 0
128 -2405 2406 0
-2406 2594 0
129 -2406 2407 0
-2407 2595 0
130 -2407 2408 0
-2408 2596 0
131 -2408 2409 0
-2409 2597 0
132 -2409 2410 0
-2410 2598 0
133 -2410 2411 0
-2411 2599 0
134 -2411 2412 0
-2412 2600 0
135 -2412 2413 0
-2413 2601 0
136 -2413 2414 0
-2414 2602 0
137 -2414 2415 0
-2415 2603 0
138 -2415 2416 0
-2416 2604 0
139 -2416 2417 0
-2417 2605 0
140 -2417 2418 0
-2418 2606 0
141 -2418 2419 0
-2419 2607 0
142 -2419 2420 0
-2420 2608 0
143 -2420 2421 0
-2421 2609 0
144 -2421 2422 0
-2422 2610 0
145 -2422 2423 0
-2423 2611 0
146 -2423 2424 0
-2424 2612 0
147 -2424 2425 0
-2425 2613 0
148 -2425 2426 0
-2426 2614 0
149 -2426 2427 0
-2427 2615 0
150 -2427 2428 0
-2428 2616 0
151 -2428 2429 0
-2429 2617 0
152 -2429 2430 0
-2430 2618 0
153 -2430 2431 0
-2431 2619 0
154 -2431 2432 0
-2432 2620 0
155 -2432 2433 0
-2433 2621 0
156 -2433 2434 0
-2434 2622 0
157 -2434 2435 0
-2435 2623 0
158 -2435 2436 0
-2436 2624 0
159 -2436 2437 0
-2437 2625 0
160 -2437 2438 0
-2438 2626 0
161 -2438 2439 0
-2439 2627 0
162 -2439 2440 0
-2440 2628 0
163 -2440 2441 0
-2441 2629 0
164 -2441 2442 0
-2442 2630 0
165 -2442 2443 0
-2443 2631 0
166 -2443 2444 0
-2444 2632 0
167 -2444 2445 0
-2445 2633 0
168 -2445 2446 0
-2446 2634 0
169 -2446 2447 0
-2447 2635 0
170 -2447 2448 0
-2448 2636 0
171 -2448 2449 0
-2449 2637 0
172 -2449 2450 0
-2450 2638 0
173 -2450 2451 0
-2451 2639 0
174 -2451 2452 0
-2452 2640 0
175 -2452 2453 0
-2453 2641 0
176 -2453 2454 0
-2454 2642 0
177 -2454 2455 0
-2455 2643 0
178 -2455 2456 0
-2456 2644 0
179 -2456 2457 0
-2457 2645 0
180 -2457 2458 0
-2458 2646 0
181 -2458 2459 0
-2459 2647 0
182 -2459 2460 0
-2460 2648 0
183 -2460 2461 0
-2461 2649 0
184 -2461 2462 0
-2462 2650 0
185 -2462 2463 0
-2463 2651 0
186 -2463 2464 0
-2464 2652 0
187 -2464 2465 0
-2465 2653 0
188 -2465 2466 0
-2466 2654 0
189 -2466 2467 0
-2467 2655 0
190 -2467 2468 0
-2468 2656 0
191 -2468 2469 0
-2469 2657 0
192 -2469 2470 0
-2470 2658 0
193 -2470 2471 0
-2471 2659 0
194 -2471 2472 0
-2472 2660 0
195 -2472 2473 0
-2473 2661 0
196 -2473 2474 0
-2474 2662 0
197 -2474 2475 0
-2475 2663 0
198 -2475 2476 0
-2476 2664 0
199 -2476 0
12 2477 0
-2477 2665 0
13 -2477 2478 0
-2478 2666 0
14 -2478 2479 0
-2479 2667 0
15 -2479 2480 0
-2480 2668 0
16 -2480 2481 0
-2481 2669 0
17 -2481 2482 0
-2482 2670 0
18 -2482 2483 0
-2483 2671 0
19 -2483 2484 0
-2484 2672 0
20 -2484 2485 0
-2485 2673 0
21 -2485 2486 0
-2486 2674 0
22 -2486 2487 0
-2487 2675 0
23 -2487 2488 0
-2488 2676 0
24 -2488 2489 0
-2489 2677 0
25 -2489 2490 0
-2490 2678 0
26 -2490 2491 0
-2491 2679 0
27 -2491 2492 0
-2492 2680 0
28 -2492 2493 0
-2493 2681 0
29 -2493 2494 0
-2494 2682 0
30 -2494 2495 0
-2495 2683 0
31 -2495 2496 0
-2496 2684 0
32 -2496 2497 0
-2497 2685 0
33 -2497 2498 0
-2498 2686 0
34 -2498 2499 0
-2499 2687 0
35 -2499 2500 0
-2500 2688 0
36 -2500 2501 0
-2501 2689 0
37 -2501 2502 0
-2502 2690 0
38 -2502 2503 0
-2503 2691 0
39 -2503 2504 0
-2504 2692 0
40 -2504 2505 0
-2505 2693 0
41 -2505 2506 0
-2506 2694 0
42 -2506 2507 0
-2507 2695 0
43 -2507 2508 0
-2508 2696 0
44 -2508 2509 0
-2509 2697 0
45 -2509 2510 0
-2510 2698 0
46 -2510 2511 0
-2511 2699 0
47 -2511 2512 0
-2512 2700 0
48 -2512 2513 0
-2513 2701 0
49 -2513 2514 0
-2514 2702 0
50 -2514 2515 0
-2515 2703 0
51 -2515 2516 0
-2516 2704 0
52 -2516 2517 0
-2517 2705 0
53 -2517 2518 0
-2518 2706 0
54 -2518 2519 0
-2519 2707 0
55 -2519 2520 0
-2520 2708 0
56 -2520 2521 0
-2521 2709 0
57 -2521 2522 0
-2522 2710 0
58 -2522 2523 0
-2523 2711 0
59 -2523 2524 0
-2524 2712 0
60 -2524 2525 0
-2525 2713 0
61 -2525 2526 0
-2526 2714 0
62 -2526 2527 0
-2527 2715 0
63 -2527 2528 0
-2528 2716 0
64 -2528 2529 0
-2529 2717 0
65 -2529 2530 0
-2530 2718 0
66 -2530 2531 0
-2531 2719 0
67 -2531 2532 0
-2532 2720 0
68 -2532 2533 0
-2533 2721 0
69 -2533 2534 0
-2534 2722 0
70 -2534 2535 0
-2535 2723 0
71 -2535 2536 0
-2536 2724 0
72 -2536 2537 0
-2537 2725 0
73 -2537 2538 0
-2538 2726 0
74 -2538 2539 0
-2539 2727 0
75 -2539 2540 0
-2540 2728 0
76 -2540 2541 0
-2541 2729 0
77 -2541 2542 0
-2542 2730 0
78 -2542 2543 0
-2543 2731 0
79 -2543 2544 0
-2544 2732 0
80 -2544 2545 0
-2545 2733 0
81 -2545 2546 0
-2546 2734 0
82 -2546 2547 0
-2547 2735 0
83 -2547 2548 0
-2548 2736 0
84 -2548 2549 0
-2549 2737 0
85 -2549 2550 0
-2550 2738 0
86 -2550 2551 0
-2551 2739 0
87 -2551 2552 0
-2552 2740 0
88 -2552 2553 0
-2553 2741 0
89 -2553 2554 0
-2554 2742 0
90 -2554 2555 0
-2555 2743 0
91 -2555 2556 0
-2556 2744 0
92 -2556 2557 0
-2557 2745 0
93 -2557 2558 0
-2558 2746 0
94 -2558 2559 0
-2559 2747 0
95 -2559 2560 0
-2560 2748 0
96 -2560 2561 0
-2561 2749 0
97 -2561 2562 0
-2562 2750 0
98 -2562 2563 0
-2563 2751 0
99 -2563 2564 0
-2564 2752 0
100 -2564 2565 0
-2565 2753 0
101 -2565 2566 0
-2566 2754 0
102 -2566 2567 0
-2567 2755 0
103 -2567 2568 0
-2568 2756 0
104 -2568 2569 0
-2569 2757 0
105 -2569 2570 0
-2570 2758 0
106 -2570 2571 0
-2571 2759 0
107 -2571 2572 0
-2572 2760 0
108 -2572 2573 0
-2573 2761 0
109 -2573 2574 0
-2574 2762 0
110 -2574 2575 0
-2575 2763 0
111 -2575 2576 0
-2576 2764 0
112 -2576 2577 0
-2577 2765 0
113 -2577 2578 0
-2578 2766 0
114 -2578 2579 0
-2579 2767 0
115 -2579 2580 0
-2580 2768 0
116 -2580 2581 0
-2581 2769 0
117 -2581 2582 0
-2582 2770 0
118 -2582 2583 0
-2583 2771 0
119 -2583 2584 0
-2584 2772 0
120 -2584 2585 0
-2585 2773 0
121 -2585 2586 0
-2586 2774 0
122 -2586 2587 0
-2587 2775 0
123 -2587 2588 0
-2588 2776 0
124 -2588 2589 0
-2589 2777 0
125 -2589 2590 0
-2590 2778 0
126 -2590 2591 0
-2591 2779 0
127 -2591 2592 0
-2592 2780 0
128 -2592 2593 0
-2593 2781 0
129 -2593 2594 0
-2594 2782 0
130 -2594 2595 0
-2595 2783 0
131 -2595 2596 0
-2596 2784 0
132 -2596 2597 0
-2597 2785 0
133 -2597 2598 0
-2598 2786 0
134 -2598 2599 0
-2599 2787 0
135 -2599 2600 0
-2600 2788 0
136 -2600 2601 0
-2601 2789 0
137 -2601 2602 0
-2602 2790 0
138 -2602 2603 0
-2603 2791 0
139 -2603 2604 0
-2604 2792 0
140 -2604 2605 0
-2605 2793 0
141 -2605 2606 0
-2606 2794 0
142 -2606 2607 0
-2607 2795 0
143 -2607 2608 0
-2608 2796 0
144 -2608 2609 0
-2609 2797 0
145 -2609 2610 0
-2610 2798 0
146 -2610 2611 0
-2611 2799 0
147 -2611 2612 0
-2612 2800 0
148 -2612 2613 0
-2613 2801 0
149 -2613 2614 0
-2614 2802 0
150 -2614 2615 0
-2615 2803 0
151 -2615 2616 0
-2616 2804 0
152 -2616 2617 0
-2617 2805 0
153 -2617 2618 0
-2618 2806 0
154 -2618 2619 0
-2619 2807 0
155 -2619 2620 0
-2620 2808 0
156 -2620 2621 0
-2621 2809 0
157 -2621 2622 0
-2622 2810 0
158 -2622 2623 0
-2623 2811 0
159 -2623 2624 0
-2624 2812 0
160 -2624 2625 0
-2625 2813 0
161 -2625 2626 0
-2626 2814 0
162 -2626 2627 0
-2627 2815 0
163 -2627 2628 0
-2628 2816 0
164 -2628 2629 0
-2629 2817 0
165 -2629 2630 0
-2630 2818 0
166 -2630 2631 0
-2631 2819 0
167 -2631 2632 0
-2632 2820 0
168 -2632 2633 0
-2633 2821 0
169 -2633 2634 0
-2634 2822 0
170 -2634 2635 0
-2635 2823 0
171 -2635 2636 0
-2636 2824 0
172 -2636 2637 0
-2637 2825 0
173 -2637 2638 0
-2638 2826 0
174 -2638 2639 0
-2639 2827 0
175 -2639 2640 0
-2640 2828 0
176 -2640 2641 0
-2641 2829 0
177 -2641 2642 0
-2642 2830 0
178 -2642 2643 0
-2643 2831 0
179 -2643 2644 0
-2644 2832 0
180 -2644 2645 0
-2645 2833 0
181 -2645 2646 0
-2646 2834 0
182 -2646 2647 0
-2647 2835 0
183 -2647 2648 0
-2648 2836 0
184 -2648 2649 0
-2649 2837 0
185 -2649 2650 0
-2650 2838 0
186 -2650 2651 0
-2651 2839 0
187 -2651 2652 0
-2652 2840 0
188 -2652 2653 0
-2653 2841 0
189 -2653 2654 0
-2654 2842 0
190 -2654 2655 0
-2655 2843 0
191 -2655 2656 0
-2656 2844 0
192 -2656 2657 0
-2657 2845 0
193 -2657 2658 0
-2658 2846 0
194 -2658 2659 0
-2659 2847 0
195 -2659 2660 0
-2660 2848 0
196 -2660 2661 0
-2661 2849 0
197 -2661 2662 0
-2662 2850 0
198 -2662 2663 0
-2663 2851 0
199 -2663 2664 0
-2664 2852 0
200 -2664 0
13 2665 0
-2665 2853 0
14 -2665 2666 0
-2666 2854 0
15 -2666 2667 0
-2667 2855 0
16 -2667 2668 0
-2668 2856 0
17 -2668 2669 0
-2669 2857 0
18 -2669 2670 0
-2670 2858 0
19 -2670 2671 0
-2671 2859 0
20 -2671 2672 0
-2672 2860 0
21 -2672 2673 0
-2673 2861 0
22 -2673 2674 0
-2674 2862 0
23 -2674 2675 0
-2675 2863 0
24 -2675 2676 0
-2676 2864 0
25 -2676 2677 0
-2677 2865 0
26 -2677 2678 0
-2678 2866 0
27 -2678 2679 0
-2679 2867 0
28 -2679 2680 0
-2680 2868 0
29 -2680 2681 0
-2681 2869 0
30 -2681 2682 0
-2682 2870 0
31 -2682 2683 0
-2683 2871 0
32 -2683 2684 0
-2684 2872 0
33 -2684 2685 0
-2685 2873 0
34 -2685 2686 0
-2686 2874 0
35 -2686 2687 0
-2687 2875 0
36 -2687 2688 0
-2688 2876 0
37 -2688 2689 0
-2689 2877 0
38 -2689 2690 0
-2690 2878 0
39 -2690 2691 0
-2691 2879 0
40 -2691 2692 0
-2692 2880 0
41 -2692 2693 0
-2693 2881 0
42 -2693 2694 0
-2694 2882 0
43 -2694 2695 0
-2695 2883 0
44 -2695 2696 0
-2696 2884 0
45 -2696 2697 0
-2697 2885 0
46 -2697 2698 0
-2698 2886 0
47 -2698 2699 0
-2699 2887 0
48 -2699 2700 0
-2700 2888 0
49 -2700 2701 0
-2701 2889 0
50 -2701 2702 0
-2702 2890 0
51 -2702 2703 0
-2703 2891 0
52 -2703 2704 0
-2704 2892 0
53 -2704 2705 0
-2705 2893 0
54 -2705 2706 0
-2706 2894 0
55 -2706 2707 0
-2707 2895 0
56 -2707 2708 0
-2708 2896 0
57 -2708 2709 0
-2709 2897 0
58 -2709 2710 0
-2710 2898 0
59 -2710 2711 0
-2711 2899 0
60 -2711 2712 0
-2712 2900 0
61 -2712 2713 0
-2713 2901 0
62 -2713 2714 0
-2714 2902 0
63 -2714 2715 0
-2715 2903 0
64 -2715 2716 0
-2716 2904 0
65 -2716 2717 0
-2717 2905 0
66 -2717 2718 0
-2718 2906 0
67 -2718 2719 0
-2719 2907 0
68 -2719 2720 0
-2720 2908 0
69 -2720 2721 0
-2721 2909 0
70 -2721 2722 0
-2722 2910 0
71 -2722 2723 0
-2723 2911 0
72 -2723 2724 0
-2724 2912 0
73 -2724 2725 0
-2725 2913 0
74 -2725 2726 0
-2726 2914 0
75 -2726 2727 0
-2727 2915 0
76 -2727 2728 0
-2728 2916 0
77 -2728 2729 0
-2729 2917 0
78 -2729 2730 0
-2730 2918 0
79 -2730 2731 0
-2731 2919 0
80 -2731 2732 0
-2732 2920 0
81 -2732 2733 0
-2733 2921 0
82 -2733 2734 0
-2734 2922 0
83 -2734 2735 0
-2735 2923 0
84 -2735 2736 0
-2736 2924 0
85 -2736 2737 0
-2737 2925 0
86 -2737 2738 0
-2738 2926 0
87 -2738 2739 0
-2739 2927 0
88 -2739 2740 0
-2740 2928 0
89 -2740 2741 0
-2741 2929 0
90 -2741 2742 0
-2742 2930 0
91 -2742 2743 0
-2743 2931 0
92 -2743 2744 0
-2744 2932 0
93 -2744 2745 0
-2745 2933 0
94 -2745 2746 0
-2746 2934 0
95 -2746 2747 0
-2747 2935 0
96 -2747 2748 0
-2748 2936 0
97 -2748 2749 0
-2749 2937 0
98 -2749 2750 0
-2750 2938 0
99 -2750 2751 0
-2751 2939 0
100 -2751 2752 0
-2752 2940 0
101 -2752 2753 0
-2753 2941 0
102 -2753 2754 0
-2754 2942 0
103 -2754 2755 0
-2755 2943 0
104 -2755 2756 0
-2756 2944 0
105 -2756 2757 0
-2757 2945 0
106 -2757 2758 0
-2758 2946 0
107 -2758 2759 0
-2759 2947 0
108 -2759 2760 0
-2760 2948 0
109 -2760 2761 0
-2761 2949 0
110 -2761 2762 0
-2762 2950 0
111 -2762 2763 0
-2763 2951 0
112 -2763 2764 0
-2764 2952 0
113 -2764 2765 0
-2765 2953 0
114 -2765 2766 0
-2766 2954 0
115 -2766 2767 0
-2767 2955 0
116 -2767 2768 0
-2768 2956 0
117 -2768 2769 0
-2769 2957 0
118 -2769 2770 0
-2770 2958 0
119 -2770 2771 0
-2771 2959 0
120 -2771 2772 0
-2772 2960 0
121 -2772 2773 0
-2773 2961 0
122 -2773 2774 0
-2774 2962 0
123 -2774 2775 0
-2775 2963 0
124 -2775 2776 0
-2776 2964 0
125 -2776 2777 0
-2777 2965 0
126 -2777 2778 0
-2778 2966 0
127 -2778 2779 0
-2779 2967 0
128 -2779 2780 0
-2780 2968 0
129 -2780 2781 0
-2781 2969 0
130 -2781 2782 0
-2782 2970 0
131 -2782 2783 0
-2783 2971 0
132 -2783 2784 0
-2784 2972 0
133 -2784 2785 0
-2785 2973 0
134 -2785 2786 0
-2786 2974 0
135 -2786 2787 0
-2787 2975 0
136 -2787 2788 0
-2788 2976 0
137 -2788 2789 0
-2789 2977 0
138 -2789 2790 0
-2790 2978 0
139 -2790 2791 0
-2791 2979 0
140 -2791 2792 0
-2792 2980 0
141 -2792 2793 0
-2793 2981 0
142 -2793 2794 0
-2794 2982 0
143 -2794 2795 0
-2795 2983 0
144 -2795 2796 0
-2796 2984 0
145 -2796 2797 0
-2797 2985 0
146 -2797 2798 0
-2798 2986 0
147 -2798 2799 0
-2799 2987 0
148 -2799 2800 0
-2800 2988 0
149 -2800 2801 0
-2801 2989 0
150 -2801 2802 0
-2802 2990 0
151 -2802 2803 0
-2803 2991 0
152 -2803 2804 0
-2804 2992 0
153 -2804 2805 0
-2805 2993 0
154 -2805 2806 0
-2806 2994 0
155 -2806 2807 0
-2807 2995 0
156 -2807 2808 0
-2808 2996 0
157 -2808 2809 0
-2809 2997 0
158 -2809 2810 0
-2810 2998 0
159 -2810 2811 0
-2811 2999 0
160 -2811 2812 0
-2812 3000 0
161 -2812 2813 0
-2813 3001 0
162 -2813 2814 0
-2814 3002 0
163 -2814 2815 0
-2815 3003 0
164 -2815 2816 0
-2816 3004 0
165 -2816 2817 0
-2817 3005 0
166 -2817 2818 0
-2818 3006 0
167 -2818 2819 0
-2819 3007 0
168 -2819 2820 0
-2820 3008 0
169 -2820 2821 0
-2821 3009 0
170 -2821 2822 0
-2822 3010 0
171 -2822 2823 0
-2823 3011 0
172 -2823 2824 0
-2824 3012 0
173 -2824 2825 0
-2825 3013 0
174 -2825 2826 0
-2826 3014 0
175 -2826 2827 0
-2827 3015 0
176 -2827 2828 0
-2828 3016 0
177 -2828 2829 0
-2829 3017 0
178 -2829 2830 0
-2830 3018 0
179 -2830 2831 0
-2831 3019 0
180 -2831 2832 0
-2832 3020 0
181 -2832 2833 0
-2833 3021 0
182 -2833 2834 0
-2834 3022 0
183 -2834 2835 0
-2835 3023 0
184 -2835 2836 0
-2836 3024 0
185 -2836 2837 0
-2837 3025 0
186 -2837 2838 0
-2838 3026 0
187 -2838 2839 0
-2839 3027 0
188 -2839 2840 0
-2840 3028 0
189 -2840 2841 0
-2841 3029 0
190 -2841 2842 0
-2842 3030 0
191 -2842 2843 0
-2843 3031 0
192 -2843 2844 0
-2844 3032 0
193 -2844 2845 0
-2845 3033 0
194 -2845 2846 0
-2846 3034 0
195 -2846 2847 0
-2847 3035 0
196 -2847 2848 0
-2848 3036 0
197 -2848 2849 0
-2849 3037 0
198 -2849 2850 0
-2850 3038 0
199 -2850 2851 0
-2851 3039 0
200 -2851 2852 0
-2852 3040 0
201 -2852 0
14 2853 0
-2853 3041 0
15 -2853 2854 0
-2854 3042 0
16 -2854 2855 0
-2855 3043 0
17 -2855 2856 0
-2856 3044 0
18 -2856 2857 0
-2857 3045 0
19 -2857 2858 0
-2858 3046 0
20 -2858 2859 0
-2859 3047 0
21 -2859 2860 0
-2860 3048 0
22 -2860 2861 0
-2861 3049 0
23 -2861 2862 0
-2862 3050 0
24 -2862 2863 0
-2863 3051 0
25 -2863 2864 0
-2864 3052 0
26 -2864 2865 0
-2865 3053 0
27 -2865 2866 0
-2866 3054 0
28 -2866 2867 0
-2867 3055 0
29 -2867 2868 0
-2868 3056 0
30 -2868 2869 0
-2869 3057 0
31 -2869 2870 0
-2870 3058 0
32 -2870 2871 0
-2871 3059 0
33 -2871 2872 0
-2872 3060 0
34 -2872 2873 0
-2873 3061 0
35 -2873 2874 0
-2874 3062 0
36 -2874 2875 0
-2875 3063 0
37 -2875 2876 0
-2876 3064 0
38 -2876 2877 0
-2877 3065 0
39 -2877 2878 0
-2878 3066 0
40 -2878 2879 0
-2879 3067 0
41 -2879 2880 0
-2880 3068 0
42 -2880 2881 0
-2881 3069 0
43 -2881 2882 0
-2882 3070 0
44 -2882 2883 0
-2883 3071 0
45 -2883 2884 0
-2884 3072 0
46 -2884 2885 0
-2885 3073 0
47 -2885 2886 0
-2886 3074 0
48 -2886 2887 0
-2887 3075 0
49 -2887 2888 0
-2888 3076 0
50 -2888 2889 0
-2889 3077 0
51 -2889 2890 0
-2890 3078 0
52 -2890 2891 0
-2891 3079 0
53 -2891 2892 0
-2892 3080 0
54 -2892 2893 0
-2893 3081 0
55 -2893 2894 0
-2894 3082 0
56 -2894 2895 0
-2895 3083 0
57 -2895 2896 0
-2896 3084 0
58 -2896 2897 0
-2897 3085 0
59 -2897 2898 0
-2898 3086 0
60 -2898 2899 0
-2899 3087 0
61 -2899 2900 0
-2900 3088 0
62 -2900 2901 0
-2901 3089 0
63 -2901 2902 0
-2902 3090 0
64 -2902 2903 0
-2903 3091 0
65 -2903 2904 0
-2904 3092 0
66 -2904 2905 0
-2905 3093 0
67 -2905 2906 0
-2906 3094 0
68 -2906 2907 0
-2907 3095 0
69 -2907 2908 0
-2908 3096 0
70 -2908 2909 0
-2909 3097 0
71 -2909 2910 0
-2910 3098 0
72 -2910 2911 0
-2911 3099 0
73 -2911 2912 0
-2912 3100 0
74 -2912 2913 0
-2913 3101 0
75 -2913 2914 0
-2914 3102 0
76 -2914 2915 0
-2915 3103 0
77 -2915 2916 0
-2916 3104 0
78 -2916 2917 0
-2917 3105 0
79 -2917 2918 0
-2918 3106 0
80 -2918 2919 0
-2919 3107 0
81 -2919 2920 0
-2920 3108 0
82 -2920 2921 0
-2921 3109 0
83 -2921 2922 0
-2922 3110 0
84 -2922 2923 0
-2923 3111 0
85 -2923 2924 0
-2924 3112 0
86 -2924 2925 0
-2925 3113 0
87 -2925 2926 0
-2926 3114 0
88 -2926 2927 0
-2927 3115 0
89 -2927 2928 0
-2928 3116 0
90 -2928 2929 0
-2929 3117 0
91 -2929 2930 0
-2930 3118 0
92 -2930 2931 0
-2931 3119 0
93 -2931 2932 0
-2932 3120 0
94 -2932 2933 0
-2933 3121 0
95 -2933 2934 0
-2934 3122 0
96 -2934 2935 0
-2935 3123 0
97 -2935 2936 0
-2936 3124 0
98 -2936 2937 0
-2937 3125 0
99 -2937 2938 0
-2938 3126 0
100 -2938 2939 0
-2939 3127 0
101 -2939 2940 0
-2940 3128 0
102 -2940 2941 0
-2941 3129 0
103 -2941 2942 0
-2942 3130 0
104 -2942 2943 0
-2943 3131 0
105 -2943 2944 0
-2944 3132 0
106 -2944 2945 0
-2945 3133 0
107 -2945 2946 0
-2946 3134 0
108 -2946 2947 0
-2947 3135 0
109 -2947 2948 0
-2948 3136 0
110 -2948 2949 0
-2949 3137 0
111 -2949 2950 0
-2950 3138 0
112 -2950 2951 0
-2951 3139 0
113 -2951 2952 0
-2952 3140 0
114 -2952 2953 0
-2953 3141 0
115 -2953 2954 0
-2954 3142 0
116 -2954 2955 0
-2955 3143 0
117 -2955 2956 0
-2956 3144 0
118 -2956 2957 0
-2957 3145 0
119 -2957 2958 0
-2958 3146 0
120 -2958 2959 0
-2959 3147 0
121 -2959 2960 0
-2960 3148 0
122 -2960 2961 0
-2961 3149 0
123 -2961 2962 0
-2962 3150 0
124 -2962 2963 0
-2963 3151 0
125 -2963 2964 0
-2964 3152 0
126 -2964 2965 0
-2965 3153 0
127 -2965 2966 0
-2966 3154 0
128 -2966 2967 0
-2967 3155 0
129 -2967 2968 0
-2968 3156 0
130 -2968 2969 0
-2969 3157 0
131 -2969 2970 0
-2970 3158 0
132 -2970 2971 0
-2971 3159 0
133 -2971 2972 0
-2972 3160 0
134 -2972 2973 0
-2973 3161 0
135 -2973 2974 0
-2974 3162 0
136 -2974 2975 0
-2975 3163 0
137 -2975 2976 0
-2976 3164 0
138 -2976 2977 0
-2977 3165 0
139 -2977 2978 0
-2978 3166 0
140 -2978 2979 0
-2979 3167 0
141 -2979 2980 0
-2980 3168 0
142 -2980 2981 0
-2981 3169 0
143 -2981 2982 0
-2982 3170 0
144 -2982 2983 0
-2983 3171 0
145 -2983 2984 0
-2984 3172 0
146 -2984 2985 0
-2985 3173 0
147 -2985 2986 0
-2986 3174 0
148 -2986 2987 0
-2987 3175 0
149 -2987 2988 0
-2988 3176 0
150 -2988 2989 0
-2989 3177 0
151 -2989 2990 0
-2990 3178 0
152 -2990 2991 0
-2991 3179 0
153 -2991 2992 0
-2992 3180 0
154 -2992 2993 0
-2993 3181 0
155 -2993 2994 0
-2994 3182 0
156 -2994 2995 0
-2995 3183 0
157 -2995 2996 0
-2996 3184 0
158 -2996 2997 0
-2997 3185 0
159 -2997 2998 0
-2998 3186 0
160 -2998 2999 0
-2999 3187 0
161 -2999 3000 0
-3000 3188 0
162 -3000 3001 0
-3001 3189 0
163 -3001 3002 0
-3002 3190 0
164 -3002 3003 0
-3003 3191 0
165 -3003 3004 0
-3004 3192 0
166 -3004 3005 0
-3005 3193 0
167 -3005 3006 0
-3006 3194 0
168 -3006 3007 0
-3007 3195 0
169 -3007 3008 0
-3008 3196 0
170 -3008 3009 0
-3009 3197 0
171 -3009 3010 0
-3010 3198 0
172 -3010 3011 0
-3011 3199 0
173 -3011 3012 0
-3012 3200 0
174 -3012 3013 0
-3013 3201 0
175 -3013 3014 0
-3014 3202 0
176 -3014 3015 0
-3015 3203 0
177 -3015 3016 0
-3016 3204 0
178 -3016 3017 0
-3017 3205 0
179 -3017 3018 0
-3018 3206 0
180 -3018 3019 0
-3019 3207 0
181 -3019 3020 0
-3020 3208 0
182 -3020 3021 0
-3021 3209 0
183 -3021 3022 0
-3022 3210 0
184 -3022 3023 0
-3023 3211 0
185 -3023 3024 0
-3024 3212 0
186 -3024 3025 0
-3025 3213 0
187 -3025 3026 0
-3026 3214 0
188 -3026 3027 0
-3027 3215 0
189 -3027 3028 0
-3028 3216 0
190 -3028 3029 0
-3029 3217 0
191 -3029 3030 0
-3030 3218 0
192 -3030 3031 0
-3031 3219 0
193 -3031 3032 0
-3032 3220 0
194 -3032 3033 0
-3033 3221 0
195 -3033 3034 0
-3034 3222 0
196 -3034 3035 0
-3035 3223 0
197 -3035 3036 0
-3036 3224 0
198 -3036 3037 0
-3037 3225 0
199 -3037 3038 0
-3038 3226 0
200 -3038 3039 0
-3039 3227 0
201 -3039 3040 0
-3040 3228 0
202 -3040 0
15 3041 0
-3041 3229 0
16 -3041 3042 0
-3042 3230 0
17 -3042 3043 0
-3043 3231 0
18 -3043 3044 0
-3044 3232 0
19 -3044 3045 0
-3045 3233 0
20 -3045 3046 0
-3046 3234 0
21 -3046 3047 0
-3047 3235 0
22 -3047 3048 0
-3048 3236 0
23 -3048 3049 0
-3049 3237 0
24 -3049 3050 0
-3050 3238 0
25 -3050 3051 0
-3051 3239 0
26 -3051 3052 0
-3052 3240 0
27 -3052 3053 0
-3053 3241 0
28 -3053 3054 0
-3054 3242 0
29 -3054 3055 0
-3055 3243 0
30 -3055 3056 0
-3056 3244 0
31 -3056 3057 0
-3057 3245 0
32 -3057 3058 0
-3058 3246 0
33 -3058 3059 0
-3059 3247 0
34 -3059 3060 0
-3060 3248 0
35 -3060 3061 0
-3061 3249 0
36 -3061 3062 0
-3062 3250 0
37 -3062 3063 0
-3063 3251 0
38 -3063 3064 0
-3064 3252 0
39 -3064 3065 0
-3065 3253 0
40 -3065 3066 0
-3066 3254 0
41 -3066 3067 0
-3067 3255 0
42 -3067 3068 0
-3068 3256 0
43 -3068 3069 0
-3069 3257 0
44 -3069 3070 0
-3070 3258 0
45 -3070 3071 0
-3071 3259 0
46 -3071 3072 0
-3072 3260 0
47 -3072 3073 0
-3073 3261 0
48 -3073 3074 0
-3074 3262 0
49 -3074 3075 0
-3075 3263 0
50 -3075 3076 0
-3076 3264 0
51 -3076 3077 0
-3077 3265 0
52 -3077 3078 0
-3078 3266 0
53 -3078 3079 0
-3079 3267 0
54 -3079 3080 0
-3080 3268 0
55 -3080 3081 0
-3081 3269 0
56 -3081 3082 0
-3082 3270 0
57 -3082 3083 0
-3083 3271 0
58 -3083 3084 0
-3084 3272 0
59 -3084 3085 0
-3085 3273 0
60 -3085 3086 0
-3086 3274 0
61 -3086 3087 0
-3087 3275 0
62 -3087 3088 0
-3088 3276 0
63 -3088 3089 0
-3089 3277 0
64 -3089 3090 0
-3090 3278 0
65 -3090 3091 0
-3091 3279 0
66 -3091 3092 0
-3092 3280 0
67 -3092 3093 0
-3093 3281 0
68 -3093 3094 0
-3094 3282 0
69 -3094 3095 0
-3095 3283 0
70 -3095 3096 0
-3096 3284 0
71 -3096 3097 0
-3097 3285 0
72 -3097 3098 0
-3098 3286 0
73 -3098 3099 0
-3099 3287 0
74 -3099 3100 0
-3100 3288 0
75 -3100 3101 0
-3101 3289 0
76 -3101 3102 0
-3102 3290 0
77 -3102 3103 0
-3103 3291 0
78 -3103 3104 0
-3104 3292 0
79 -3104 3105 0
-3105 3293 0
80 -3105 3106 0
-3106 3294 0
81 -3106 3107 0
-3107 3295 0
82 -3107 3108 0
-3108 3296 0
83 -3108 3109 0
-3109 3297 0
84 -3109 3110 0
-3110 3298 0
85 -3110 3111 0
-3111 3299 0
86 -3111 3112 0
-3112 3300 0
87 -3112 3113 0
-3113 3301 0
88 -3113 3114 0
-3114 3302 0
89 -3114 3115 0
-3115 3303 0
90 -3115 3116 0
-3116 3304 0
91 -3116 3117 0
-3117 3305 0
92 -3117 3118 0
-3118 3306 0
93 -3118 3119 0
-3119 3307 0
94 -3119 3120 0
-3120 3308 0
95 -3120 3121 0
-3121 3309 0
96 -3121 3122 0
-3122 3310 0
97 -3122 3123 0
-3123 3311 0
98 -3123 3124 0
-3124 3312 0
99 -3124 3125 0
-3125 3313 0
100 -3125 3126 0
-3126 3314 0
101 -3126 3127 0
-3127 3315 0
102 -3127 3128 0
-3128 3316 0
103 -3128 3129 0
-3129 3317 0
104 -3129 3130 0
-3130 3318 0
105 -3130 3131 0
-3131 3319 0
106 -3131 3132 0
-3132 3320 0
107 -3132 3133 0
-3133 3321 0
108 -3133 3134 0
-3134 3322 0
109 -3134 3135 0
-3135 3323 0
110 -3135 3136 0
-3136 3324 0
111 -3136 3137 0
-3137 3325 0
112 -3137 3138 0
-3138 3326 0
113 -3138 3139 0
-3139 3327 0
114 -3139 3140 0
-3140 3328 0
115 -3140 3141 0
-3141 3329 0
116 -3141 3142 0
-3142 3330 0
117 -3142 3143 0
-3143 3331 0
118 -3143 3144 0
-3144 3332 0
119 -3144 3145 0
-3145 3333 0
120 -3145 3146 0
-3146 3334 0
121 -3146 3147 0
-3147 3335 0
122 -3147 3148 0
-3148 3336 0
123 -3148 3149 0
-3149 3337 0
124 -3149 3150 0
-3150 3338 0
125 -3150 3151 0
-3151 3339 0
126 -3151 3152 0
-3152 3340 0
127 -3152 3153 0
-3153 3341 0
128 -3153 3154 0
-3154 3342 0
129 -3154 3155 0
-3155 3343 0
130 -3155 3156 0
-3156 3344 0
131 -3156 3157 0
-3157 3345 0
132 -3157 3158 0
-3158 3346 0
133 -3158 3159 0
-3159 3347 0
134 -3159 3160 0
-3160 3348 0
135 -3160 3161 0
-3161 3349 0
136 -3161 3162 0
-3162 3350 0
137 -3162 3163 0
-3163 3351 0
138 -3163 3164 0
-3164 3352 0
139 -3164 3165 0
-3165 3353 0
140 -3165 3166 0
-3166 3354 0
141 -3166 3167 0
-3167 3355 0
142 -3167 3168 0
-3168 3356 0
143 -3168 3169 0
-3169 3357 0
144 -3169 3170 0
-3170 3358 0
145 -3170 3171 0
-3171 3359 0
146 -3171 3172 0
-3172 3360 0
147 -3172 3173 0
-3173 3361 0
148 -3173 3174 0
-3174 3362 0
149 -3174 3175 0
-3175 3363 0
150 -3175 3176 0
-3176 3364 0
151 -3176 3177 0
-3177 3365 0
152 -3177 3178 0
-3178 3366 0
153 -3178 3179 0
-3179 3367 0
154 -3179 3180 0
-3180 3368 0
155 -3180 3181 0
-3181 3369 0
156 -3181 3182 0
-3182 3370 0
157 -3182 3183 0
-3183 3371 0
158 -3183 3184 0
-3184 3372 0
159 -3184 3185 0
-3185 3373 0
160 -3185 3186 0
-3186 3374 0
161 -3186 3187 0
-3187 3375 0
162 -3187 3188 0
-3188 3376 0
163 -3188 3189 0
-3189 3377 0
164 -3189 3190 0
-3190 3378 0
165 -3190 3191 0
-3191 3379 0
166 -3191 3192 0
-3192 3380 0
167 -3192 3193 0
-3193 3381 0
168 -3193 3194 0
-3194 3382 0
169 -3194 3195 0
-3195 3383 0
170 -3195 3196 0
-3196 3384 0
171 -3196 3197 0
-3197 3385 0
172 -3197 3198 0
-3198 3386 0
173 -3198 3199 0
-3199 3387 0
174 -3199 3200 0
-3200 3388 0
175 -3200 3201 0
-3201 3389 0
176 -3201 3202 0
-3202 3390 0
177 -3202 3203 0
-3203 3391 0
178 -3203 3204 0
-3204 3392 0
179 -3204 3205 0
-3205 3393 0
180 -3205 3206 0
-3206 3394 0
181 -3206 3207 0
-3207 3395 0
182 -3207 3208 0
-3208 3396 0
183 -3208 3209 0
-3209 3397 0
184 -3209 3210 0
-3210 3398 0
185 -3210 3211 0
-3211 3399 0
186 -3211 3212 0
-3212 3400 0
187 -3212 3213 0
-3213 3401 0
188 -3213 3214 0
-3214 3402 0
189 -3214 3215 0
-3215 3403 0
190 -3215 3216 0
-3216 3404 0
191 -3216 3217 0
-3217 3405 0
192 -3217 3218 0
-3218 3406 0
193 -3218 3219 0
-3219 3407 0
194 -3219 3220 0
-3220 3408 0
195 -3220 3221 0
-3221 3409 0
196 -3221 3222 0
-3222 3410 0
197 -3222 3223 0
-3223 3411 0
198 -3223 3224 0
-3224 3412 0
199 -3224 3225 0
-3225 3413 0
200 -3225 3226 0
-3226 3414 0
201 -3226 3227 0
-3227 3415 0
202 -3227 3228 0
-3228 3416 0
203 -3228 0
16 3229 0
17 -3229 3230 0
18 -3230 3231 0
19 -3231 3232 0
20 -3232 3233 0
21 -3233 3234 0
22 -3234 3235 0
23 -3235 3236 0
24 -3236 3237 0
25 -3237 3238 0
26 -3238 3239 0
27 -3239 3240 0
28 -3240 3241 0
29 -3241 3242 0
30 -3242 3243 0
31 -3243 3244 0
32 -3244 3245 0
33 -3245 3246 0
34 -3246 3247 0
35 -3247 3248 0
36 -3248 3249 0
37 -3249 3250 0
38 -3250 3251 0
39 -3251 3252 0
40 -3252 3253 0
41 -3253 3254 0
42 -3254 3255 0
43 -3255 3256 0
44 -3256 3257 0
45 -3257 3258 0
46 -3258 3259 0
47 -3259 3260 0
48 -3260 3261 0
49 -3261 3262 0
50 -3262 3263 0
51 -3263 3264 0
52 -3264 3265 0
53 -3265 3266 0
54 -3266 3267 0
55 -3267 3268 0
56 -3268 3269 0
57 -3269 3270 0
58 -3270 3271 0
59 -3271 3272 0
60 -3272 3273 0
61 -3273 3274 0
62 -3274 3275 0
63 -3275 3276 0
64 -3276 3277 0
65 -3277 3278 0
66 -3278 3279 0
67 -3279 3280 0
68 -3280 3281 0
69 -3281 3282 0
70 -3282 3283 0
71 -3283 3284 0
72 -3284 3285 0
73 -3285 3286 0
74 -3286 3287 0
75 -3287 3288 0
76 -3288 3289 0
77 -3289 3290 0
78 -3290 3291 0
79 -3291 3292 0
80 -3292 3293 0
81 -3293 3294 0
82 -3294 3295 0
83 -3295 3296 0
84 -3296 3297 0
85 -3297 3298 0
86 -3298 3299 0
87 -3299 3300 0
88 -3300 3301 0
89 -3301 3302 0
90 -3302 3303 0
91 -3303 3304 0
92 -3304 3305 0
93 -3305 3306 0
94 -3306 3307 0
95 -3307 3308 0
96 -3308 3309 0
97 -3309 3310 0
98 -3310 3311 0
99 -3311 3312 0
100 -3312 3313 0
101 -3313 3314 0
102 -3314 3315 0
103 -3315 3316 0
104 -3316 3317 0
105 -3317 3318 0
106 -3318 3319 0
107 -3319 3320 0
108 -3320 3321 0
109 -3321 3322 0
110 -3322 3323 0
111 -3323 3324 0
112 -3324 3325 0
113 -3325 3326 0
114 -3326 3327 0
115 -3327 3328 0
116 -3328 3329 0
117 -3329 3330 0
118 -3330 3331 0
119 -3331 3332 0
120 -3332 3333 0
121 -3333 3334 0
122 -3334 3335 0
123 -3335 3336 0
124 -3336 3337 0
125 -3337 3338 0
126 -3338 3339 0
127 -3339 3340 0
128 -3340 3341 0
129 -3341 3342 0
130 -3342 3343 0
131 -3343 3344 0
132 -3344 3345 0
133 -3345 3346 0
134 -3346 3347 0
135 -3347 3348 0
136 -3348 3349 0
137 -3349 3350 0
138 -3350 3351 0
139 -3351 3352 0
140 -3352 3353 0
141 -3353 3354 0
142 -3354 3355 0
143 -3355 3356 0
144 -3356 3357 0
145 -3357 3358 0
146 -3358 3359 0
147 -3359 3360 0
148 -3360 3361 0
149 -3361 3362 0
150 -3362 3363 0
151 -3363 3364 0
152 -3364 3365 0
153 -3365 3366 0
154 -3366 3367 0
155 -3367 3368 0
156 -3368 3369 0
157 -3369 3370 0
158 -3370 3371 0
159 -3371 3372 0
160 -3372 3373 0
161 -3373 3374 0
162 -3374 3375 0
163 -3375 3376 0
164 -3376 3377 0
165 -3377 3378 0
166 -3378 3379 0
167 -3379 3380 0
168 -3380 3381 0
169 -3381 3382 0
170 -3382 3383 0
171 -3383 3384 0
172 -3384 3385 0
173 -3385 3386 0
174 -3386 3387 0
175 -3387 3388 0
176 -3388 3389 0
177 -3389 3390 0
178 -3390 3391 0
179 -3391 3392 0
180 -3392 3393 0
181 -3393 3394 0
182 -3394 3395 0
183 -3395 3396 0
184 -3396 3397 0
185 -3397 3398 0
186 -3398 3399 0
187 -3399 3400 0
188 -3400 3401 0
189 -3401 3402 0
190 -3402 3403 0
191 -3403 3404 0
192 -3404 3405 0
193 -3405 3406 0
194 -3406 3407 0
195 -3407 3408 0
196 -3408 3409 0
197 -3409 3410 0
198 -3410 3411 0
199 -3411 3412 0
200 -3412 3413 0
201 -3413 3414 0
202 -3414 3415 0
203 -3415 3416 0
204 -3416 0
-1 3417 0
-3417 3418 0
-2 -3417 3419 0
-3419 3420 0
-3 -3419 3421 0
-3421 3422 0
-4 -3421 3423 0
-3423 3424 0
-5 -3423 3425 0
-3425 3426 0
-6 -3425 3427 0
-3427 3428 0
-7 -3427 3429 0
-3429 3430 0
-8 -3429 3431 0
-3431 3432 0
-9 -3431 3433 0
-3433 3434 0
-10 -3433 3435 0
-3435 3436 0
-11 -3435 3437 0
-3437 3438 0
-12 -3437 3439 0
-3439 3440 0
-13 -3439 3441 0
-3441 3442 0
-14 -3441 3443 0
-3443 3444 0
-15 -3443 3445 0
-3445 3446 0
-16 -3445 3447 0
-3447 3448 0
-17 -3447 0
-2 3418 0
-3418 3449 0
-3 -3418 3420 0
-3420 3450 0
-4 -3420 3422 0
-3422 3451 0
-5 -3422 3424 0
-3424 3452 0
-6 -3424 3426 0
-3426 3453 0
-7 -3426 3428 0
-3428 3454 0
-8 -3428 3430 0
-3430 3455 0
-9 -3430 3432 0
-3432 3456 0
-10 -3432 3434 0
-3434 3457 0
-11 -3434 3436 0
-3436 3458 0
-12 -3436 3438 0
-3438 3459 0
-13 -3438 3440 0
-3440 3460 0
-14 -3440 3442 0
-3442 3461 0
-15 -3442 3444 0
-3444 3462 0
-16 -3444 3446 0
-3446 3463 0
-17 -3446 3448 0
-3448 3464 0
-18 -3448 0
-3 3449 0
-3449 3465 0
-4 -3449 3450 0
-3450 3466 0
-5 -3450 3451 0
-3451 3467 0
-6 -3451 3452 0
-3452 3468 0
-7 -3452 3453 0
-3453 3469 0
-8 -3453 3454 0
-3454 3470 0
-9 -3454 3455 0
-3455 3471 0
-10 -3455 3456 0
-3456 3472 0
-11 -3456 3457 0
-3457 3473 0
-12 -3457 3458 0
-3458 3474 0
-13 -3458 3459 0
-3459 3475 0
-14 -3459 3460 0
-3460 3476 0
-15 -3460 3461 0
-3461 3477 0
-16 -3461 3462 0
-3462 3478 0
-17 -3462 3463 0
-3463 3479 0
-18 -3463 3464 0
-3464 3480 0
-19 -3464 0
-4 3465 0
-3465 3481 0
-5 -3465 3466 0
-3466 3482 0
-6 -3466 3467 0
-3467 3483 0
-7 -3467 3468 0
-3468 3484 0
-8 -3468 3469 0
-3469 3485 0
-9 -3469 3470 0
-3470 3486 0
-10 -3470 3471 0
-3471 3487 0
-11 -3471 3472 0
-3472 3488 0
-12 -3472 3473 0
-3473 3489 0
-13 -3473 3474 0
-3474 3490 0
-14 -3474 3475 0
-3475 3491 0
-15 -3475 3476 0
-3476 3492 0
-16 -3476 3477 0
-3477 3493 0
-17 -3477 3478 0
-3478 3494 0
-18 -3478 3479 0
-3479 3495 0
-19 -3479 3480 0
-3480 3496 0
-20 -3480 0
-5 3481 0
-3481 3497 0
-6 -3481 3482 0
-3482 3498 0
-7 -3482 3483 0
-3483 3499 0
-8 -3483 3484 0
-3484 3500 0
-9 -3484 3485 0
-3485 3501 0
-10 -3485 3486 0
-3486 3502 0
-11 -3486 3487 0
-3487 3503 0
-12 -3487 3488 0
-3488 3504 0
-13 -3488 3489 0
-3489 3505 0
-14 -3489 3490 0
-3490 3506 0
-15 -3490 3491 0
-3491 3507 0
-16 -3491 3492 0
-3492 3508 0
-17 -3492 3493 0
-3493 3509 0
-18 -3493 3494 0
-3494 3510 0
-19 -3494 3495 0
-3495 3511 0
-20 -3495 3496 0
-3496 3512 0
-21 -3496 0
-6 3497 0
-3497 3513 0
-7 -3497 3498 0
-3498 3514 0
-8 -3498 3499 0
-3499 3515 0
-9 -3499 3500 0
-3500 3516 0
-10 -3500 3501 0
-3501 3517 0
-11 -3501 3502 0
-3502 3518 0
-12 -3502 3503 0
-3503 3519 0
-13 -3503 3504 0
-3504 3520 0
-14 -3504 3505 0
-3505 3521 0
-15 -3505 3506 0
-3506 3522 0
-16 -3506 3507 0
-3507 3523 0
-17 -3507 3508 0
-3508 3524 0
-18 -3508 3509 0
-3509 3525 0
-19 -3509 3510 0
-3510 3526 0
-20 -3510 3511 0
-3511 3527 0
-21 -3511 3512 0
-3512 3528 0
-22 -3512 0
-7 3513 0
-3513 3529 0
-8 -3513 3514 0
-3514 3530 0
-9 -3514 3515 0
-3515 3531 0
-10 -3515 3516 0
-3516 3532 0
-11 -3516 3517 0
-3517 3533 0
-12 -3517 3518 0
-3518 3534 0
-13 -3518 3519 0
-3519 3535 0
-14 -3519 3520 0
-3520 3536 0
-15 -3520 3521 0
-3521 3537 0
-16 -3521 3522 0
-3522 3538 0
-17 -3522 3523 0
-3523 3539 0
-18 -3523 3524 0
-3524 3540 0
-19 -3524 3525 0
-3525 3541 0
-20 -3525 3526 0
-3526 3542 0
-21 -3526 3527 0
-3527 3543 0
-22 -3527 3528 0
-3528 3544 0
-23 -3528 0
-8 3529 0
-3529 3545 0
-9 -3529 3530 0
-3530 3546 0
-10 -3530 3531 0
-3531 3547 0
-11 -3531 3532 0
-3532 3548 0
-12 -3532 3533 0
-3533 3549 0
-13 -3533 3534 0
-3534 3550 0
-14 -3534 3535 0
-3535 3551 0
-15 -3535 3536 0
-3536 3552 0
-16 -3536 3537 0
-3537 3553 0
-17 -3537 3538 0
-3538 3554 0
-18 -3538 3539 0
-3539 3555 0
-19 -3539 3540 0
-3540 3556 0
-20 -3540 3541 0
-3541 3557 0
-21 -3541 3542 0
-3542 3558 0
-22 -3542 3543 0
-3543 3559 0
-23 -3543 3544 0
-3544 3560 0
-24 -3544 0
-9 3545 0
-3545 3561 0
-10 -3545 3546 0
-3546 3562 0
-11 -3546 3547 0
-3547 3563 0
-12 -3547 3548 0
-3548 3564 0
-13 -3548 3549 0
-3549 3565 0
-14 -3549 3550 0
-3550 3566 0
-15 -3550 3551 0
-3551 3567 0
-16 -3551 3552 0
-3552 3568 0
-17 -3552 3553 0
-3553 3569 0
-18 -3553 3554 0
-3554 3570 0
-19 -3554 3555 0
-3555 3571 0
-20 -3555 3556 0
-3556 3572 0
-21 -3556 3557 0
-3557 3573 0
-22 -3557 3558 0
-3558 3574 0
-23 -3558 3559 0
-3559 3575 0
-24 -3559 3560 0
-3560 3576 0
-25 -3560 0
-10 3561 0
-3561 3577 0
-11 -3561 3562 0
-3562 3578 0
-12 -3562 3563 0
-3563 3579 0
-13 -3563 3564 0
-3564 3580 0
-14 -3564 3565 0
-3565 3581 0
-15 -3565 3566 0
-3566 3582 0
-16 -3566 3567 0
-3567 3583 0
-17 -3567 3568 0
-3568 3584 0
-18 -3568 3569 0
-3569 3585 0
-19 -3569 3570 0
-3570 3586 0
-20 -3570 3571 0
-3571 3587 0
-21 -3571 3572 0
-3572 3588 0
-22 -3572 3573 0
-3573 3589 0
-23 -3573 3574 0
-3574 3590 0
-24 -3574 3575 0
-3575 3591 0
-25 -3575 3576 0
-3576 3592 0
-26 -3576 0
-11 3577 0
-3577 3593 0
-12 -3577 3578 0
-3578 3594 0
-13 -3578 3579 0
-3579 3595 0
-14 -3579 3580 0
-3580 3596 0
-15 -3580 3581 0
-3581 3597 0
-16 -3581 3582 0
-3582 3598 0
-17 -3582 3583 0
-3583 3599 0
-18 -3583 3584 0
-3584 3600 0
-19 -3584 3585 0
-3585 3601 0
-20 -3585 3586 0
-3586 3602 0
-21 -3586 3587 0
-3587 3603 0
-22 -3587 3588 0
-3588 3604 0
-23 -3588 3589 0
-3589 3605 0
-24 -3589 3590 0
-3590 3606 0
-25 -3590 3591 0
-3591 3607 0
-26 -3591 3592 0
-3592 3608 0
-27 -3592 0
-12 3593 0
-3593 3609 0
-13 -3593 3594 0
-3594 3610 0
-14 -3594 3595 0
-3595 3611 0
-15 -3595 3596 0
-3596 3612 0
-16 -3596 3597 0
-3597 3613 0
-17 -3597 3598 0
-3598 3614 0
-18 -3598 3599 0
-3599 3615 0
-19 -3599 3600 0
-3600 3616 0
-20 -3600 3601 0
-3601 3617 0
-21 -3601 3602 0
-3602 3618 0
-22 -3602 3603 0
-3603 3619 0
-23 -3603 3604 0
-3604 3620 0
-24 -3604 3605 0
-3605 3621 0
-25 -3605 3606 0
-3606 3622 0
-26 -3606 3607 0
-3607 3623 0
-27 -3607 3608 0
-3608 3624 0
-28 -3608 0
-13 3609 0
-3609 3625 0
-14 -3609 3610 0
-3610 3626 0
-15 -3610 3611 0
-3611 3627 0
-16 -3611 3612 0
-3612 3628 0
-17 -3612 3613 0
-3613 3629 0
-18 -3613 3614 0
-3614 3630 0
-19 -3614 3615 0
-3615 3631 0
-20 -3615 3616 0
-3616 3632 0
-21 -3616 3617 0
-3617 3633 0
-22 -3617 3618 0
-3618 3634 0
-23 -3618 3619 0
-3619 3635 0
-24 -3619 3620 0
-3620 3636 0
-25 -3620 3621 0
-3621 3637 0
-26 -3621 3622 0
-3622 3638 0
-27 -3622 3623 0
-3623 3639 0
-28 -3623 3624 0
-3624 3640 0
-29 -3624 0
-14 3625 0
-3625 3641 0
-15 -3625 3626 0
-3626 3642 0
-16 -3626 3627 0
-3627 3643 0
-17 -3627 3628 0
-3628 3644 0
-18 -3628 3629 0
-3629 3645 0
-19 -3629 3630 0
-3630 3646 0
-20 -3630 3631 0
-3631 3647 0
-21 -3631 3632 0
-3632 3648 0
-22 -3632 3633 0
-3633 3649 0
-23 -3633 3634 0
-3634 3650 0
-24 -3634 3635 0
-3635 3651 0
-25 -3635 3636 0
-3636 3652 0
-26 -3636 3637 0
-3637 3653 0
-27 -3637 3638 0
-3638 3654 0
-28 -3638 3639 0
-3639 3655 0
-29 -3639 3640 0
-3640 3656 0
-30 -3640 0
-15 3641 0
-3641 3657 0
-16 -3641 3642 0
-3642 3658 0
-17 -3642 3643 0
-3643 3659 0
-18 -3643 3644 0
-3644 3660 0
-19 -3644 3645 0
-3645 3661 0
-20 -3645 3646 0
-3646 3662 0
-21 -3646 3647 0
-3647 3663 0
-22 -3647 3648 0
-3648 3664 0
-23 -3648 3649 0
-3649 3665 0
-24 -3649 3650 0
-3650 3666 0
-25 -3650 3651 0
-3651 3667 0
-26 -3651 3652 0
-3652 3668 0
-27 -3652 3653 0
-3653 3669 0
-28 -3653 3654 0
-3654 3670 0
-29 -3654 3655 0
-3655 3671 0
-30 -3655 3656 0
-3656 3672 0
-31 -3656 0
-16 3657 0
-3657 3673 0
-17 -3657 3658 0
-3658 3674 0
-18 -3658 3659 0
-3659 3675 0
-19 -3659 3660 0
-3660 3676 0
-20 -3660 3661 0
-3661 3677 0
-21 -3661 3662 0
-3662 3678 0
-22 -3662 3663 0
-3663 3679 0
-23 -3663 3664 0
-3664 3680 0
-24 -3664 3665 0
-3665 3681 0
-25 -3665 3666 0
-3666 3682 0
-26 -3666 3667 0
-3667 3683 0
-27 -3667 3668 0
-3668 3684 0
-28 -3668 3669 0
-3669 3685 0
-29 -3669 3670 0
-3670 3686 0
-30 -3670 3671 0
-3671 3687 0
-31 -3671 3672 0
-3672 3688 0
-32 -3672 0
-17 3673 0
-3673 3689 0
-18 -3673 3674 0
-3674 3690 0
-19 -3674 3675 0
-3675 3691 0
-20 -3675 3676 0
-3676 3692 0
-21 -3676 3677 0
-3677 3693 0
-22 -3677 3678 0
-3678 3694 0
-23 -3678 3679 0
-3679 3695 0
-24 -3679 3680 0
-3680 3696 0
-25 -3680 3681 0
-3681 3697 0
-26 -3681 3682 0
-3682 3698 0
-27 -3682 3683 0
-3683 3699 0
-28 -3683 3684 0
-3684 3700 0
-29 -3684 3685 0
-3685 3701 0
-30 -3685 3686 0
-3686 3702 0
-31 -3686 3687 0
-3687 3703 0
-32 -3687 3688 0
-3688 3704 0
-33 -3688 0
-18 3689 0
-3689 3705 0
-19 -3689 3690 0
-3690 3706 0
-20 -3690 3691 0
-3691 3707 0
-21 -3691 3692 0
-3692 3708 0
-22 -3692 3693 0
-3693 3709 0
-23 -3693 3694 0
-3694 3710 0
-24 -3694 3695 0
-3695 3711 0
-25 -3695 3696 0
-3696 3712 0
-26 -3696 3697 0
-3697 3713 0
-27 -3697 3698 0
-3698 3714 0
-28 -3698 3699 0
-3699 3715 0
-29 -3699 3700 0
-3700 3716 0
-30 -3700 3701 0
-3701 3717 0
-31 -3701 3702 0
-3702 3718 0
-32 -3702 3703 0
-3703 3719 0
-33 -3703 3704 0
-3704 3720 0
-34 -3704 0
-19 3705 0
-3705 3721 0
-20 -3705 3706 0
-3706 3722 0
-21 -3706 3707 0
-3707 3723 0
-22 -3707 3708 0
-3708 3724 0
-23 -3708 3709 0
-3709 3725 0
-24 -3709 3710 0
-3710 3726 0
-25 -3710 3711 0
-3711 3727 0
-26 -3711 3712 0
-3712 3728 0
-27 -3712 3713 0
-3713 3729 0
-28 -3713 3714 0
-3714 3730 0
-29 -3714 3715 0
-3715 3731 0
-30 -3715 3716 0
-3716 3732 0
-31 -3716 3717 0
-3717 3733 0
-32 -3717 3718 0
-3718 3734 0
-33 -3718 3719 0
-3719 3735 0
-34 -3719 3720 0
-3720 3736 0
-35 -3720 0
-20 3721 0
-3721 3737 0
-21 -3721 3722 0
-3722 3738 0
-22 -3722 3723 0
-3723 3739 0
-23 -3723 3724 0
-3724 3740 0
-24 -3724 3725 0
-3725 3741 0
-25 -3725 3726 0
-3726 3742 0
-26 -3726 3727 0
-3727 3743 0
-27 -3727 3728 0
-3728 3744 0
-28 -3728 3729 0
-3729 3745 0
-29 -3729 3730 0
-3730 3746 0
-30 -3730 3731 0
-3731 3747 0
-31 -3731 3732 0
-3732 3748 0
-32 -3732 3733 0
-3733 3749 0
-33 -3733 3734 0
-3734 3750 0
-34 -3734 3735 0
-3735 3751 0
-35 -3735 3736 0
-3736 3752 0
-36 -3736 0
-21 3737 0
-3737 3753 0
-22 -3737 3738 0
-3738 3754 0
-23 -3738 3739 0
-3739 3755 0
-24 -3739 3740 0
-3740 3756 0
-25 -3740 3741 0
-3741 3757 0
-26 -3741 3742 0
-3742 3758 0
-27 -3742 3743 0
-3743 3759 0
-28 -3743 3744 0
-3744 3760 0
-29 -3744 3745 0
-3745 3761 0
-30 -3745 3746 0
-3746 3762 0
-31 -3746 3747 0
-3747 3763 0
-32 -3747 3748 0
-3748 3764 0
-33 -3748 3749 0
-3749 3765 0
-34 -3749 3750 0
-3750 3766 0
-35 -3750 3751 0
-3751 3767 0
-36 -3751 3752 0
-3752 3768 0
-37 -3752 0
-22 3753 0
-3753 3769 0
-23 -3753 3754 0
-3754 3770 0
-24 -3754 3755 0
-3755 3771 0
-25 -3755 3756 0
-3756 3772 0
-26 -3756 3757 0
-3757 3773 0
-27 -3757 3758 0
-3758 3774 0
-28 -3758 3759 0
-3759 3775 0
-29 -3759 3760 0
-3760 3776 0
-30 -3760 3761 0
-3761 3777 0
-31 -3761 3762 0
-3762 3778 0
-32 -3762 3763 0
-3763 3779 0
-33 -3763 3764 0
-3764 3780 0
-34 -3764 3765 0
-3765 3781 0
-35 -3765 3766 0
-3766 3782 0
-36 -3766 3767 0
-3767 3783 0
-37 -3767 3768 0
-3768 3784 0
-38 -3768 0
-23 3769 0
-3769 3785 0
-24 -3769 3770 0
-3770 3786 0
-25 -3770 3771 0
-3771 3787 0
-26 -3771 3772 0
-3772 3788 0
-27 -3772 3773 0
-3773 3789 0
-28 -3773 3774 0
-3774 3790 0
-29 -3774 3775 0
-3775 3791 0
-30 -3775 3776 0
-3776 3792 0
-31 -3776 3777 0
-3777 3793 0
-32 -3777 3778 0
-3778 3794 0
-33 -3778 3779 0
-3779 3795 0
-34 -3779 3780 0
-3780 3796 0
-35 -3780 3781 0
-3781 3797 0
-36 -3781 3782 0
-3782 3798 0
-37 -3782 3783 0
-3783 3799 0
-38 -3783 3784 0
-3784 3800 0
-39 -3784 0
-24 3785 0
-3785 3801 0
-25 -3785 3786 0
-3786 3802 0
-26 -3786 3787 0
-3787 3803 0
-27 -3787 3788 0
-3788 3804 0
-28 -3788 3789 0
-3789 3805 0
-29 -3789 3790 0
-3790 3806 0
-30 -3790 3791 0
-3791 3807 0
-31 -3791 3792 0
-3792 3808 0
-32 -3792 3793 0
-3793 3809 0
-33 -3793 3794 0
-3794 3810 0
-34 -3794 3795 0
-3795 3811 0
-35 -3795 3796 0
-3796 3812 0
-36 -3796 3797 0
-3797 3813 0
-37 -3797 3798 0
-3798 3814 0
-38 -3798 3799 0
-3799 3815 0
-39 -3799 3800 0
-3800 3816 0
-40 -3800 0
-25 3801 0
-3801 3817 0
-26 -3801 3802 0
-3802 3818 0
-27 -3802 3803 0
-3803 3819 0
-28 -3803 3804 0
-3804 3820 0
-29 -3804 3805 0
-3805 3821 0
-30 -3805 3806 0
-3806 3822 0
-31 -3806 3807 0
-3807 3823 0
-32 -3807 3808 0
-3808 3824 0
-33 -3808 3809 0
-3809 3825 0
-34 -3809 3810 0
-3810 3826 0
-35 -3810 3811 0
-3811 3827 0
-36 -3811 3812 0
-3812 3828 0
-37 -3812 3813 0
-3813 3829 0
-38 -3813 3814 0
-3814 3830 0
-39 -3814 3815 0
-3815 3831 0
-40 -3815 3816 0
-3816 3832 0
-41 -3816 0
-26 3817 0
-3817 3833 0
-27 -3817 3818 0
-3818 3834 0
-28 -3818 3819 0
-3819 3835 0
-29 -3819 3820 0
-3820 3836 0
-30 -3820 3821 0
-3821 3837 0
-31 -3821 3822 0
-3822 3838 0
-32 -3822 3823 0
-3823 3839 0
-33 -3823 3824 0
-3824 3840 0
-34 -3824 3825 0
-3825 3841 0
-35 -3825 3826 0
-3826 3842 0
-36 -3826 3827 0
-3827 3843 0
-37 -3827 3828 0
-3828 3844 0
-38 -3828 3829 0
-3829 3845 0
-39 -3829 3830 0
-3830 3846 0
-40 -3830 3831 0
-3831 3847 0
-41 -3831 3832 0
-3832 3848 0
-42 -3832 0
-27 3833 0
-3833 3849 0
-28 -3833 3834 0
-3834 3850 0
-29 -3834 3835 0
-3835 3851 0
-30 -3835 3836 0
-3836 3852 0
-31 -3836 3837 0
-3837 3853 0
-32 -3837 3838 0
-3838 3854 0
-33 -3838 3839 0
-3839 3855 0
-34 -3839 3840 0
-3840 3856 0
-35 -3840 3841 0
-3841 3857 0
-36 -3841 3842 0
-3842 3858 0
-37 -3842 3843 0
-3843 3859 0
-38 -3843 3844 0
-3844 3860 0
-39 -3844 3845 0
-3845 3861 0
-40 -3845 3846 0
-3846 3862 0
-41 -3846 3847 0
-3847 3863 0
-42 -3847 3848 0
-3848 3864 0
-43 -3848 0
-28 3849 0
-3849 3865 0
-29 -3849 3850 0
-3850 3866 0
-30 -3850 3851 0
-3851 3867 0
-31 -3851 3852 0
-3852 3868 0
-32 -3852 3853 0
-3853 3869 0
-33 -3853 3854 0
-3854 3870 0
-34 -3854 3855 0
-3855 3871 0
-35 -3855 3856 0
-3856 3872 0
-36 -3856 3857 0
-3857 3873 0
-37 -3857 3858 0
-3858 3874 0
-38 -3858 3859 0
-3859 3875 0
-39 -3859 3860 0
-3860 3876 0
-40 -3860 3861 0
-3861 3877 0
-41 -3861 3862 0
-3862 3878 0
-42 -3862 3863 0
-3863 3879 0
-43 -3863 3864 0
-3864 3880 0
-44 -3864 0
-29 3865 0
-3865 3881 0
-30 -3865 3866 0
-3866 3882 0
-31 -3866 3867 0
-3867 3883 0
-32 -3867 3868 0
-3868 3884 0
-33 -3868 3869 0
-3869 3885 0
-34 -3869 3870 0
-3870 3886 0
-35 -3870 3871 0
-3871 3887 0
-36 -3871 3872 0
-3872 3888 0
-37 -3872 3873 0
-3873 3889 0
-38 -3873 3874 0
-3874 3890 0
-39 -3874 3875 0
-3875 3891 0
-40 -3875 3876 0
-3876 3892 0
-41 -3876 3877 0
-3877 3893 0
-42 -3877 3878 0
-3878 3894 0
-43 -3878 3879 0
-3879 3895 0
-44 -3879 3880 0
-3880 3896 0
-45 -3880 0
-30 3881 0
-3881 3897 0
-31 -3881 3882 0
-3882 3898 0
-32 -3882 3883 0
-3883 3899 0
-33 -3883 3884 0
-3884 3900 0
-34 -3884 3885 0
-3885 3901 0
-35 -3885 3886 0
-3886 3902 0
-36 -3886 3887 0
-3887 3903 0
-37 -3887 3888 0
-3888 3904 0
-38 -3888 3889 0
-3889 3905 0
-39 -3889 3890 0
-3890 3906 0
-40 -3890 3891 0
-3891 3907 0
-41 -3891 3892 0
-3892 3908 0
-42 -3892 3893 0
-3893 3909 0
-43 -3893 3894 0
-3894 3910 0
-44 -3894 3895 0
-3895 3911 0
-45 -3895 3896 0
-3896 3912 0
-46 -3896 0
-31 3897 0
-3897 3913 0
-32 -3897 3898 0
-3898 3914 0
-33 -3898 3899 0
-3899 3915 0
-34 -3899 3900 0
-3900 3916 0
-35 -3900 3901 0
-3901 3917 0
-36 -3901 3902 0
-3902 3918 0
-37 -3902 3903 0
-3903 3919 0
-38 -3903 3904 0
-3904 3920 0
-39 -3904 3905 0
-3905 3921 0
-40 -3905 3906 0
-3906 3922 0
-41 -3906 3907 0
-3907 3923 0
-42 -3907 3908 0
-3908 3924 0
-43 -3908 3909 0
-3909 3925 0
-44 -3909 3910 0
-3910 3926 0
-45 -3910 3911 0
-3911 3927 0
-46 -3911 3912 0
-3912 3928 0
-47 -3912 0
-32 3913 0
-3913 3929 0
-33 -3913 3914 0
-3914 3930 0
-34 -3914 3915 0
-3915 3931 0
-35 -3915 3916 0
-3916 3932 0
-36 -3916 3917 0
-3917 3933 0
-37 -3917 3918 0
-3918 3934 0
-38 -3918 3919 0
-3919 3935 0
-39 -3919 3920 0
-3920 3936 0
-40 -3920 3921 0
-3921 3937 0
-41 -3921 3922 0
-3922 3938 0
-42 -3922 3923 0
-3923 3939 0
-43 -3923 3924 0
-3924 3940 0
-44 -3924 3925 0
-3925 3941 0
-45 -3925 3926 0
-3926 3942 0
-46 -3926 3927 0
-3927 3943 0
-47 -3927 3928 0
-3928 3944 0
-48 -3928 0
-33 3929 0
-3929 3945 0
-34 -3929 3930 0
-3930 3946 0
-35 -3930 3931 0
-3931 3947 0
-36 -3931 3932 0
-3932 3948 0
-37 -3932 3933 0
-3933 3949 0
-38 -3933 3934 0
-3934 3950 0
-39 -3934 3935 0
-3935 3951 0
-40 -3935 3936 0
-3936 3952 0
-41 -3936 3937 0
-3937 3953 0
-42 -3937 3938 0
-3938 3954 0
-43 -3938 3939 0
-3939 3955 0
-44 -3939 3940 0
-3940 3956 0
-45 -3940 3941 0
-3941 3957 0
-46 -3941 3942 0
-3942 3958 0
-47 -3942 3943 0
-3943 3959 0
-48 -3943 3944 0
-3944 3960 0
-49 -3944 0
-34 3945 0
-3945 3961 0
-35 -3945 3946 0
-3946 3962 0
-36 -3946 3947 0
-3947 3963 0
-37 -3947 3948 0
-3948 3964 0
-38 -3948 3949 0
-3949 3965 0
-39 -3949 3950 0
-3950 3966 0
-40 -3950 3951 0
-3951 3967 0
-41 -3951 3952 0
-3952 3968 0
-42 -3952 3953 0
-3953 3969 0
-43 -3953 3954 0
-3954 3970 0
-44 -3954 3955 0
-3955 3971 0
-45 -3955 3956 0
-3956 3972 0
-46 -3956 3957 0
-3957 3973 0
-47 -3957 3958 0
-3958 3974 0
-48 -3958 3959 0
-3959 3975 0
-49 -3959 3960 0
-3960 3976 0
-50 -3960 0
-35 3961 0
-3961 3977 0
-36 -3961 3962 0
-3962 3978 0
-37 -3962 3963 0
-3963 3979 0
-38 -3963 3964 0
-3964 3980 0
-39 -3964 3965 0
-3965 3981 0
-40 -3965 3966 0
-3966 3982 0
-41 -3966 3967 0
-3967 3983 0
-42 -3967 3968 0
-3968 3984 0
-43 -3968 3969 0
-3969 3985 0
-44 -3969 3970 0
-3970 3986 0
-45 -3970 3971 0
-3971 3987 0
-46 -3971 3972 0
-3972 3988 0
-47 -3972 3973 0
-3973 3989 0
-48 -3973 3974 0
-3974 3990 0
-49 -3974 3975 0
-3975 3991 0
-50 -3975 3976 0
-3976 3992 0
-51 -3976 0
-36 3977 0
-3977 3993 0
-37 -3977 3978 0
-3978 3994 0
-38 -3978 3979 0
-3979 3995 0
-39 -3979 3980 0
-3980 3996 0
-40 -3980 3981 0
-3981 3997 0
-41 -3981 3982 0
-3982 3998 0
-42 -3982 3983 0
-3983 3999 0
-43 -3983 3984 0
-3984 4000 0
-44 -3984 3985 0
-3985 4001 0
-45 -3985 3986 0
-3986 4002 0
-46 -3986 3987 0
-3987 4003 0
-47 -3987 3988 0
-3988 4004 0
-48 -3988 3989 0
-3989 4005 0
-49 -3989 3990 0
-3990 4006 0
-50 -3990 3991 0
-3991 4007 0
-51 -3991 3992 0
-3992 4008 0
-52 -3992 0
-37 3993 0
-3993 4009 0
-38 -3993 3994 0
-3994 4010 0
-39 -3994 3995 0
-3995 4011 0
-40 -3995 3996 0
-3996 4012 0
-41 -3996 3997 0
-3997 4013 0
-42 -3997 3998 0
-3998 4014 0
-43 -3998 3999 0
-3999 4015 0
-44 -3999 4000 0
-4000 4016 0
-45 -4000 4001 0
-4001 4017 0
-46 -4001 4002 0
-4002 4018 0
-47 -4002 4003 0
-4003 4019 0
-48 -4003 4004 0
-4004 4020 0
-49 -4004 4005 0
-4005 4021 0
-50 -4005 4006 0
-4006 4022 0
-51 -4006 4007 0
-4007 4023 0
-52 -4007 4008 0
-4008 4024 0
-53 -4008 0
-38 4009 0
-4009 4025 0
-39 -4009 4010 0
-4010 4026 0
-40 -4010 4011 0
-4011 4027 0
-41 -4011 4012 0
-4012 4028 0
-42 -4012 4013 0
-4013 4029 0
-43 -4013 4014 0
-4014 4030 0
-44 -4014 4015 0
-4015 4031 0
-45 -4015 4016 0
-4016 4032 0
-46 -4016 4017 0
-4017 4033 0
-47 -4017 4018 0
-4018 4034 0
-48 -4018 4019 0
-4019 4035 0
-49 -4019 4020 0
-4020 4036 0
-50 -4020 4021 0
-4021 4037 0
-51 -4021 4022 0
-4022 4038 0
-52 -4022 4023 0
-4023 4039 0
-53 -4023 4024 0
-4024 4040 0
-54 -4024 0
-39 4025 0
-4025 4041 0
-40 -4025 4026 0
-4026 4042 0
-41 -4026 4027 0
-4027 4043 0
-42 -4027 4028 0
-4028 4044 0
-43 -4028 4029 0
-4029 4045 0
-44 -4029 4030 0
-4030 4046 0
-45 -4030 4031 0
-4031 4047 0
-46 -4031 4032 0
-4032 4048 0
-47 -4032 4033 0
-4033 4049 0
-48 -4033 4034 0
-4034 4050 0
-49 -4034 4035 0
-4035 4051 0
-50 -4035 4036 0
-4036 4052 0
-51 -4036 4037 0
-4037 4053 0
-52 -4037 4038 0
-4038 4054 0
-53 -4038 4039 0
-4039 4055 0
-54 -4039 4040 0
-4040 4056 0
-55 -4040 0
-40 4041 0
-4041 4057 0
-41 -4041 4042 0
-4042 4058 0
-42 -4042 4043 0
-4043 4059 0
-43 -4043 4044 0
-4044 4060 0
-44 -4044 4045 0
-4045 4061 0
-45 -4045 4046 0
-4046 4062 0
-46 -4046 4047 0
-4047 4063 0
-47 -4047 4048 0
-4048 4064 0
-48 -4048 4049 0
-4049 4065 0
-49 -4049 4050 0
-4050 4066 0
-50 -4050 4051 0
-4051 4067 0
-51 -4051 4052 0
-4052 4068 0
-52 -4052 4053 0
-4053 4069 0
-53 -4053 4054 0
-4054 4070 0
-54 -4054 4055 0
-4055 4071 0
-55 -4055 4056 0
-4056 4072 0
-56 -4056 0
-41 4057 0
-4057 4073 0
-42 -4057 4058 0
-4058 4074 0
-43 -4058 4059 0
-4059 4075 0
-44 -4059 4060 0
-4060 4076 0
-45 -4060 4061 0
-4061 4077 0
-46 -4061 4062 0
-4062 4078 0
-47 -4062 4063 0
-4063 4079 0
-48 -4063 4064 0
-4064 4080 0
-49 -4064 4065 0
-4065 4081 0
-50 -4065 4066 0
-4066 4082 0
-51 -4066 4067 0
-4067 4083 0
-52 -4067 4068 0
-4068 4084 0
-53 -4068 4069 0
-4069 4085 0
-54 -4069 4070 0
-4070 4086 0
-55 -4070 4071 0
-4071 4087 0
-56 -4071 4072 0
-4072 4088 0
-57 -4072 0
-42 4073 0
-4073 4089 0
-43 -4073 4074 0
-4074 4090 0
-44 -4074 4075 0
-4075 4091 0
-45 -4075 4076 0
-4076 4092 0
-46 -4076 4077 0
-4077 4093 0
-47 -4077 4078 0
-4078 4094 0
-48 -4078 4079 0
-4079 4095 0
-49 -4079 4080 0
-4080 4096 0
-50 -4080 4081 0
-4081 4097 0
-51 -4081 4082 0
-4082 4098 0
-52 -4082 4083 0
-4083 4099 0
-53 -4083 4084 0
-4084 4100 0
-54 -4084 4085 0
-4085 4101 0
-55 -4085 4086 0
-4086 4102 0
-56 -4086 4087 0
-4087 4103 0
-57 -4087 4088 0
-4088 4104 0
-58 -4088 0
-43 4089 0
-4089 4105 0
-44 -4089 4090 0
-4090 4106 0
-45 -4090 4091 0
-4091 4107 0
-46 -4091 4092 0
-4092 4108 0
-47 -4092 4093 0
-4093 4109 0
-48 -4093 4094 0
-4094 4110 0
-49 -4094 4095 0
-4095 4111 0
-50 -4095 4096 0
-4096 4112 0
-51 -4096 4097 0
-4097 4113 0
-52 -4097 4098 0
-4098 4114 0
-53 -4098 4099 0
-4099 4115 0
-54 -4099 4100 0
-4100 4116 0
-55 -4100 4101 0
-4101 4117 0
-56 -4101 4102 0
-4102 4118 0
-57 -4102 4103 0
-4103 4119 0
-58 -4103 4104 0
-4104 4120 0
-59 -4104 0
-44 4105 0
-4105 4121 0
-45 -4105 4106 0
-4106 4122 0
-46 -4106 4107 0
-4107 4123 0
-47 -4107 4108 0
-4108 4124 0
-48 -4108 4109 0
-4109 4125 0
-49 -4109 4110 0
-4110 4126 0
-50 -4110 4111 0
-4111 4127 0
-51 -4111 4112 0
-4112 4128 0
-52 -4112 4113 0
-4113 4129 0
-53 -4113 4114 0
-4114 4130 0
-54 -4114 4115 0
-4115 4131 0
-55 -4115 4116 0
-4116 4132 0
-56 -4116 4117 0
-4117 4133 0
-57 -4117 4118 0
-4118 4134 0
-58 -4118 4119 0
-4119 4135 0
-59 -4119 4120 0
-4120 4136 0
-60 -4120 0
-45 4121 0
-4121 4137 0
-46 -4121 4122 0
-4122 4138 0
-47 -4122 4123 0
-4123 4139 0
-48 -4123 4124 0
-4124 4140 0
-49 -4124 4125 0
-4125 4141 0
-50 -4125 4126 0
-4126 4142 0
-51 -4126 4127 0
-4127 4143 0
-52 -4127 4128 0
-4128 4144 0
-53 -4128 4129 0
-4129 4145 0
-54 -4129 4130 0
-4130 4146 0
-55 -4130 4131 0
-4131 4147 0
-56 -4131 4132 0
-4132 4148 0
-57 -4132 4133 0
-4133 4149 0
-58 -4133 4134 0
-4134 4150 0
-59 -4134 4135 0
-4135 4151 0
-60 -4135 4136 0
-4136 4152 0
-61 -4136 0
-46 4137 0
-4137 4153 0
-47 -4137 4138 0
-4138 4154 0
-48 -4138 4139 0
-4139 4155 0
-49 -4139 4140 0
-4140 4156 0
-50 -4140 4141 0
-4141 4157 0
-51 -4141 4142 0
-4142 4158 0
-52 -4142 4143 0
-4143 4159 0
-53 -4143 4144 0
-4144 4160 0
-54 -4144 4145 0
-4145 4161 0
-55 -4145 4146 0
-4146 4162 0
-56 -4146 4147 0
-4147 4163 0
-57 -4147 4148 0
-4148 4164 0
-58 -4148 4149 0
-4149 4165 0
-59 -4149 4150 0
-4150 4166 0
-60 -4150 4151 0
-4151 4167 0
-61 -4151 4152 0
-4152 4168 0
-62 -4152 0
-47 4153 0
-4153 4169 0
-48 -4153 4154 0
-4154 4170 0
-49 -4154 4155 0
-4155 4171 0
-50 -4155 4156 0
-4156 4172 0
-51 -4156 4157 0
-4157 4173 0
-52 -4157 4158 0
-4158 4174 0
-53 -4158 4159 0
-4159 4175 0
-54 -4159 4160 0
-4160 4176 0
-55 -4160 4161 0
-4161 4177 0
-56 -4161 4162 0
-4162 4178 0
-57 -4162 4163 0
-4163 4179 0
-58 -4163 4164 0
-4164 4180 0
-59 -4164 4165 0
-4165 4181 0
-60 -4165 4166 0
-4166 4182 0
-61 -4166 4167 0
-4167 4183 0
-62 -4167 4168 0
-4168 4184 0
-63 -4168 0
-48 4169 0
-4169 4185 0
-49 -4169 4170 0
-4170 4186 0
-50 -4170 4171 0
-4171 4187 0
-51 -4171 4172 0
-4172 4188 0
-52 -4172 4173 0
-4173 4189 0
-53 -4173 4174 0
-4174 4190 0
-54 -4174 4175 0
-4175 4191 0
-55 -4175 4176 0
-4176 4192 0
-56 -4176 4177 0
-4177 4193 0
-57 -4177 4178 0
-4178 4194 0
-58 -4178 4179 0
-4179 4195 0
-59 -4179 4180 0
-4180 4196 0
-60 -4180 4181 0
-4181 4197 0
-61 -4181 4182 0
-4182 4198 0
-62 -4182 4183 0
-4183 4199 0
-63 -4183 4184 0
-4184 4200 0
-64 -4184 0
-49 4185 0
-4185 4201 0
-50 -4185 4186 0
-4186 4202 0
-51 -4186 4187 0
-4187 4203 0
-52 -4187 4188 0
-4188 4204 0
-53 -4188 4189 0
-4189 4205 0
-54 -4189 4190 0
-4190 4206 0
-55 -4190 4191 0
-4191 4207 0
-56 -4191 4192 0
-4192 4208 0
-57 -4192 4193 0
-4193 4209 0
-58 -4193 4194 0
-4194 4210 0
-59 -4194 4195 0
-4195 4211 0
-60 -4195 4196 0
-4196 4212 0
-61 -4196 4197 0
-4197 4213 0
-62 -4197 4198 0
-4198 4214 0
-63 -4198 4199 0
-4199 4215 0
-64 -4199 4200 0
-4200 4216 0
-65 -4200 0
-50 4201 0
-4201 4217 0
-51 -4201 4202 0
-4202 4218 0
-52 -4202 4203 0
-4203 4219 0
-53 -4203 4204 0
-4204 4220 0
-54 -4204 4205 0
-4205 4221 0
-55 -4205 4206 0
-4206 4222 0
-56 -4206 4207 0
-4207 4223 0
-57 -4207 4208 0
-4208 4224 0
-58 -4208 4209 0
-4209 4225 0
-59 -4209 4210 0
-4210 4226 0
-60 -4210 4211 0
-4211 4227 0
-61 -4211 4212 0
-4212 4228 0
-62 -4212 4213 0
-4213 4229 0
-63 -4213 4214 0
-4214 4230 0
-64 -4214 4215 0
-4215 4231 0
-65 -4215 4216 0
-4216 4232 0
-66 -4216 0
-51 4217 0
-4217 4233 0
-52 -4217 4218 0
-4218 4234 0
-53 -4218 4219 0
-4219 4235 0
-54 -4219 4220 0
-4220 4236 0
-55 -4220 4221 0
-4221 4237 0
-56 -4221 4222 0
-4222 4238 0
-57 -4222 4223 0
-4223 4239 0
-58 -4223 4224 0
-4224 4240 0
-59 -4224 4225 0
-4225 4241 0
-60 -4225 4226 0
-4226 4242 0
-61 -4226 4227 0
-4227 4243 0
-62 -4227 4228 0
-4228 4244 0
-63 -4228 4229 0
-4229 4245 0
-64 -4229 4230 0
-4230 4246 0
-65 -4230 4231 0
-4231 4247 0
-66 -4231 4232 0
-4232 4248 0
-67 -4232 0
-52 4233 0
-4233 4249 0
-53 -4233 4234 0
-4234 4250 0
-54 -4234 4235 0
-4235 4251 0
-55 -4235 4236 0
-4236 4252 0
-56 -4236 4237 0
-4237 4253 0
-57 -4237 4238 0
-4238 4254 0
-58 -4238 4239 0
-4239 4255 0
-59 -4239 4240 0
-4240 4256 0
-60 -4240 4241 0
-4241 4257 0
-61 -4241 4242 0
-4242 4258 0
-62 -4242 4243 0
-4243 4259 0
-63 -4243 4244 0
-4244 4260 0
-64 -4244 4245 0
-4245 4261 0
-65 -4245 4246 0
-4246 4262 0
-66 -4246 4247 0
-4247 4263 0
-67 -4247 4248 0
-4248 4264 0
-68 -4248 0
-53 4249 0
-4249 4265 0
-54 -4249 4250 0
-4250 4266 0
-55 -4250 4251 0
-4251 4267 0
-56 -4251 4252 0
-4252 4268 0
-57 -4252 4253 0
-4253 4269 0
-58 -4253 4254 0
-4254 4270 0
-59 -4254 4255 0
-4255 4271 0
-60 -4255 4256 0
-4256 4272 0
-61 -4256 4257 0
-4257 4273 0
-62 -4257 4258 0
-4258 4274 0
-63 -4258 4259 0
-4259 4275 0
-64 -4259 4260 0
-4260 4276 0
-65 -4260 4261 0
-4261 4277 0
-66 -4261 4262 0
-4262 4278 0
-67 -4262 4263 0
-4263 4279 0
-68 -4263 4264 0
-4264 4280 0
-69 -4264 0
-54 4265 0
-4265 4281 0
-55 -4265 4266 0
-4266 4282 0
-56 -4266 4267 0
-4267 4283 0
-57 -4267 4268 0
-4268 4284 0
-58 -4268 4269 0
-4269 4285 0
-59 -4269 4270 0
-4270 4286 0
-60 -4270 4271 0
-4271 4287 0
-61 -4271 4272 0
-4272 4288 0
-62 -4272 4273 0
-4273 4289 0
-63 -4273 4274 0
-4274 4290 0
-64 -4274 4275 0
-4275 4291 0
-65 -4275 4276 0
-4276 4292 0
-66 -4276 4277 0
-4277 4293 0
-67 -4277 4278 0
-4278 4294 0
-68 -4278 4279 0
-4279 4295 0
-69 -4279 4280 0
-4280 4296 0
-70 -4280 0
-55 4281 0
-4281 4297 0
-56 -4281 4282 0
-4282 4298 0
-57 -4282 4283 0
-4283 4299 0
-58 -4283 4284 0
-4284 4300 0
-59 -4284 4285 0
-4285 4301 0
-60 -4285 4286 0
-4286 4302 0
-61 -4286 4287 0
-4287 4303 0
-62 -4287 4288 0
-4288 4304 0
-63 -4288 4289 0
-4289 4305 0
-64 -4289 4290 0
-4290 4306 0
-65 -4290 4291 0
-4291 4307 0
-66 -4291 4292 0
-4292 4308 0
-67 -4292 4293 0
-4293 4309 0
-68 -4293 4294 0
-4294 4310 0
-69 -4294 4295 0
-4295 4311 0
-70 -4295 4296 0
-4296 4312 0
-71 -4296 0
-56 4297 0
-4297 4313 0
-57 -4297 4298 0
-4298 4314 0
-58 -4298 4299 0
-4299 4315 0
-59 -4299 4300 0
-4300 4316 0
-60 -4300 4301 0
-4301 4317 0
-61 -4301 4302 0
-4302 4318 0
-62 -4302 4303 0
-4303 4319 0
-63 -4303 4304 0
-4304 4320 0
-64 -4304 4305 0
-4305 4321 0
-65 -4305 4306 0
-4306 4322 0
-66 -4306 4307 0
-4307 4323 0
-67 -4307 4308 0
-4308 4324 0
-68 -4308 4309 0
-4309 4325 0
-69 -4309 4310 0
-4310 4326 0
-70 -4310 4311 0
-4311 4327 0
-71 -4311 4312 0
-4312 4328 0
-72 -4312 0
-57 4313 0
-4313 4329 0
-58 -4313 4314 0
-4314 4330 0
-59 -4314 4315 0
-4315 4331 0
-60 -4315 4316 0
-4316 4332 0
-61 -4316 4317 0
-4317 4333 0
-62 -4317 4318 0
-4318 4334 0
-63 -4318 4319 0
-4319 4335 0
-64 -4319 4320 0
-4320 4336 0
-65 -4320 4321 0
-4321 4337 0
-66 -4321 4322 0
-4322 4338 0
-67 -4322 4323 0
-4323 4339 0
-68 -4323 4324 0
-4324 4340 0
-69 -4324 4325 0
-4325 4341 0
-70 -4325 4326 0
-4326 4342 0
-71 -4326 4327 0
-4327 4343 0
-72 -4327 4328 0
-4328 4344 0
-73 -4328 0
-58 4329 0
-4329 4345 0
-59 -4329 4330 0
-4330 4346 0
-60 -4330 4331 0
-4331 4347 0
-61 -4331 4332 0
-4332 4348 0
-62 -4332 4333 0
-4333 4349 0
-63 -4333 4334 0
-4334 4350 0
-64 -4334 4335 0
-4335 4351 0
-65 -4335 4336 0
-4336 4352 0
-66 -4336 4337 0
-4337 4353 0
-67 -4337 4338 0
-4338 4354 0
-68 -4338 4339 0
-4339 4355 0
-69 -4339 4340 0
-4340 4356 0
-70 -4340 4341 0
-4341 4357 0
-71 -4341 4342 0
-4342 4358 0
-72 -4342 4343 0
-4343 4359 0
-73 -4343 4344 0
-4344 4360 0
-74 -4344 0
-59 4345 0
-4345 4361 0
-60 -4345 4346 0
-4346 4362 0
-61 -4346 4347 0
-4347 4363 0
-62 -4347 4348 0
-4348 4364 0
-63 -4348 4349 0
-4349 4365 0
-64 -4349 4350 0
-4350 4366 0
-65 -4350 4351 0
-4351 4367 0
-66 -4351 4352 0
-4352 4368 0
-67 -4352 4353 0
-4353 4369 0
-68 -4353 4354 0
-4354 4370 0
-69 -4354 4355 0
-4355 4371 0
-70 -4355 4356 0
-4356 4372 0
-71 -4356 4357 0
-4357 4373 0
-72 -4357 4358 0
-4358 4374 0
-73 -4358 4359 0
-4359 4375 0
-74 -4359 4360 0
-4360 4376 0
-75 -4360 0
-60 4361 0
-4361 4377 0
-61 -4361 4362 0
-4362 4378 0
-62 -4362 4363 0
-4363 4379 0
-63 -4363 4364 0
-4364 4380 0
-64 -4364 4365 0
-4365 4381 0
-65 -4365 4366 0
-4366 4382 0
-66 -4366 4367 0
-4367 4383 0
-67 -4367 4368 0
-4368 4384 0
-68 -4368 4369 0
-4369 4385 0
-69 -4369 4370 0
-4370 4386 0
-70 -4370 4371 0
-4371 4387 0
-71 -4371 4372 0
-4372 4388 0
-72 -4372 4373 0
-4373 4389 0
-73 -4373 4374 0
-4374 4390 0
-74 -4374 4375 0
-4375 4391 0
-75 -4375 4376 0
-4376 4392 0
-76 -4376 0
-61 4377 0
-4377 4393 0
-62 -4377 4378 0
-4378 4394 0
-63 -4378 4379 0
-4379 4395 0
-64 -4379 4380 0
-4380 4396 0
-65 -4380 4381 0
-4381 4397 0
-66 -4381 4382 0
-4382 4398 0
-67 -4382 4383 0
-4383 4399 0
-68 -4383 4384 0
-4384 4400 0
-69 -4384 4385 0
-4385 4401 0
-70 -4385 4386 0
-4386 4402 0
-71 -4386 4387 0
-4387 4403 0
-72 -4387 4388 0
-4388 4404 0
-73 -4388 4389 0
-4389 4405 0
-74 -4389 4390 0
-4390 4406 0
-75 -4390 4391 0
-4391 4407 0
-76 -4391 4392 0
-4392 4408 0
-77 -4392 0
-62 4393 0
-4393 4409 0
-63 -4393 4394 0
-4394 4410 0
-64 -4394 4395 0
-4395 4411 0
-65 -4395 4396 0
-4396 4412 0
-66 -4396 4397 0
-4397 4413 0
-67 -4397 4398 0
-4398 4414 0
-68 -4398 4399 0
-4399 4415 0
-69 -4399 4400 0
-4400 4416 0
-70 -4400 4401 0
-4401 4417 0
-71 -4401 4402 0
-4402 4418 0
-72 -4402 4403 0
-4403 4419 0
-73 -4403 4404 0
-4404 4420 0
-74 -4404 4405 0
-4405 4421 0
-75 -4405 4406 0
-4406 4422 0
-76 -4406 4407 0
-4407 4423 0
-77 -4407 4408 0
-4408 4424 0
-78 -4408 0
-63 4409 0
-4409 4425 0
-64 -4409 4410 0
-4410 4426 0
-65 -4410 4411 0
-4411 4427 0
-66 -4411 4412 0
-4412 4428 0
-67 -4412 4413 0
-4413 4429 0
-68 -4413 4414 0
-4414 4430 0
-69 -4414 4415 0
-4415 4431 0
-70 -4415 4416 0
-4416 4432 0
-71 -4416 4417 0
-4417 4433 0
-72 -4417 4418 0
-4418 4434 0
-73 -4418 4419 0
-4419 4435 0
-74 -4419 4420 0
-4420 4436 0
-75 -4420 4421 0
-4421 4437 0
-76 -4421 4422 0
-4422 4438 0
-77 -4422 4423 0
-4423 4439 0
-78 -4423 4424 0
-4424 4440 0
-79 -4424 0
-64 4425 0
-4425 4441 0
-65 -4425 4426 0
-4426 4442 0
-66 -4426 4427 0
-4427 4443 0
-67 -4427 4428 0
-4428 4444 0
-68 -4428 4429 0
-4429 4445 0
-69 -4429 4430 0
-4430 4446 0
-70 -4430 4431 0
-4431 4447 0
-71 -4431 4432 0
-4432 4448 0
-72 -4432 4433 0
-4433 4449 0
-73 -4433 4434 0
-4434 4450 0
-74 -4434 4435 0
-4435 4451 0
-75 -4435 4436 0
-4436 4452 0
-76 -4436 4437 0
-4437 4453 0
-77 -4437 4438 0
-4438 4454 0
-78 -4438 4439 0
-4439 4455 0
-79 -4439 4440 0
-4440 4456 0
-80 -4440 0
-65 4441 0
-4441 4457 0
-66 -4441 4442 0
-4442 4458 0
-67 -4442 4443 0
-4443 4459 0
-68 -4443 4444 0
-4444 4460 0
-69 -4444 4445 0
-4445 4461 0
-70 -4445 4446 0
-4446 4462 0
-71 -4446 4447 0
-4447 4463 0
-72 -4447 4448 0
-4448 4464 0
-73 -4448 4449 0
-4449 4465 0
-74 -4449 4450 0
-4450 4466 0
-75 -4450 4451 0
-4451 4467 0
-76 -4451 4452 0
-4452 4468 0
-77 -4452 4453 0
-4453 4469 0
-78 -4453 4454 0
-4454 4470 0
-79 -4454 4455 0
-4455 4471 0
-80 -4455 4456 0
-4456 4472 0
-81 -4456 0
-66 4457 0
-4457 4473 0
-67 -4457 4458 0
-4458 4474 0
-68 -4458 4459 0
-4459 4475 0
-69 -4459 4460 0
-4460 4476 0
-70 -4460 4461 0
-4461 4477 0
-71 -4461 4462 0
-4462 4478 0
-72 -4462 4463 0
-4463 4479 0
-73 -4463 4464 0
-4464 4480 0
-74 -4464 4465 0
-4465 4481 0
-75 -4465 4466 0
-4466 4482 0
-76 -4466 4467 0
-4467 4483 0
-77 -4467 4468 0
-4468 4484 0
-78 -4468 4469 0
-4469 4485 0
-79 -4469 4470 0
-4470 4486 0
-80 -4470 4471 0
-4471 4487 0
-81 -4471 4472 0
-4472 4488 0
-82 -4472 0
-67 4473 0
-4473 4489 0
-68 -4473 4474 0
-4474 4490 0
-69 -4474 4475 0
-4475 4491 0
-70 -4475 4476 0
-4476 4492 0
-71 -4476 4477 0
-4477 4493 0
-72 -4477 4478 0
-4478 4494 0
-73 -4478 4479 0
-4479 4495 0
-74 -4479 4480 0
-4480 4496 0
-75 -4480 4481 0
-4481 4497 0
-76 -4481 4482 0
-4482 4498 0
-77 -4482 4483 0
-4483 4499 0
-78 -4483 4484 0
-4484 4500 0
-79 -4484 4485 0
-4485 4501 0
-80 -4485 4486 0
-4486 4502 0
-81 -4486 4487 0
-4487 4503 0
-82 -4487 4488 0
-4488 4504 0
-83 -4488 0
-68 4489 0
-4489 4505 0
-69 -4489 4490 0
-4490 4506 0
-70 -4490 4491 0
-4491 4507 0
-71 -4491 4492 0
-4492 4508 0
-72 -4492 4493 0
-4493 4509 0
-73 -4493 4494 0
-4494 4510 0
-74 -4494 4495 0
-4495 4511 0
-75 -4495 4496 0
-4496 4512 0
-76 -4496 4497 0
-4497 4513 0
-77 -4497 4498 0
-4498 4514 0
-78 -4498 4499 0
-4499 4515 0
-79 -4499 4500 0
-4500 4516 0
-80 -4500 4501 0
-4501 4517 0
-81 -4501 4502 0
-4502 4518 0
-82 -4502 4503 0
-4503 4519 0
-83 -4503 4504 0
-4504 4520 0
-84 -4504 0
-69 4505 0
-4505 4521 0
-70 -4505 4506 0
-4506 4522 0
-71 -4506 4507 0
-4507 4523 0
-72 -4507 4508 0
-4508 4524 0
-73 -4508 4509 0
-4509 4525 0
-74 -4509 4510 0
-4510 4526 0
-75 -4510 4511 0
-4511 4527 0
-76 -4511 4512 0
-4512 4528 0
-77 -4512 4513 0
-4513 4529 0
-78 -4513 4514 0
-4514 4530 0
-79 -4514 4515 0
-4515 4531 0
-80 -4515 4516 0
-4516 4532 0
-81 -4516 4517 0
-4517 4533 0
-82 -4517 4518 0
-4518 4534 0
-83 -4518 4519 0
-4519 4535 0
-84 -4519 4520 0
-4520 4536 0
-85 -4520 0
-70 4521 0
-4521 4537 0
-71 -4521 4522 0
-4522 4538 0
-72 -4522 4523 0
-4523 4539 0
-73 -4523 4524 0
-4524 4540 0
-74 -4524 4525 0
-4525 4541 0
-75 -4525 4526 0
-4526 4542 0
-76 -4526 4527 0
-4527 4543 0
-77 -4527 4528 0
-4528 4544 0
-78 -4528 4529 0
-4529 4545 0
-79 -4529 4530 0
-4530 4546 0
-80 -4530 4531 0
-4531 4547 0
-81 -4531 4532 0
-4532 4548 0
-82 -4532 4533 0
-4533 4549 0
-83 -4533 4534 0
-4534 4550 0
-84 -4534 4535 0
-4535 4551 0
-85 -4535 4536 0
-4536 4552 0
-86 -4536 0
-71 4537 0
-4537 4553 0
-72 -4537 4538 0
-4538 4554 0
-73 -4538 4539 0
-4539 4555 0
-74 -4539 4540 0
-4540 4556 0
-75 -4540 4541 0
-4541 4557 0
-76 -4541 4542 0
-4542 4558 0
-77 -4542 4543 0
-4543 4559 0
-78 -4543 4544 0
-4544 4560 0
-79 -4544 4545 0
-4545 4561 0
-80 -4545 4546 0
-4546 4562 0
-81 -4546 4547 0
-4547 4563 0
-82 -4547 4548 0
-4548 4564 0
-83 -4548 4549 0
-4549 4565 0
-84 -4549 4550 0
-4550 4566 0
-85 -4550 4551 0
-4551 4567 0
-86 -4551 4552 0
-4552 4568 0
-87 -4552 0
-72 4553 0
-4553 4569 0
-73 -4553 4554 0
-4554 4570 0
-74 -4554 4555 0
-4555 4571 0
-75 -4555 4556 0
-4556 4572 0
-76 -4556 4557 0
-4557 4573 0
-77 -4557 4558 0
-4558 4574 0
-78 -4558 4559 0
-4559 4575 0
-79 -4559 4560 0
-4560 4576 0
-80 -4560 4561 0
-4561 4577 0
-81 -4561 4562 0
-4562 4578 0
-82 -4562 4563 0
-4563 4579 0
-83 -4563 4564 0
-4564 4580 0
-84 -4564 4565 0
-4565 4581 0
-85 -4565 4566 0
-4566 4582 0
-86 -4566 4567 0
-4567 4583 0
-87 -4567 4568 0
-4568 4584 0
-88 -4568 0
-73 4569 0
-4569 4585 0
-74 -4569 4570 0
-4570 4586 0
-75 -4570 4571 0
-4571 4587 0
-76 -4571 4572 0
-4572 4588 0
-77 -4572 4573 0
-4573 4589 0
-78 -4573 4574 0
-4574 4590 0
-79 -4574 4575 0
-4575 4591 0
-80 -4575 4576 0
-4576 4592 0
-81 -4576 4577 0
-4577 4593 0
-82 -4577 4578 0
-4578 4594 0
-83 -4578 4579 0
-4579 4595 0
-84 -4579 4580 0
-4580 4596 0
-85 -4580 4581 0
-4581 4597 0
-86 -4581 4582 0
-4582 4598 0
-87 -4582 4583 0
-4583 4599 0
-88 -4583 4584 0
-4584 4600 0
-89 -4584 0
-74 4585 0
-4585 4601 0
-75 -4585 4586 0
-4586 4602 0
-76 -4586 4587 0
-4587 4603 0
-77 -4587 4588 0
-4588 4604 0
-78 -4588 4589 0
-4589 4605 0
-79 -4589 4590 0
-4590 4606 0
-80 -4590 4591 0
-4591 4607 0
-81 -4591 4592 0
-4592 4608 0
-82 -4592 4593 0
-4593 4609 0
-83 -4593 4594 0
-4594 4610 0
-84 -4594 4595 0
-4595 4611 0
-85 -4595 4596 0
-4596 4612 0
-86 -4596 4597 0
-4597 4613 0
-87 -4597 4598 0
-4598 4614 0
-88 -4598 4599 0
-4599 4615 0
-89 -4599 4600 0
-4600 4616 0
-90 -4600 0
-75 4601 0
-4601 4617 0
-76 -4601 4602 0
-4602 4618 0
-77 -4602 4603 0
-4603 4619 0
-78 -4603 4604 0
-4604 4620 0
-79 -4604 4605 0
-4605 4621 0
-80 -4605 4606 0
-4606 4622 0
-81 -4606 4607 0
-4607 4623 0
-82 -4607 4608 0
-4608 4624 0
-83 -4608 4609 0
-4609 4625 0
-84 -4609 4610 0
-4610 4626 0
-85 -4610 4611 0
-4611 4627 0
-86 -4611 4612 0
-4612 4628 0
-87 -4612 4613 0
-4613 4629 0
-88 -4613 4614 0
-4614 4630 0
-89 -4614 4615 0
-4615 4631 0
-90 -4615 4616 0
-4616 4632 0
-91 -4616 0
-76 4617 0
-4617 4633 0
-77 -4617 4618 0
-4618 4634 0
-78 -4618 4619 0
-4619 4635 0
-79 -4619 4620 0
-4620 4636 0
-80 -4620 4621 0
-4621 4637 0
-81 -4621 4622 0
-4622 4638 0
-82 -4622 4623 0
-4623 4639 0
-83 -4623 4624 0
-4624 4640 0
-84 -4624 4625 0
-4625 4641 0
-85 -4625 4626 0
-4626 4642 0
-86 -4626 4627 0
-4627 4643 0
-87 -4627 4628 0
-4628 4644 0
-88 -4628 4629 0
-4629 4645 0
-89 -4629 4630 0
-4630 4646 0
-90 -4630 4631 0
-4631 4647 0
-91 -4631 4632 0
-4632 4648 0
-92 -4632 0
-77 4633 0
-4633 4649 0
-78 -4633 4634 0
-4634 4650 0
-79 -4634 4635 0
-4635 4651 0
-80 -4635 4636 0
-4636 4652 0
-81 -4636 4637 0
-4637 4653 0
-82 -4637 4638 0
-4638 4654 0
-83 -4638 4639 0
-4639 4655 0
-84 -4639 4640 0
-4640 4656 0
-85 -4640 4641 0
-4641 4657 0
-86 -4641 4642 0
-4642 4658 0
-87 -4642 4643 0
-4643 4659 0
-88 -4643 4644 0
-4644 4660 0
-89 -4644 4645 0
-4645 4661 0
-90 -4645 4646 0
-4646 4662 0
-91 -4646 4647 0
-4647 4663 0
-92 -4647 4648 0
-4648 4664 0
-93 -4648 0
-78 4649 0
-4649 4665 0
-79 -4649 4650 0
-4650 4666 0
-80 -4650 4651 0
-4651 4667 0
-81 -4651 4652 0
-4652 4668 0
-82 -4652 4653 0
-4653 4669 0
-83 -4653 4654 0
-4654 4670 0
-84 -4654 4655 0
-4655 4671 0
-85 -4655 4656 0
-4656 4672 0
-86 -4656 4657 0
-4657 4673 0
-87 -4657 4658 0
-4658 4674 0
-88 -4658 4659 0
-4659 4675 0
-89 -4659 4660 0
-4660 4676 0
-90 -4660 4661 0
-4661 4677 0
-91 -4661 4662 0
-4662 4678 0
-92 -4662 4663 0
-4663 4679 0
-93 -4663 4664 0
-4664 4680 0
-94 -4664 0
-79 4665 0
-4665 4681 0
-80 -4665 4666 0
-4666 4682 0
-81 -4666 4667 0
-4667 4683 0
-82 -4667 4668 0
-4668 4684 0
-83 -4668 4669 0
-4669 4685 0
-84 -4669 4670 0
-4670 4686 0
-85 -4670 4671 0
-4671 4687 0
-86 -4671 4672 0
-4672 4688 0
-87 -4672 4673 0
-4673 4689 0
-88 -4673 4674 0
-4674 4690 0
-89 -4674 4675 0
-4675 4691 0
-90 -4675 4676 0
-4676 4692 0
-91 -4676 4677 0
-4677 4693 0
-92 -4677 4678 0
-4678 4694 0
-93 -4678 4679 0
-4679 4695 0
-94 -4679 4680 0
-4680 4696 0
-95 -4680 0
-80 4681 0
-4681 4697 0
-81 -4681 4682 0
-4682 4698 0
-82 -4682 4683 0
-4683 4699 0
-83 -4683 4684 0
-4684 4700 0
-84 -4684 4685 0
-4685 4701 0
-85 -4685 4686 0
-4686 4702 0
-86 -4686 4687 0
-4687 4703 0
-87 -4687 4688 0
-4688 4704 0
-88 -4688 4689 0
-4689 4705 0
-89 -4689 4690 0
-4690 4706 0
-90 -4690 4691 0
-4691 4707 0
-91 -4691 4692 0
-4692 4708 0
-92 -4692 4693 0
-4693 4709 0
-93 -4693 4694 0
-4694 4710 0
-94 -4694 4695 0
-4695 4711 0
-95 -4695 4696 0
-4696 4712 0
-96 -4696 0
-81 4697 0
-4697 4713 0
-82 -4697 4698 0
-4698 4714 0
-83 -4698 4699 0
-4699 4715 0
-84 -4699 4700 0
-4700 4716 0
-85 -4700 4701 0
-4701 4717 0
-86 -4701 4702 0
-4702 4718 0
-87 -4702 4703 0
-4703 4719 0
-88 -4703 4704 0
-4704 4720 0
-89 -4704 4705 0
-4705 4721 0
-90 -4705 4706 0
-4706 4722 0
-91 -4706 4707 0
-4707 4723 0
-92 -4707 4708 0
-4708 4724 0
-93 -4708 4709 0
-4709 4725 0
-94 -4709 4710 0
-4710 4726 0
-95 -4710 4711 0
-4711 4727 0
-96 -4711 4712 0
-4712 4728 0
-97 -4712 0
-82 4713 0
-4713 4729 0
-83 -4713 4714 0
-4714 4730 0
-84 -4714 4715 0
-4715 4731 0
-85 -4715 4716 0
-4716 4732 0
-86 -4716 4717 0
-4717 4733 0
-87 -4717 4718 0
-4718 4734 0
-88 -4718 4719 0
-4719 4735 0
-89 -4719 4720 0
-4720 4736 0
-90 -4720 4721 0
-4721 4737 0
-91 -4721 4722 0
-4722 4738 0
-92 -4722 4723 0
-4723 4739 0
-93 -4723 4724 0
-4724 4740 0
-94 -4724 4725 0
-4725 4741 0
-95 -4725 4726 0
-4726 4742 0
-96 -4726 4727 0
-4727 4743 0
-97 -4727 4728 0
-4728 4744 0
-98 -4728 0
-83 4729 0
-4729 4745 0
-84 -4729 4730 0
-4730 4746 0
-85 -4730 4731 0
-4731 4747 0
-86 -4731 4732 0
-4732 4748 0
-87 -4732 4733 0
-4733 4749 0
-88 -4733 4734 0
-4734 4750 0
-89 -4734 4735 0
-4735 4751 0
-90 -4735 4736 0
-4736 4752 0
-91 -4736 4737 0
-4737 4753 0
-92 -4737 4738 0
-4738 4754 0
-93 -4738 4739 0
-4739 4755 0
-94 -4739 4740 0
-4740 4756 0
-95 -4740 4741 0
-4741 4757 0
-96 -4741 4742 0
-4742 4758 0
-97 -4742 4743 0
-4743 4759 0
-98 -4743 4744 0
-4744 4760 0
-99 -4744 0
-84 4745 0
-4745 4761 0
-85 -4745 4746 0
-4746 4762 0
-86 -4746 4747 0
-4747 4763 0
-87 -4747 4748 0
-4748 4764 0
-88 -4748 4749 0
-4749 4765 0
-89 -4749 4750 0
-4750 4766 0
-90 -4750 4751 0
-4751 4767 0
-91 -4751 4752 0
-4752 4768 0
-92 -4752 4753 0
-4753 4769 0
-93 -4753 4754 0
-4754 4770 0
-94 -4754 4755 0
-4755 4771 0
-95 -4755 4756 0
-4756 4772 0
-96 -4756 4757 0
-4757 4773 0
-97 -4757 4758 0
-4758 4774 0
-98 -4758 4759 0
-4759 4775 0
-99 -4759 4760 0
-4760 4776 0
-100 -4760 0
-85 4761 0
-4761 4777 0
-86 -4761 4762 0
-4762 4778 0
-87 -4762 4763 0
-4763 4779 0
-88 -4763 4764 0
-4764 4780 0
-89 -4764 4765 0
-4765 4781 0
-90 -4765 4766 0
-4766 4782 0
-91 -4766 4767 0
-4767 4783 0
-92 -4767 4768 0
-4768 4784 0
-93 -4768 4769 0
-4769 4785 0
-94 -4769 4770 0
-4770 4786 0
-95 -4770 4771 0
-4771 4787 0
-96 -4771 4772 0
-4772 4788 0
-97 -4772 4773 0
-4773 4789 0
-98 -4773 4774 0
-4774 4790 0
-99 -4774 4775 0
-4775 4791 0
-100 -4775 4776 0
-4776 4792 0
-101 -4776 0
-86 4777 0
-4777 4793 0
-87 -4777 4778 0
-4778 4794 0
-88 -4778 4779 0
-4779 4795 0
-89 -4779 4780 0
-4780 4796 0
-90 -4780 4781 0
-4781 4797 0
-91 -4781 4782 0
-4782 4798 0
-92 -4782 4783 0
-4783 4799 0
-93 -4783 4784 0
-4784 4800 0
-94 -4784 4785 0
-4785 4801 0
-95 -4785 4786 0
-4786 4802 0
-96 -4786 4787 0
-4787 4803 0
-97 -4787 4788 0
-4788 4804 0
-98 -4788 4789 0
-4789 4805 0
-99 -4789 4790 0
-4790 4806 0
-100 -4790 4791 0
-4791 4807 0
-101 -4791 4792 0
-4792 4808 0
-102 -4792 0
-87 4793 0
-4793 4809 0
-88 -4793 4794 0
-4794 4810 0
-89 -4794 4795 0
-4795 4811 0
-90 -4795 4796 0
-4796 4812 0
-91 -4796 4797 0
-4797 4813 0
-92 -4797 4798 0
-4798 4814 0
-93 -4798 4799 0
-4799 4815 0
-94 -4799 4800 0
-4800 4816 0
-95 -4800 4801 0
-4801 4817 0
-96 -4801 4802 0
-4802 4818 0
-97 -4802 4803 0
-4803 4819 0
-98 -4803 4804 0
-4804 4820 0
-99 -4804 4805 0
-4805 4821 0
-100 -4805 4806 0
-4806 4822 0
-101 -4806 4807 0
-4807 4823 0
-102 -4807 4808 0
-4808 4824 0
-103 -4808 0
-88 4809 0
-4809 4825 0
-89 -4809 4810 0
-4810 4826 0
-90 -4810 4811 0
-4811 4827 0
-91 -4811 4812 0
-4812 4828 0
-92 -4812 4813 0
-4813 4829 0
-93 -4813 4814 0
-4814 4830 0
-94 -4814 4815 0
-4815 4831 0
-95 -4815 4816 0
-4816 4832 0
-96 -4816 4817 0
-4817 4833 0
-97 -4817 4818 0
-4818 4834 0
-98 -4818 4819 0
-4819 4835 0
-99 -4819 4820 0
-4820 4836 0
-100 -4820 4821 0
-4821 4837 0
-101 -4821 4822 0
-4822 4838 0
-102 -4822 4823 0
-4823 4839 0
-103 -4823 4824 0
-4824 4840 0
-104 -4824 0
-89 4825 0
-4825 4841 0
-90 -4825 4826 0
-4826 4842 0
-91 -4826 4827 0
-4827 4843 0
-92 -4827 4828 0
-4828 4844 0
-93 -4828 4829 0
-4829 4845 0
-94 -4829 4830 0
-4830 4846 0
-95 -4830 4831 0
-4831 4847 0
-96 -4831 4832 0
-4832 4848 0
-97 -4832 4833 0
-4833 4849 0
-98 -4833 4834 0
-4834 4850 0
-99 -4834 4835 0
-4835 4851 0
-100 -4835 4836 0
-4836 4852 0
-101 -4836 4837 0
-4837 4853 0
-102 -4837 4838 0
-4838 4854 0
-103 -4838 4839 0
-4839 4855 0
-104 -4839 4840 0
-4840 4856 0
-105 -4840 0
-90 4841 0
-4841 4857 0
-91 -4841 4842 0
-4842 4858 0
-92 -4842 4843 0
-4843 4859 0
-93 -4843 4844 0
-4844 4860 0
-94 -4844 4845 0
-4845 4861 0
-95 -4845 4846 0
-4846 4862 0
-96 -4846 4847 0
-4847 4863 0
-97 -4847 4848 0
-4848 4864 0
-98 -4848 4849 0
-4849 4865 0
-99 -4849 4850 0
-4850 4866 0
-100 -4850 4851 0
-4851 4867 0
-101 -4851 4852 0
-4852 4868 0
-102 -4852 4853 0
-4853 4869 0
-103 -4853 4854 0
-4854 4870 0
-104 -4854 4855 0
-4855 4871 0
-105 -4855 4856 0
-4856 4872 0
-106 -4856 0
-91 4857 0
-4857 4873 0
-92 -4857 4858 0
-4858 4874 0
-93 -4858 4859 0
-4859 4875 0
-94 -4859 4860 0
-4860 4876 0
-95 -4860 4861 0
-4861 4877 0
-96 -4861 4862 0
-4862 4878 0
-97 -4862 4863 0
-4863 4879 0
-98 -4863 4864 0
-4864 4880 0
-99 -4864 4865 0
-4865 4881 0
-100 -4865 4866 0
-4866 4882 0
-101 -4866 4867 0
-4867 4883 0
-102 -4867 4868 0
-4868 4884 0
-103 -4868 4869 0
-4869 4885 0
-104 -4869 4870 0
-4870 4886 0
-105 -4870 4871 0
-4871 4887 0
-106 -4871 4872 0
-4872 4888 0
-107 -4872 0
-92 4873 0
-4873 4889 0
-93 -4873 4874 0
-4874 4890 0
-94 -4874 4875 0
-4875 4891 0
-95 -4875 4876 0
-4876 4892 0
-96 -4876 4877 0
-4877 4893 0
-97 -4877 4878 0
-4878 4894 0
-98 -4878 4879 0
-4879 4895 0
-99 -4879 4880 0
-4880 4896 0
-100 -4880 4881 0
-4881 4897 0
-101 -4881 4882 0
-4882 4898 0
-102 -4882 4883 0
-4883 4899 0
-103 -4883 4884 0
-4884 4900 0
-104 -4884 4885 0
-4885 4901 0
-105 -4885 4886 0
-4886 4902 0
-106 -4886 4887 0
-4887 4903 0
-107 -4887 4888 0
-4888 4904 0
-108 -4888 0
-93 4889 0
-4889 4905 0
-94 -4889 4890 0
-4890 4906 0
-95 -4890 4891 0
-4891 4907 0
-96 -4891 4892 0
-4892 4908 0
-97 -4892 4893 0
-4893 4909 0
-98 -4893 4894 0
-4894 4910 0
-99 -4894 4895 0
-4895 4911 0
-100 -4895 4896 0
-4896 4912 0
-101 -4896 4897 0
-4897 4913 0
-102 -4897 4898 0
-4898 4914 0
-103 -4898 4899 0
-4899 4915 0
-104 -4899 4900 0
-4900 4916 0
-105 -4900 4901 0
-4901 4917 0
-106 -4901 4902 0
-4902 4918 0
-107 -4902 4903 0
-4903 4919 0
-108 -4903 4904 0
-4904 4920 0
-109 -4904 0
-94 4905 0
-4905 4921 0
-95 -4905 4906 0
-4906 4922 0
-96 -4906 4907 0
-4907 4923 0
-97 -4907 4908 0
-4908 4924 0
-98 -4908 4909 0
-4909 4925 0
-99 -4909 4910 0
-4910 4926 0
-100 -4910 4911 0
-4911 4927 0
-101 -4911 4912 0
-4912 4928 0
-102 -4912 4913 0
-4913 4929 0
-103 -4913 4914 0
-4914 4930 0
-104 -4914 4915 0
-4915 4931 0
-105 -4915 4916 0
-4916 4932 0
-106 -4916 4917 0
-4917 4933 0
-107 -4917 4918 0
-4918 4934 0
-108 -4918 4919 0
-4919 4935 0
-109 -4919 4920 0
-4920 4936 0
-110 -4920 0
-95 4921 0
-4921 4937 0
-96 -4921 4922 0
-4922 4938 0
-97 -4922 4923 0
-4923 4939 0
-98 -4923 4924 0
-4924 4940 0
-99 -4924 4925 0
-4925 4941 0
-100 -4925 4926 0
-4926 4942 0
-101 -4926 4927 0
-4927 4943 0
-102 -4927 4928 0
-4928 4944 0
-103 -4928 4929 0
-4929 4945 0
-104 -4929 4930 0
-4930 4946 0
-105 -4930 4931 0
-4931 4947 0
-106 -4931 4932 0
-4932 4948 0
-107 -4932 4933 0
-4933 4949 0
-108 -4933 4934 0
-4934 4950 0
-109 -4934 4935 0
-4935 4951 0
-110 -4935 4936 0
-4936 4952 0
-111 -4936 0
-96 4937 0
-4937 4953 0
-97 -4937 4938 0
-4938 4954 0
-98 -4938 4939 0
-4939 4955 0
-99 -4939 4940 0
-4940 4956 0
-100 -4940 4941 0
-4941 4957 0
-101 -4941 4942 0
-4942 4958 0
-102 -4942 4943 0
-4943 4959 0
-103 -4943 4944 0
-4944 4960 0
-104 -4944 4945 0
-4945 4961 0
-105 -4945 4946 0
-4946 4962 0
-106 -4946 4947 0
-4947 4963 0
-107 -4947 4948 0
-4948 4964 0
-108 -4948 4949 0
-4949 4965 0
-109 -4949 4950 0
-4950 4966 0
-110 -4950 4951 0
-4951 4967 0
-111 -4951 4952 0
-4952 4968 0
-112 -4952 0
-97 4953 0
-4953 4969 0
-98 -4953 4954 0
-4954 4970 0
-99 -4954 4955 0
-4955 4971 0
-100 -4955 4956 0
-4956 4972 0
-101 -4956 4957 0
-4957 4973 0
-102 -4957 4958 0
-4958 4974 0
-103 -4958 4959 0
-4959 4975 0
-104 -4959 4960 0
-4960 4976 0
-105 -4960 4961 0
-4961 4977 0
-106 -4961 4962 0
-4962 4978 0
-107 -4962 4963 0
-4963 4979 0
-108 -4963 4964 0
-4964 4980 0
-109 -4964 4965 0
-4965 4981 0
-110 -4965 4966 0
-4966 4982 0
-111 -4966 4967 0
-4967 4983 0
-112 -4967 4968 0
-4968 4984 0
-113 -4968 0
-98 4969 0
-4969 4985 0
-99 -4969 4970 0
-4970 4986 0
-100 -4970 4971 0
-4971 4987 0
-101 -4971 4972 0
-4972 4988 0
-102 -4972 4973 0
-4973 4989 0
-103 -4973 4974 0
-4974 4990 0
-104 -4974 4975 0
-4975 4991 0
-105 -4975 4976 0
-4976 4992 0
-106 -4976 4977 0
-4977 4993 0
-107 -4977 4978 0
-4978 4994 0
-108 -4978 4979 0
-4979 4995 0
-109 -4979 4980 0
-4980 4996 0
-110 -4980 4981 0
-4981 4997 0
-111 -4981 4982 0
-4982 4998 0
-112 -4982 4983 0
-4983 4999 0
-113 -4983 4984 0
-4984 5000 0
-114 -4984 0
-99 4985 0
-4985 5001 0
-100 -4985 4986 0
-4986 5002 0
-101 -4986 4987 0
-4987 5003 0
-102 -4987 4988 0
-4988 5004 0
-103 -4988 4989 0
-4989 5005 0
-104 -4989 4990 0
-4990 5006 0
-105 -4990 4991 0
-4991 5007 0
-106 -4991 4992 0
-4992 5008 0
-107 -4992 4993 0
-4993 5009 0
-108 -4993 4994 0
-4994 5010 0
-109 -4994 4995 0
-4995 5011 0
-110 -4995 4996 0
-4996 5012 0
-111 -4996 4997 0
-4997 5013 0
-112 -4997 4998 0
-4998 5014 0
-113 -4998 4999 0
-4999 5015 0
-114 -4999 5000 0
-5000 5016 0
-115 -5000 0
-100 5001 0
-5001 5017 0
-101 -5001 5002 0
-5002 5018 0
-102 -5002 5003 0
-5003 5019 0
-103 -5003 5004 0
-5004 5020 0
-104 -5004 5005 0
-5005 5021 0
-105 -5005 5006 0
-5006 5022 0
-106 -5006 5007 0
-5007 5023 0
-107 -5007 5008 0
-5008 5024 0
-108 -5008 5009 0
-5009 5025 0
-109 -5009 5010 0
-5010 5026 0
-110 -5010 5011 0
-5011 5027 0
-111 -5011 5012 0
-5012 5028 0
-112 -5012 5013 0
-5013 5029 0
-113 -5013 5014 0
-5014 5030 0
-114 -5014 5015 0
-5015 5031 0
-115 -5015 5016 0
-5016 5032 0
-116 -5016 0
-101 5017 0
-5017 5033 0
-102 -5017 5018 0
-5018 5034 0
-103 -5018 5019 0
-5019 5035 0
-104 -5019 5020 0
-5020 5036 0
-105 -5020 5021 0
-5021 5037 0
-106 -5021 5022 0
-5022 5038 0
-107 -5022 5023 0
-5023 5039 0
-108 -5023 5024 0
-5024 5040 0
-109 -5024 5025 0
-5025 5041 0
-110 -5025 5026 0
-5026 5042 0
-111 -5026 5027 0
-5027 5043 0
-112 -5027 5028 0
-5028 5044 0
-113 -5028 5029 0
-5029 5045 0
-114 -5029 5030 0
-5030 5046 0
-115 -5030 5031 0
-5031 5047 0
-116 -5031 5032 0
-5032 5048 0
-117 -5032 0
-102 5033 0
-5033 5049 0
-103 -5033 5034 0
-5034 5050 0
-104 -5034 5035 0
-5035 5051 0
-105 -5035 5036 0
-5036 5052 0
-106 -5036 5037 0
-5037 5053 0
-107 -5037 5038 0
-5038 5054 0
-108 -5038 5039 0
-5039 5055 0
-109 -5039 5040 0
-5040 5056 0
-110 -5040 5041 0
-5041 5057 0
-111 -5041 5042 0
-5042 5058 0
-112 -5042 5043 0
-5043 5059 0
-113 -5043 5044 0
-5044 5060 0
-114 -5044 5045 0
-5045 5061 0
-115 -5045 5046 0
-5046 5062 0
-116 -5046 5047 0
-5047 5063 0
-117 -5047 5048 0
-5048 5064 0
-118 -5048 0
-103 5049 0
-5049 5065 0
-104 -5049 5050 0
-5050 5066 0
-105 -5050 5051 0
-5051 5067 0
-106 -5051 5052 0
-5052 5068 0
-107 -5052 5053 0
-5053 5069 0
-108 -5053 5054 0
-5054 5070 0
-109 -5054 5055 0
-5055 5071 0
-110 -5055 5056 0
-5056 5072 0
-111 -5056 5057 0
-5057 5073 0
-112 -5057 5058 0
-5058 5074 0
-113 -5058 5059 0
-5059 5075 0
-114 -5059 5060 0
-5060 5076 0
-115 -5060 5061 0
-5061 5077 0
-116 -5061 5062 0
-5062 5078 0
-117 -5062 5063 0
-5063 5079 0
-118 -5063 5064 0
-5064 5080 0
-119 -5064 0
-104 5065 0
-5065 5081 0
-105 -5065 5066 0
-5066 5082 0
-106 -5066 5067 0
-5067 5083 0
-107 -5067 5068 0
-5068 5084 0
-108 -5068 5069 0
-5069 5085 0
-109 -5069 5070 0
-5070 5086 0
-110 -5070 5071 0
-5071 5087 0
-111 -5071 5072 0
-5072 5088 0
-112 -5072 5073 0
-5073 5089 0
-113 -5073 5074 0
-5074 5090 0
-114 -5074 5075 0
-5075 5091 0
-115 -5075 5076 0
-5076 5092 0
-116 -5076 5077 0
-5077 5093 0
-117 -5077 5078 0
-5078 5094 0
-118 -5078 5079 0
-5079 5095 0
-119 -5079 5080 0
-5080 5096 0
-120 -5080 0
-105 5081 0
-5081 5097 0
-106 -5081 5082 0
-5082 5098 0
-107 -5082 5083 0
-5083 5099 0
-108 -5083 5084 0
-5084 5100 0
-109 -5084 5085 0
-5085 5101 0
-110 -5085 5086 0
-5086 5102 0
-111 -5086 5087 0
-5087 5103 0
-112 -5087 5088 0
-5088 5104 0
-113 -5088 5089 0
-5089 5105 0
-114 -5089 5090 0
-5090 5106 0
-115 -5090 5091 0
-5091 5107 0
-116 -5091 5092 0
-5092 5108 0
-117 -5092 5093 0
-5093 5109 0
-118 -5093 5094 0
-5094 5110 0
-119 -5094 5095 0
-5095 5111 0
-120 -5095 5096 0
-5096 5112 0
-121 -5096 0
-106 5097 0
-5097 5113 0
-107 -5097 5098 0
-5098 5114 0
-108 -5098 5099 0
-5099 5115 0
-109 -5099 5100 0
-5100 5116 0
-110 -5100 5101 0
-5101 5117 0
-111 -5101 5102 0
-5102 5118 0
-112 -5102 5103 0
-5103 5119 0
-113 -5103 5104 0
-5104 5120 0
-114 -5104 5105 0
-5105 5121 0
-115 -5105 5106 0
-5106 5122 0
-116 -5106 5107 0
-5107 5123 0
-117 -5107 5108 0
-5108 5124 0
-118 -5108 5109 0
-5109 5125 0
-119 -5109 5110 0
-5110 5126 0
-120 -5110 5111 0
-5111 5127 0
-121 -5111 5112 0
-5112 5128 0
-122 -5112 0
-107 5113 0
-5113 5129 0
-108 -5113 5114 0
-5114 5130 0
-109 -5114 5115 0
-5115 5131 0
-110 -5115 5116 0
-5116 5132 0
-111 -5116 5117 0
-5117 5133 0
-112 -5117 5118 0
-5118 5134 0
-113 -5118 5119 0
-5119 5135 0
-114 -5119 5120 0
-5120 5136 0
-115 -5120 5121 0
-5121 5137 0
-116 -5121 5122 0
-5122 5138 0
-117 -5122 5123 0
-5123 5139 0
-118 -5123 5124 0
-5124 5140 0
-119 -5124 5125 0
-5125 5141 0
-120 -5125 5126 0
-5126 5142 0
-121 -5126 5127 0
-5127 5143 0
-122 -5127 5128 0
-5128 5144 0
-123 -5128 0
-108 5129 0
-5129 5145 0
-109 -5129 5130 0
-5130 5146 0
-110 -5130 5131 0
-5131 5147 0
-111 -5131 5132 0
-5132 5148 0
-112 -5132 5133 0
-5133 5149 0
-113 -5133 5134 0
-5134 5150 0
-114 -5134 5135 0
-5135 5151 0
-115 -5135 5136 0
-5136 5152 0
-116 -5136 5137 0
-5137 5153 0
-117 -5137 5138 0
-5138 5154 0
-118 -5138 5139 0
-5139 5155 0
-119 -5139 5140 0
-5140 5156 0
-120 -5140 5141 0
-5141 5157 0
-121 -5141 5142 0
-5142 5158 0
-122 -5142 5143 0
-5143 5159 0
-123 -5143 5144 0
-5144 5160 0
-124 -5144 0
-109 5145 0
-5145 5161 0
-110 -5145 5146 0
-5146 5162 0
-111 -5146 5147 0
-5147 5163 0
-112 -5147 5148 0
-5148 5164 0
-113 -5148 5149 0
-5149 5165 0
-114 -5149 5150 0
-5150 5166 0
-115 -5150 5151 0
-5151 5167 0
-116 -5151 5152 0
-5152 5168 0
-117 -5152 5153 0
-5153 5169 0
-118 -5153 5154 0
-5154 5170 0
-119 -5154 5155 0
-5155 5171 0
-120 -5155 5156 0
-5156 5172 0
-121 -5156 5157 0
-5157 5173 0
-122 -5157 5158 0
-5158 5174 0
-123 -5158 5159 0
-5159 5175 0
-124 -5159 5160 0
-5160 5176 0
-125 -5160 0
-110 5161 0
-5161 5177 0
-111 -5161 5162 0
-5162 5178 0
-112 -5162 5163 0
-5163 5179 0
-113 -5163 5164 0
-5164 5180 0
-114 -5164 5165 0
-5165 5181 0
-115 -5165 5166 0
-5166 5182 0
-116 -5166 5167 0
-5167 5183 0
-117 -5167 5168 0
-5168 5184 0
-118 -5168 5169 0
-5169 5185 0
-119 -5169 5170 0
-5170 5186 0
-120 -5170 5171 0
-5171 5187 0
-121 -5171 5172 0
-5172 5188 0
-122 -5172 5173 0
-5173 5189 0
-123 -5173 5174 0
-5174 5190 0
-124 -5174 5175 0
-5175 5191 0
-125 -5175 5176 0
-5176 5192 0
-126 -5176 0
-111 5177 0
-5177 5193 0
-112 -5177 5178 0
-5178 5194 0
-113 -5178 5179 0
-5179 5195 0
-114 -5179 5180 0
-5180 5196 0
-115 -5180 5181 0
-5181 5197 0
-116 -5181 5182 0
-5182 5198 0
-117 -5182 5183 0
-5183 5199 0
-118 -5183 5184 0
-5184 5200 0
-119 -5184 5185 0
-5185 5201 0
-120 -5185 5186 0
-5186 5202 0
-121 -5186 5187 0
-5187 5203 0
-122 -5187 5188 0
-5188 5204 0
-123 -5188 5189 0
-5189 5205 0
-124 -5189 5190 0
-5190 5206 0
-125 -5190 5191 0
-5191 5207 0
-126 -5191 5192 0
-5192 5208 0
-127 -5192 0
-112 5193 0
-5193 5209 0
-113 -5193 5194 0
-5194 5210 0
-114 -5194 5195 0
-5195 5211 0
-115 -5195 5196 0
-5196 5212 0
-116 -5196 5197 0
-5197 5213 0
-117 -5197 5198 0
-5198 5214 0
-118 -5198 5199 0
-5199 5215 0
-119 -5199 5200 0
-5200 5216 0
-120 -5200 5201 0
-5201 5217 0
-121 -5201 5202 0
-5202 5218 0
-122 -5202 5203 0
-5203 5219 0
-123 -5203 5204 0
-5204 5220 0
-124 -5204 5205 0
-5205 5221 0
-125 -5205 5206 0
-5206 5222 0
-126 -5206 5207 0
-5207 5223 0
-127 -5207 5208 0
-5208 5224 0
-128 -5208 0
-113 5209 0
-5209 5225 0
-114 -5209 5210 0
-5210 5226 0
-115 -5210 5211 0
-5211 5227 0
-116 -5211 5212 0
-5212 5228 0
-117 -5212 5213 0
-5213 5229 0
-118 -5213 5214 0
-5214 5230 0
-119 -5214 5215 0
-5215 5231 0
-120 -5215 5216 0
-5216 5232 0
-121 -5216 5217 0
-5217 5233 0
-122 -5217 5218 0
-5218 5234 0
-123 -5218 5219 0
-5219 5235 0
-124 -5219 5220 0
-5220 5236 0
-125 -5220 5221 0
-5221 5237 0
-126 -5221 5222 0
-5222 5238 0
-127 -5222 5223 0
-5223 5239 0
-128 -5223 5224 0
-5224 5240 0
-129 -5224 0
-114 5225 0
-5225 5241 0
-115 -5225 5226 0
-5226 5242 0
-116 -5226 5227 0
-5227 5243 0
-117 -5227 5228 0
-5228 5244 0
-118 -5228 5229 0
-5229 5245 0
-119 -5229 5230 0
-5230 5246 0
-120 -5230 5231 0
-5231 5247 0
-121 -5231 5232 0
-5232 5248 0
-122 -5232 5233 0
-5233 5249 0
-123 -5233 5234 0
-5234 5250 0
-124 -5234 5235 0
-5235 5251 0
-125 -5235 5236 0
-5236 5252 0
-126 -5236 5237 0
-5237 5253 0
-127 -5237 5238 0
-5238 5254 0
-128 -5238 5239 0
-5239 5255 0
-129 -5239 5240 0
-5240 5256 0
-130 -5240 0
-115 5241 0
-5241 5257 0
-116 -5241 5242 0
-5242 5258 0
-117 -5242 5243 0
-5243 5259 0
-118 -5243 5244 0
-5244 5260 0
-119 -5244 5245 0
-5245 5261 0
-120 -5245 5246 0
-5246 5262 0
-121 -5246 5247 0
-5247 5263 0
-122 -5247 5248 0
-5248 5264 0
-123 -5248 5249 0
-5249 5265 0
-124 -5249 5250 0
-5250 5266 0
-125 -5250 5251 0
-5251 5267 0
-126 -5251 5252 0
-5252 5268 0
-127 -5252 5253 0
-5253 5269 0
-128 -5253 5254 0
-5254 5270 0
-129 -5254 5255 0
-5255 5271 0
-130 -5255 5256 0
-5256 5272 0
-131 -5256 0
-116 5257 0
-5257 5273 0
-117 -5257 5258 0
-5258 5274 0
-118 -5258 5259 0
-5259 5275 0
-119 -5259 5260 0
-5260 5276 0
-120 -5260 5261 0
-5261 5277 0
-121 -5261 5262 0
-5262 5278 0
-122 -5262 5263 0
-5263 5279 0
-123 -5263 5264 0
-5264 5280 0
-124 -5264 5265 0
-5265 5281 0
-125 -5265 5266 0
-5266 5282 0
-126 -5266 5267 0
-5267 5283 0
-127 -5267 5268 0
-5268 5284 0
-128 -5268 5269 0
-5269 5285 0
-129 -5269 5270 0
-5270 5286 0
-130 -5270 5271 0
-5271 5287 0
-131 -5271 5272 0
-5272 5288 0
-132 -5272 0
-117 5273 0
-5273 5289 0
-118 -5273 5274 0
-5274 5290 0
-119 -5274 5275 0
-5275 5291 0
-120 -5275 5276 0
-5276 5292 0
-121 -5276 5277 0
-5277 5293 0
-122 -5277 5278 0
-5278 5294 0
-123 -5278 5279 0
-5279 5295 0
-124 -5279 5280 0
-5280 5296 0
-125 -5280 5281 0
-5281 5297 0
-126 -5281 5282 0
-5282 5298 0
-127 -5282 5283 0
-5283 5299 0
-128 -5283 5284 0
-5284 5300 0
-129 -5284 5285 0
-5285 5301 0
-130 -5285 5286 0
-5286 5302 0
-131 -5286 5287 0
-5287 5303 0
-132 -5287 5288 0
-5288 5304 0
-133 -5288 0
-118 5289 0
-5289 5305 0
-119 -5289 5290 0
-5290 5306 0
-120 -5290 5291 0
-5291 5307 0
-121 -5291 5292 0
-5292 5308 0
-122 -5292 5293 0
-5293 5309 0
-123 -5293 5294 0
-5294 5310 0
-124 -5294 5295 0
-5295 5311 0
-125 -5295 5296 0
-5296 5312 0
-126 -5296 5297 0
-5297 5313 0
-127 -5297 5298 0
-5298 5314 0
-128 -5298 5299 0
-5299 5315 0
-129 -5299 5300 0
-5300 5316 0
-130 -5300 5301 0
-5301 5317 0
-131 -5301 5302 0
-5302 5318 0
-132 -5302 5303 0
-5303 5319 0
-133 -5303 5304 0
-5304 5320 0
-134 -5304 0
-119 5305 0
-5305 5321 0
-120 -5305 5306 0
-5306 5322 0
-121 -5306 5307 0
-5307 5323 0
-122 -5307 5308 0
-5308 5324 0
-123 -5308 5309 0
-5309 5325 0
-124 -5309 5310 0
-5310 5326 0
-125 -5310 5311 0
-5311 5327 0
-126 -5311 5312 0
-5312 5328 0
-127 -5312 5313 0
-5313 5329 0
-128 -5313 5314 0
-5314 5330 0
-129 -5314 5315 0
-5315 5331 0
-130 -5315 5316 0
-5316 5332 0
-131 -5316 5317 0
-5317 5333 0
-132 -5317 5318 0
-5318 5334 0
-133 -5318 5319 0
-5319 5335 0
-134 -5319 5320 0
-5320 5336 0
-135 -5320 0
-120 5321 0
-5321 5337 0
-121 -5321 5322 0
-5322 5338 0
-122 -5322 5323 0
-5323 5339 0
-123 -5323 5324 0
-5324 5340 0
-124 -5324 5325 0
-5325 5341 0
-125 -5325 5326 0
-5326 5342 0
-126 -5326 5327 0
-5327 5343 0
-127 -5327 5328 0
-5328 5344 0
-128 -5328 5329 0
-5329 5345 0
-129 -5329 5330 0
-5330 5346 0
-130 -5330 5331 0
-5331 5347 0
-131 -5331 5332 0
-5332 5348 0
-132 -5332 5333 0
-5333 5349 0
-133 -5333 5334 0
-5334 5350 0
-134 -5334 5335 0
-5335 5351 0
-135 -5335 5336 0
-5336 5352 0
-136 -5336 0
-121 5337 0
-5337 5353 0
-122 -5337 5338 0
-5338 5354 0
-123 -5338 5339 0
-5339 5355 0
-124 -5339 5340 0
-5340 5356 0
-125 -5340 5341 0
-5341 5357 0
-126 -5341 5342 0
-5342 5358 0
-127 -5342 5343 0
-5343 5359 0
-128 -5343 5344 0
-5344 5360 0
-129 -5344 5345 0
-5345 5361 0
-130 -5345 5346 0
-5346 5362 0
-131 -5346 5347 0
-5347 5363 0
-132 -5347 5348 0
-5348 5364 0
-133 -5348 5349 0
-5349 5365 0
-134 -5349 5350 0
-5350 5366 0
-135 -5350 5351 0
-5351 5367 0
-136 -5351 5352 0
-5352 5368 0
-137 -5352 0
-122 5353 0
-5353 5369 0
-123 -5353 5354 0
-5354 5370 0
-124 -5354 5355 0
-5355 5371 0
-125 -5355 5356 0
-5356 5372 0
-126 -5356 5357 0
-5357 5373 0
-127 -5357 5358 0
-5358 5374 0
-128 -5358 5359 0
-5359 5375 0
-129 -5359 5360 0
-5360 5376 0
-130 -5360 5361 0
-5361 5377 0
-131 -5361 5362 0
-5362 5378 0
-132 -5362 5363 0
-5363 5379 0
-133 -5363 5364 0
-5364 5380 0
-134 -5364 5365 0
-5365 5381 0
-135 -5365 5366 0
-5366 5382 0
-136 -5366 5367 0
-5367 5383 0
-137 -5367 5368 0
-5368 5384 0
-138 -5368 0
-123 5369 0
-5369 5385 0
-124 -5369 5370 0
-5370 5386 0
-125 -5370 5371 0
-5371 5387 0
-126 -5371 5372 0
-5372 5388 0
-127 -5372 5373 0
-5373 5389 0
-128 -5373 5374 0
-5374 5390 0
-129 -5374 5375 0
-5375 5391 0
-130 -5375 5376 0
-5376 5392 0
-131 -5376 5377 0
-5377 5393 0
-132 -5377 5378 0
-5378 5394 0
-133 -5378 5379 0
-5379 5395 0
-134 -5379 5380 0
-5380 5396 0
-135 -5380 5381 0
-5381 5397 0
-136 -5381 5382 0
-5382 5398 0
-137 -5382 5383 0
-5383 5399 0
-138 -5383 5384 0
-5384 5400 0
-139 -5384 0
-124 5385 0
-5385 5401 0
-125 -5385 5386 0
-5386 5402 0
-126 -5386 5387 0
-5387 5403 0
-127 -5387 5388 0
-5388 5404 0
-128 -5388 5389 0
-5389 5405 0
-129 -5389 5390 0
-5390 5406 0
-130 -5390 5391 0
-5391 5407 0
-131 -5391 5392 0
-5392 5408 0
-132 -5392 5393 0
-5393 5409 0
-133 -5393 5394 0
-5394 5410 0
-134 -5394 5395 0
-5395 5411 0
-135 -5395 5396 0
-5396 5412 0
-136 -5396 5397 0
-5397 5413 0
-137 -5397 5398 0
-5398 5414 0
-138 -5398 5399 0
-5399 5415 0
-139 -5399 5400 0
-5400 5416 0
-140 -5400 0
-125 5401 0
-5401 5417 0
-126 -5401 5402 0
-5402 5418 0
-127 -5402 5403 0
-5403 5419 0
-128 -5403 5404 0
-5404 5420 0
-129 -5404 5405 0
-5405 5421 0
-130 -5405 5406 0
-5406 5422 0
-131 -5406 5407 0
-5407 5423 0
-132 -5407 5408 0
-5408 5424 0
-133 -5408 5409 0
-5409 5425 0
-134 -5409 5410 0
-5410 5426 0
-135 -5410 5411 0
-5411 5427 0
-136 -5411 5412 0
-5412 5428 0
-137 -5412 5413 0
-5413 5429 0
-138 -5413 5414 0
-5414 5430 0
-139 -5414 5415 0
-5415 5431 0
-140 -5415 5416 0
-5416 5432 0
-141 -5416 0
-126 5417 0
-5417 5433 0
-127 -5417 5418 0
-5418 5434 0
-128 -5418 5419 0
-5419 5435 0
-129 -5419 5420 0
-5420 5436 0
-130 -5420 5421 0
-5421 5437 0
-131 -5421 5422 0
-5422 5438 0
-132 -5422 5423 0
-5423 5439 0
-133 -5423 5424 0
-5424 5440 0
-134 -5424 5425 0
-5425 5441 0
-135 -5425 5426 0
-5426 5442 0
-136 -5426 5427 0
-5427 5443 0
-137 -5427 5428 0
-5428 5444 0
-138 -5428 5429 0
-5429 5445 0
-139 -5429 5430 0
-5430 5446 0
-140 -5430 5431 0
-5431 5447 0
-141 -5431 5432 0
-5432 5448 0
-142 -5432 0
-127 5433 0
-5433 5449 0
-128 -5433 5434 0
-5434 5450 0
-129 -5434 5435 0
-5435 5451 0
-130 -5435 5436 0
-5436 5452 0
-131 -5436 5437 0
-5437 5453 0
-132 -5437 5438 0
-5438 5454 0
-133 -5438 5439 0
-5439 5455 0
-134 -5439 5440 0
-5440 5456 0
-135 -5440 5441 0
-5441 5457 0
-136 -5441 5442 0
-5442 5458 0
-137 -5442 5443 0
-5443 5459 0
-138 -5443 5444 0
-5444 5460 0
-139 -5444 5445 0
-5445 5461 0
-140 -5445 5446 0
-5446 5462 0
-141 -5446 5447 0
-5447 5463 0
-142 -5447 5448 0
-5448 5464 0
-143 -5448 0
-128 5449 0
-5449 5465 0
-129 -5449 5450 0
-5450 5466 0
-130 -5450 5451 0
-5451 5467 0
-131 -5451 5452 0
-5452 5468 0
-132 -5452 5453 0
-5453 5469 0
-133 -5453 5454 0
-5454 5470 0
-134 -5454 5455 0
-5455 5471 0
-135 -5455 5456 0
-5456 5472 0
-136 -5456 5457 0
-5457 5473 0
-137 -5457 5458 0
-5458 5474 0
-138 -5458 5459 0
-5459 5475 0
-139 -5459 5460 0
-5460 5476 0
-140 -5460 5461 0
-5461 5477 0
-141 -5461 5462 0
-5462 5478 0
-142 -5462 5463 0
-5463 5479 0
-143 -5463 5464 0
-5464 5480 0
-144 -5464 0
-129 5465 0
-5465 5481 0
-130 -5465 5466 0
-5466 5482 0
-131 -5466 5467 0
-5467 5483 0
-132 -5467 5468 0
-5468 5484 0
-133 -5468 5469 0
-5469 5485 0
-134 -5469 5470 0
-5470 5486 0
-135 -5470 5471 0
-5471 5487 0
-136 -5471 5472 0
-5472 5488 0
-137 -5472 5473 0
-5473 5489 0
-138 -5473 5474 0
-5474 5490 0
-139 -5474 5475 0
-5475 5491 0
-140 -5475 5476 0
-5476 5492 0
-141 -5476 5477 0
-5477 5493 0
-142 -5477 5478 0
-5478 5494 0
-143 -5478 5479 0
-5479 5495 0
-144 -5479 5480 0
-5480 5496 0
-145 -5480 0
-130 5481 0
-5481 5497 0
-131 -5481 5482 0
-5482 5498 0
-132 -5482 5483 0
-5483 5499 0
-133 -5483 5484 0
-5484 5500 0
-134 -5484 5485 0
-5485 5501 0
-135 -5485 5486 0
-5486 5502 0
-136 -5486 5487 0
-5487 5503 0
-137 -5487 5488 0
-5488 5504 0
-138 -5488 5489 0
-5489 5505 0
-139 -5489 5490 0
-5490 5506 0
-140 -5490 5491 0
-5491 5507 0
-141 -5491 5492 0
-5492 5508 0
-142 -5492 5493 0
-5493 5509 0
-143 -5493 5494 0
-5494 5510 0
-144 -5494 5495 0
-5495 5511 0
-145 -5495 5496 0
-5496 5512 0
-146 -5496 0
-131 5497 0
-5497 5513 0
-132 -5497 5498 0
-5498 5514 0
-133 -5498 5499 0
-5499 5515 0
-134 -5499 5500 0
-5500 5516 0
-135 -5500 5501 0
-5501 5517 0
-136 -5501 5502 0
-5502 5518 0
-137 -5502 5503 0
-5503 5519 0
-138 -5503 5504 0
-5504 5520 0
-139 -5504 5505 0
-5505 5521 0
-140 -5505 5506 0
-5506 5522 0
-141 -5506 5507 0
-5507 5523 0
-142 -5507 5508 0
-5508 5524 0
-143 -5508 5509 0
-5509 5525 0
-144 -5509 5510 0
-5510 5526 0
-145 -5510 5511 0
-5511 5527 0
-146 -5511 5512 0
-5512 5528 0
-147 -5512 0
-132 5513 0
-5513 5529 0
-133 -5513 5514 0
-5514 5530 0
-134 -5514 5515 0
-5515 5531 0
-135 -5515 5516 0
-5516 5532 0
-136 -5516 5517 0
-5517 5533 0
-137 -5517 5518 0
-5518 5534 0
-138 -5518 5519 0
-5519 5535 0
-139 -5519 5520 0
-5520 5536 0
-140 -5520 5521 0
-5521 5537 0
-141 -5521 5522 0
-5522 5538 0
-142 -5522 5523 0
-5523 5539 0
-143 -5523 5524 0
-5524 5540 0
-144 -5524 5525 0
-5525 5541 0
-145 -5525 5526 0
-5526 5542 0
-146 -5526 5527 0
-5527 5543 0
-147 -5527 5528 0
-5528 5544 0
-148 -5528 0
-133 5529 0
-5529 5545 0
-134 -5529 5530 0
-5530 5546 0
-135 -5530 5531 0
-5531 5547 0
-136 -5531 5532 0
-5532 5548 0
-137 -5532 5533 0
-5533 5549 0
-138 -5533 5534 0
-5534 5550 0
-139 -5534 5535 0
-5535 5551 0
-140 -5535 5536 0
-5536 5552 0
-141 -5536 5537 0
-5537 5553 0
-142 -5537 5538 0
-5538 5554 0
-143 -5538 5539 0
-5539 5555 0
-144 -5539 5540 0
-5540 5556 0
-145 -5540 5541 0
-5541 5557 0
-146 -5541 5542 0
-5542 5558 0
-147 -5542 5543 0
-5543 5559 0
-148 -5543 5544 0
-5544 5560 0
-149 -5544 0
-134 5545 0
-5545 5561 0
-135 -5545 5546 0
-5546 5562 0
-136 -5546 5547 0
-5547 5563 0
-137 -5547 5548 0
-5548 5564 0
-138 -5548 5549 0
-5549 5565 0
-139 -5549 5550 0
-5550 5566 0
-140 -5550 5551 0
-5551 5567 0
-141 -5551 5552 0
-5552 5568 0
-142 -5552 5553 0
-5553 5569 0
-143 -5553 5554 0
-5554 5570 0
-144 -5554 5555 0
-5555 5571 0
-145 -5555 5556 0
-5556 5572 0
-146 -5556 5557 0
-5557 5573 0
-147 -5557 5558 0
-5558 5574 0
-148 -5558 5559 0
-5559 5575 0
-149 -5559 5560 0
-5560 5576 0
-150 -5560 0
-135 5561 0
-5561 5577 0
-136 -5561 5562 0
-5562 5578 0
-137 -5562 5563 0
-5563 5579 0
-138 -5563 5564 0
-5564 5580 0
-139 -5564 5565 0
-5565 5581 0
-140 -5565 5566 0
-5566 5582 0
-141 -5566 5567 0
-5567 5583 0
-142 -5567 5568 0
-5568 5584 0
-143 -5568 5569 0
-5569 5585 0
-144 -5569 5570 0
-5570 5586 0
-145 -5570 5571 0
-5571 5587 0
-146 -5571 5572 0
-5572 5588 0
-147 -5572 5573 0
-5573 5589 0
-148 -5573 5574 0
-5574 5590 0
-149 -5574 5575 0
-5575 5591 0
-150 -5575 5576 0
-5576 5592 0
-151 -5576 0
-136 5577 0
-5577 5593 0
-137 -5577 5578 0
-5578 5594 0
-138 -5578 5579 0
-5579 5595 0
-139 -5579 5580 0
-5580 5596 0
-140 -5580 5581 0
-5581 5597 0
-141 -5581 5582 0
-5582 5598 0
-142 -5582 5583 0
-5583 5599 0
-143 -5583 5584 0
-5584 5600 0
-144 -5584 5585 0
-5585 5601 0
-145 -5585 5586 0
-5586 5602 0
-146 -5586 5587 0
-5587 5603 0
-147 -5587 5588 0
-5588 5604 0
-148 -5588 5589 0
-5589 5605 0
-149 -5589 5590 0
-5590 5606 0
-150 -5590 5591 0
-5591 5607 0
-151 -5591 5592 0
-5592 5608 0
-152 -5592 0
-137 5593 0
-5593 5609 0
-138 -5593 5594 0
-5594 5610 0
-139 -5594 5595 0
-5595 5611 0
-140 -5595 5596 0
-5596 5612 0
-141 -5596 5597 0
-5597 5613 0
-142 -5597 5598 0
-5598 5614 0
-143 -5598 5599 0
-5599 5615 0
-144 -5599 5600 0
-5600 5616 0
-145 -5600 5601 0
-5601 5617 0
-146 -5601 5602 0
-5602 5618 0
-147 -5602 5603 0
-5603 5619 0
-148 -5603 5604 0
-5604 5620 0
-149 -5604 5605 0
-5605 5621 0
-150 -5605 5606 0
-5606 5622 0
-151 -5606 5607 0
-5607 5623 0
-152 -5607 5608 0
-5608 5624 0
-153 -5608 0
-138 5609 0
-5609 5625 0
-139 -5609 5610 0
-5610 5626 0
-140 -5610 5611 0
-5611 5627 0
-141 -5611 5612 0
-5612 5628 0
-142 -5612 5613 0
-5613 5629 0
-143 -5613 5614 0
-5614 5630 0
-144 -5614 5615 0
-5615 5631 0
-145 -5615 5616 0
-5616 5632 0
-146 -5616 5617 0
-5617 5633 0
-147 -5617 5618 0
-5618 5634 0
-148 -5618 5619 0
-5619 5635 0
-149 -5619 5620 0
-5620 5636 0
-150 -5620 5621 0
-5621 5637 0
-151 -5621 5622 0
-5622 5638 0
-152 -5622 5623 0
-5623 5639 0
-153 -5623 5624 0
-5624 5640 0
-154 -5624 0
-139 5625 0
-5625 5641 0
-140 -5625 5626 0
-5626 5642 0
-141 -5626 5627 0
-5627 5643 0
-142 -5627 5628 0
-5628 5644 0
-143 -5628 5629 0
-5629 5645 0
-144 -5629 5630 0
-5630 5646 0
-145 -5630 5631 0
-5631 5647 0
-146 -5631 5632 0
-5632 5648 0
-147 -5632 5633 0
-5633 5649 0
-148 -5633 5634 0
-5634 5650 0
-149 -5634 5635 0
-5635 5651 0
-150 -5635 5636 0
-5636 5652 0
-151 -5636 5637 0
-5637 5653 0
-152 -5637 5638 0
-5638 5654 0
-153 -5638 5639 0
-5639 5655 0
-154 -5639 5640 0
-5640 5656 0
-155 -5640 0
-140 5641 0
-5641 5657 0
-141 -5641 5642 0
-5642 5658 0
-142 -5642 5643 0
-5643 5659 0
-143 -5643 5644 0
-5644 5660 0
-144 -5644 5645 0
-5645 5661 0
-145 -5645 5646 0
-5646 5662 0
-146 -5646 5647 0
-5647 5663 0
-147 -5647 5648 0
-5648 5664 0
-148 -5648 5649 0
-5649 5665 0
-149 -5649 5650 0
-5650 5666 0
-150 -5650 5651 0
-5651 5667 0
-151 -5651 5652 0
-5652 5668 0
-152 -5652 5653 0
-5653 5669 0
-153 -5653 5654 0
-5654 5670 0
-154 -5654 5655 0
-5655 5671 0
-155 -5655 5656 0
-5656 5672 0
-156 -5656 0
-141 5657 0
-5657 5673 0
-142 -5657 5658 0
-5658 5674 0
-143 -5658 5659 0
-5659 5675 0
-144 -5659 5660 0
-5660 5676 0
-145 -5660 5661 0
-5661 5677 0
-146 -5661 5662 0
-5662 5678 0
-147 -5662 5663 0
-5663 5679 0
-148 -5663 5664 0
-5664 5680 0
-149 -5664 5665 0
-5665 5681 0
-150 -5665 5666 0
-5666 5682 0
-151 -5666 5667 0
-5667 5683 0
-152 -5667 5668 0
-5668 5684 0
-153 -5668 5669 0
-5669 5685 0
-154 -5669 5670 0
-5670 5686 0
-155 -5670 5671 0
-5671 5687 0
-156 -5671 5672 0
-5672 5688 0
-157 -5672 0
-142 5673 0
-5673 5689 0
-143 -5673 5674 0
-5674 5690 0
-144 -5674 5675 0
-5675 5691 0
-145 -5675 5676 0
-5676 5692 0
-146 -5676 5677 0
-5677 5693 0
-147 -5677 5678 0
-5678 5694 0
-148 -5678 5679 0
-5679 5695 0
-149 -5679 5680 0
-5680 5696 0
-150 -5680 5681 0
-5681 5697 0
-151 -5681 5682 0
-5682 5698 0
-152 -5682 5683 0
-5683 5699 0
-153 -5683 5684 0
-5684 5700 0
-154 -5684 5685 0
-5685 5701 0
-155 -5685 5686 0
-5686 5702 0
-156 -5686 5687 0
-5687 5703 0
-157 -5687 5688 0
-5688 5704 0
-158 -5688 0
-143 5689 0
-5689 5705 0
-144 -5689 5690 0
-5690 5706 0
-145 -5690 5691 0
-5691 5707 0
-146 -5691 5692 0
-5692 5708 0
-147 -5692 5693 0
-5693 5709 0
-148 -5693 5694 0
-5694 5710 0
-149 -5694 5695 0
-5695 5711 0
-150 -5695 5696 0
-5696 5712 0
-151 -5696 5697 0
-5697 5713 0
-152 -5697 5698 0
-5698 5714 0
-153 -5698 5699 0
-5699 5715 0
-154 -5699 5700 0
-5700 5716 0
-155 -5700 5701 0
-5701 5717 0
-156 -5701 5702 0
-5702 5718 0
-157 -5702 5703 0
-5703 5719 0
-158 -5703 5704 0
-5704 5720 0
-159 -5704 0
-144 5705 0
-5705 5721 0
-145 -5705 5706 0
-5706 5722 0
-146 -5706 5707 0
-5707 5723 0
-147 -5707 5708 0
-5708 5724 0
-148 -5708 5709 0
-5709 5725 0
-149 -5709 5710 0
-5710 5726 0
-150 -5710 5711 0
-5711 5727 0
-151 -5711 5712 0
-5712 5728 0
-152 -5712 5713 0
-5713 5729 0
-153 -5713 5714 0
-5714 5730 0
-154 -5714 5715 0
-5715 5731 0
-155 -5715 5716 0
-5716 5732 0
-156 -5716 5717 0
-5717 5733 0
-157 -5717 5718 0
-5718 5734 0
-158 -5718 5719 0
-5719 5735 0
-159 -5719 5720 0
-5720 5736 0
-160 -5720 0
-145 5721 0
-5721 5737 0
-146 -5721 5722 0
-5722 5738 0
-147 -5722 5723 0
-5723 5739 0
-148 -5723 5724 0
-5724 5740 0
-149 -5724 5725 0
-5725 5741 0
-150 -5725 5726 0
-5726 5742 0
-151 -5726 5727 0
-5727 5743 0
-152 -5727 5728 0
-5728 5744 0
-153 -5728 5729 0
-5729 5745 0
-154 -5729 5730 0
-5730 5746 0
-155 -5730 5731 0
-5731 5747 0
-156 -5731 5732 0
-5732 5748 0
-157 -5732 5733 0
-5733 5749 0
-158 -5733 5734 0
-5734 5750 0
-159 -5734 5735 0
-5735 5751 0
-160 -5735 5736 0
-5736 5752 0
-161 -5736 0
-146 5737 0
-5737 5753 0
-147 -5737 5738 0
-5738 5754 0
-148 -5738 5739 0
-5739 5755 0
-149 -5739 5740 0
-5740 5756 0
-150 -5740 5741 0
-5741 5757 0
-151 -5741 5742 0
-5742 5758 0
-152 -5742 5743 0
-5743 5759 0
-153 -5743 5744 0
-5744 5760 0
-154 -5744 5745 0
-5745 5761 0
-155 -5745 5746 0
-5746 5762 0
-156 -5746 5747 0
-5747 5763 0
-157 -5747 5748 0
-5748 5764 0
-158 -5748 5749 0
-5749 5765 0
-159 -5749 5750 0
-5750 5766 0
-160 -5750 5751 0
-5751 5767 0
-161 -5751 5752 0
-5752 5768 0
-162 -5752 0
-147 5753 0
-5753 5769 0
-148 -5753 5754 0
-5754 5770 0
-149 -5754 5755 0
-5755 5771 0
-150 -5755 5756 0
-5756 5772 0
-151 -5756 5757 0
-5757 5773 0
-152 -5757 5758 0
-5758 5774 0
-153 -5758 5759 0
-5759 5775 0
-154 -5759 5760 0
-5760 5776 0
-155 -5760 5761 0
-5761 5777 0
-156 -5761 5762 0
-5762 5778 0
-157 -5762 5763 0
-5763 5779 0
-158 -5763 5764 0
-5764 5780 0
-159 -5764 5765 0
-5765 5781 0
-160 -5765 5766 0
-5766 5782 0
-161 -5766 5767 0
-5767 5783 0
-162 -5767 5768 0
-5768 5784 0
-163 -5768 0
-148 5769 0
-5769 5785 0
-149 -5769 5770 0
-5770 5786 0
-150 -5770 5771 0
-5771 5787 0
-151 -5771 5772 0
-5772 5788 0
-152 -5772 5773 0
-5773 5789 0
-153 -5773 5774 0
-5774 5790 0
-154 -5774 5775 0
-5775 5791 0
-155 -5775 5776 0
-5776 5792 0
-156 -5776 5777 0
-5777 5793 0
-157 -5777 5778 0
-5778 5794 0
-158 -5778 5779 0
-5779 5795 0
-159 -5779 5780 0
-5780 5796 0
-160 -5780 5781 0
-5781 5797 0
-161 -5781 5782 0
-5782 5798 0
-162 -5782 5783 0
-5783 5799 0
-163 -5783 5784 0
-5784 5800 0
-164 -5784 0
-149 5785 0
-5785 5801 0
-150 -5785 5786 0
-5786 5802 0
-151 -5786 5787 0
-5787 5803 0
-152 -5787 5788 0
-5788 5804 0
-153 -5788 5789 0
-5789 5805 0
-154 -5789 5790 0
-5790 5806 0
-155 -5790 5791 0
-5791 5807 0
-156 -5791 5792 0
-5792 5808 0
-157 -5792 5793 0
-5793 5809 0
-158 -5793 5794 0
-5794 5810 0
-159 -5794 5795 0
-5795 5811 0
-160 -5795 5796 0
-5796 5812 0
-161 -5796 5797 0
-5797 5813 0
-162 -5797 5798 0
-5798 5814 0
-163 -5798 5799 0
-5799 5815 0
-164 -5799 5800 0
-5800 5816 0
-165 -5800 0
-150 5801 0
-5801 5817 0
-151 -5801 5802 0
-5802 5818 0
-152 -5802 5803 0
-5803 5819 0
-153 -5803 5804 0
-5804 5820 0
-154 -5804 5805 0
-5805 5821 0
-155 -5805 5806 0
-5806 5822 0
-156 -5806 5807 0
-5807 5823 0
-157 -5807 5808 0
-5808 5824 0
-158 -5808 5809 0
-5809 5825 0
-159 -5809 5810 0
-5810 5826 0
-160 -5810 5811 0
-5811 5827 0
-161 -5811 5812 0
-5812 5828 0
-162 -5812 5813 0
-5813 5829 0
-163 -5813 5814 0
-5814 5830 0
-164 -5814 5815 0
-5815 5831 0
-165 -5815 5816 0
-5816 5832 0
-166 -5816 0
-151 5817 0
-5817 5833 0
-152 -5817 5818 0
-5818 5834 0
-153 -5818 5819 0
-5819 5835 0
-154 -5819 5820 0
-5820 5836 0
-155 -5820 5821 0
-5821 5837 0
-156 -5821 5822 0
-5822 5838 0
-157 -5822 5823 0
-5823 5839 0
-158 -5823 5824 0
-5824 5840 0
-159 -5824 5825 0
-5825 5841 0
-160 -5825 5826 0
-5826 5842 0
-161 -5826 5827 0
-5827 5843 0
-162 -5827 5828 0
-5828 5844 0
-163 -5828 5829 0
-5829 5845 0
-164 -5829 5830 0
-5830 5846 0
-165 -5830 5831 0
-5831 5847 0
-166 -5831 5832 0
-5832 5848 0
-167 -5832 0
-152 5833 0
-5833 5849 0
-153 -5833 5834 0
-5834 5850 0
-154 -5834 5835 0
-5835 5851 0
-155 -5835 5836 0
-5836 5852 0
-156 -5836 5837 0
-5837 5853 0
-157 -5837 5838 0
-5838 5854 0
-158 -5838 5839 0
-5839 5855 0
-159 -5839 5840 0
-5840 5856 0
-160 -5840 5841 0
-5841 5857 0
-161 -5841 5842 0
-5842 5858 0
-162 -5842 5843 0
-5843 5859 0
-163 -5843 5844 0
-5844 5860 0
-164 -5844 5845 0
-5845 5861 0
-165 -5845 5846 0
-5846 5862 0
-166 -5846 5847 0
-5847 5863 0
-167 -5847 5848 0
-5848 5864 0
-168 -5848 0
-153 5849 0
-5849 5865 0
-154 -5849 5850 0
-5850 5866 0
-155 -5850 5851 0
-5851 5867 0
-156 -5851 5852 0
-5852 5868 0
-157 -5852 5853 0
-5853 5869 0
-158 -5853 5854 0
-5854 5870 0
-159 -5854 5855 0
-5855 5871 0
-160 -5855 5856 0
-5856 5872 0
-161 -5856 5857 0
-5857 5873 0
-162 -5857 5858 0
-5858 5874 0
-163 -5858 5859 0
-5859 5875 0
-164 -5859 5860 0
-5860 5876 0
-165 -5860 5861 0
-5861 5877 0
-166 -5861 5862 0
-5862 5878 0
-167 -5862 5863 0
-5863 5879 0
-168 -5863 5864 0
-5864 5880 0
-169 -5864 0
-154 5865 0
-5865 5881 0
-155 -5865 5866 0
-5866 5882 0
-156 -5866 5867 0
-5867 5883 0
-157 -5867 5868 0
-5868 5884 0
-158 -5868 5869 0
-5869 5885 0
-159 -5869 5870 0
-5870 5886 0
-160 -5870 5871 0
-5871 5887 0
-161 -5871 5872 0
-5872 5888 0
-162 -5872 5873 0
-5873 5889 0
-163 -5873 5874 0
-5874 5890 0
-164 -5874 5875 0
-5875 5891 0
-165 -5875 5876 0
-5876 5892 0
-166 -5876 5877 0
-5877 5893 0
-167 -5877 5878 0
-5878 5894 0
-168 -5878 5879 0
-5879 5895 0
-169 -5879 5880 0
-5880 5896 0
-170 -5880 0
-155 5881 0
-5881 5897 0
-156 -5881 5882 0
-5882 5898 0
-157 -5882 5883 0
-5883 5899 0
-158 -5883 5884 0
-5884 5900 0
-159 -5884 5885 0
-5885 5901 0
-160 -5885 5886 0
-5886 5902 0
-161 -5886 5887 0
-5887 5903 0
-162 -5887 5888 0
-5888 5904 0
-163 -5888 5889 0
-5889 5905 0
-164 -5889 5890 0
-5890 5906 0
-165 -5890 5891 0
-5891 5907 0
-166 -5891 5892 0
-5892 5908 0
-167 -5892 5893 0
-5893 5909 0
-168 -5893 5894 0
-5894 5910 0
-169 -5894 5895 0
-5895 5911 0
-170 -5895 5896 0
-5896 5912 0
-171 -5896 0
-156 5897 0
-5897 5913 0
-157 -5897 5898 0
-5898 5914 0
-158 -5898 5899 0
-5899 5915 0
-159 -5899 5900 0
-5900 5916 0
-160 -5900 5901 0
-5901 5917 0
-161 -5901 5902 0
-5902 5918 0
-162 -5902 5903 0
-5903 5919 0
-163 -5903 5904 0
-5904 5920 0
-164 -5904 5905 0
-5905 5921 0
-165 -5905 5906 0
-5906 5922 0
-166 -5906 5907 0
-5907 5923 0
-167 -5907 5908 0
-5908 5924 0
-168 -5908 5909 0
-5909 5925 0
-169 -5909 5910 0
-5910 5926 0
-170 -5910 5911 0
-5911 5927 0
-171 -5911 5912 0
-5912 5928 0
-172 -5912 0
-157 5913 0
-5913 5929 0
-158 -5913 5914 0
-5914 5930 0
-159 -5914 5915 0
-5915 5931 0
-160 -5915 5916 0
-5916 5932 0
-161 -5916 5917 0
-5917 5933 0
-162 -5917 5918 0
-5918 5934 0
-163 -5918 5919 0
-5919 5935 0
-164 -5919 5920 0
-5920 5936 0
-165 -5920 5921 0
-5921 5937 0
-166 -5921 5922 0
-5922 5938 0
-167 -5922 5923 0
-5923 5939 0
-168 -5923 5924 0
-5924 5940 0
-169 -5924 5925 0
-5925 5941 0
-170 -5925 5926 0
-5926 5942 0
-171 -5926 5927 0
-5927 5943 0
-172 -5927 5928 0
-5928 5944 0
-173 -5928 0
-158 5929 0
-5929 5945 0
-159 -5929 5930 0
-5930 5946 0
-160 -5930 5931 0
-5931 5947 0
-161 -5931 5932 0
-5932 5948 0
-162 -5932 5933 0
-5933 5949 0
-163 -5933 5934 0
-5934 5950 0
-164 -5934 5935 0
-5935 5951 0
-165 -5935 5936 0
-5936 5952 0
-166 -5936 5937 0
-5937 5953 0
-167 -5937 5938 0
-5938 5954 0
-168 -5938 5939 0
-5939 5955 0
-169 -5939 5940 0
-5940 5956 0
-170 -5940 5941 0
-5941 5957 0
-171 -5941 5942 0
-5942 5958 0
-172 -5942 5943 0
-5943 5959 0
-173 -5943 5944 0
-5944 5960 0
-174 -5944 0
-159 5945 0
-5945 5961 0
-160 -5945 5946 0
-5946 5962 0
-161 -5946 5947 0
-5947 5963 0
-162 -5947 5948 0
-5948 5964 0
-163 -5948 5949 0
-5949 5965 0
-164 -5949 5950 0
-5950 5966 0
-165 -5950 5951 0
-5951 5967 0
-166 -5951 5952 0
-5952 5968 0
-167 -5952 5953 0
-5953 5969 0
-168 -5953 5954 0
-5954 5970 0
-169 -5954 5955 0
-5955 5971 0
-170 -5955 5956 0
-5956 5972 0
-171 -5956 5957 0
-5957 5973 0
-172 -5957 5958 0
-5958 5974 0
-173 -5958 5959 0
-5959 5975 0
-174 -5959 5960 0
-5960 5976 0
-175 -5960 0
-160 5961 0
-5961 5977 0
-161 -5961 5962 0
-5962 5978 0
-162 -5962 5963 0
-5963 5979 0
-163 -5963 5964 0
-5964 5980 0
-164 -5964 5965 0
-5965 5981 0
-165 -5965 5966 0
-5966 5982 0
-166 -5966 5967 0
-5967 5983 0
-167 -5967 5968 0
-5968 5984 0
-168 -5968 5969 0
-5969 5985 0
-169 -5969 5970 0
-5970 5986 0
-170 -5970 5971 0
-5971 5987 0
-171 -5971 5972 0
-5972 5988 0
-172 -5972 5973 0
-5973 5989 0
-173 -5973 5974 0
-5974 5990 0
-174 -5974 5975 0
-5975 5991 0
-175 -5975 5976 0
-5976 5992 0
-176 -5976 0
-161 5977 0
-5977 5993 0
-162 -5977 5978 0
-5978 5994 0
-163 -5978 5979 0
-5979 5995 0
-164 -5979 5980 0
-5980 5996 0
-165 -5980 5981 0
-5981 5997 0
-166 -5981 5982 0
-5982 5998 0
-167 -5982 5983 0
-5983 5999 0
-168 -5983 5984 0
-5984 6000 0
-169 -5984 5985 0
-5985 6001 0
-170 -5985 5986 0
-5986 6002 0
-171 -5986 5987 0
-5987 6003 0
-172 -5987 5988 0
-5988 6004 0
-173 -5988 5989 0
-5989 6005 0
-174 -5989 5990 0
-5990 6006 0
-175 -5990 5991 0
-5991 6007 0
-176 -5991 5992 0
-5992 6008 0
-177 -5992 0
-162 5993 0
-5993 6009 0
-163 -5993 5994 0
-5994 6010 0
-164 -5994 5995 0
-5995 6011 0
-165 -5995 5996 0
-5996 6012 0
-166 -5996 5997 0
-5997 6013 0
-167 -5997 5998 0
-5998 6014 0
-168 -5998 5999 0
-5999 6015 0
-169 -5999 6000 0
-6000 6016 0
-170 -6000 6001 0
-6001 6017 0
-171 -6001 6002 0
-6002 6018 0
-172 -6002 6003 0
-6003 6019 0
-173 -6003 6004 0
-6004 6020 0
-174 -6004 6005 0
-6005 6021 0
-175 -6005 6006 0
-6006 6022 0
-176 -6006 6007 0
-6007 6023 0
-177 -6007 6008 0
-6008 6024 0
-178 -6008 0
-163 6009 0
-6009 6025 0
-164 -6009 6010 0
-6010 6026 0
-165 -6010 6011 0
-6011 6027 0
-166 -6011 6012 0
-6012 6028 0
-167 -6012 6013 0
-6013 6029 0
-168 -6013 6014 0
-6014 6030 0
-169 -6014 6015 0
-6015 6031 0
-170 -6015 6016 0
-6016 6032 0
-171 -6016 6017 0
-6017 6033 0
-172 -6017 6018 0
-6018 6034 0
-173 -6018 6019 0
-6019 6035 0
-174 -6019 6020 0
-6020 6036 0
-175 -6020 6021 0
-6021 6037 0
-176 -6021 6022 0
-6022 6038 0
-177 -6022 6023 0
-6023 6039 0
-178 -6023 6024 0
-6024 6040 0
-179 -6024 0
-164 6025 0
-6025 6041 0
-165 -6025 6026 0
-6026 6042 0
-166 -6026 6027 0
-6027 6043 0
-167 -6027 6028 0
-6028 6044 0
-168 -6028 6029 0
-6029 6045 0
-169 -6029 6030 0
-6030 6046 0
-170 -6030 6031 0
-6031 6047 0
-171 -6031 6032 0
-6032 6048 0
-172 -6032 6033 0
-6033 6049 0
-173 -6033 6034 0
-6034 6050 0
-174 -6034 6035 0
-6035 6051 0
-175 -6035 6036 0
-6036 6052 0
-176 -6036 6037 0
-6037 6053 0
-177 -6037 6038 0
-6038 6054 0
-178 -6038 6039 0
-6039 6055 0
-179 -6039 6040 0
-6040 6056 0
-180 -6040 0
-165 6041 0
-6041 6057 0
-166 -6041 6042 0
-6042 6058 0
-167 -6042 6043 0
-6043 6059 0
-168 -6043 6044 0
-6044 6060 0
-169 -6044 6045 0
-6045 6061 0
-170 -6045 6046 0
-6046 6062 0
-171 -6046 6047 0
-6047 6063 0
-172 -6047 6048 0
-6048 6064 0
-173 -6048 6049 0
-6049 6065 0
-174 -6049 6050 0
-6050 6066 0
-175 -6050 6051 0
-6051 6067 0
-176 -6051 6052 0
-6052 6068 0
-177 -6052 6053 0
-6053 6069 0
-178 -6053 6054 0
-6054 6070 0
-179 -6054 6055 0
-6055 6071 0
-180 -6055 6056 0
-6056 6072 0
-181 -6056 0
-166 6057 0
-6057 6073 0
-167 -6057 6058 0
-6058 6074 0
-168 -6058 6059 0
-6059 6075 0
-169 -6059 6060 0
-6060 6076 0
-170 -6060 6061 0
-6061 6077 0
-171 -6061 6062 0
-6062 6078 0
-172 -6062 6063 0
-6063 6079 0
-173 -6063 6064 0
-6064 6080 0
-174 -6064 6065 0
-6065 6081 0
-175 -6065 6066 0
-6066 6082 0
-176 -6066 6067 0
-6067 6083 0
-177 -6067 6068 0
-6068 6084 0
-178 -6068 6069 0
-6069 6085 0
-179 -6069 6070 0
-6070 6086 0
-180 -6070 6071 0
-6071 6087 0
-181 -6071 6072 0
-6072 6088 0
-182 -6072 0
-167 6073 0
-6073 6089 0
-168 -6073 6074 0
-6074 6090 0
-169 -6074 6075 0
-6075 6091 0
-170 -6075 6076 0
-6076 6092 0
-171 -6076 6077 0
-6077 6093 0
-172 -6077 6078 0
-6078 6094 0
-173 -6078 6079 0
-6079 6095 0
-174 -6079 6080 0
-6080 6096 0
-175 -6080 6081 0
-6081 6097 0
-176 -6081 6082 0
-6082 6098 0
-177 -6082 6083 0
-6083 6099 0
-178 -6083 6084 0
-6084 6100 0
-179 -6084 6085 0
-6085 6101 0
-180 -6085 6086 0
-6086 6102 0
-181 -6086 6087 0
-6087 6103 0
-182 -6087 6088 0
-6088 6104 0
-183 -6088 0
-168 6089 0
-6089 6105 0
-169 -6089 6090 0
-6090 6106 0
-170 -6090 6091 0
-6091 6107 0
-171 -6091 6092 0
-6092 6108 0
-172 -6092 6093 0
-6093 6109 0
-173 -6093 6094 0
-6094 6110 0
-174 -6094 6095 0
-6095 6111 0
-175 -6095 6096 0
-6096 6112 0
-176 -6096 6097 0
-6097 6113 0
-177 -6097 6098 0
-6098 6114 0
-178 -6098 6099 0
-6099 6115 0
-179 -6099 6100 0
-6100 6116 0
-180 -6100 6101 0
-6101 6117 0
-181 -6101 6102 0
-6102 6118 0
-182 -6102 6103 0
-6103 6119 0
-183 -6103 6104 0
-6104 6120 0
-184 -6104 0
-169 6105 0
-6105 6121 0
-170 -6105 6106 0
-6106 6122 0
-171 -6106 6107 0
-6107 6123 0
-172 -6107 6108 0
-6108 6124 0
-173 -6108 6109 0
-6109 6125 0
-174 -6109 6110 0
-6110 6126 0
-175 -6110 6111 0
-6111 6127 0
-176 -6111 6112 0
-6112 6128 0
-177 -6112 6113 0
-6113 6129 0
-178 -6113 6114 0
-6114 6130 0
-179 -6114 6115 0
-6115 6131 0
-180 -6115 6116 0
-6116 6132 0
-181 -6116 6117 0
-6117 6133 0
-182 -6117 6118 0
-6118 6134 0
-183 -6118 6119 0
-6119 6135 0
-184 -6119 6120 0
-6120 6136 0
-185 -6120 0
-170 6121 0
-6121 6137 0
-171 -6121 6122 0
-6122 6138 0
-172 -6122 6123 0
-6123 6139 0
-173 -6123 6124 0
-6124 6140 0
-174 -6124 6125 0
-6125 6141 0
-175 -6125 6126 0
-6126 6142 0
-176 -6126 6127 0
-6127 6143 0
-177 -6127 6128 0
-6128 6144 0
-178 -6128 6129 0
-6129 6145 0
-179 -6129 6130 0
-6130 6146 0
-180 -6130 6131 0
-6131 6147 0
-181 -6131 6132 0
-6132 6148 0
-182 -6132 6133 0
-6133 6149 0
-183 -6133 6134 0
-6134 6150 0
-184 -6134 6135 0
-6135 6151 0
-185 -6135 6136 0
-6136 6152 0
-186 -6136 0
-171 6137 0
-6137 6153 0
-172 -6137 6138 0
-6138 6154 0
-173 -6138 6139 0
-6139 6155 0
-174 -6139 6140 0
-6140 6156 0
-175 -6140 6141 0
-6141 6157 0
-176 -6141 6142 0
-6142 6158 0
-177 -6142 6143 0
-6143 6159 0
-178 -6143 6144 0
-6144 6160 0
-179 -6144 6145 0
-6145 6161 0
-180 -6145 6146 0
-6146 6162 0
-181 -6146 6147 0
-6147 6163 0
-182 -6147 6148 0
-6148 6164 0
-183 -6148 6149 0
-6149 6165 0
-184 -6149 6150 0
-6150 6166 0
-185 -6150 6151 0
-6151 6167 0
-186 -6151 6152 0
-6152 6168 0
-187 -6152 0
-172 6153 0
-6153 6169 0
-173 -6153 6154 0
-6154 6170 0
-174 -6154 6155 0
-6155 6171 0
-175 -6155 6156 0
-6156 6172 0
-176 -6156 6157 0
-6157 6173 0
-177 -6157 6158 0
-6158 6174 0
-178 -6158 6159 0
-6159 6175 0
-179 -6159 6160 0
-6160 6176 0
-180 -6160 6161 0
-6161 6177 0
-181 -6161 6162 0
-6162 6178 0
-182 -6162 6163 0
-6163 6179 0
-183 -6163 6164 0
-6164 6180 0
-184 -6164 6165 0
-6165 6181 0
-185 -6165 6166 0
-6166 6182 0
-186 -6166 6167 0
-6167 6183 0
-187 -6167 6168 0
-6168 6184 0
-188 -6168 0
-173 6169 0
-6169 6185 0
-174 -6169 6170 0
-6170 6186 0
-175 -6170 6171 0
-6171 6187 0
-176 -6171 6172 0
-6172 6188 0
-177 -6172 6173 0
-6173 6189 0
-178 -6173 6174 0
-6174 6190 0
-179 -6174 6175 0
-6175 6191 0
-180 -6175 6176 0
-6176 6192 0
-181 -6176 6177 0
-6177 6193 0
-182 -6177 6178 0
-6178 6194 0
-183 -6178 6179 0
-6179 6195 0
-184 -6179 6180 0
-6180 6196 0
-185 -6180 6181 0
-6181 6197 0
-186 -6181 6182 0
-6182 6198 0
-187 -6182 6183 0
-6183 6199 0
-188 -6183 6184 0
-6184 6200 0
-189 -6184 0
-174 6185 0
-6185 6201 0
-175 -6185 6186 0
-6186 6202 0
-176 -6186 6187 0
-6187 6203 0
-177 -6187 6188 0
-6188 6204 0
-178 -6188 6189 0
-6189 6205 0
-179 -6189 6190 0
-6190 6206 0
-180 -6190 6191 0
-6191 6207 0
-181 -6191 6192 0
-6192 6208 0
-182 -6192 6193 0
-6193 6209 0
-183 -6193 6194 0
-6194 6210 0
-184 -6194 6195 0
-6195 6211 0
-185 -6195 6196 0
-6196 6212 0
-186 -6196 6197 0
-6197 6213 0
-187 -6197 6198 0
-6198 6214 0
-188 -6198 6199 0
-6199 6215 0
-189 -6199 6200 0
-6200 6216 0
-190 -6200 0
-175 6201 0
-6201 6217 0
-176 -6201 6202 0
-6202 6218 0
-177 -6202 6203 0
-6203 6219 0
-178 -6203 6204 0
-6204 6220 0
-179 -6204 6205 0
-6205 6221 0
-180 -6205 6206 0
-6206 6222 0
-181 -6206 6207 0
-6207 6223 0
-182 -6207 6208 0
-6208 6224 0
-183 -6208 6209 0
-6209 6225 0
-184 -6209 6210 0
-6210 6226 0
-185 -6210 6211 0
-6211 6227 0
-186 -6211 6212 0
-6212 6228 0
-187 -6212 6213 0
-6213 6229 0
-188 -6213 6214 0
-6214 6230 0
-189 -6214 6215 0
-6215 6231 0
-190 -6215 6216 0
-6216 6232 0
-191 -6216 0
-176 6217 0
-6217 6233 0
-177 -6217 6218 0
-6218 6234 0
-178 -6218 6219 0
-6219 6235 0
-179 -6219 6220 0
-6220 6236 0
-180 -6220 6221 0
-6221 6237 0
-181 -6221 6222 0
-6222 6238 0
-182 -6222 6223 0
-6223 6239 0
-183 -6223 6224 0
-6224 6240 0
-184 -6224 6225 0
-6225 6241 0
-185 -6225 6226 0
-6226 6242 0
-186 -6226 6227 0
-6227 6243 0
-187 -6227 6228 0
-6228 6244 0
-188 -6228 6229 0
-6229 6245 0
-189 -6229 6230 0
-6230 6246 0
-190 -6230 6231 0
-6231 6247 0
-191 -6231 6232 0
-6232 6248 0
-192 -6232 0
-177 6233 0
-6233 6249 0
-178 -6233 6234 0
-6234 6250 0
-179 -6234 6235 0
-6235 6251 0
-180 -6235 6236 0
-6236 6252 0
-181 -6236 6237 0
-6237 6253 0
-182 -6237 6238 0
-6238 6254 0
-183 -6238 6239 0
-6239 6255 0
-184 -6239 6240 0
-6240 6256 0
-185 -6240 6241 0
-6241 6257 0
-186 -6241 6242 0
-6242 6258 0
-187 -6242 6243 0
-6243 6259 0
-188 -6243 6244 0
-6244 6260 0
-189 -6244 6245 0
-6245 6261 0
-190 -6245 6246 0
-6246 6262 0
-191 -6246 6247 0
-6247 6263 0
-192 -6247 6248 0
-6248 6264 0
-193 -6248 0
-178 6249 0
-6249 6265 0
-179 -6249 6250 0
-6250 6266 0
-180 -6250 6251 0
-6251 6267 0
-181 -6251 6252 0
-6252 6268 0
-182 -6252 6253 0
-6253 6269 0
-183 -6253 6254 0
-6254 6270 0
-184 -6254 6255 0
-6255 6271 0
-185 -6255 6256 0
-6256 6272 0
-186 -6256 6257 0
-6257 6273 0
-187 -6257 6258 0
-6258 6274 0
-188 -6258 6259 0
-6259 6275 0
-189 -6259 6260 0
-6260 6276 0
-190 -6260 6261 0
-6261 6277 0
-191 -6261 6262 0
-6262 6278 0
-192 -6262 6263 0
-6263 6279 0
-193 -6263 6264 0
-6264 6280 0
-194 -6264 0
-179 6265 0
-6265 6281 0
-180 -6265 6266 0
-6266 6282 0
-181 -6266 6267 0
-6267 6283 0
-182 -6267 6268 0
-6268 6284 0
-183 -6268 6269 0
-6269 6285 0
-184 -6269 6270 0
-6270 6286 0
-185 -6270 6271 0
-6271 6287 0
-186 -6271 6272 0
-6272 6288 0
-187 -6272 6273 0
-6273 6289 0
-188 -6273 6274 0
-6274 6290 0
-189 -6274 6275 0
-6275 6291 0
-190 -6275 6276 0
-6276 6292 0
-191 -6276 6277 0
-6277 6293 0
-192 -6277 6278 0
-6278 6294 0
-193 -6278 6279 0
-6279 6295 0
-194 -6279 6280 0
-6280 6296 0
-195 -6280 0
-180 6281 0
-6281 6297 0
-181 -6281 6282 0
-6282 6298 0
-182 -6282 6283 0
-6283 6299 0
-183 -6283 6284 0
-6284 6300 0
-184 -6284 6285 0
-6285 6301 0
-185 -6285 6286 0
-6286 6302 0
-186 -6286 6287 0
-6287 6303 0
-187 -6287 6288 0
-6288 6304 0
-188 -6288 6289 0
-6289 6305 0
-189 -6289 6290 0
-6290 6306 0
-190 -6290 6291 0
-6291 6307 0
-191 -6291 6292 0
-6292 6308 0
-192 -6292 6293 0
-6293 6309 0
-193 -6293 6294 0
-6294 6310 0
-194 -6294 6295 0
-6295 6311 0
-195 -6295 6296 0
-6296 6312 0
-196 -6296 0
-181 6297 0
-6297 6313 0
-182 -6297 6298 0
-6298 6314 0
-183 -6298 6299 0
-6299 6315 0
-184 -6299 6300 0
-6300 6316 0
-185 -6300 6301 0
-6301 6317 0
-186 -6301 6302 0
-6302 6318 0
-187 -6302 6303 0
-6303 6319 0
-188 -6303 6304 0
-6304 6320 0
-189 -6304 6305 0
-6305 6321 0
-190 -6305 6306 0
-6306 6322 0
-191 -6306 6307 0
-6307 6323 0
-192 -6307 6308 0
-6308 6324 0
-193 -6308 6309 0
-6309 6325 0
-194 -6309 6310 0
-6310 6326 0
-195 -6310 6311 0
-6311 6327 0
-196 -6311 6312 0
-6312 6328 0
-197 -6312 0
-182 6313 0
-6313 6329 0
-183 -6313 6314 0
-6314 6330 0
-184 -6314 6315 0
-6315 6331 0
-185 -6315 6316 0
-6316 6332 0
-186 -6316 6317 0
-6317 6333 0
-187 -6317 6318 0
-6318 6334 0
-188 -6318 6319 0
-6319 6335 0
-189 -6319 6320 0
-6320 6336 0
-190 -6320 6321 0
-6321 6337 0
-191 -6321 6322 0
-6322 6338 0
-192 -6322 6323 0
-6323 6339 0
-193 -6323 6324 0
-6324 6340 0
-194 -6324 6325 0
-6325 6341 0
-195 -6325 6326 0
-6326 6342 0
-196 -6326 6327 0
-6327 6343 0
-197 -6327 6328 0
-6328 6344 0
-198 -6328 0
-183 6329 0
-6329 6345 0
-184 -6329 6330 0
-6330 6346 0
-185 -6330 6331 0
-6331 6347 0
-186 -6331 6332 0
-6332 6348 0
-187 -6332 6333 0
-6333 6349 0
-188 -6333 6334 0
-6334 6350 0
-189 -6334 6335 0
-6335 6351 0
-190 -6335 6336 0
-6336 6352 0
-191 -6336 6337 0
-6337 6353 0
-192 -6337 6338 0
-6338 6354 0
-193 -6338 6339 0
-6339 6355 0
-194 -6339 6340 0
-6340 6356 0
-195 -6340 6341 0
-6341 6357 0
-196 -6341 6342 0
-6342 6358 0
-197 -6342 6343 0
-6343 6359 0
-198 -6343 6344 0
-6344 6360 0
-199 -6344 0
-184 6345 0
-6345 6361 0
-185 -6345 6346 0
-6346 6362 0
-186 -6346 6347 0
-6347 6363 0
-187 -6347 6348 0
-6348 6364 0
-188 -6348 6349 0
-6349 6365 0
-189 -6349 6350 0
-6350 6366 0
-190 -6350 6351 0
-6351 6367 0
-191 -6351 6352 0
-6352 6368 0
-192 -6352 6353 0
-6353 6369 0
-193 -6353 6354 0
-6354 6370 0
-194 -6354 6355 0
-6355 6371 0
-195 -6355 6356 0
-6356 6372 0
-196 -6356 6357 0
-6357 6373 0
-197 -6357 6358 0
-6358 6374 0
-198 -6358 6359 0
-6359 6375 0
-199 -6359 6360 0
-6360 6376 0
-200 -6360 0
-185 6361 0
-6361 6377 0
-186 -6361 6362 0
-6362 6378 0
-187 -6362 6363 0
-6363 6379 0
-188 -6363 6364 0
-6364 6380 0
-189 -6364 6365 0
-6365 6381 0
-190 -6365 6366 0
-6366 6382 0
-191 -6366 6367 0
-6367 6383 0
-192 -6367 6368 0
-6368 6384 0
-193 -6368 6369 0
-6369 6385 0
-194 -6369 6370 0
-6370 6386 0
-195 -6370 6371 0
-6371 6387 0
-196 -6371 6372 0
-6372 6388 0
-197 -6372 6373 0
-6373 6389 0
-198 -6373 6374 0
-6374 6390 0
-199 -6374 6375 0
-6375 6391 0
-200 -6375 6376 0
-6376 6392 0
-201 -6376 0
-186 6377 0
-6377 6393 0
-187 -6377 6378 0
-6378 6394 0
-188 -6378 6379 0
-6379 6395 0
-189 -6379 6380 0
-6380 6396 0
-190 -6380 6381 0
-6381 6397 0
-191 -6381 6382 0
-6382 6398 0
-192 -6382 6383 0
-6383 6399 0
-193 -6383 6384 0
-6384 6400 0
-194 -6384 6385 0
-6385 6401 0
-195 -6385 6386 0
-6386 6402 0
-196 -6386 6387 0
-6387 6403 0
-197 -6387 6388 0
-6388 6404 0
-198 -6388 6389 0
-6389 6405 0
-199 -6389 6390 0
-6390 6406 0
-200 -6390 6391 0
-6391 6407 0
-201 -6391 6392 0
-6392 6408 0
-202 -6392 0
-187 6393 0
-6393 6409 0
-188 -6393 6394 0
-6394 6410 0
-189 -6394 6395 0
-6395 6411 0
-190 -6395 6396 0
-6396 6412 0
-191 -6396 6397 0
-6397 6413 0
-192 -6397 6398 0
-6398 6414 0
-193 -6398 6399 0
-6399 6415 0
-194 -6399 6400 0
-6400 6416 0
-195 -6400 6401 0
-6401 6417 0
-196 -6401 6402 0
-6402 6418 0
-197 -6402 6403 0
-6403 6419 0
-198 -6403 6404 0
-6404 6420 0
-199 -6404 6405 0
-6405 6421 0
-200 -6405 6406 0
-6406 6422 0
-201 -6406 6407 0
-6407 6423 0
-202 -6407 6408 0
-6408 6424 0
-203 -6408 0
-188 6409 0
-189 -6409 6410 0
-190 -6410 6411 0
-191 -6411 6412 0
-192 -6412 6413 0
-193 -6413 6414 0
-194 -6414 6415 0
-195 -6415 6416 0
-196 -6416 6417 0
-197 -6417 6418 0
-198 -6418 6419 0
-199 -6419 6420 0
-200 -6420 6421 0
-201 -6421 6422 0
-202 -6422 6423 0
-203 -6423 6424 0
-204 -6424 0
-205 6425 0
-6425 6426 0
-206 -6425 6427 0
-6427 6428 0
-207 -6427 6429 0
-6429 6430 0
-208 -6429 6431 0
-6431 6432 0
-209 -6431 6433 0
-6433 6434 0
-210 -6433 6435 0
-6435 6436 0
-211 -6435 6437 0
-6437 6438 0
-212 -6437 6439 0
-6439 6440 0
-213 -6439 6441 0
-6441 6442 0
-214 -6441 0
-206 6426 0
-6426 6443 0
-207 -6426 6428 0
-6428 6444 0
-208 -6428 6430 0
-6430 6445 0
-209 -6430 6432 0
-6432 6446 0
-210 -6432 6434 0
-6434 6447 0
-211 -6434 6436 0
-6436 6448 0
-212 -6436 6438 0
-6438 6449 0
-213 -6438 6440 0
-6440 6450 0
-214 -6440 6442 0
-6442 6451 0
-215 -6442 0
-207 6443 0
-6443 6452 0
-208 -6443 6444 0
-6444 6453 0
-209 -6444 6445 0
-6445 6454 0
-210 -6445 6446 0
-6446 6455 0
-211 -6446 6447 0
-6447 6456 0
-212 -6447 6448 0
-6448 6457 0
-213 -6448 6449 0
-6449 6458 0
-214 -6449 6450 0
-6450 6459 0
-215 -6450 6451 0
-6451 6460 0
-216 -6451 0
-208 6452 0
-6452 6461 0
-209 -6452 6453 0
-6453 6462 0
-210 -6453 6454 0
-6454 6463 0
-211 -6454 6455 0
-6455 6464 0
-212 -6455 6456 0
-6456 6465 0
-213 -6456 6457 0
-6457 6466 0
-214 -6457 6458 0
-6458 6467 0
-215 -6458 6459 0
-6459 6468 0
-216 -6459 6460 0
-6460 6469 0
-217 -6460 0
-209 6461 0
-6461 6470 0
-210 -6461 6462 0
-6462 6471 0
-211 -6462 6463 0
-6463 6472 0
-212 -6463 6464 0
-6464 6473 0
-213 -6464 6465 0
-6465 6474 0
-214 -6465 6466 0
-6466 6475 0
-215 -6466 6467 0
-6467 6476 0
-216 -6467 6468 0
-6468 6477 0
-217 -6468 6469 0
-6469 6478 0
-218 -6469 0
-210 6470 0
-6470 6479 0
-211 -6470 6471 0
-6471 6480 0
-212 -6471 6472 0
-6472 6481 0
-213 -6472 6473 0
-6473 6482 0
-214 -6473 6474 0
-6474 6483 0
-215 -6474 6475 0
-6475 6484 0
-216 -6475 6476 0
-6476 6485 0
-217 -6476 6477 0
-6477 6486 0
-218 -6477 6478 0
-6478 6487 0
-219 -6478 0
-211 6479 0
-6479 6488 0
-212 -6479 6480 0
-6480 6489 0
-213 -6480 6481 0
-6481 6490 0
-214 -6481 6482 0
-6482 6491 0
-215 -6482 6483 0
-6483 6492 0
-216 -6483 6484 0
-6484 6493 0
-217 -6484 6485 0
-6485 6494 0
-218 -6485 6486 0
-6486 6495 0
-219 -6486 6487 0
-6487 6496 0
-220 -6487 0
-212 6488 0
-6488 6497 0
-213 -6488 6489 0
-6489 6498 0
-214 -6489 6490 0
-6490 6499 0
-215 -6490 6491 0
-6491 6500 0
-216 -6491 6492 0
-6492 6501 0
-217 -6492 6493 0
-6493 6502 0
-218 -6493 6494 0
-6494 6503 0
-219 -6494 6495 0
-6495 6504 0
-220 -6495 6496 0
-6496 6505 0
-221 -6496 0
-213 6497 0
-6497 6506 0
-214 -6497 6498 0
-6498 6507 0
-215 -6498 6499 0
-6499 6508 0
-216 -6499 6500 0
-6500 6509 0
-217 -6500 6501 0
-6501 6510 0
-218 -6501 6502 0
-6502 6511 0
-219 -6502 6503 0
-6503 6512 0
-220 -6503 6504 0
-6504 6513 0
-221 -6504 6505 0
-6505 6514 0
-222 -6505 0
-214 6506 0
-6506 6515 0
-215 -6506 6507 0
-6507 6516 0
-216 -6507 6508 0
-6508 6517 0
-217 -6508 6509 0
-6509 6518 0
-218 -6509 6510 0
-6510 6519 0
-219 -6510 6511 0
-6511 6520 0
-220 -6511 6512 0
-6512 6521 0
-221 -6512 6513 0
-6513 6522 0
-222 -6513 6514 0
-6514 6523 0
-223 -6514 0
-215 6515 0
-6515 6524 0
-216 -6515 6516 0
-6516 6525 0
-217 -6516 6517 0
-6517 6526 0
-218 -6517 6518 0
-6518 6527 0
-219 -6518 6519 0
-6519 6528 0
-220 -6519 6520 0
-6520 6529 0
-221 -6520 6521 0
-6521 6530 0
-222 -6521 6522 0
-6522 6531 0
-223 -6522 6523 0
-6523 6532 0
-224 -6523 0
-216 6524 0
-6524 6533 0
-217 -6524 6525 0
-6525 6534 0
-218 -6525 6526 0
-6526 6535 0
-219 -6526 6527 0
-6527 6536 0
-220 -6527 6528 0
-6528 6537 0
-221 -6528 6529 0
-6529 6538 0
-222 -6529 6530 0
-6530 6539 0
-223 -6530 6531 0
-6531 6540 0
-224 -6531 6532 0
-6532 6541 0
-225 -6532 0
-217 6533 0
-6533 6542 0
-218 -6533 6534 0
-6534 6543 0
-219 -6534 6535 0
-6535 6544 0
-220 -6535 6536 0
-6536 6545 0
-221 -6536 6537 0
-6537 6546 0
-222 -6537 6538 0
-6538 6547 0
-223 -6538 6539 0
-6539 6548 0
-224 -6539 6540 0
-6540 6549 0
-225 -6540 6541 0
-6541 6550 0
-226 -6541 0
-218 6542 0
-6542 6551 0
-219 -6542 6543 0
-6543 6552 0
-220 -6543 6544 0
-6544 6553 0
-221 -6544 6545 0
-6545 6554 0
-222 -6545 6546 0
-6546 6555 0
-223 -6546 6547 0
-6547 6556 0
-224 -6547 6548 0
-6548 6557 0
-225 -6548 6549 0
-6549 6558 0
-226 -6549 6550 0
-6550 6559 0
-227 -6550 0
-219 6551 0
-6551 6560 0
-220 -6551 6552 0
-6552 6561 0
-221 -6552 6553 0
-6553 6562 0
-222 -6553 6554 0
-6554 6563 0
-223 -6554 6555 0
-6555 6564 0
-224 -6555 6556 0
-6556 6565 0
-225 -6556 6557 0
-6557 6566 0
-226 -6557 6558 0
-6558 6567 0
-227 -6558 6559 0
-6559 6568 0
-228 -6559 0
-220 6560 0
-6560 6569 0
-221 -6560 6561 0
-6561 6570 0
-222 -6561 6562 0
-6562 6571 0
-223 -6562 6563 0
-6563 6572 0
-224 -6563 6564 0
-6564 6573 0
-225 -6564 6565 0
-6565 6574 0
-226 -6565 6566 0
-6566 6575 0
-227 -6566 6567 0
-6567 6576 0
-228 -6567 6568 0
-6568 6577 0
-229 -6568 0
-221 6569 0
-6569 6578 0
-222 -6569 6570 0
-6570 6579 0
-223 -6570 6571 0
-6571 6580 0
-224 -6571 6572 0
-6572 6581 0
-225 -6572 6573 0
-6573 6582 0
-226 -6573 6574 0
-6574 6583 0
-227 -6574 6575 0
-6575 6584 0
-228 -6575 6576 0
-6576 6585 0
-229 -6576 6577 0
-6577 6586 0
-230 -6577 0
-222 6578 0
-6578 6587 0
-223 -6578 6579 0
-6579 6588 0
-224 -6579 6580 0
-6580 6589 0
-225 -6580 6581 0
-6581 6590 0
-226 -6581 6582 0
-6582 6591 0
-227 -6582 6583 0
-6583 6592 0
-228 -6583 6584 0
-6584 6593 0
-229 -6584 6585 0
-6585 6594 0
-230 -6585 6586 0
-6586 6595 0
-231 -6586 0
-223 6587 0
-6587 6596 0
-224 -6587 6588 0
-6588 6597 0
-225 -6588 6589 0
-6589 6598 0
-226 -6589 6590 0
-6590 6599 0
-227 -6590 6591 0
-6591 6600 0
-228 -6591 6592 0
-6592 6601 0
-229 -6592 6593 0
-6593 6602 0
-230 -6593 6594 0
-6594 6603 0
-231 -6594 6595 0
-6595 6604 0
-232 -6595 0
-224 6596 0
-6596 6605 0
-225 -6596 6597 0
-6597 6606 0
-226 -6597 6598 0
-6598 6607 0
-227 -6598 6599 0
-6599 6608 0
-228 -6599 6600 0
-6600 6609 0
-229 -6600 6601 0
-6601 6610 0
-230 -6601 6602 0
-6602 6611 0
-231 -6602 6603 0
-6603 6612 0
-232 -6603 6604 0
-6604 6613 0
-233 -6604 0
-225 6605 0
-6605 6614 0
-226 -6605 6606 0
-6606 6615 0
-227 -6606 6607 0
-6607 6616 0
-228 -6607 6608 0
-6608 6617 0
-229 -6608 6609 0
-6609 6618 0
-230 -6609 6610 0
-6610 6619 0
-231 -6610 6611 0
-6611 6620 0
-232 -6611 6612 0
-6612 6621 0
-233 -6612 6613 0
-6613 6622 0
-234 -6613 0
-226 6614 0
-6614 6623 0
-227 -6614 6615 0
-6615 6624 0
-228 -6615 6616 0
-6616 6625 0
-229 -6616 6617 0
-6617 6626 0
-230 -6617 6618 0
-6618 6627 0
-231 -6618 6619 0
-6619 6628 0
-232 -6619 6620 0
-6620 6629 0
-233 -6620 6621 0
-6621 6630 0
-234 -6621 6622 0
-6622 6631 0
-235 -6622 0
-227 6623 0
-6623 6632 0
-228 -6623 6624 0
-6624 6633 0
-229 -6624 6625 0
-6625 6634 0
-230 -6625 6626 0
-6626 6635 0
-231 -6626 6627 0
-6627 6636 0
-232 -6627 6628 0
-6628 6637 0
-233 -6628 6629 0
-6629 6638 0
-234 -6629 6630 0
-6630 6639 0
-235 -6630 6631 0
-6631 6640 0
-236 -6631 0
-228 6632 0
-6632 6641 0
-229 -6632 6633 0
-6633 6642 0
-230 -6633 6634 0
-6634 6643 0
-231 -6634 6635 0
-6635 6644 0
-232 -6635 6636 0
-6636 6645 0
-233 -6636 6637 0
-6637 6646 0
-234 -6637 6638 0
-6638 6647 0
-235 -6638 6639 0
-6639 6648 0
-236 -6639 6640 0
-6640 6649 0
-237 -6640 0
-229 6641 0
-6641 6650 0
-230 -6641 6642 0
-6642 6651 0
-231 -6642 6643 0
-6643 6652 0
-232 -6643 6644 0
-6644 6653 0
-233 -6644 6645 0
-6645 6654 0
-234 -6645 6646 0
-6646 6655 0
-235 -6646 6647 0
-6647 6656 0
-236 -6647 6648 0
-6648 6657 0
-237 -6648 6649 0
-6649 6658 0
-238 -6649 0
-230 6650 0
-6650 6659 0
-231 -6650 6651 0
-6651 6660 0
-232 -6651 6652 0
-6652 6661 0
-233 -6652 6653 0
-6653 6662 0
-234 -6653 6654 0
-6654 6663 0
-235 -6654 6655 0
-6655 6664 0
-236 -6655 6656 0
-6656 6665 0
-237 -6656 6657 0
-6657 6666 0
-238 -6657 6658 0
-6658 6667 0
-239 -6658 0
-231 6659 0
-6659 6668 0
-232 -6659 6660 0
-6660 6669 0
-233 -6660 6661 0
-6661 6670 0
-234 -6661 6662 0
-6662 6671 0
-235 -6662 6663 0
-6663 6672 0
-236 -6663 6664 0
-6664 6673 0
-237 -6664 6665 0
-6665 6674 0
-238 -6665 6666 0
-6666 6675 0
-239 -6666 6667 0
-6667 6676 0
-240 -6667 0
-232 6668 0
-6668 6677 0
-233 -6668 6669 0
-6669 6678 0
-234 -6669 6670 0
-6670 6679 0
-235 -6670 6671 0
-6671 6680 0
-236 -6671 6672 0
-6672 6681 0
-237 -6672 6673 0
-6673 6682 0
-238 -6673 6674 0
-6674 6683 0
-239 -6674 6675 0
-6675 6684 0
-240 -6675 6676 0
-6676 6685 0
-241 -6676 0
-233 6677 0
-6677 6686 0
-234 -6677 6678 0
-6678 6687 0
-235 -6678 6679 0
-6679 6688 0
-236 -6679 6680 0
-6680 6689 0
-237 -6680 6681 0
-6681 6690 0
-238 -6681 6682 0
-6682 6691 0
-239 -6682 6683 0
-6683 6692 0
-240 -6683 6684 0
-6684 6693 0
-241 -6684 6685 0
-6685 6694 0
-242 -6685 0
-234 6686 0
-6686 6695 0
-235 -6686 6687 0
-6687 6696 0
-236 -6687 6688 0
-6688 6697 0
-237 -6688 6689 0
-6689 6698 0
-238 -6689 6690 0
-6690 6699 0
-239 -6690 6691 0
-6691 6700 0
-240 -6691 6692 0
-6692 6701 0
-241 -6692 6693 0
-6693 6702 0
-242 -6693 6694 0
-6694 6703 0
-243 -6694 0
-235 6695 0
-6695 6704 0
-236 -6695 6696 0
-6696 6705 0
-237 -6696 6697 0
-6697 6706 0
-238 -6697 6698 0
-6698 6707 0
-239 -6698 6699 0
-6699 6708 0
-240 -6699 6700 0
-6700 6709 0
-241 -6700 6701 0
-6701 6710 0
-242 -6701 6702 0
-6702 6711 0
-243 -6702 6703 0
-6703 6712 0
-244 -6703 0
-236 6704 0
-6704 6713 0
-237 -6704 6705 0
-6705 6714 0
-238 -6705 6706 0
-6706 6715 0
-239 -6706 6707 0
-6707 6716 0
-240 -6707 6708 0
-6708 6717 0
-241 -6708 6709 0
-6709 6718 0
-242 -6709 6710 0
-6710 6719 0
-243 -6710 6711 0
-6711 6720 0
-244 -6711 6712 0
-6712 6721 0
-245 -6712 0
-237 6713 0
-6713 6722 0
-238 -6713 6714 0
-6714 6723 0
-239 -6714 6715 0
-6715 6724 0
-240 -6715 6716 0
-6716 6725 0
-241 -6716 6717 0
-6717 6726 0
-242 -6717 6718 0
-6718 6727 0
-243 -6718 6719 0
-6719 6728 0
-244 -6719 6720 0
-6720 6729 0
-245 -6720 6721 0
-6721 6730 0
-246 -6721 0
-238 6722 0
-6722 6731 0
-239 -6722 6723 0
-6723 6732 0
-240 -6723 6724 0
-6724 6733 0
-241 -6724 6725 0
-6725 6734 0
-242 -6725 6726 0
-6726 6735 0
-243 -6726 6727 0
-6727 6736 0
-244 -6727 6728 0
-6728 6737 0
-245 -6728 6729 0
-6729 6738 0
-246 -6729 6730 0
-6730 6739 0
-247 -6730 0
-239 6731 0
-6731 6740 0
-240 -6731 6732 0
-6732 6741 0
-241 -6732 6733 0
-6733 6742 0
-242 -6733 6734 0
-6734 6743 0
-243 -6734 6735 0
-6735 6744 0
-244 -6735 6736 0
-6736 6745 0
-245 -6736 6737 0
-6737 6746 0
-246 -6737 6738 0
-6738 6747 0
-247 -6738 6739 0
-6739 6748 0
-248 -6739 0
-240 6740 0
-6740 6749 0
-241 -6740 6741 0
-6741 6750 0
-242 -6741 6742 0
-6742 6751 0
-243 -6742 6743 0
-6743 6752 0
-244 -6743 6744 0
-6744 6753 0
-245 -6744 6745 0
-6745 6754 0
-246 -6745 6746 0
-6746 6755 0
-247 -6746 6747 0
-6747 6756 0
-248 -6747 6748 0
-6748 6757 0
-249 -6748 0
-241 6749 0
-6749 6758 0
-242 -6749 6750 0
-6750 6759 0
-243 -6750 6751 0
-6751 6760 0
-244 -6751 6752 0
-6752 6761 0
-245 -6752 6753 0
-6753 6762 0
-246 -6753 6754 0
-6754 6763 0
-247 -6754 6755 0
-6755 6764 0
-248 -6755 6756 0
-6756 6765 0
-249 -6756 6757 0
-6757 6766 0
-250 -6757 0
-242 6758 0
-6758 6767 0
-243 -6758 6759 0
-6759 6768 0
-244 -6759 6760 0
-6760 6769 0
-245 -6760 6761 0
-6761 6770 0
-246 -6761 6762 0
-6762 6771 0
-247 -6762 6763 0
-6763 6772 0
-248 -6763 6764 0
-6764 6773 0
-249 -6764 6765 0
-6765 6774 0
-250 -6765 6766 0
-6766 6775 0
-251 -6766 0
-243 6767 0
-6767 6776 0
-244 -6767 6768 0
-6768 6777 0
-245 -6768 6769 0
-6769 6778 0
-246 -6769 6770 0
-6770 6779 0
-247 -6770 6771 0
-6771 6780 0
-248 -6771 6772 0
-6772 6781 0
-249 -6772 6773 0
-6773 6782 0
-250 -6773 6774 0
-6774 6783 0
-251 -6774 6775 0
-6775 6784 0
-252 -6775 0
-244 6776 0
-6776 6785 0
-245 -6776 6777 0
-6777 6786 0
-246 -6777 6778 0
-6778 6787 0
-247 -6778 6779 0
-6779 6788 0
-248 -6779 6780 0
-6780 6789 0
-249 -6780 6781 0
-6781 6790 0
-250 -6781 6782 0
-6782 6791 0
-251 -6782 6783 0
-6783 6792 0
-252 -6783 6784 0
-6784 6793 0
-253 -6784 0
-245 6785 0
-6785 6794 0
-246 -6785 6786 0
-6786 6795 0
-247 -6786 6787 0
-6787 6796 0
-248 -6787 6788 0
-6788 6797 0
-249 -6788 6789 0
-6789 6798 0
-250 -6789 6790 0
-6790 6799 0
-251 -6790 6791 0
-6791 6800 0
-252 -6791 6792 0
-6792 6801 0
-253 -6792 6793 0
-6793 6802 0
-254 -6793 0
-246 6794 0
-6794 6803 0
-247 -6794 6795 0
-6795 6804 0
-248 -6795 6796 0
-6796 6805 0
-249 -6796 6797 0
-6797 6806 0
-250 -6797 6798 0
-6798 6807 0
-251 -6798 6799 0
-6799 6808 0
-252 -6799 6800 0
-6800 6809 0
-253 -6800 6801 0
-6801 6810 0
-254 -6801 6802 0
-6802 6811 0
-255 -6802 0
-247 6803 0
-6803 6812 0
-248 -6803 6804 0
-6804 6813 0
-249 -6804 6805 0
-6805 6814 0
-250 -6805 6806 0
-6806 6815 0
-251 -6806 6807 0
-6807 6816 0
-252 -6807 6808 0
-6808 6817 0
-253 -6808 6809 0
-6809 6818 0
-254 -6809 6810 0
-6810 6819 0
-255 -6810 6811 0
-6811 6820 0
-256 -6811 0
-248 6812 0
-6812 6821 0
-249 -6812 6813 0
-6813 6822 0
-250 -6813 6814 0
-6814 6823 0
-251 -6814 6815 0
-6815 6824 0
-252 -6815 6816 0
-6816 6825 0
-253 -6816 6817 0
-6817 6826 0
-254 -6817 6818 0
-6818 6827 0
-255 -6818 6819 0
-6819 6828 0
-256 -6819 6820 0
-6820 6829 0
-257 -6820 0
-249 6821 0
-6821 6830 0
-250 -6821 6822 0
-6822 6831 0
-251 -6822 6823 0
-6823 6832 0
-252 -6823 6824 0
-6824 6833 0
-253 -6824 6825 0
-6825 6834 0
-254 -6825 6826 0
-6826 6835 0
-255 -6826 6827 0
-6827 6836 0
-256 -6827 6828 0
-6828 6837 0
-257 -6828 6829 0
-6829 6838 0
-258 -6829 0
-250 6830 0
-6830 6839 0
-251 -6830 6831 0
-6831 6840 0
-252 -6831 6832 0
-6832 6841 0
-253 -6832 6833 0
-6833 6842 0
-254 -6833 6834 0
-6834 6843 0
-255 -6834 6835 0
-6835 6844 0
-256 -6835 6836 0
-6836 6845 0
-257 -6836 6837 0
-6837 6846 0
-258 -6837 6838 0
-6838 6847 0
-259 -6838 0
-251 6839 0
-6839 6848 0
-252 -6839 6840 0
-6840 6849 0
-253 -6840 6841 0
-6841 6850 0
-254 -6841 6842 0
-6842 6851 0
-255 -6842 6843 0
-6843 6852 0
-256 -6843 6844 0
-6844 6853 0
-257 -6844 6845 0
-6845 6854 0
-258 -6845 6846 0
-6846 6855 0
-259 -6846 6847 0
-6847 6856 0
-260 -6847 0
-252 6848 0
-6848 6857 0
-253 -6848 6849 0
-6849 6858 0
-254 -6849 6850 0
-6850 6859 0
-255 -6850 6851 0
-6851 6860 0
-256 -6851 6852 0
-6852 6861 0
-257 -6852 6853 0
-6853 6862 0
-258 -6853 6854 0
-6854 6863 0
-259 -6854 6855 0
-6855 6864 0
-260 -6855 6856 0
-6856 6865 0
-261 -6856 0
-253 6857 0
-6857 6866 0
-254 -6857 6858 0
-6858 6867 0
-255 -6858 6859 0
-6859 6868 0
-256 -6859 6860 0
-6860 6869 0
-257 -6860 6861 0
-6861 6870 0
-258 -6861 6862 0
-6862 6871 0
-259 -6862 6863 0
-6863 6872 0
-260 -6863 6864 0
-6864 6873 0
-261 -6864 6865 0
-6865 6874 0
-262 -6865 0
-254 6866 0
-6866 6875 0
-255 -6866 6867 0
-6867 6876 0
-256 -6867 6868 0
-6868 6877 0
-257 -6868 6869 0
-6869 6878 0
-258 -6869 6870 0
-6870 6879 0
-259 -6870 6871 0
-6871 6880 0
-260 -6871 6872 0
-6872 6881 0
-261 -6872 6873 0
-6873 6882 0
-262 -6873 6874 0
-6874 6883 0
-263 -6874 0
-255 6875 0
-6875 6884 0
-256 -6875 6876 0
-6876 6885 0
-257 -6876 6877 0
-6877 6886 0
-258 -6877 6878 0
-6878 6887 0
-259 -6878 6879 0
-6879 6888 0
-260 -6879 6880 0
-6880 6889 0
-261 -6880 6881 0
-6881 6890 0
-262 -6881 6882 0
-6882 6891 0
-263 -6882 6883 0
-6883 6892 0
-264 -6883 0
-256 6884 0
-6884 6893 0
-257 -6884 6885 0
-6885 6894 0
-258 -6885 6886 0
-6886 6895 0
-259 -6886 6887 0
-6887 6896 0
-260 -6887 6888 0
-6888 6897 0
-261 -6888 6889 0
-6889 6898 0
-262 -6889 6890 0
-6890 6899 0
-263 -6890 6891 0
-6891 6900 0
-264 -6891 6892 0
-6892 6901 0
-265 -6892 0
-257 6893 0
-6893 6902 0
-258 -6893 6894 0
-6894 6903 0
-259 -6894 6895 0
-6895 6904 0
-260 -6895 6896 0
-6896 6905 0
-261 -6896 6897 0
-6897 6906 0
-262 -6897 6898 0
-6898 6907 0
-263 -6898 6899 0
-6899 6908 0
-264 -6899 6900 0
-6900 6909 0
-265 -6900 6901 0
-6901 6910 0
-266 -6901 0
-258 6902 0
-6902 6911 0
-259 -6902 6903 0
-6903 6912 0
-260 -6903 6904 0
-6904 6913 0
-261 -6904 6905 0
-6905 6914 0
-262 -6905 6906 0
-6906 6915 0
-263 -6906 6907 0
-6907 6916 0
-264 -6907 6908 0
-6908 6917 0
-265 -6908 6909 0
-6909 6918 0
-266 -6909 6910 0
-6910 6919 0
-267 -6910 0
-259 6911 0
-6911 6920 0
-260 -6911 6912 0
-6912 6921 0
-261 -6912 6913 0
-6913 6922 0
-262 -6913 6914 0
-6914 6923 0
-263 -6914 6915 0
-6915 6924 0
-264 -6915 6916 0
-6916 6925 0
-265 -6916 6917 0
-6917 6926 0
-266 -6917 6918 0
-6918 6927 0
-267 -6918 6919 0
-6919 6928 0
-268 -6919 0
-260 6920 0
-6920 6929 0
-261 -6920 6921 0
-6921 6930 0
-262 -6921 6922 0
-6922 6931 0
-263 -6922 6923 0
-6923 6932 0
-264 -6923 6924 0
-6924 6933 0
-265 -6924 6925 0
-6925 6934 0
-266 -6925 6926 0
-6926 6935 0
-267 -6926 6927 0
-6927 6936 0
-268 -6927 6928 0
-6928 6937 0
-269 -6928 0
-261 6929 0
-6929 6938 0
-262 -6929 6930 0
-6930 6939 0
-263 -6930 6931 0
-6931 6940 0
-264 -6931 6932 0
-6932 6941 0
-265 -6932 6933 0
-6933 6942 0
-266 -6933 6934 0
-6934 6943 0
-267 -6934 6935 0
-6935 6944 0
-268 -6935 6936 0
-6936 6945 0
-269 -6936 6937 0
-6937 6946 0
-270 -6937 0
-262 6938 0
-6938 6947 0
-263 -6938 6939 0
-6939 6948 0
-264 -6939 6940 0
-6940 6949 0
-265 -6940 6941 0
-6941 6950 0
-266 -6941 6942 0
-6942 6951 0
-267 -6942 6943 0
-6943 6952 0
-268 -6943 6944 0
-6944 6953 0
-269 -6944 6945 0
-6945 6954 0
-270 -6945 6946 0
-6946 6955 0
-271 -6946 0
-263 6947 0
-6947 6956 0
-264 -6947 6948 0
-6948 6957 0
-265 -6948 6949 0
-6949 6958 0
-266 -6949 6950 0
-6950 6959 0
-267 -6950 6951 0
-6951 6960 0
-268 -6951 6952 0
-6952 6961 0
-269 -6952 6953 0
-6953 6962 0
-270 -6953 6954 0
-6954 6963 0
-271 -6954 6955 0
-6955 6964 0
-272 -6955 0
-264 6956 0
-6956 6965 0
-265 -6956 6957 0
-6957 6966 0
-266 -6957 6958 0
-6958 6967 0
-267 -6958 6959 0
-6959 6968 0
-268 -6959 6960 0
-6960 6969 0
-269 -6960 6961 0
-6961 6970 0
-270 -6961 6962 0
-6962 6971 0
-271 -6962 6963 0
-6963 6972 0
-272 -6963 6964 0
-6964 6973 0
-273 -6964 0
-265 6965 0
-6965 6974 0
-266 -6965 6966 0
-6966 6975 0
-267 -6966 6967 0
-6967 6976 0
-268 -6967 6968 0
-6968 6977 0
-269 -6968 6969 0
-6969 6978 0
-270 -6969 6970 0
-6970 6979 0
-271 -6970 6971 0
-6971 6980 0
-272 -6971 6972 0
-6972 6981 0
-273 -6972 6973 0
-6973 6982 0
-274 -6973 0
-266 6974 0
-6974 6983 0
-267 -6974 6975 0
-6975 6984 0
-268 -6975 6976 0
-6976 6985 0
-269 -6976 6977 0
-6977 6986 0
-270 -6977 6978 0
-6978 6987 0
-271 -6978 6979 0
-6979 6988 0
-272 -6979 6980 0
-6980 6989 0
-273 -6980 6981 0
-6981 6990 0
-274 -6981 6982 0
-6982 6991 0
-275 -6982 0
-267 6983 0
-6983 6992 0
-268 -6983 6984 0
-6984 6993 0
-269 -6984 6985 0
-6985 6994 0
-270 -6985 6986 0
-6986 6995 0
-271 -6986 6987 0
-6987 6996 0
-272 -6987 6988 0
-6988 6997 0
-273 -6988 6989 0
-6989 6998 0
-274 -6989 6990 0
-6990 6999 0
-275 -6990 6991 0
-6991 7000 0
-276 -6991 0
-268 6992 0
-6992 7001 0
-269 -6992 6993 0
-6993 7002 0
-270 -6993 6994 0
-6994 7003 0
-271 -6994 6995 0
-6995 7004 0
-272 -6995 6996 0
-6996 7005 0
-273 -6996 6997 0
-6997 7006 0
-274 -6997 6998 0
-6998 7007 0
-275 -6998 6999 0
-6999 7008 0
-276 -6999 7000 0
-7000 7009 0
-277 -7000 0
-269 7001 0
-7001 7010 0
-270 -7001 7002 0
-7002 7011 0
-271 -7002 7003 0
-7003 7012 0
-272 -7003 7004 0
-7004 7013 0
-273 -7004 7005 0
-7005 7014 0
-274 -7005 7006 0
-7006 7015 0
-275 -7006 7007 0
-7007 7016 0
-276 -7007 7008 0
-7008 7017 0
-277 -7008 7009 0
-7009 7018 0
-278 -7009 0
-270 7010 0
-7010 7019 0
-271 -7010 7011 0
-7011 7020 0
-272 -7011 7012 0
-7012 7021 0
-273 -7012 7013 0
-7013 7022 0
-274 -7013 7014 0
-7014 7023 0
-275 -7014 7015 0
-7015 7024 0
-276 -7015 7016 0
-7016 7025 0
-277 -7016 7017 0
-7017 7026 0
-278 -7017 7018 0
-7018 7027 0
-279 -7018 0
-271 7019 0
-7019 7028 0
-272 -7019 7020 0
-7020 7029 0
-273 -7020 7021 0
-7021 7030 0
-274 -7021 7022 0
-7022 7031 0
-275 -7022 7023 0
-7023 7032 0
-276 -7023 7024 0
-7024 7033 0
-277 -7024 7025 0
-7025 7034 0
-278 -7025 7026 0
-7026 7035 0
-279 -7026 7027 0
-7027 7036 0
-280 -7027 0
-272 7028 0
-7028 7037 0
-273 -7028 7029 0
-7029 7038 0
-274 -7029 7030 0
-7030 7039 0
-275 -7030 7031 0
-7031 7040 0
-276 -7031 7032 0
-7032 7041 0
-277 -7032 7033 0
-7033 7042 0
-278 -7033 7034 0
-7034 7043 0
-279 -7034 7035 0
-7035 7044 0
-280 -7035 7036 0
-7036 7045 0
-281 -7036 0
-273 7037 0
-7037 7046 0
-274 -7037 7038 0
-7038 7047 0
-275 -7038 7039 0
-7039 7048 0
-276 -7039 7040 0
-7040 7049 0
-277 -7040 7041 0
-7041 7050 0
-278 -7041 7042 0
-7042 7051 0
-279 -7042 7043 0
-7043 7052 0
-280 -7043 7044 0
-7044 7053 0
-281 -7044 7045 0
-7045 7054 0
-282 -7045 0
-274 7046 0
-7046 7055 0
-275 -7046 7047 0
-7047 7056 0
-276 -7047 7048 0
-7048 7057 0
-277 -7048 7049 0
-7049 7058 0
-278 -7049 7050 0
-7050 7059 0
-279 -7050 7051 0
-7051 7060 0
-280 -7051 7052 0
-7052 7061 0
-281 -7052 7053 0
-7053 7062 0
-282 -7053 7054 0
-7054 7063 0
-283 -7054 0
-275 7055 0
-7055 7064 0
-276 -7055 7056 0
-7056 7065 0
-277 -7056 7057 0
-7057 7066 0
-278 -7057 7058 0
-7058 7067 0
-279 -7058 7059 0
-7059 7068 0
-280 -7059 7060 0
-7060 7069 0
-281 -7060 7061 0
-7061 7070 0
-282 -7061 7062 0
-7062 7071 0
-283 -7062 7063 0
-7063 7072 0
-284 -7063 0
-276 7064 0
-7064 7073 0
-277 -7064 7065 0
-7065 7074 0
-278 -7065 7066 0
-7066 7075 0
-279 -7066 7067 0
-7067 7076 0
-280 -7067 7068 0
-7068 7077 0
-281 -7068 7069 0
-7069 7078 0
-282 -7069 7070 0
-7070 7079 0
-283 -7070 7071 0
-7071 7080 0
-284 -7071 7072 0
-7072 7081 0
-285 -7072 0
-277 7073 0
-7073 7082 0
-278 -7073 7074 0
-7074 7083 0
-279 -7074 7075 0
-7075 7084 0
-280 -7075 7076 0
-7076 7085 0
-281 -7076 7077 0
-7077 7086 0
-282 -7077 7078 0
-7078 7087 0
-283 -7078 7079 0
-7079 7088 0
-284 -7079 7080 0
-7080 7089 0
-285 -7080 7081 0
-7081 7090 0
-286 -7081 0
-278 7082 0
-7082 7091 0
-279 -7082 7083 0
-7083 7092 0
-280 -7083 7084 0
-7084 7093 0
-281 -7084 7085 0
-7085 7094 0
-282 -7085 7086 0
-7086 7095 0
-283 -7086 7087 0
-7087 7096 0
-284 -7087 7088 0
-7088 7097 0
-285 -7088 7089 0
-7089 7098 0
-286 -7089 7090 0
-7090 7099 0
-287 -7090 0
-279 7091 0
-7091 7100 0
-280 -7091 7092 0
-7092 7101 0
-281 -7092 7093 0
-7093 7102 0
-282 -7093 7094 0
-7094 7103 0
-283 -7094 7095 0
-7095 7104 0
-284 -7095 7096 0
-7096 7105 0
-285 -7096 7097 0
-7097 7106 0
-286 -7097 7098 0
-7098 7107 0
-287 -7098 7099 0
-7099 7108 0
-288 -7099 0
-280 7100 0
-7100 7109 0
-281 -7100 7101 0
-7101 7110 0
-282 -7101 7102 0
-7102 7111 0
-283 -7102 7103 0
-7103 7112 0
-284 -7103 7104 0
-7104 7113 0
-285 -7104 7105 0
-7105 7114 0
-286 -7105 7106 0
-7106 7115 0
-287 -7106 7107 0
-7107 7116 0
-288 -7107 7108 0
-7108 7117 0
-289 -7108 0
-281 7109 0
-7109 7118 0
-282 -7109 7110 0
-7110 7119 0
-283 -7110 7111 0
-7111 7120 0
-284 -7111 7112 0
-7112 7121 0
-285 -7112 7113 0
-7113 7122 0
-286 -7113 7114 0
-7114 7123 0
-287 -7114 7115 0
-7115 7124 0
-288 -7115 7116 0
-7116 7125 0
-289 -7116 7117 0
-7117 7126 0
-290 -7117 0
-282 7118 0
-7118 7127 0
-283 -7118 7119 0
-7119 7128 0
-284 -7119 7120 0
-7120 7129 0
-285 -7120 7121 0
-7121 7130 0
-286 -7121 7122 0
-7122 7131 0
-287 -7122 7123 0
-7123 7132 0
-288 -7123 7124 0
-7124 7133 0
-289 -7124 7125 0
-7125 7134 0
-290 -7125 7126 0
-7126 7135 0
-291 -7126 0
-283 7127 0
-7127 7136 0
-284 -7127 7128 0
-7128 7137 0
-285 -7128 7129 0
-7129 7138 0
-286 -7129 7130 0
-7130 7139 0
-287 -7130 7131 0
-7131 7140 0
-288 -7131 7132 0
-7132 7141 0
-289 -7132 7133 0
-7133 7142 0
-290 -7133 7134 0
-7134 7143 0
-291 -7134 7135 0
-7135 7144 0
-292 -7135 0
-284 7136 0
-7136 7145 0
-285 -7136 7137 0
-7137 7146 0
-286 -7137 7138 0
-7138 7147 0
-287 -7138 7139 0
-7139 7148 0
-288 -7139 7140 0
-7140 7149 0
-289 -7140 7141 0
-7141 7150 0
-290 -7141 7142 0
-7142 7151 0
-291 -7142 7143 0
-7143 7152 0
-292 -7143 7144 0
-7144 7153 0
-293 -7144 0
-285 7145 0
-7145 7154 0
-286 -7145 7146 0
-7146 7155 0
-287 -7146 7147 0
-7147 7156 0
-288 -7147 7148 0
-7148 7157 0
-289 -7148 7149 0
-7149 7158 0
-290 -7149 7150 0
-7150 7159 0
-291 -7150 7151 0
-7151 7160 0
-292 -7151 7152 0
-7152 7161 0
-293 -7152 7153 0
-7153 7162 0
-294 -7153 0
-286 7154 0
-7154 7163 0
-287 -7154 7155 0
-7155 7164 0
-288 -7155 7156 0
-7156 7165 0
-289 -7156 7157 0
-7157 7166 0
-290 -7157 7158 0
-7158 7167 0
-291 -7158 7159 0
-7159 7168 0
-292 -7159 7160 0
-7160 7169 0
-293 -7160 7161 0
-7161 7170 0
-294 -7161 7162 0
-7162 7171 0
-295 -7162 0
-287 7163 0
-7163 7172 0
-288 -7163 7164 0
-7164 7173 0
-289 -7164 7165 0
-7165 7174 0
-290 -7165 7166 0
-7166 7175 0
-291 -7166 7167 0
-7167 7176 0
-292 -7167 7168 0
-7168 7177 0
-293 -7168 7169 0
-7169 7178 0
-294 -7169 7170 0
-7170 7179 0
-295 -7170 7171 0
-7171 7180 0
-296 -7171 0
-288 7172 0
-7172 7181 0
-289 -7172 7173 0
-7173 7182 0
-290 -7173 7174 0
-7174 7183 0
-291 -7174 7175 0
-7175 7184 0
-292 -7175 7176 0
-7176 7185 0
-293 -7176 7177 0
-7177 7186 0
-294 -7177 7178 0
-7178 7187 0
-295 -7178 7179 0
-7179 7188 0
-296 -7179 7180 0
-7180 7189 0
-297 -7180 0
-289 7181 0
-7181 7190 0
-290 -7181 7182 0
-7182 7191 0
-291 -7182 7183 0
-7183 7192 0
-292 -7183 7184 0
-7184 7193 0
-293 -7184 7185 0
-7185 7194 0
-294 -7185 7186 0
-7186 7195 0
-295 -7186 7187 0
-7187 7196 0
-296 -7187 7188 0
-7188 7197 0
-297 -7188 7189 0
-7189 7198 0
-298 -7189 0
-290 7190 0
-7190 7199 0
-291 -7190 7191 0
-7191 7200 0
-292 -7191 7192 0
-7192 7201 0
-293 -7192 7193 0
-7193 7202 0
-294 -7193 7194 0
-7194 7203 0
-295 -7194 7195 0
-7195 7204 0
-296 -7195 7196 0
-7196 7205 0
-297 -7196 7197 0
-7197 7206 0
-298 -7197 7198 0
-7198 7207 0
-299 -7198 0
-291 7199 0
-7199 7208 0
-292 -7199 7200 0
-7200 7209 0
-293 -7200 7201 0
-7201 7210 0
-294 -7201 7202 0
-7202 7211 0
-295 -7202 7203 0
-7203 7212 0
-296 -7203 7204 0
-7204 7213 0
-297 -7204 7205 0
-7205 7214 0
-298 -7205 7206 0
-7206 7215 0
-299 -7206 7207 0
-7207 7216 0
-300 -7207 0
-292 7208 0
-7208 7217 0
-293 -7208 7209 0
-7209 7218 0
-294 -7209 7210 0
-7210 7219 0
-295 -7210 7211 0
-7211 7220 0
-296 -7211 7212 0
-7212 7221 0
-297 -7212 7213 0
-7213 7222 0
-298 -7213 7214 0
-7214 7223 0
-299 -7214 7215 0
-7215 7224 0
-300 -7215 7216 0
-7216 7225 0
-301 -7216 0
-293 7217 0
-7217 7226 0
-294 -7217 7218 0
-7218 7227 0
-295 -7218 7219 0
-7219 7228 0
-296 -7219 7220 0
-7220 7229 0
-297 -7220 7221 0
-7221 7230 0
-298 -7221 7222 0
-7222 7231 0
-299 -7222 7223 0
-7223 7232 0
-300 -7223 7224 0
-7224 7233 0
-301 -7224 7225 0
-7225 7234 0
-302 -7225 0
-294 7226 0
-7226 7235 0
-295 -7226 7227 0
-7227 7236 0
-296 -7227 7228 0
-7228 7237 0
-297 -7228 7229 0
-7229 7238 0
-298 -7229 7230 0
-7230 7239 0
-299 -7230 7231 0
-7231 7240 0
-300 -7231 7232 0
-7232 7241 0
-301 -7232 7233 0
-7233 7242 0
-302 -7233 7234 0
-7234 7243 0
-303 -7234 0
-295 7235 0
-7235 7244 0
-296 -7235 7236 0
-7236 7245 0
-297 -7236 7237 0
-7237 7246 0
-298 -7237 7238 0
-7238 7247 0
-299 -7238 7239 0
-7239 7248 0
-300 -7239 7240 0
-7240 7249 0
-301 -7240 7241 0
-7241 7250 0
-302 -7241 7242 0
-7242 7251 0
-303 -7242 7243 0
-7243 7252 0
-304 -7243 0
-296 7244 0
-7244 7253 0
-297 -7244 7245 0
-7245 7254 0
-298 -7245 7246 0
-7246 7255 0
-299 -7246 7247 0
-7247 7256 0
-300 -7247 7248 0
-7248 7257 0
-301 -7248 7249 0
-7249 7258 0
-302 -7249 7250 0
-7250 7259 0
-303 -7250 7251 0
-7251 7260 0
-304 -7251 7252 0
-7252 7261 0
-305 -7252 0
-297 7253 0
-7253 7262 0
-298 -7253 7254 0
-7254 7263 0
-299 -7254 7255 0
-7255 7264 0
-300 -7255 7256 0
-7256 7265 0
-301 -7256 7257 0
-7257 7266 0
-302 -7257 7258 0
-7258 7267 0
-303 -7258 7259 0
-7259 7268 0
-304 -7259 7260 0
-7260 7269 0
-305 -7260 7261 0
-7261 7270 0
-306 -7261 0
-298 7262 0
-7262 7271 0
-299 -7262 7263 0
-7263 7272 0
-300 -7263 7264 0
-7264 7273 0
-301 -7264 7265 0
-7265 7274 0
-302 -7265 7266 0
-7266 7275 0
-303 -7266 7267 0
-7267 7276 0
-304 -7267 7268 0
-7268 7277 0
-305 -7268 7269 0
-7269 7278 0
-306 -7269 7270 0
-7270 7279 0
-307 -7270 0
-299 7271 0
-7271 7280 0
-300 -7271 7272 0
-7272 7281 0
-301 -7272 7273 0
-7273 7282 0
-302 -7273 7274 0
-7274 7283 0
-303 -7274 7275 0
-7275 7284 0
-304 -7275 7276 0
-7276 7285 0
-305 -7276 7277 0
-7277 7286 0
-306 -7277 7278 0
-7278 7287 0
-307 -7278 7279 0
-7279 7288 0
-308 -7279 0
-300 7280 0
-7280 7289 0
-301 -7280 7281 0
-7281 7290 0
-302 -7281 7282 0
-7282 7291 0
-303 -7282 7283 0
-7283 7292 0
-304 -7283 7284 0
-7284 7293 0
-305 -7284 7285 0
-7285 7294 0
-306 -7285 7286 0
-7286 7295 0
-307 -7286 7287 0
-7287 7296 0
-308 -7287 7288 0
-7288 7297 0
-309 -7288 0
-301 7289 0
-7289 7298 0
-302 -7289 7290 0
-7290 7299 0
-303 -7290 7291 0
-7291 7300 0
-304 -7291 7292 0
-7292 7301 0
-305 -7292 7293 0
-7293 7302 0
-306 -7293 7294 0
-7294 7303 0
-307 -7294 7295 0
-7295 7304 0
-308 -7295 7296 0
-7296 7305 0
-309 -7296 7297 0
-7297 7306 0
-310 -7297 0
-302 7298 0
-7298 7307 0
-303 -7298 7299 0
-7299 7308 0
-304 -7299 7300 0
-7300 7309 0
-305 -7300 7301 0
-7301 7310 0
-306 -7301 7302 0
-7302 7311 0
-307 -7302 7303 0
-7303 7312 0
-308 -7303 7304 0
-7304 7313 0
-309 -7304 7305 0
-7305 7314 0
-310 -7305 7306 0
-7306 7315 0
-311 -7306 0
-303 7307 0
-7307 7316 0
-304 -7307 7308 0
-7308 7317 0
-305 -7308 7309 0
-7309 7318 0
-306 -7309 7310 0
-7310 7319 0
-307 -7310 7311 0
-7311 7320 0
-308 -7311 7312 0
-7312 7321 0
-309 -7312 7313 0
-7313 7322 0
-310 -7313 7314 0
-7314 7323 0
-311 -7314 7315 0
-7315 7324 0
-312 -7315 0
-304 7316 0
-7316 7325 0
-305 -7316 7317 0
-7317 7326 0
-306 -7317 7318 0
-7318 7327 0
-307 -7318 7319 0
-7319 7328 0
-308 -7319 7320 0
-7320 7329 0
-309 -7320 7321 0
-7321 7330 0
-310 -7321 7322 0
-7322 7331 0
-311 -7322 7323 0
-7323 7332 0
-312 -7323 7324 0
-7324 7333 0
-313 -7324 0
-305 7325 0
-7325 7334 0
-306 -7325 7326 0
-7326 7335 0
-307 -7326 7327 0
-7327 7336 0
-308 -7327 7328 0
-7328 7337 0
-309 -7328 7329 0
-7329 7338 0
-310 -7329 7330 0
-7330 7339 0
-311 -7330 7331 0
-7331 7340 0
-312 -7331 7332 0
-7332 7341 0
-313 -7332 7333 0
-7333 7342 0
-314 -7333 0
-306 7334 0
-7334 7343 0
-307 -7334 7335 0
-7335 7344 0
-308 -7335 7336 0
-7336 7345 0
-309 -7336 7337 0
-7337 7346 0
-310 -7337 7338 0
-7338 7347 0
-311 -7338 7339 0
-7339 7348 0
-312 -7339 7340 0
-7340 7349 0
-313 -7340 7341 0
-7341 7350 0
-314 -7341 7342 0
-7342 7351 0
-315 -7342 0
-307 7343 0
-7343 7352 0
-308 -7343 7344 0
-7344 7353 0
-309 -7344 7345 0
-7345 7354 0
-310 -7345 7346 0
-7346 7355 0
-311 -7346 7347 0
-7347 7356 0
-312 -7347 7348 0
-7348 7357 0
-313 -7348 7349 0
-7349 7358 0
-314 -7349 7350 0
-7350 7359 0
-315 -7350 7351 0
-7351 7360 0
-316 -7351 0
-308 7352 0
-7352 7361 0
-309 -7352 7353 0
-7353 7362 0
-310 -7353 7354 0
-7354 7363 0
-311 -7354 7355 0
-7355 7364 0
-312 -7355 7356 0
-7356 7365 0
-313 -7356 7357 0
-7357 7366 0
-314 -7357 7358 0
-7358 7367 0
-315 -7358 7359 0
-7359 7368 0
-316 -7359 7360 0
-7360 7369 0
-317 -7360 0
-309 7361 0
-7361 7370 0
-310 -7361 7362 0
-7362 7371 0
-311 -7362 7363 0
-7363 7372 0
-312 -7363 7364 0
-7364 7373 0
-313 -7364 7365 0
-7365 7374 0
-314 -7365 7366 0
-7366 7375 0
-315 -7366 7367 0
-7367 7376 0
-316 -7367 7368 0
-7368 7377 0
-317 -7368 7369 0
-7369 7378 0
-318 -7369 0
-310 7370 0
-7370 7379 0
-311 -7370 7371 0
-7371 7380 0
-312 -7371 7372 0
-7372 7381 0
-313 -7372 7373 0
-7373 7382 0
-314 -7373 7374 0
-7374 7383 0
-315 -7374 7375 0
-7375 7384 0
-316 -7375 7376 0
-7376 7385 0
-317 -7376 7377 0
-7377 7386 0
-318 -7377 7378 0
-7378 7387 0
-319 -7378 0
-311 7379 0
-7379 7388 0
-312 -7379 7380 0
-7380 7389 0
-313 -7380 7381 0
-7381 7390 0
-314 -7381 7382 0
-7382 7391 0
-315 -7382 7383 0
-7383 7392 0
-316 -7383 7384 0
-7384 7393 0
-317 -7384 7385 0
-7385 7394 0
-318 -7385 7386 0
-7386 7395 0
-319 -7386 7387 0
-7387 7396 0
-320 -7387 0
-312 7388 0
-7388 7397 0
-313 -7388 7389 0
-7389 7398 0
-314 -7389 7390 0
-7390 7399 0
-315 -7390 7391 0
-7391 7400 0
-316 -7391 7392 0
-7392 7401 0
-317 -7392 7393 0
-7393 7402 0
-318 -7393 7394 0
-7394 7403 0
-319 -7394 7395 0
-7395 7404 0
-320 -7395 7396 0
-7396 7405 0
-321 -7396 0
-313 7397 0
-7397 7406 0
-314 -7397 7398 0
-7398 7407 0
-315 -7398 7399 0
-7399 7408 0
-316 -7399 7400 0
-7400 7409 0
-317 -7400 7401 0
-7401 7410 0
-318 -7401 7402 0
-7402 7411 0
-319 -7402 7403 0
-7403 7412 0
-320 -7403 7404 0
-7404 7413 0
-321 -7404 7405 0
-7405 7414 0
-322 -7405 0
-314 7406 0
-7406 7415 0
-315 -7406 7407 0
-7407 7416 0
-316 -7407 7408 0
-7408 7417 0
-317 -7408 7409 0
-7409 7418 0
-318 -7409 7410 0
-7410 7419 0
-319 -7410 7411 0
-7411 7420 0
-320 -7411 7412 0
-7412 7421 0
-321 -7412 7413 0
-7413 7422 0
-322 -7413 7414 0
-7414 7423 0
-323 -7414 0
-315 7415 0
-7415 7424 0
-316 -7415 7416 0
-7416 7425 0
-317 -7416 7417 0
-7417 7426 0
-318 -7417 7418 0
-7418 7427 0
-319 -7418 7419 0
-7419 7428 0
-320 -7419 7420 0
-7420 7429 0
-321 -7420 7421 0
-7421 7430 0
-322 -7421 7422 0
-7422 7431 0
-323 -7422 7423 0
-7423 7432 0
-324 -7423 0
-316 7424 0
-7424 7433 0
-317 -7424 7425 0
-7425 7434 0
-318 -7425 7426 0
-7426 7435 0
-319 -7426 7427 0
-7427 7436 0
-320 -7427 7428 0
-7428 7437 0
-321 -7428 7429 0
-7429 7438 0
-322 -7429 7430 0
-7430 7439 0
-323 -7430 7431 0
-7431 7440 0
-324 -7431 7432 0
-7432 7441 0
-325 -7432 0
-317 7433 0
-7433 7442 0
-318 -7433 7434 0
-7434 7443 0
-319 -7434 7435 0
-7435 7444 0
-320 -7435 7436 0
-7436 7445 0
-321 -7436 7437 0
-7437 7446 0
-322 -7437 7438 0
-7438 7447 0
-323 -7438 7439 0
-7439 7448 0
-324 -7439 7440 0
-7440 7449 0
-325 -7440 7441 0
-7441 7450 0
-326 -7441 0
-318 7442 0
-7442 7451 0
-319 -7442 7443 0
-7443 7452 0
-320 -7443 7444 0
-7444 7453 0
-321 -7444 7445 0
-7445 7454 0
-322 -7445 7446 0
-7446 7455 0
-323 -7446 7447 0
-7447 7456 0
-324 -7447 7448 0
-7448 7457 0
-325 -7448 7449 0
-7449 7458 0
-326 -7449 7450 0
-7450 7459 0
-327 -7450 0
-319 7451 0
-7451 7460 0
-320 -7451 7452 0
-7452 7461 0
-321 -7452 7453 0
-7453 7462 0
-322 -7453 7454 0
-7454 7463 0
-323 -7454 7455 0
-7455 7464 0
-324 -7455 7456 0
-7456 7465 0
-325 -7456 7457 0
-7457 7466 0
-326 -7457 7458 0
-7458 7467 0
-327 -7458 7459 0
-7459 7468 0
-328 -7459 0
-320 7460 0
-7460 7469 0
-321 -7460 7461 0
-7461 7470 0
-322 -7461 7462 0
-7462 7471 0
-323 -7462 7463 0
-7463 7472 0
-324 -7463 7464 0
-7464 7473 0
-325 -7464 7465 0
-7465 7474 0
-326 -7465 7466 0
-7466 7475 0
-327 -7466 7467 0
-7467 7476 0
-328 -7467 7468 0
-7468 7477 0
-329 -7468 0
-321 7469 0
-7469 7478 0
-322 -7469 7470 0
-7470 7479 0
-323 -7470 7471 0
-7471 7480 0
-324 -7471 7472 0
-7472 7481 0
-325 -7472 7473 0
-7473 7482 0
-326 -7473 7474 0
-7474 7483 0
-327 -7474 7475 0
-7475 7484 0
-328 -7475 7476 0
-7476 7485 0
-329 -7476 7477 0
-7477 7486 0
-330 -7477 0
-322 7478 0
-7478 7487 0
-323 -7478 7479 0
-7479 7488 0
-324 -7479 7480 0
-7480 7489 0
-325 -7480 7481 0
-7481 7490 0
-326 -7481 7482 0
-7482 7491 0
-327 -7482 7483 0
-7483 7492 0
-328 -7483 7484 0
-7484 7493 0
-329 -7484 7485 0
-7485 7494 0
-330 -7485 7486 0
-7486 7495 0
-331 -7486 0
-323 7487 0
-7487 7496 0
-324 -7487 7488 0
-7488 7497 0
-325 -7488 7489 0
-7489 7498 0
-326 -7489 7490 0
-7490 7499 0
-327 -7490 7491 0
-7491 7500 0
-328 -7491 7492 0
-7492 7501 0
-329 -7492 7493 0
-7493 7502 0
-330 -7493 7494 0
-7494 7503 0
-331 -7494 7495 0
-7495 7504 0
-332 -7495 0
-324 7496 0
-7496 7505 0
-325 -7496 7497 0
-7497 7506 0
-326 -7497 7498 0
-7498 7507 0
-327 -7498 7499 0
-7499 7508 0
-328 -7499 7500 0
-7500 7509 0
-329 -7500 7501 0
-7501 7510 0
-330 -7501 7502 0
-7502 7511 0
-331 -7502 7503 0
-7503 7512 0
-332 -7503 7504 0
-7504 7513 0
-333 -7504 0
-325 7505 0
-7505 7514 0
-326 -7505 7506 0
-7506 7515 0
-327 -7506 7507 0
-7507 7516 0
-328 -7507 7508 0
-7508 7517 0
-329 -7508 7509 0
-7509 7518 0
-330 -7509 7510 0
-7510 7519 0
-331 -7510 7511 0
-7511 7520 0
-332 -7511 7512 0
-7512 7521 0
-333 -7512 7513 0
-7513 7522 0
-334 -7513 0
-326 7514 0
-7514 7523 0
-327 -7514 7515 0
-7515 7524 0
-328 -7515 7516 0
-7516 7525 0
-329 -7516 7517 0
-7517 7526 0
-330 -7517 7518 0
-7518 7527 0
-331 -7518 7519 0
-7519 7528 0
-332 -7519 7520 0
-7520 7529 0
-333 -7520 7521 0
-7521 7530 0
-334 -7521 7522 0
-7522 7531 0
-335 -7522 0
-327 7523 0
-7523 7532 0
-328 -7523 7524 0
-7524 7533 0
-329 -7524 7525 0
-7525 7534 0
-330 -7525 7526 0
-7526 7535 0
-331 -7526 7527 0
-7527 7536 0
-332 -7527 7528 0
-7528 7537 0
-333 -7528 7529 0
-7529 7538 0
-334 -7529 7530 0
-7530 7539 0
-335 -7530 7531 0
-7531 7540 0
-336 -7531 0
-328 7532 0
-7532 7541 0
-329 -7532 7533 0
-7533 7542 0
-330 -7533 7534 0
-7534 7543 0
-331 -7534 7535 0
-7535 7544 0
-332 -7535 7536 0
-7536 7545 0
-333 -7536 7537 0
-7537 7546 0
-334 -7537 7538 0
-7538 7547 0
-335 -7538 7539 0
-7539 7548 0
-336 -7539 7540 0
-7540 7549 0
-337 -7540 0
-329 7541 0
-7541 7550 0
-330 -7541 7542 0
-7542 7551 0
-331 -7542 7543 0
-7543 7552 0
-332 -7543 7544 0
-7544 7553 0
-333 -7544 7545 0
-7545 7554 0
-334 -7545 7546 0
-7546 7555 0
-335 -7546 7547 0
-7547 7556 0
-336 -7547 7548 0
-7548 7557 0
-337 -7548 7549 0
-7549 7558 0
-338 -7549 0
-330 7550 0
-7550 7559 0
-331 -7550 7551 0
-7551 7560 0
-332 -7551 7552 0
-7552 7561 0
-333 -7552 7553 0
-7553 7562 0
-334 -7553 7554 0
-7554 7563 0
-335 -7554 7555 0
-7555 7564 0
-336 -7555 7556 0
-7556 7565 0
-337 -7556 7557 0
-7557 7566 0
-338 -7557 7558 0
-7558 7567 0
-339 -7558 0
-331 7559 0
-7559 7568 0
-332 -7559 7560 0
-7560 7569 0
-333 -7560 7561 0
-7561 7570 0
-334 -7561 7562 0
-7562 7571 0
-335 -7562 7563 0
-7563 7572 0
-336 -7563 7564 0
-7564 7573 0
-337 -7564 7565 0
-7565 7574 0
-338 -7565 7566 0
-7566 7575 0
-339 -7566 7567 0
-7567 7576 0
-340 -7567 0
-332 7568 0
-7568 7577 0
-333 -7568 7569 0
-7569 7578 0
-334 -7569 7570 0
-7570 7579 0
-335 -7570 7571 0
-7571 7580 0
-336 -7571 7572 0
-7572 7581 0
-337 -7572 7573 0
-7573 7582 0
-338 -7573 7574 0
-7574 7583 0
-339 -7574 7575 0
-7575 7584 0
-340 -7575 7576 0
-7576 7585 0
-341 -7576 0
-333 7577 0
-7577 7586 0
-334 -7577 7578 0
-7578 7587 0
-335 -7578 7579 0
-7579 7588 0
-336 -7579 7580 0
-7580 7589 0
-337 -7580 7581 0
-7581 7590 0
-338 -7581 7582 0
-7582 7591 0
-339 -7582 7583 0
-7583 7592 0
-340 -7583 7584 0
-7584 7593 0
-341 -7584 7585 0
-7585 7594 0
-342 -7585 0
-334 7586 0
-7586 7595 0
-335 -7586 7587 0
-7587 7596 0
-336 -7587 7588 0
-7588 7597 0
-337 -7588 7589 0
-7589 7598 0
-338 -7589 7590 0
-7590 7599 0
-339 -7590 7591 0
-7591 7600 0
-340 -7591 7592 0
-7592 7601 0
-341 -7592 7593 0
-7593 7602 0
-342 -7593 7594 0
-7594 7603 0
-343 -7594 0
-335 7595 0
-7595 7604 0
-336 -7595 7596 0
-7596 7605 0
-337 -7596 7597 0
-7597 7606 0
-338 -7597 7598 0
-7598 7607 0
-339 -7598 7599 0
-7599 7608 0
-340 -7599 7600 0
-7600 7609 0
-341 -7600 7601 0
-7601 7610 0
-342 -7601 7602 0
-7602 7611 0
-343 -7602 7603 0
-7603 7612 0
-344 -7603 0
-336 7604 0
-7604 7613 0
-337 -7604 7605 0
-7605 7614 0
-338 -7605 7606 0
-7606 7615 0
-339 -7606 7607 0
-7607 7616 0
-340 -7607 7608 0
-7608 7617 0
-341 -7608 7609 0
-7609 7618 0
-342 -7609 7610 0
-7610 7619 0
-343 -7610 7611 0
-7611 7620 0
-344 -7611 7612 0
-7612 7621 0
-345 -7612 0
-337 7613 0
-7613 7622 0
-338 -7613 7614 0
-7614 7623 0
-339 -7614 7615 0
-7615 7624 0
-340 -7615 7616 0
-7616 7625 0
-341 -7616 7617 0
-7617 7626 0
-342 -7617 7618 0
-7618 7627 0
-343 -7618 7619 0
-7619 7628 0
-344 -7619 7620 0
-7620 7629 0
-345 -7620 7621 0
-7621 7630 0
-346 -7621 0
-338 7622 0
-7622 7631 0
-339 -7622 7623 0
-7623 7632 0
-340 -7623 7624 0
-7624 7633 0
-341 -7624 7625 0
-7625 7634 0
-342 -7625 7626 0
-7626 7635 0
-343 -7626 7627 0
-7627 7636 0
-344 -7627 7628 0
-7628 7637 0
-345 -7628 7629 0
-7629 7638 0
-346 -7629 7630 0
-7630 7639 0
-347 -7630 0
-339 7631 0
-7631 7640 0
-340 -7631 7632 0
-7632 7641 0
-341 -7632 7633 0
-7633 7642 0
-342 -7633 7634 0
-7634 7643 0
-343 -7634 7635 0
-7635 7644 0
-344 -7635 7636 0
-7636 7645 0
-345 -7636 7637 0
-7637 7646 0
-346 -7637 7638 0
-7638 7647 0
-347 -7638 7639 0
-7639 7648 0
-348 -7639 0
-340 7640 0
-7640 7649 0
-341 -7640 7641 0
-7641 7650 0
-342 -7641 7642 0
-7642 7651 0
-343 -7642 7643 0
-7643 7652 0
-344 -7643 7644 0
-7644 7653 0
-345 -7644 7645 0
-7645 7654 0
-346 -7645 7646 0
-7646 7655 0
-347 -7646 7647 0
-7647 7656 0
-348 -7647 7648 0
-7648 7657 0
-349 -7648 0
-341 7649 0
-7649 7658 0
-342 -7649 7650 0
-7650 7659 0
-343 -7650 7651 0
-7651 7660 0
-344 -7651 7652 0
-7652 7661 0
-345 -7652 7653 0
-7653 7662 0
-346 -7653 7654 0
-7654 7663 0
-347 -7654 7655 0
-7655 7664 0
-348 -7655 7656 0
-7656 7665 0
-349 -7656 7657 0
-7657 7666 0
-350 -7657 0
-342 7658 0
-7658 7667 0
-343 -7658 7659 0
-7659 7668 0
-344 -7659 7660 0
-7660 7669 0
-345 -7660 7661 0
-7661 7670 0
-346 -7661 7662 0
-7662 7671 0
-347 -7662 7663 0
-7663 7672 0
-348 -7663 7664 0
-7664 7673 0
-349 -7664 7665 0
-7665 7674 0
-350 -7665 7666 0
-7666 7675 0
-351 -7666 0
-343 7667 0
-7667 7676 0
-344 -7667 7668 0
-7668 7677 0
-345 -7668 7669 0
-7669 7678 0
-346 -7669 7670 0
-7670 7679 0
-347 -7670 7671 0
-7671 7680 0
-348 -7671 7672 0
-7672 7681 0
-349 -7672 7673 0
-7673 7682 0
-350 -7673 7674 0
-7674 7683 0
-351 -7674 7675 0
-7675 7684 0
-352 -7675 0
-344 7676 0
-7676 7685 0
-345 -7676 7677 0
-7677 7686 0
-346 -7677 7678 0
-7678 7687 0
-347 -7678 7679 0
-7679 7688 0
-348 -7679 7680 0
-7680 7689 0
-349 -7680 7681 0
-7681 7690 0
-350 -7681 7682 0
-7682 7691 0
-351 -7682 7683 0
-7683 7692 0
-352 -7683 7684 0
-7684 7693 0
-353 -7684 0
-345 7685 0
-7685 7694 0
-346 -7685 7686 0
-7686 7695 0
-347 -7686 7687 0
-7687 7696 0
-348 -7687 7688 0
-7688 7697 0
-349 -7688 7689 0
-7689 7698 0
-350 -7689 7690 0
-7690 7699 0
-351 -7690 7691 0
-7691 7700 0
-352 -7691 7692 0
-7692 7701 0
-353 -7692 7693 0
-7693 7702 0
-354 -7693 0
-346 7694 0
-7694 7703 0
-347 -7694 7695 0
-7695 7704 0
-348 -7695 7696 0
-7696 7705 0
-349 -7696 7697 0
-7697 7706 0
-350 -7697 7698 0
-7698 7707 0
-351 -7698 7699 0
-7699 7708 0
-352 -7699 7700 0
-7700 7709 0
-353 -7700 7701 0
-7701 7710 0
-354 -7701 7702 0
-7702 7711 0
-355 -7702 0
-347 7703 0
-7703 7712 0
-348 -7703 7704 0
-7704 7713 0
-349 -7704 7705 0
-7705 7714 0
-350 -7705 7706 0
-7706 7715 0
-351 -7706 7707 0
-7707 7716 0
-352 -7707 7708 0
-7708 7717 0
-353 -7708 7709 0
-7709 7718 0
-354 -7709 7710 0
-7710 7719 0
-355 -7710 7711 0
-7711 7720 0
-356 -7711 0
-348 7712 0
-7712 7721 0
-349 -7712 7713 0
-7713 7722 0
-350 -7713 7714 0
-7714 7723 0
-351 -7714 7715 0
-7715 7724 0
-352 -7715 7716 0
-7716 7725 0
-353 -7716 7717 0
-7717 7726 0
-354 -7717 7718 0
-7718 7727 0
-355 -7718 7719 0
-7719 7728 0
-356 -7719 7720 0
-7720 7729 0
-357 -7720 0
-349 7721 0
-7721 7730 0
-350 -7721 7722 0
-7722 7731 0
-351 -7722 7723 0
-7723 7732 0
-352 -7723 7724 0
-7724 7733 0
-353 -7724 7725 0
-7725 7734 0
-354 -7725 7726 0
-7726 7735 0
-355 -7726 7727 0
-7727 7736 0
-356 -7727 7728 0
-7728 7737 0
-357 -7728 7729 0
-7729 7738 0
-358 -7729 0
-350 7730 0
-7730 7739 0
-351 -7730 7731 0
-7731 7740 0
-352 -7731 7732 0
-7732 7741 0
-353 -7732 7733 0
-7733 7742 0
-354 -7733 7734 0
-7734 7743 0
-355 -7734 7735 0
-7735 7744 0
-356 -7735 7736 0
-7736 7745 0
-357 -7736 7737 0
-7737 7746 0
-358 -7737 7738 0
-7738 7747 0
-359 -7738 0
-351 7739 0
-7739 7748 0
-352 -7739 7740 0
-7740 7749 0
-353 -7740 7741 0
-7741 7750 0
-354 -7741 7742 0
-7742 7751 0
-355 -7742 7743 0
-7743 7752 0
-356 -7743 7744 0
-7744 7753 0
-357 -7744 7745 0
-7745 7754 0
-358 -7745 7746 0
-7746 7755 0
-359 -7746 7747 0
-7747 7756 0
-360 -7747 0
-352 7748 0
-7748 7757 0
-353 -7748 7749 0
-7749 7758 0
-354 -7749 7750 0
-7750 7759 0
-355 -7750 7751 0
-7751 7760 0
-356 -7751 7752 0
-7752 7761 0
-357 -7752 7753 0
-7753 7762 0
-358 -7753 7754 0
-7754 7763 0
-359 -7754 7755 0
-7755 7764 0
-360 -7755 7756 0
-7756 7765 0
-361 -7756 0
-353 7757 0
-7757 7766 0
-354 -7757 7758 0
-7758 7767 0
-355 -7758 7759 0
-7759 7768 0
-356 -7759 7760 0
-7760 7769 0
-357 -7760 7761 0
-7761 7770 0
-358 -7761 7762 0
-7762 7771 0
-359 -7762 7763 0
-7763 7772 0
-360 -7763 7764 0
-7764 7773 0
-361 -7764 7765 0
-7765 7774 0
-362 -7765 0
-354 7766 0
-7766 7775 0
-355 -7766 7767 0
-7767 7776 0
-356 -7767 7768 0
-7768 7777 0
-357 -7768 7769 0
-7769 7778 0
-358 -7769 7770 0
-7770 7779 0
-359 -7770 7771 0
-7771 7780 0
-360 -7771 7772 0
-7772 7781 0
-361 -7772 7773 0
-7773 7782 0
-362 -7773 7774 0
-7774 7783 0
-363 -7774 0
-355 7775 0
-7775 7784 0
-356 -7775 7776 0
-7776 7785 0
-357 -7776 7777 0
-7777 7786 0
-358 -7777 7778 0
-7778 7787 0
-359 -7778 7779 0
-7779 7788 0
-360 -7779 7780 0
-7780 7789 0
-361 -7780 7781 0
-7781 7790 0
-362 -7781 7782 0
-7782 7791 0
-363 -7782 7783 0
-7783 7792 0
-364 -7783 0
-356 7784 0
-7784 7793 0
-357 -7784 7785 0
-7785 7794 0
-358 -7785 7786 0
-7786 7795 0
-359 -7786 7787 0
-7787 7796 0
-360 -7787 7788 0
-7788 7797 0
-361 -7788 7789 0
-7789 7798 0
-362 -7789 7790 0
-7790 7799 0
-363 -7790 7791 0
-7791 7800 0
-364 -7791 7792 0
-7792 7801 0
-365 -7792 0
-357 7793 0
-7793 7802 0
-358 -7793 7794 0
-7794 7803 0
-359 -7794 7795 0
-7795 7804 0
-360 -7795 7796 0
-7796 7805 0
-361 -7796 7797 0
-7797 7806 0
-362 -7797 7798 0
-7798 7807 0
-363 -7798 7799 0
-7799 7808 0
-364 -7799 7800 0
-7800 7809 0
-365 -7800 7801 0
-7801 7810 0
-366 -7801 0
-358 7802 0
-7802 7811 0
-359 -7802 7803 0
-7803 7812 0
-360 -7803 7804 0
-7804 7813 0
-361 -7804 7805 0
-7805 7814 0
-362 -7805 7806 0
-7806 7815 0
-363 -7806 7807 0
-7807 7816 0
-364 -7807 7808 0
-7808 7817 0
-365 -7808 7809 0
-7809 7818 0
-366 -7809 7810 0
-7810 7819 0
-367 -7810 0
-359 7811 0
-7811 7820 0
-360 -7811 7812 0
-7812 7821 0
-361 -7812 7813 0
-7813 7822 0
-362 -7813 7814 0
-7814 7823 0
-363 -7814 7815 0
-7815 7824 0
-364 -7815 7816 0
-7816 7825 0
-365 -7816 7817 0
-7817 7826 0
-366 -7817 7818 0
-7818 7827 0
-367 -7818 7819 0
-7819 7828 0
-368 -7819 0
-360 7820 0
-7820 7829 0
-361 -7820 7821 0
-7821 7830 0
-362 -7821 7822 0
-7822 7831 0
-363 -7822 7823 0
-7823 7832 0
-364 -7823 7824 0
-7824 7833 0
-365 -7824 7825 0
-7825 7834 0
-366 -7825 7826 0
-7826 7835 0
-367 -7826 7827 0
-7827 7836 0
-368 -7827 7828 0
-7828 7837 0
-369 -7828 0
-361 7829 0
-7829 7838 0
-362 -7829 7830 0
-7830 7839 0
-363 -7830 7831 0
-7831 7840 0
-364 -7831 7832 0
-7832 7841 0
-365 -7832 7833 0
-7833 7842 0
-366 -7833 7834 0
-7834 7843 0
-367 -7834 7835 0
-7835 7844 0
-368 -7835 7836 0
-7836 7845 0
-369 -7836 7837 0
-7837 7846 0
-370 -7837 0
-362 7838 0
-7838 7847 0
-363 -7838 7839 0
-7839 7848 0
-364 -7839 7840 0
-7840 7849 0
-365 -7840 7841 0
-7841 7850 0
-366 -7841 7842 0
-7842 7851 0
-367 -7842 7843 0
-7843 7852 0
-368 -7843 7844 0
-7844 7853 0
-369 -7844 7845 0
-7845 7854 0
-370 -7845 7846 0
-7846 7855 0
-371 -7846 0
-363 7847 0
-7847 7856 0
-364 -7847 7848 0
-7848 7857 0
-365 -7848 7849 0
-7849 7858 0
-366 -7849 7850 0
-7850 7859 0
-367 -7850 7851 0
-7851 7860 0
-368 -7851 7852 0
-7852 7861 0
-369 -7852 7853 0
-7853 7862 0
-370 -7853 7854 0
-7854 7863 0
-371 -7854 7855 0
-7855 7864 0
-372 -7855 0
-364 7856 0
-7856 7865 0
-365 -7856 7857 0
-7857 7866 0
-366 -7857 7858 0
-7858 7867 0
-367 -7858 7859 0
-7859 7868 0
-368 -7859 7860 0
-7860 7869 0
-369 -7860 7861 0
-7861 7870 0
-370 -7861 7862 0
-7862 7871 0
-371 -7862 7863 0
-7863 7872 0
-372 -7863 7864 0
-7864 7873 0
-373 -7864 0
-365 7865 0
-7865 7874 0
-366 -7865 7866 0
-7866 7875 0
-367 -7866 7867 0
-7867 7876 0
-368 -7867 7868 0
-7868 7877 0
-369 -7868 7869 0
-7869 7878 0
-370 -7869 7870 0
-7870 7879 0
-371 -7870 7871 0
-7871 7880 0
-372 -7871 7872 0
-7872 7881 0
-373 -7872 7873 0
-7873 7882 0
-374 -7873 0
-366 7874 0
-7874 7883 0
-367 -7874 7875 0
-7875 7884 0
-368 -7875 7876 0
-7876 7885 0
-369 -7876 7877 0
-7877 7886 0
-370 -7877 7878 0
-7878 7887 0
-371 -7878 7879 0
-7879 7888 0
-372 -7879 7880 0
-7880 7889 0
-373 -7880 7881 0
-7881 7890 0
-374 -7881 7882 0
-7882 7891 0
-375 -7882 0
-367 7883 0
-7883 7892 0
-368 -7883 7884 0
-7884 7893 0
-369 -7884 7885 0
-7885 7894 0
-370 -7885 7886 0
-7886 7895 0
-371 -7886 7887 0
-7887 7896 0
-372 -7887 7888 0
-7888 7897 0
-373 -7888 7889 0
-7889 7898 0
-374 -7889 7890 0
-7890 7899 0
-375 -7890 7891 0
-7891 7900 0
-376 -7891 0
-368 7892 0
-7892 7901 0
-369 -7892 7893 0
-7893 7902 0
-370 -7893 7894 0
-7894 7903 0
-371 -7894 7895 0
-7895 7904 0
-372 -7895 7896 0
-7896 7905 0
-373 -7896 7897 0
-7897 7906 0
-374 -7897 7898 0
-7898 7907 0
-375 -7898 7899 0
-7899 7908 0
-376 -7899 7900 0
-7900 7909 0
-377 -7900 0
-369 7901 0
-7901 7910 0
-370 -7901 7902 0
-7902 7911 0
-371 -7902 7903 0
-7903 7912 0
-372 -7903 7904 0
-7904 7913 0
-373 -7904 7905 0
-7905 7914 0
-374 -7905 7906 0
-7906 7915 0
-375 -7906 7907 0
-7907 7916 0
-376 -7907 7908 0
-7908 7917 0
-377 -7908 7909 0
-7909 7918 0
-378 -7909 0
-370 7910 0
-7910 7919 0
-371 -7910 7911 0
-7911 7920 0
-372 -7911 7912 0
-7912 7921 0
-373 -7912 7913 0
-7913 7922 0
-374 -7913 7914 0
-7914 7923 0
-375 -7914 7915 0
-7915 7924 0
-376 -7915 7916 0
-7916 7925 0
-377 -7916 7917 0
-7917 7926 0
-378 -7917 7918 0
-7918 7927 0
-379 -7918 0
-371 7919 0
-7919 7928 0
-372 -7919 7920 0
-7920 7929 0
-373 -7920 7921 0
-7921 7930 0
-374 -7921 7922 0
-7922 7931 0
-375 -7922 7923 0
-7923 7932 0
-376 -7923 7924 0
-7924 7933 0
-377 -7924 7925 0
-7925 7934 0
-378 -7925 7926 0
-7926 7935 0
-379 -7926 7927 0
-7927 7936 0
-380 -7927 0
-372 7928 0
-7928 7937 0
-373 -7928 7929 0
-7929 7938 0
-374 -7929 7930 0
-7930 7939 0
-375 -7930 7931 0
-7931 7940 0
-376 -7931 7932 0
-7932 7941 0
-377 -7932 7933 0
-7933 7942 0
-378 -7933 7934 0
-7934 7943 0
-379 -7934 7935 0
-7935 7944 0
-380 -7935 7936 0
-7936 7945 0
-381 -7936 0
-373 7937 0
-7937 7946 0
-374 -7937 7938 0
-7938 7947 0
-375 -7938 7939 0
-7939 7948 0
-376 -7939 7940 0
-7940 7949 0
-377 -7940 7941 0
-7941 7950 0
-378 -7941 7942 0
-7942 7951 0
-379 -7942 7943 0
-7943 7952 0
-380 -7943 7944 0
-7944 7953 0
-381 -7944 7945 0
-7945 7954 0
-382 -7945 0
-374 7946 0
-7946 7955 0
-375 -7946 7947 0
-7947 7956 0
-376 -7947 7948 0
-7948 7957 0
-377 -7948 7949 0
-7949 7958 0
-378 -7949 7950 0
-7950 7959 0
-379 -7950 7951 0
-7951 7960 0
-380 -7951 7952 0
-7952 7961 0
-381 -7952 7953 0
-7953 7962 0
-382 -7953 7954 0
-7954 7963 0
-383 -7954 0
-375 7955 0
-7955 7964 0
-376 -7955 7956 0
-7956 7965 0
-377 -7956 7957 0
-7957 7966 0
-378 -7957 7958 0
-7958 7967 0
-379 -7958 7959 0
-7959 7968 0
-380 -7959 7960 0
-7960 7969 0
-381 -7960 7961 0
-7961 7970 0
-382 -7961 7962 0
-7962 7971 0
-383 -7962 7963 0
-7963 7972 0
-384 -7963 0
-376 7964 0
-7964 7973 0
-377 -7964 7965 0
-7965 7974 0
-378 -7965 7966 0
-7966 7975 0
-379 -7966 7967 0
-7967 7976 0
-380 -7967 7968 0
-7968 7977 0
-381 -7968 7969 0
-7969 7978 0
-382 -7969 7970 0
-7970 7979 0
-383 -7970 7971 0
-7971 7980 0
-384 -7971 7972 0
-7972 7981 0
-385 -7972 0
-377 7973 0
-7973 7982 0
-378 -7973 7974 0
-7974 7983 0
-379 -7974 7975 0
-7975 7984 0
-380 -7975 7976 0
-7976 7985 0
-381 -7976 7977 0
-7977 7986 0
-382 -7977 7978 0
-7978 7987 0
-383 -7978 7979 0
-7979 7988 0
-384 -7979 7980 0
-7980 7989 0
-385 -7980 7981 0
-7981 7990 0
-386 -7981 0
-378 7982 0
-7982 7991 0
-379 -7982 7983 0
-7983 7992 0
-380 -7983 7984 0
-7984 7993 0
-381 -7984 7985 0
-7985 7994 0
-382 -7985 7986 0
-7986 7995 0
-383 -7986 7987 0
-7987 7996 0
-384 -7987 7988 0
-7988 7997 0
-385 -7988 7989 0
-7989 7998 0
-386 -7989 7990 0
-7990 7999 0
-387 -7990 0
-379 7991 0
-7991 8000 0
-380 -7991 7992 0
-7992 8001 0
-381 -7992 7993 0
-7993 8002 0
-382 -7993 7994 0
-7994 8003 0
-383 -7994 7995 0
-7995 8004 0
-384 -7995 7996 0
-7996 8005 0
-385 -7996 7997 0
-7997 8006 0
-386 -7997 7998 0
-7998 8007 0
-387 -7998 7999 0
-7999 8008 0
-388 -7999 0
-380 8000 0
-8000 8009 0
-381 -8000 8001 0
-8001 8010 0
-382 -8001 8002 0
-8002 8011 0
-383 -8002 8003 0
-8003 8012 0
-384 -8003 8004 0
-8004 8013 0
-385 -8004 8005 0
-8005 8014 0
-386 -8005 8006 0
-8006 8015 0
-387 -8006 8007 0
-8007 8016 0
-388 -8007 8008 0
-8008 8017 0
-389 -8008 0
-381 8009 0
-8009 8018 0
-382 -8009 8010 0
-8010 8019 0
-383 -8010 8011 0
-8011 8020 0
-384 -8011 8012 0
-8012 8021 0
-385 -8012 8013 0
-8013 8022 0
-386 -8013 8014 0
-8014 8023 0
-387 -8014 8015 0
-8015 8024 0
-388 -8015 8016 0
-8016 8025 0
-389 -8016 8017 0
-8017 8026 0
-390 -8017 0
-382 8018 0
-8018 8027 0
-383 -8018 8019 0
-8019 8028 0
-384 -8019 8020 0
-8020 8029 0
-385 -8020 8021 0
-8021 8030 0
-386 -8021 8022 0
-8022 8031 0
-387 -8022 8023 0
-8023 8032 0
-388 -8023 8024 0
-8024 8033 0
-389 -8024 8025 0
-8025 8034 0
-390 -8025 8026 0
-8026 8035 0
-391 -8026 0
-383 8027 0
-8027 8036 0
-384 -8027 8028 0
-8028 8037 0
-385 -8028 8029 0
-8029 8038 0
-386 -8029 8030 0
-8030 8039 0
-387 -8030 8031 0
-8031 8040 0
-388 -8031 8032 0
-8032 8041 0
-389 -8032 8033 0
-8033 8042 0
-390 -8033 8034 0
-8034 8043 0
-391 -8034 8035 0
-8035 8044 0
-392 -8035 0
-384 8036 0
-8036 8045 0
-385 -8036 8037 0
-8037 8046 0
-386 -8037 8038 0
-8038 8047 0
-387 -8038 8039 0
-8039 8048 0
-388 -8039 8040 0
-8040 8049 0
-389 -8040 8041 0
-8041 8050 0
-390 -8041 8042 0
-8042 8051 0
-391 -8042 8043 0
-8043 8052 0
-392 -8043 8044 0
-8044 8053 0
-393 -8044 0
-385 8045 0
-8045 8054 0
-386 -8045 8046 0
-8046 8055 0
-387 -8046 8047 0
-8047 8056 0
-388 -8047 8048 0
-8048 8057 0
-389 -8048 8049 0
-8049 8058 0
-390 -8049 8050 0
-8050 8059 0
-391 -8050 8051 0
-8051 8060 0
-392 -8051 8052 0
-8052 8061 0
-393 -8052 8053 0
-8053 8062 0
-394 -8053 0
-386 8054 0
-8054 8063 0
-387 -8054 8055 0
-8055 8064 0
-388 -8055 8056 0
-8056 8065 0
-389 -8056 8057 0
-8057 8066 0
-390 -8057 8058 0
-8058 8067 0
-391 -8058 8059 0
-8059 8068 0
-392 -8059 8060 0
-8060 8069 0
-393 -8060 8061 0
-8061 8070 0
-394 -8061 8062 0
-8062 8071 0
-395 -8062 0
-387 8063 0
-8063 8072 0
-388 -8063 8064 0
-8064 8073 0
-389 -8064 8065 0
-8065 8074 0
-390 -8065 8066 0
-8066 8075 0
-391 -8066 8067 0
-8067 8076 0
-392 -8067 8068 0
-8068 8077 0
-393 -8068 8069 0
-8069 8078 0
-394 -8069 8070 0
-8070 8079 0
-395 -8070 8071 0
-8071 8080 0
-396 -8071 0
-388 8072 0
-8072 8081 0
-389 -8072 8073 0
-8073 8082 0
-390 -8073 8074 0
-8074 8083 0
-391 -8074 8075 0
-8075 8084 0
-392 -8075 8076 0
-8076 8085 0
-393 -8076 8077 0
-8077 8086 0
-394 -8077 8078 0
-8078 8087 0
-395 -8078 8079 0
-8079 8088 0
-396 -8079 8080 0
-8080 8089 0
-397 -8080 0
-389 8081 0
-8081 8090 0
-390 -8081 8082 0
-8082 8091 0
-391 -8082 8083 0
-8083 8092 0
-392 -8083 8084 0
-8084 8093 0
-393 -8084 8085 0
-8085 8094 0
-394 -8085 8086 0
-8086 8095 0
-395 -8086 8087 0
-8087 8096 0
-396 -8087 8088 0
-8088 8097 0
-397 -8088 8089 0
-8089 8098 0
-398 -8089 0
-390 8090 0
-8090 8099 0
-391 -8090 8091 0
-8091 8100 0
-392 -8091 8092 0
-8092 8101 0
-393 -8092 8093 0
-8093 8102 0
-394 -8093 8094 0
-8094 8103 0
-395 -8094 8095 0
-8095 8104 0
-396 -8095 8096 0
-8096 8105 0
-397 -8096 8097 0
-8097 8106 0
-398 -8097 8098 0
-8098 8107 0
-399 -8098 0
-391 8099 0
-8099 8108 0
-392 -8099 8100 0
-8100 8109 0
-393 -8100 8101 0
-8101 8110 0
-394 -8101 8102 0
-8102 8111 0
-395 -8102 8103 0
-8103 8112 0
-396 -8103 8104 0
-8104 8113 0
-397 -8104 8105 0
-8105 8114 0
-398 -8105 8106 0
-8106 8115 0
-399 -8106 8107 0
-8107 8116 0
-400 -8107 0
-392 8108 0
-8108 8117 0
-393 -8108 8109 0
-8109 8118 0
-394 -8109 8110 0
-8110 8119 0
-395 -8110 8111 0
-8111 8120 0
-396 -8111 8112 0
-8112 8121 0
-397 -8112 8113 0
-8113 8122 0
-398 -8113 8114 0
-8114 8123 0
-399 -8114 8115 0
-8115 8124 0
-400 -8115 8116 0
-8116 8125 0
-401 -8116 0
-393 8117 0
-8117 8126 0
-394 -8117 8118 0
-8118 8127 0
-395 -8118 8119 0
-8119 8128 0
-396 -8119 8120 0
-8120 8129 0
-397 -8120 8121 0
-8121 8130 0
-398 -8121 8122 0
-8122 8131 0
-399 -8122 8123 0
-8123 8132 0
-400 -8123 8124 0
-8124 8133 0
-401 -8124 8125 0
-8125 8134 0
-402 -8125 0
-394 8126 0
-8126 8135 0
-395 -8126 8127 0
-8127 8136 0
-396 -8127 8128 0
-8128 8137 0
-397 -8128 8129 0
-8129 8138 0
-398 -8129 8130 0
-8130 8139 0
-399 -8130 8131 0
-8131 8140 0
-400 -8131 8132 0
-8132 8141 0
-401 -8132 8133 0
-8133 8142 0
-402 -8133 8134 0
-8134 8143 0
-403 -8134 0
-395 8135 0
-8135 8144 0
-396 -8135 8136 0
-8136 8145 0
-397 -8136 8137 0
-8137 8146 0
-398 -8137 8138 0
-8138 8147 0
-399 -8138 8139 0
-8139 8148 0
-400 -8139 8140 0
-8140 8149 0
-401 -8140 8141 0
-8141 8150 0
-402 -8141 8142 0
-8142 8151 0
-403 -8142 8143 0
-8143 8152 0
-404 -8143 0
-396 8144 0
-8144 8153 0
-397 -8144 8145 0
-8145 8154 0
-398 -8145 8146 0
-8146 8155 0
-399 -8146 8147 0
-8147 8156 0
-400 -8147 8148 0
-8148 8157 0
-401 -8148 8149 0
-8149 8158 0
-402 -8149 8150 0
-8150 8159 0
-403 -8150 8151 0
-8151 8160 0
-404 -8151 8152 0
-8152 8161 0
-405 -8152 0
-397 8153 0
-8153 8162 0
-398 -8153 8154 0
-8154 8163 0
-399 -8154 8155 0
-8155 8164 0
-400 -8155 8156 0
-8156 8165 0
-401 -8156 8157 0
-8157 8166 0
-402 -8157 8158 0
-8158 8167 0
-403 -8158 8159 0
-8159 8168 0
-404 -8159 8160 0
-8160 8169 0
-405 -8160 8161 0
-8161 8170 0
-406 -8161 0
-398 8162 0
-8162 8171 0
-399 -8162 8163 0
-8163 8172 0
-400 -8163 8164 0
-8164 8173 0
-401 -8164 8165 0
-8165 8174 0
-402 -8165 8166 0
-8166 8175 0
-403 -8166 8167 0
-8167 8176 0
-404 -8167 8168 0
-8168 8177 0
-405 -8168 8169 0
-8169 8178 0
-406 -8169 8170 0
-8170 8179 0
-407 -8170 0
-399 8171 0
-400 -8171 8172 0
-401 -8172 8173 0
-402 -8173 8174 0
-403 -8174 8175 0
-404 -8175 8176 0
-405 -8176 8177 0
-406 -8177 8178 0
-407 -8178 8179 0
-408 -8179 0
1 103 0
