p cnf 2285 4637
-1 59 0
-2 59 0
-29 59 0
-30 59 0
-59 1 2 29 30 0
-2 60 0
-1 60 0
-3 60 0
-31 60 0
-60 2 1 3 31 0
-3 61 0
-2 61 0
-4 61 0
-32 61 0
-61 3 2 4 32 0
-4 62 0
-3 62 0
-5 62 0
-33 62 0
-62 4 3 5 33 0
-5 63 0
-4 63 0
-6 63 0
-34 63 0
-63 5 4 6 34 0
-6 64 0
-5 64 0
-7 64 0
-35 64 0
-64 6 5 7 35 0
-7 65 0
-6 65 0
-8 65 0
-36 65 0
-65 7 6 8 36 0
-8 66 0
-7 66 0
-9 66 0
-37 66 0
-66 8 7 9 37 0
-9 67 0
-8 67 0
-10 67 0
-38 67 0
-67 9 8 10 38 0
-10 68 0
-9 68 0
-11 68 0
-39 68 0
-68 10 9 11 39 0
-11 69 0
-10 69 0
-12 69 0
-40 69 0
-69 11 10 12 40 0
-12 70 0
-11 70 0
-13 70 0
-41 70 0
-70 12 11 13 41 0
-13 71 0
-12 71 0
-14 71 0
-42 71 0
-71 13 12 14 42 0
-14 72 0
-13 72 0
-15 72 0
-43 72 0
-72 14 13 15 43 0
-15 73 0
-14 73 0
-16 73 0
-44 73 0
-73 15 14 16 44 0
-16 74 0
-15 74 0
-17 74 0
-45 74 0
-74 16 15 17 45 0
-17 75 0
-16 75 0
-18 75 0
-46 75 0
-75 17 16 18 46 0
-18 76 0
-17 76 0
-19 76 0
-47 76 0
-76 18 17 19 47 0
-19 77 0
-18 77 0
-20 77 0
-48 77 0
-77 19 18 20 48 0
-20 78 0
-19 78 0
-21 78 0
-49 78 0
-78 20 19 21 49 0
-21 79 0
-20 79 0
-22 79 0
-50 79 0
-79 21 20 22 50 0
-22 80 0
-21 80 0
-23 80 0
-51 80 0
-80 22 21 23 51 0
-23 81 0
-22 81 0
-24 81 0
-52 81 0
-81 23 22 24 52 0
-24 82 0
-23 82 0
-25 82 0
-53 82 0
-82 24 23 25 53 0
-25 83 0
-24 83 0
-26 83 0
-54 83 0
-83 25 24 26 54 0
-26 84 0
-25 84 0
-27 84 0
-55 84 0
-84 26 25 27 55 0
-27 85 0
-26 85 0
-28 85 0
-56 85 0
-85 27 26 28 56 0
-28 86 0
-27 86 0
-29 86 0
-57 86 0
-86 28 27 29 57 0
-29 87 0
-1 87 0
-28 87 0
-58 87 0
-87 29 1 28 58 0
-30 88 0
-1 88 0
-34 88 0
-55 88 0
-88 30 1 34 55 0
-31 89 0
-2 89 0
-35 89 0
-56 89 0
-89 31 2 35 56 0
-32 90 0
-3 90 0
-36 90 0
-57 90 0
-90 32 3 36 57 0
-33 91 0
-4 91 0
-37 91 0
-58 91 0
-91 33 4 37 58 0
-34 92 0
-5 92 0
-30 92 0
-38 92 0
-92 34 5 30 38 0
-35 93 0
-6 93 0
-31 93 0
-39 93 0
-93 35 6 31 39 0
-36 94 0
-7 94 0
-32 94 0
-40 94 0
-94 36 7 32 40 0
-37 95 0
-8 95 0
-33 95 0
-41 95 0
-95 37 8 33 41 0
-38 96 0
-9 96 0
-34 96 0
-42 96 0
-96 38 9 34 42 0
-39 97 0
-10 97 0
-35 97 0
-43 97 0
-97 39 10 35 43 0
-40 98 0
-11 98 0
-36 98 0
-44 98 0
-98 40 11 36 44 0
-41 99 0
-12 99 0
-37 99 0
-45 99 0
-99 41 12 37 45 0
-42 100 0
-13 100 0
-38 100 0
-46 100 0
-100 42 13 38 46 0
-43 101 0
-14 101 0
-39 101 0
-47 101 0
-101 43 14 39 47 0
-44 102 0
-15 102 0
-40 102 0
-48 102 0
-102 44 15 40 48 0
-45 103 0
-16 103 0
-41 103 0
-49 103 0
-103 45 16 41 49 0
-46 104 0
-17 104 0
-42 104 0
-50 104 0
-104 46 17 42 50 0
-47 105 0
-18 105 0
-43 105 0
-51 105 0
-105 47 18 43 51 0
-48 106 0
-19 106 0
-44 106 0
-52 106 0
-106 48 19 44 52 0
-49 107 0
-20 107 0
-45 107 0
-53 107 0
-107 49 20 45 53 0
-50 108 0
-21 108 0
-46 108 0
-54 108 0
-108 50 21 46 54 0
-51 109 0
-22 109 0
-47 109 0
-55 109 0
-109 51 22 47 55 0
-52 110 0
-23 110 0
-48 110 0
-56 110 0
-110 52 23 48 56 0
-53 111 0
-24 111 0
-49 111 0
-57 111 0
-111 53 24 49 57 0
-54 112 0
-25 112 0
-50 112 0
-58 112 0
-112 54 25 50 58 0
-55 113 0
-26 113 0
-30 113 0
-51 113 0
-113 55 26 30 51 0
-56 114 0
-27 114 0
-31 114 0
-52 114 0
-114 56 27 31 52 0
-57 115 0
-28 115 0
-32 115 0
-53 115 0
-115 57 28 32 53 0
-58 116 0
-29 116 0
-33 116 0
-54 116 0
-116 58 29 33 54 0
1 117 0
-117 118 0
2 -117 119 0
-119 120 0
3 -119 121 0
-121 122 0
4 -121 123 0
-123 124 0
5 -123 125 0
-125 126 0
6 -125 127 0
-127 128 0
7 -127 129 0
-129 130 0
8 -129 131 0
-131 132 0
9 -131 133 0
-133 134 0
10 -133 135 0
-135 136 0
11 -135 137 0
-137 138 0
12 -137 139 0
-139 140 0
13 -139 141 0
-141 142 0
14 -141 143 0
-143 144 0
15 -143 145 0
-145 146 0
16 -145 147 0
-147 148 0
17 -147 149 0
-149 150 0
18 -149 151 0
-151 152 0
19 -151 153 0
-153 154 0
20 -153 155 0
-155 156 0
21 -155 157 0
-157 158 0
22 -157 159 0
-159 160 0
23 -159 161 0
-161 162 0
24 -161 163 0
-163 164 0
25 -163 165 0
-165 166 0
26 -165 167 0
-167 168 0
27 -167 169 0
-169 170 0
28 -169 171 0
-171 172 0
29 -171 173 0
-173 174 0
30 -173 175 0
-175 176 0
31 -175 177 0
-177 178 0
32 -177 179 0
-179 180 0
33 -179 181 0
-181 182 0
34 -181 183 0
-183 184 0
35 -183 185 0
-185 186 0
36 -185 187 0
-187 188 0
37 -187 189 0
-189 190 0
38 -189 191 0
-191 192 0
39 -191 193 0
-193 194 0
40 -193 195 0
-195 196 0
41 -195 197 0
-197 198 0
42 -197 199 0
-199 200 0
43 -199 0
2 118 0
-118 201 0
3 -118 120 0
-120 202 0
4 -120 122 0
-122 203 0
5 -122 124 0
-124 204 0
6 -124 126 0
-126 205 0
7 -126 128 0
-128 206 0
8 -128 130 0
-130 207 0
9 -130 132 0
-132 208 0
10 -132 134 0
-134 209 0
11 -134 136 0
-136 210 0
12 -136 138 0
-138 211 0
13 -138 140 0
-140 212 0
14 -140 142 0
-142 213 0
15 -142 144 0
-144 214 0
16 -144 146 0
-146 215 0
17 -146 148 0
-148 216 0
18 -148 150 0
-150 217 0
19 -150 152 0
-152 218 0
20 -152 154 0
-154 219 0
21 -154 156 0
-156 220 0
22 -156 158 0
-158 221 0
23 -158 160 0
-160 222 0
24 -160 162 0
-162 223 0
25 -162 164 0
-164 224 0
26 -164 166 0
-166 225 0
27 -166 168 0
-168 226 0
28 -168 170 0
-170 227 0
29 -170 172 0
-172 228 0
30 -172 174 0
-174 229 0
31 -174 176 0
-176 230 0
32 -176 178 0
-178 231 0
33 -178 180 0
-180 232 0
34 -180 182 0
-182 233 0
35 -182 184 0
-184 234 0
36 -184 186 0
-186 235 0
37 -186 188 0
-188 236 0
38 -188 190 0
-190 237 0
39 -190 192 0
-192 238 0
40 -192 194 0
-194 239 0
41 -194 196 0
-196 240 0
42 -196 198 0
-198 241 0
43 -198 200 0
-200 242 0
44 -200 0
3 201 0
-201 243 0
4 -201 202 0
-202 244 0
5 -202 203 0
-203 245 0
6 -203 204 0
-204 246 0
7 -204 205 0
-205 247 0
8 -205 206 0
-206 248 0
9 -206 207 0
-207 249 0
10 -207 208 0
-208 250 0
11 -208 209 0
-209 251 0
12 -209 210 0
-210 252 0
13 -210 211 0
-211 253 0
14 -211 212 0
-212 254 0
15 -212 213 0
-213 255 0
16 -213 214 0
-214 256 0
17 -214 215 0
-215 257 0
18 -215 216 0
-216 258 0
19 -216 217 0
-217 259 0
20 -217 218 0
-218 260 0
21 -218 219 0
-219 261 0
22 -219 220 0
-220 262 0
23 -220 221 0
-221 263 0
24 -221 222 0
-222 264 0
25 -222 223 0
-223 265 0
26 -223 224 0
-224 266 0
27 -224 225 0
-225 267 0
28 -225 226 0
-226 268 0
29 -226 227 0
-227 269 0
30 -227 228 0
-228 270 0
31 -228 229 0
-229 271 0
32 -229 230 0
-230 272 0
33 -230 231 0
-231 273 0
34 -231 232 0
-232 274 0
35 -232 233 0
-233 275 0
36 -233 234 0
-234 276 0
37 -234 235 0
-235 277 0
38 -235 236 0
-236 278 0
39 -236 237 0
-237 279 0
40 -237 238 0
-238 280 0
41 -238 239 0
-239 281 0
42 -239 240 0
-240 282 0
43 -240 241 0
-241 283 0
44 -241 242 0
-242 284 0
45 -242 0
4 243 0
-243 285 0
5 -243 244 0
-244 286 0
6 -244 245 0
-245 287 0
7 -245 246 0
-246 288 0
8 -246 247 0
-247 289 0
9 -247 248 0
-248 290 0
10 -248 249 0
-249 291 0
11 -249 250 0
-250 292 0
12 -250 251 0
-251 293 0
13 -251 252 0
-252 294 0
14 -252 253 0
-253 295 0
15 -253 254 0
-254 296 0
16 -254 255 0
-255 297 0
17 -255 256 0
-256 298 0
18 -256 257 0
-257 299 0
19 -257 258 0
-258 300 0
20 -258 259 0
-259 301 0
21 -259 260 0
-260 302 0
22 -260 261 0
-261 303 0
23 -261 262 0
-262 304 0
24 -262 263 0
-263 305 0
25 -263 264 0
-264 306 0
26 -264 265 0
-265 307 0
27 -265 266 0
-266 308 0
28 -266 267 0
-267 309 0
29 -267 268 0
-268 310 0
30 -268 269 0
-269 311 0
31 -269 270 0
-270 312 0
32 -270 271 0
-271 313 0
33 -271 272 0
-272 314 0
34 -272 273 0
-273 315 0
35 -273 274 0
-274 316 0
36 -274 275 0
-275 317 0
37 -275 276 0
-276 318 0
38 -276 277 0
-277 319 0
39 -277 278 0
-278 320 0
40 -278 279 0
-279 321 0
41 -279 280 0
-280 322 0
42 -280 281 0
-281 323 0
43 -281 282 0
-282 324 0
44 -282 283 0
-283 325 0
45 -283 284 0
-284 326 0
46 -284 0
5 285 0
-285 327 0
6 -285 286 0
-286 328 0
7 -286 287 0
-287 329 0
8 -287 288 0
-288 330 0
9 -288 289 0
-289 331 0
10 -289 290 0
-290 332 0
11 -290 291 0
-291 333 0
12 -291 292 0
-292 334 0
13 -292 293 0
-293 335 0
14 -293 294 0
-294 336 0
15 -294 295 0
-295 337 0
16 -295 296 0
-296 338 0
17 -296 297 0
-297 339 0
18 -297 298 0
-298 340 0
19 -298 299 0
-299 341 0
20 -299 300 0
-300 342 0
21 -300 301 0
-301 343 0
22 -301 302 0
-302 344 0
23 -302 303 0
-303 345 0
24 -303 304 0
-304 346 0
25 -304 305 0
-305 347 0
26 -305 306 0
-306 348 0
27 -306 307 0
-307 349 0
28 -307 308 0
-308 350 0
29 -308 309 0
-309 351 0
30 -309 310 0
-310 352 0
31 -310 311 0
-311 353 0
32 -311 312 0
-312 354 0
33 -312 313 0
-313 355 0
34 -313 314 0
-314 356 0
35 -314 315 0
-315 357 0
36 -315 316 0
-316 358 0
37 -316 317 0
-317 359 0
38 -317 318 0
-318 360 0
39 -318 319 0
-319 361 0
40 -319 320 0
-320 362 0
41 -320 321 0
-321 363 0
42 -321 322 0
-322 364 0
43 -322 323 0
-323 365 0
44 -323 324 0
-324 366 0
45 -324 325 0
-325 367 0
46 -325 326 0
-326 368 0
47 -326 0
6 327 0
-327 369 0
7 -327 328 0
-328 370 0
8 -328 329 0
-329 371 0
9 -329 330 0
-330 372 0
10 -330 331 0
-331 373 0
11 -331 332 0
-332 374 0
12 -332 333 0
-333 375 0
13 -333 334 0
-334 376 0
14 -334 335 0
-335 377 0
15 -335 336 0
-336 378 0
16 -336 337 0
-337 379 0
17 -337 338 0
-338 380 0
18 -338 339 0
-339 381 0
19 -339 340 0
-340 382 0
20 -340 341 0
-341 383 0
21 -341 342 0
-342 384 0
22 -342 343 0
-343 385 0
23 -343 344 0
-344 386 0
24 -344 345 0
-345 387 0
25 -345 346 0
-346 388 0
26 -346 347 0
-347 389 0
27 -347 348 0
-348 390 0
28 -348 349 0
-349 391 0
29 -349 350 0
-350 392 0
30 -350 351 0
-351 393 0
31 -351 352 0
-352 394 0
32 -352 353 0
-353 395 0
33 -353 354 0
-354 396 0
34 -354 355 0
-355 397 0
35 -355 356 0
-356 398 0
36 -356 357 0
-357 399 0
37 -357 358 0
-358 400 0
38 -358 359 0
-359 401 0
39 -359 360 0
-360 402 0
40 -360 361 0
-361 403 0
41 -361 362 0
-362 404 0
42 -362 363 0
-363 405 0
43 -363 364 0
-364 406 0
44 -364 365 0
-365 407 0
45 -365 366 0
-366 408 0
46 -366 367 0
-367 409 0
47 -367 368 0
-368 410 0
48 -368 0
7 369 0
-369 411 0
8 -369 370 0
-370 412 0
9 -370 371 0
-371 413 0
10 -371 372 0
-372 414 0
11 -372 373 0
-373 415 0
12 -373 374 0
-374 416 0
13 -374 375 0
-375 417 0
14 -375 376 0
-376 418 0
15 -376 377 0
-377 419 0
16 -377 378 0
-378 420 0
17 -378 379 0
-379 421 0
18 -379 380 0
-380 422 0
19 -380 381 0
-381 423 0
20 -381 382 0
-382 424 0
21 -382 383 0
-383 425 0
22 -383 384 0
-384 426 0
23 -384 385 0
-385 427 0
24 -385 386 0
-386 428 0
25 -386 387 0
-387 429 0
26 -387 388 0
-388 430 0
27 -388 389 0
-389 431 0
28 -389 390 0
-390 432 0
29 -390 391 0
-391 433 0
30 -391 392 0
-392 434 0
31 -392 393 0
-393 435 0
32 -393 394 0
-394 436 0
33 -394 395 0
-395 437 0
34 -395 396 0
-396 438 0
35 -396 397 0
-397 439 0
36 -397 398 0
-398 440 0
37 -398 399 0
-399 441 0
38 -399 400 0
-400 442 0
39 -400 401 0
-401 443 0
40 -401 402 0
-402 444 0
41 -402 403 0
-403 445 0
42 -403 404 0
-404 446 0
43 -404 405 0
-405 447 0
44 -405 406 0
-406 448 0
45 -406 407 0
-407 449 0
46 -407 408 0
-408 450 0
47 -408 409 0
-409 451 0
48 -409 410 0
-410 452 0
49 -410 0
8 411 0
-411 453 0
9 -411 412 0
-412 454 0
10 -412 413 0
-413 455 0
11 -413 414 0
-414 456 0
12 -414 415 0
-415 457 0
13 -415 416 0
-416 458 0
14 -416 417 0
-417 459 0
15 -417 418 0
-418 460 0
16 -418 419 0
-419 461 0
17 -419 420 0
-420 462 0
18 -420 421 0
-421 463 0
19 -421 422 0
-422 464 0
20 -422 423 0
-423 465 0
21 -423 424 0
-424 466 0
22 -424 425 0
-425 467 0
23 -425 426 0
-426 468 0
24 -426 427 0
-427 469 0
25 -427 428 0
-428 470 0
26 -428 429 0
-429 471 0
27 -429 430 0
-430 472 0
28 -430 431 0
-431 473 0
29 -431 432 0
-432 474 0
30 -432 433 0
-433 475 0
31 -433 434 0
-434 476 0
32 -434 435 0
-435 477 0
33 -435 436 0
-436 478 0
34 -436 437 0
-437 479 0
35 -437 438 0
-438 480 0
36 -438 439 0
-439 481 0
37 -439 440 0
-440 482 0
38 -440 441 0
-441 483 0
39 -441 442 0
-442 484 0
40 -442 443 0
-443 485 0
41 -443 444 0
-444 486 0
42 -444 445 0
-445 487 0
43 -445 446 0
-446 488 0
44 -446 447 0
-447 489 0
45 -447 448 0
-448 490 0
46 -448 449 0
-449 491 0
47 -449 450 0
-450 492 0
48 -450 451 0
-451 493 0
49 -451 452 0
-452 494 0
50 -452 0
9 453 0
-453 495 0
10 -453 454 0
-454 496 0
11 -454 455 0
-455 497 0
12 -455 456 0
-456 498 0
13 -456 457 0
-457 499 0
14 -457 458 0
-458 500 0
15 -458 459 0
-459 501 0
16 -459 460 0
-460 502 0
17 -460 461 0
-461 503 0
18 -461 462 0
-462 504 0
19 -462 463 0
-463 505 0
20 -463 464 0
-464 506 0
21 -464 465 0
-465 507 0
22 -465 466 0
-466 508 0
23 -466 467 0
-467 509 0
24 -467 468 0
-468 510 0
25 -468 469 0
-469 511 0
26 -469 470 0
-470 512 0
27 -470 471 0
-471 513 0
28 -471 472 0
-472 514 0
29 -472 473 0
-473 515 0
30 -473 474 0
-474 516 0
31 -474 475 0
-475 517 0
32 -475 476 0
-476 518 0
33 -476 477 0
-477 519 0
34 -477 478 0
-478 520 0
35 -478 479 0
-479 521 0
36 -479 480 0
-480 522 0
37 -480 481 0
-481 523 0
38 -481 482 0
-482 524 0
39 -482 483 0
-483 525 0
40 -483 484 0
-484 526 0
41 -484 485 0
-485 527 0
42 -485 486 0
-486 528 0
43 -486 487 0
-487 529 0
44 -487 488 0
-488 530 0
45 -488 489 0
-489 531 0
46 -489 490 0
-490 532 0
47 -490 491 0
-491 533 0
48 -491 492 0
-492 534 0
49 -492 493 0
-493 535 0
50 -493 494 0
-494 536 0
51 -494 0
10 495 0
-495 537 0
11 -495 496 0
-496 538 0
12 -496 497 0
-497 539 0
13 -497 498 0
-498 540 0
14 -498 499 0
-499 541 0
15 -499 500 0
-500 542 0
16 -500 501 0
-501 543 0
17 -501 502 0
-502 544 0
18 -502 503 0
-503 545 0
19 -503 504 0
-504 546 0
20 -504 505 0
-505 547 0
21 -505 506 0
-506 548 0
22 -506 507 0
-507 549 0
23 -507 508 0
-508 550 0
24 -508 509 0
-509 551 0
25 -509 510 0
-510 552 0
26 -510 511 0
-511 553 0
27 -511 512 0
-512 554 0
28 -512 513 0
-513 555 0
29 -513 514 0
-514 556 0
30 -514 515 0
-515 557 0
31 -515 516 0
-516 558 0
32 -516 517 0
-517 559 0
33 -517 518 0
-518 560 0
34 -518 519 0
-519 561 0
35 -519 520 0
-520 562 0
36 -520 521 0
-521 563 0
37 -521 522 0
-522 564 0
38 -522 523 0
-523 565 0
39 -523 524 0
-524 566 0
40 -524 525 0
-525 567 0
41 -525 526 0
-526 568 0
42 -526 527 0
-527 569 0
43 -527 528 0
-528 570 0
44 -528 529 0
-529 571 0
45 -529 530 0
-530 572 0
46 -530 531 0
-531 573 0
47 -531 532 0
-532 574 0
48 -532 533 0
-533 575 0
49 -533 534 0
-534 576 0
50 -534 535 0
-535 577 0
51 -535 536 0
-536 578 0
52 -536 0
11 537 0
-537 579 0
12 -537 538 0
-538 580 0
13 -538 539 0
-539 581 0
14 -539 540 0
-540 582 0
15 -540 541 0
-541 583 0
16 -541 542 0
-542 584 0
17 -542 543 0
-543 585 0
18 -543 544 0
-544 586 0
19 -544 545 0
-545 587 0
20 -545 546 0
-546 588 0
21 -546 547 0
-547 589 0
22 -547 548 0
-548 590 0
23 -548 549 0
-549 591 0
24 -549 550 0
-550 592 0
25 -550 551 0
-551 593 0
26 -551 552 0
-552 594 0
27 -552 553 0
-553 595 0
28 -553 554 0
-554 596 0
29 -554 555 0
-555 597 0
30 -555 556 0
-556 598 0
31 -556 557 0
-557 599 0
32 -557 558 0
-558 600 0
33 -558 559 0
-559 601 0
34 -559 560 0
-560 602 0
35 -560 561 0
-561 603 0
36 -561 562 0
-562 604 0
37 -562 563 0
-563 605 0
38 -563 564 0
-564 606 0
39 -564 565 0
-565 607 0
40 -565 566 0
-566 608 0
41 -566 567 0
-567 609 0
42 -567 568 0
-568 610 0
43 -568 569 0
-569 611 0
44 -569 570 0
-570 612 0
45 -570 571 0
-571 613 0
46 -571 572 0
-572 614 0
47 -572 573 0
-573 615 0
48 -573 574 0
-574 616 0
49 -574 575 0
-575 617 0
50 -575 576 0
-576 618 0
51 -576 577 0
-577 619 0
52 -577 578 0
-578 620 0
53 -578 0
12 579 0
-579 621 0
13 -579 580 0
-580 622 0
14 -580 581 0
-581 623 0
15 -581 582 0
-582 624 0
16 -582 583 0
-583 625 0
17 -583 584 0
-584 626 0
18 -584 585 0
-585 627 0
19 -585 586 0
-586 628 0
20 -586 587 0
-587 629 0
21 -587 588 0
-588 630 0
22 -588 589 0
-589 631 0
23 -589 590 0
-590 632 0
24 -590 591 0
-591 633 0
25 -591 592 0
-592 634 0
26 -592 593 0
-593 635 0
27 -593 594 0
-594 636 0
28 -594 595 0
-595 637 0
29 -595 596 0
-596 638 0
30 -596 597 0
-597 639 0
31 -597 598 0
-598 640 0
32 -598 599 0
-599 641 0
33 -599 600 0
-600 642 0
34 -600 601 0
-601 643 0
35 -601 602 0
-602 644 0
36 -602 603 0
-603 645 0
37 -603 604 0
-604 646 0
38 -604 605 0
-605 647 0
39 -605 606 0
-606 648 0
40 -606 607 0
-607 649 0
41 -607 608 0
-608 650 0
42 -608 609 0
-609 651 0
43 -609 610 0
-610 652 0
44 -610 611 0
-611 653 0
45 -611 612 0
-612 654 0
46 -612 613 0
-613 655 0
47 -613 614 0
-614 656 0
48 -614 615 0
-615 657 0
49 -615 616 0
-616 658 0
50 -616 617 0
-617 659 0
51 -617 618 0
-618 660 0
52 -618 619 0
-619 661 0
53 -619 620 0
-620 662 0
54 -620 0
13 621 0
-621 663 0
14 -621 622 0
-622 664 0
15 -622 623 0
-623 665 0
16 -623 624 0
-624 666 0
17 -624 625 0
-625 667 0
18 -625 626 0
-626 668 0
19 -626 627 0
-627 669 0
20 -627 628 0
-628 670 0
21 -628 629 0
-629 671 0
22 -629 630 0
-630 672 0
23 -630 631 0
-631 673 0
24 -631 632 0
-632 674 0
25 -632 633 0
-633 675 0
26 -633 634 0
-634 676 0
27 -634 635 0
-635 677 0
28 -635 636 0
-636 678 0
29 -636 637 0
-637 679 0
30 -637 638 0
-638 680 0
31 -638 639 0
-639 681 0
32 -639 640 0
-640 682 0
33 -640 641 0
-641 683 0
34 -641 642 0
-642 684 0
35 -642 643 0
-643 685 0
36 -643 644 0
-644 686 0
37 -644 645 0
-645 687 0
38 -645 646 0
-646 688 0
39 -646 647 0
-647 689 0
40 -647 648 0
-648 690 0
41 -648 649 0
-649 691 0
42 -649 650 0
-650 692 0
43 -650 651 0
-651 693 0
44 -651 652 0
-652 694 0
45 -652 653 0
-653 695 0
46 -653 654 0
-654 696 0
47 -654 655 0
-655 697 0
48 -655 656 0
-656 698 0
49 -656 657 0
-657 699 0
50 -657 658 0
-658 700 0
51 -658 659 0
-659 701 0
52 -659 660 0
-660 702 0
53 -660 661 0
-661 703 0
54 -661 662 0
-662 704 0
55 -662 0
14 663 0
-663 705 0
15 -663 664 0
-664 706 0
16 -664 665 0
-665 707 0
17 -665 666 0
-666 708 0
18 -666 667 0
-667 709 0
19 -667 668 0
-668 710 0
20 -668 669 0
-669 711 0
21 -669 670 0
-670 712 0
22 -670 671 0
-671 713 0
23 -671 672 0
-672 714 0
24 -672 673 0
-673 715 0
25 -673 674 0
-674 716 0
26 -674 675 0
-675 717 0
27 -675 676 0
-676 718 0
28 -676 677 0
-677 719 0
29 -677 678 0
-678 720 0
30 -678 679 0
-679 721 0
31 -679 680 0
-680 722 0
32 -680 681 0
-681 723 0
33 -681 682 0
-682 724 0
34 -682 683 0
-683 725 0
35 -683 684 0
-684 726 0
36 -684 685 0
-685 727 0
37 -685 686 0
-686 728 0
38 -686 687 0
-687 729 0
39 -687 688 0
-688 730 0
40 -688 689 0
-689 731 0
41 -689 690 0
-690 732 0
42 -690 691 0
-691 733 0
43 -691 692 0
-692 734 0
44 -692 693 0
-693 735 0
45 -693 694 0
-694 736 0
46 -694 695 0
-695 737 0
47 -695 696 0
-696 738 0
48 -696 697 0
-697 739 0
49 -697 698 0
-698 740 0
50 -698 699 0
-699 741 0
51 -699 700 0
-700 742 0
52 -700 701 0
-701 743 0
53 -701 702 0
-702 744 0
54 -702 703 0
-703 745 0
55 -703 704 0
-704 746 0
56 -704 0
15 705 0
-705 747 0
16 -705 706 0
-706 748 0
17 -706 707 0
-707 749 0
18 -707 708 0
-708 750 0
19 -708 709 0
-709 751 0
20 -709 710 0
-710 752 0
21 -710 711 0
-711 753 0
22 -711 712 0
-712 754 0
23 -712 713 0
-713 755 0
24 -713 714 0
-714 756 0
25 -714 715 0
-715 757 0
26 -715 716 0
-716 758 0
27 -716 717 0
-717 759 0
28 -717 718 0
-718 760 0
29 -718 719 0
-719 761 0
30 -719 720 0
-720 762 0
31 -720 721 0
-721 763 0
32 -721 722 0
-722 764 0
33 -722 723 0
-723 765 0
34 -723 724 0
-724 766 0
35 -724 725 0
-725 767 0
36 -725 726 0
-726 768 0
37 -726 727 0
-727 769 0
38 -727 728 0
-728 770 0
39 -728 729 0
-729 771 0
40 -729 730 0
-730 772 0
41 -730 731 0
-731 773 0
42 -731 732 0
-732 774 0
43 -732 733 0
-733 775 0
44 -733 734 0
-734 776 0
45 -734 735 0
-735 777 0
46 -735 736 0
-736 778 0
47 -736 737 0
-737 779 0
48 -737 738 0
-738 780 0
49 -738 739 0
-739 781 0
50 -739 740 0
-740 782 0
51 -740 741 0
-741 783 0
52 -741 742 0
-742 784 0
53 -742 743 0
-743 785 0
54 -743 744 0
-744 786 0
55 -744 745 0
-745 787 0
56 -745 746 0
-746 788 0
57 -746 0
16 747 0
17 -747 748 0
18 -748 749 0
19 -749 750 0
20 -750 751 0
21 -751 752 0
22 -752 753 0
23 -753 754 0
24 -754 755 0
25 -755 756 0
26 -756 757 0
27 -757 758 0
28 -758 759 0
29 -759 760 0
30 -760 761 0
31 -761 762 0
32 -762 763 0
33 -763 764 0
34 -764 765 0
35 -765 766 0
36 -766 767 0
37 -767 768 0
38 -768 769 0
39 -769 770 0
40 -770 771 0
41 -771 772 0
42 -772 773 0
43 -773 774 0
44 -774 775 0
45 -775 776 0
46 -776 777 0
47 -777 778 0
48 -778 779 0
49 -779 780 0
50 -780 781 0
51 -781 782 0
52 -782 783 0
53 -783 784 0
54 -784 785 0
55 -785 786 0
56 -786 787 0
57 -787 788 0
58 -788 0
-1 789 0
-789 790 0
-2 -789 791 0
-791 792 0
-3 -791 793 0
-793 794 0
-4 -793 795 0
-795 796 0
-5 -795 797 0
-797 798 0
-6 -797 799 0
-799 800 0
-7 -799 801 0
-801 802 0
-8 -801 803 0
-803 804 0
-9 -803 805 0
-805 806 0
-10 -805 807 0
-807 808 0
-11 -807 809 0
-809 810 0
-12 -809 811 0
-811 812 0
-13 -811 813 0
-813 814 0
-14 -813 815 0
-815 816 0
-15 -815 817 0
-817 818 0
-16 -817 819 0
-819 820 0
-17 -819 0
-2 790 0
-790 821 0
-3 -790 792 0
-792 822 0
-4 -792 794 0
-794 823 0
-5 -794 796 0
-796 824 0
-6 -796 798 0
-798 825 0
-7 -798 800 0
-800 826 0
-8 -800 802 0
-802 827 0
-9 -802 804 0
-804 828 0
-10 -804 806 0
-806 829 0
-11 -806 808 0
-808 830 0
-12 -808 810 0
-810 831 0
-13 -810 812 0
-812 832 0
-14 -812 814 0
-814 833 0
-15 -814 816 0
-816 834 0
-16 -816 818 0
-818 835 0
-17 -818 820 0
-820 836 0
-18 -820 0
-3 821 0
-821 837 0
-4 -821 822 0
-822 838 0
-5 -822 823 0
-823 839 0
-6 -823 824 0
-824 840 0
-7 -824 825 0
-825 841 0
-8 -825 826 0
-826 842 0
-9 -826 827 0
-827 843 0
-10 -827 828 0
-828 844 0
-11 -828 829 0
-829 845 0
-12 -829 830 0
-830 846 0
-13 -830 831 0
-831 847 0
-14 -831 832 0
-832 848 0
-15 -832 833 0
-833 849 0
-16 -833 834 0
-834 850 0
-17 -834 835 0
-835 851 0
-18 -835 836 0
-836 852 0
-19 -836 0
-4 837 0
-837 853 0
-5 -837 838 0
-838 854 0
-6 -838 839 0
-839 855 0
-7 -839 840 0
-840 856 0
-8 -840 841 0
-841 857 0
-9 -841 842 0
-842 858 0
-10 -842 843 0
-843 859 0
-11 -843 844 0
-844 860 0
-12 -844 845 0
-845 861 0
-13 -845 846 0
-846 862 0
-14 -846 847 0
-847 863 0
-15 -847 848 0
-848 864 0
-16 -848 849 0
-849 865 0
-17 -849 850 0
-850 866 0
-18 -850 851 0
-851 867 0
-19 -851 852 0
-852 868 0
-20 -852 0
-5 853 0
-853 869 0
-6 -853 854 0
-854 870 0
-7 -854 855 0
-855 871 0
-8 -855 856 0
-856 872 0
-9 -856 857 0
-857 873 0
-10 -857 858 0
-858 874 0
-11 -858 859 0
-859 875 0
-12 -859 860 0
-860 876 0
-13 -860 861 0
-861 877 0
-14 -861 862 0
-862 878 0
-15 -862 863 0
-863 879 0
-16 -863 864 0
-864 880 0
-17 -864 865 0
-865 881 0
-18 -865 866 0
-866 882 0
-19 -866 867 0
-867 883 0
-20 -867 868 0
-868 884 0
-21 -868 0
-6 869 0
-869 885 0
-7 -869 870 0
-870 886 0
-8 -870 871 0
-871 887 0
-9 -871 872 0
-872 888 0
-10 -872 873 0
-873 889 0
-11 -873 874 0
-874 890 0
-12 -874 875 0
-875 891 0
-13 -875 876 0
-876 892 0
-14 -876 877 0
-877 893 0
-15 -877 878 0
-878 894 0
-16 -878 879 0
-879 895 0
-17 -879 880 0
-880 896 0
-18 -880 881 0
-881 897 0
-19 -881 882 0
-882 898 0
-20 -882 883 0
-883 899 0
-21 -883 884 0
-884 900 0
-22 -884 0
-7 885 0
-885 901 0
-8 -885 886 0
-886 902 0
-9 -886 887 0
-887 903 0
-10 -887 888 0
-888 904 0
-11 -888 889 0
-889 905 0
-12 -889 890 0
-890 906 0
-13 -890 891 0
-891 907 0
-14 -891 892 0
-892 908 0
-15 -892 893 0
-893 909 0
-16 -893 894 0
-894 910 0
-17 -894 895 0
-895 911 0
-18 -895 896 0
-896 912 0
-19 -896 897 0
-897 913 0
-20 -897 898 0
-898 914 0
-21 -898 899 0
-899 915 0
-22 -899 900 0
-900 916 0
-23 -900 0
-8 901 0
-901 917 0
-9 -901 902 0
-902 918 0
-10 -902 903 0
-903 919 0
-11 -903 904 0
-904 920 0
-12 -904 905 0
-905 921 0
-13 -905 906 0
-906 922 0
-14 -906 907 0
-907 923 0
-15 -907 908 0
-908 924 0
-16 -908 909 0
-909 925 0
-17 -909 910 0
-910 926 0
-18 -910 911 0
-911 927 0
-19 -911 912 0
-912 928 0
-20 -912 913 0
-913 929 0
-21 -913 914 0
-914 930 0
-22 -914 915 0
-915 931 0
-23 -915 916 0
-916 932 0
-24 -916 0
-9 917 0
-917 933 0
-10 -917 918 0
-918 934 0
-11 -918 919 0
-919 935 0
-12 -919 920 0
-920 936 0
-13 -920 921 0
-921 937 0
-14 -921 922 0
-922 938 0
-15 -922 923 0
-923 939 0
-16 -923 924 0
-924 940 0
-17 -924 925 0
-925 941 0
-18 -925 926 0
-926 942 0
-19 -926 927 0
-927 943 0
-20 -927 928 0
-928 944 0
-21 -928 929 0
-929 945 0
-22 -929 930 0
-930 946 0
-23 -930 931 0
-931 947 0
-24 -931 932 0
-932 948 0
-25 -932 0
-10 933 0
-933 949 0
-11 -933 934 0
-934 950 0
-12 -934 935 0
-935 951 0
-13 -935 936 0
-936 952 0
-14 -936 937 0
-937 953 0
-15 -937 938 0
-938 954 0
-16 -938 939 0
-939 955 0
-17 -939 940 0
-940 956 0
-18 -940 941 0
-941 957 0
-19 -941 942 0
-942 958 0
-20 -942 943 0
-943 959 0
-21 -943 944 0
-944 960 0
-22 -944 945 0
-945 961 0
-23 -945 946 0
-946 962 0
-24 -946 947 0
-947 963 0
-25 -947 948 0
-948 964 0
-26 -948 0
-11 949 0
-949 965 0
-12 -949 950 0
-950 966 0
-13 -950 951 0
-951 967 0
-14 -951 952 0
-952 968 0
-15 -952 953 0
-953 969 0
-16 -953 954 0
-954 970 0
-17 -954 955 0
-955 971 0
-18 -955 956 0
-956 972 0
-19 -956 957 0
-957 973 0
-20 -957 958 0
-958 974 0
-21 -958 959 0
-959 975 0
-22 -959 960 0
-960 976 0
-23 -960 961 0
-961 977 0
-24 -961 962 0
-962 978 0
-25 -962 963 0
-963 979 0
-26 -963 964 0
-964 980 0
-27 -964 0
-12 965 0
-965 981 0
-13 -965 966 0
-966 982 0
-14 -966 967 0
-967 983 0
-15 -967 968 0
-968 984 0
-16 -968 969 0
-969 985 0
-17 -969 970 0
-970 986 0
-18 -970 971 0
-971 987 0
-19 -971 972 0
-972 988 0
-20 -972 973 0
-973 989 0
-21 -973 974 0
-974 990 0
-22 -974 975 0
-975 991 0
-23 -975 976 0
-976 992 0
-24 -976 977 0
-977 993 0
-25 -977 978 0
-978 994 0
-26 -978 979 0
-979 995 0
-27 -979 980 0
-980 996 0
-28 -980 0
-13 981 0
-981 997 0
-14 -981 982 0
-982 998 0
-15 -982 983 0
-983 999 0
-16 -983 984 0
-984 1000 0
-17 -984 985 0
-985 1001 0
-18 -985 986 0
-986 1002 0
-19 -986 987 0
-987 1003 0
-20 -987 988 0
-988 1004 0
-21 -988 989 0
-989 1005 0
-22 -989 990 0
-990 1006 0
-23 -990 991 0
-991 1007 0
-24 -991 992 0
-992 1008 0
-25 -992 993 0
-993 1009 0
-26 -993 994 0
-994 1010 0
-27 -994 995 0
-995 1011 0
-28 -995 996 0
-996 1012 0
-29 -996 0
-14 997 0
-997 1013 0
-15 -997 998 0
-998 1014 0
-16 -998 999 0
-999 1015 0
-17 -999 1000 0
-1000 1016 0
-18 -1000 1001 0
-1001 1017 0
-19 -1001 1002 0
-1002 1018 0
-20 -1002 1003 0
-1003 1019 0
-21 -1003 1004 0
-1004 1020 0
-22 -1004 1005 0
-1005 1021 0
-23 -1005 1006 0
-1006 1022 0
-24 -1006 1007 0
-1007 1023 0
-25 -1007 1008 0
-1008 1024 0
-26 -1008 1009 0
-1009 1025 0
-27 -1009 1010 0
-1010 1026 0
-28 -1010 1011 0
-1011 1027 0
-29 -1011 1012 0
-1012 1028 0
-30 -1012 0
-15 1013 0
-1013 1029 0
-16 -1013 1014 0
-1014 1030 0
-17 -1014 1015 0
-1015 1031 0
-18 -1015 1016 0
-1016 1032 0
-19 -1016 1017 0
-1017 1033 0
-20 -1017 1018 0
-1018 1034 0
-21 -1018 1019 0
-1019 1035 0
-22 -1019 1020 0
-1020 1036 0
-23 -1020 1021 0
-1021 1037 0
-24 -1021 1022 0
-1022 1038 0
-25 -1022 1023 0
-1023 1039 0
-26 -1023 1024 0
-1024 1040 0
-27 -1024 1025 0
-1025 1041 0
-28 -1025 1026 0
-1026 1042 0
-29 -1026 1027 0
-1027 1043 0
-30 -1027 1028 0
-1028 1044 0
-31 -1028 0
-16 1029 0
-1029 1045 0
-17 -1029 1030 0
-1030 1046 0
-18 -1030 1031 0
-1031 1047 0
-19 -1031 1032 0
-1032 1048 0
-20 -1032 1033 0
-1033 1049 0
-21 -1033 1034 0
-1034 1050 0
-22 -1034 1035 0
-1035 1051 0
-23 -1035 1036 0
-1036 1052 0
-24 -1036 1037 0
-1037 1053 0
-25 -1037 1038 0
-1038 1054 0
-26 -1038 1039 0
-1039 1055 0
-27 -1039 1040 0
-1040 1056 0
-28 -1040 1041 0
-1041 1057 0
-29 -1041 1042 0
-1042 1058 0
-30 -1042 1043 0
-1043 1059 0
-31 -1043 1044 0
-1044 1060 0
-32 -1044 0
-17 1045 0
-1045 1061 0
-18 -1045 1046 0
-1046 1062 0
-19 -1046 1047 0
-1047 1063 0
-20 -1047 1048 0
-1048 1064 0
-21 -1048 1049 0
-1049 1065 0
-22 -1049 1050 0
-1050 1066 0
-23 -1050 1051 0
-1051 1067 0
-24 -1051 1052 0
-1052 1068 0
-25 -1052 1053 0
-1053 1069 0
-26 -1053 1054 0
-1054 1070 0
-27 -1054 1055 0
-1055 1071 0
-28 -1055 1056 0
-1056 1072 0
-29 -1056 1057 0
-1057 1073 0
-30 -1057 1058 0
-1058 1074 0
-31 -1058 1059 0
-1059 1075 0
-32 -1059 1060 0
-1060 1076 0
-33 -1060 0
-18 1061 0
-1061 1077 0
-19 -1061 1062 0
-1062 1078 0
-20 -1062 1063 0
-1063 1079 0
-21 -1063 1064 0
-1064 1080 0
-22 -1064 1065 0
-1065 1081 0
-23 -1065 1066 0
-1066 1082 0
-24 -1066 1067 0
-1067 1083 0
-25 -1067 1068 0
-1068 1084 0
-26 -1068 1069 0
-1069 1085 0
-27 -1069 1070 0
-1070 1086 0
-28 -1070 1071 0
-1071 1087 0
-29 -1071 1072 0
-1072 1088 0
-30 -1072 1073 0
-1073 1089 0
-31 -1073 1074 0
-1074 1090 0
-32 -1074 1075 0
-1075 1091 0
-33 -1075 1076 0
-1076 1092 0
-34 -1076 0
-19 1077 0
-1077 1093 0
-20 -1077 1078 0
-1078 1094 0
-21 -1078 1079 0
-1079 1095 0
-22 -1079 1080 0
-1080 1096 0
-23 -1080 1081 0
-1081 1097 0
-24 -1081 1082 0
-1082 1098 0
-25 -1082 1083 0
-1083 1099 0
-26 -1083 1084 0
-1084 1100 0
-27 -1084 1085 0
-1085 1101 0
-28 -1085 1086 0
-1086 1102 0
-29 -1086 1087 0
-1087 1103 0
-30 -1087 1088 0
-1088 1104 0
-31 -1088 1089 0
-1089 1105 0
-32 -1089 1090 0
-1090 1106 0
-33 -1090 1091 0
-1091 1107 0
-34 -1091 1092 0
-1092 1108 0
-35 -1092 0
-20 1093 0
-1093 1109 0
-21 -1093 1094 0
-1094 1110 0
-22 -1094 1095 0
-1095 1111 0
-23 -1095 1096 0
-1096 1112 0
-24 -1096 1097 0
-1097 1113 0
-25 -1097 1098 0
-1098 1114 0
-26 -1098 1099 0
-1099 1115 0
-27 -1099 1100 0
-1100 1116 0
-28 -1100 1101 0
-1101 1117 0
-29 -1101 1102 0
-1102 1118 0
-30 -1102 1103 0
-1103 1119 0
-31 -1103 1104 0
-1104 1120 0
-32 -1104 1105 0
-1105 1121 0
-33 -1105 1106 0
-1106 1122 0
-34 -1106 1107 0
-1107 1123 0
-35 -1107 1108 0
-1108 1124 0
-36 -1108 0
-21 1109 0
-1109 1125 0
-22 -1109 1110 0
-1110 1126 0
-23 -1110 1111 0
-1111 1127 0
-24 -1111 1112 0
-1112 1128 0
-25 -1112 1113 0
-1113 1129 0
-26 -1113 1114 0
-1114 1130 0
-27 -1114 1115 0
-1115 1131 0
-28 -1115 1116 0
-1116 1132 0
-29 -1116 1117 0
-1117 1133 0
-30 -1117 1118 0
-1118 1134 0
-31 -1118 1119 0
-1119 1135 0
-32 -1119 1120 0
-1120 1136 0
-33 -1120 1121 0
-1121 1137 0
-34 -1121 1122 0
-1122 1138 0
-35 -1122 1123 0
-1123 1139 0
-36 -1123 1124 0
-1124 1140 0
-37 -1124 0
-22 1125 0
-1125 1141 0
-23 -1125 1126 0
-1126 1142 0
-24 -1126 1127 0
-1127 1143 0
-25 -1127 1128 0
-1128 1144 0
-26 -1128 1129 0
-1129 1145 0
-27 -1129 1130 0
-1130 1146 0
-28 -1130 1131 0
-1131 1147 0
-29 -1131 1132 0
-1132 1148 0
-30 -1132 1133 0
-1133 1149 0
-31 -1133 1134 0
-1134 1150 0
-32 -1134 1135 0
-1135 1151 0
-33 -1135 1136 0
-1136 1152 0
-34 -1136 1137 0
-1137 1153 0
-35 -1137 1138 0
-1138 1154 0
-36 -1138 1139 0
-1139 1155 0
-37 -1139 1140 0
-1140 1156 0
-38 -1140 0
-23 1141 0
-1141 1157 0
-24 -1141 1142 0
-1142 1158 0
-25 -1142 1143 0
-1143 1159 0
-26 -1143 1144 0
-1144 1160 0
-27 -1144 1145 0
-1145 1161 0
-28 -1145 1146 0
-1146 1162 0
-29 -1146 1147 0
-1147 1163 0
-30 -1147 1148 0
-1148 1164 0
-31 -1148 1149 0
-1149 1165 0
-32 -1149 1150 0
-1150 1166 0
-33 -1150 1151 0
-1151 1167 0
-34 -1151 1152 0
-1152 1168 0
-35 -1152 1153 0
-1153 1169 0
-36 -1153 1154 0
-1154 1170 0
-37 -1154 1155 0
-1155 1171 0
-38 -1155 1156 0
-1156 1172 0
-39 -1156 0
-24 1157 0
-1157 1173 0
-25 -1157 1158 0
-1158 1174 0
-26 -1158 1159 0
-1159 1175 0
-27 -1159 1160 0
-1160 1176 0
-28 -1160 1161 0
-1161 1177 0
-29 -1161 1162 0
-1162 1178 0
-30 -1162 1163 0
-1163 1179 0
-31 -1163 1164 0
-1164 1180 0
-32 -1164 1165 0
-1165 1181 0
-33 -1165 1166 0
-1166 1182 0
-34 -1166 1167 0
-1167 1183 0
-35 -1167 1168 0
-1168 1184 0
-36 -1168 1169 0
-1169 1185 0
-37 -1169 1170 0
-1170 1186 0
-38 -1170 1171 0
-1171 1187 0
-39 -1171 1172 0
-1172 1188 0
-40 -1172 0
-25 1173 0
-1173 1189 0
-26 -1173 1174 0
-1174 1190 0
-27 -1174 1175 0
-1175 1191 0
-28 -1175 1176 0
-1176 1192 0
-29 -1176 1177 0
-1177 1193 0
-30 -1177 1178 0
-1178 1194 0
-31 -1178 1179 0
-1179 1195 0
-32 -1179 1180 0
-1180 1196 0
-33 -1180 1181 0
-1181 1197 0
-34 -1181 1182 0
-1182 1198 0
-35 -1182 1183 0
-1183 1199 0
-36 -1183 1184 0
-1184 1200 0
-37 -1184 1185 0
-1185 1201 0
-38 -1185 1186 0
-1186 1202 0
-39 -1186 1187 0
-1187 1203 0
-40 -1187 1188 0
-1188 1204 0
-41 -1188 0
-26 1189 0
-1189 1205 0
-27 -1189 1190 0
-1190 1206 0
-28 -1190 1191 0
-1191 1207 0
-29 -1191 1192 0
-1192 1208 0
-30 -1192 1193 0
-1193 1209 0
-31 -1193 1194 0
-1194 1210 0
-32 -1194 1195 0
-1195 1211 0
-33 -1195 1196 0
-1196 1212 0
-34 -1196 1197 0
-1197 1213 0
-35 -1197 1198 0
-1198 1214 0
-36 -1198 1199 0
-1199 1215 0
-37 -1199 1200 0
-1200 1216 0
-38 -1200 1201 0
-1201 1217 0
-39 -1201 1202 0
-1202 1218 0
-40 -1202 1203 0
-1203 1219 0
-41 -1203 1204 0
-1204 1220 0
-42 -1204 0
-27 1205 0
-1205 1221 0
-28 -1205 1206 0
-1206 1222 0
-29 -1206 1207 0
-1207 1223 0
-30 -1207 1208 0
-1208 1224 0
-31 -1208 1209 0
-1209 1225 0
-32 -1209 1210 0
-1210 1226 0
-33 -1210 1211 0
-1211 1227 0
-34 -1211 1212 0
-1212 1228 0
-35 -1212 1213 0
-1213 1229 0
-36 -1213 1214 0
-1214 1230 0
-37 -1214 1215 0
-1215 1231 0
-38 -1215 1216 0
-1216 1232 0
-39 -1216 1217 0
-1217 1233 0
-40 -1217 1218 0
-1218 1234 0
-41 -1218 1219 0
-1219 1235 0
-42 -1219 1220 0
-1220 1236 0
-43 -1220 0
-28 1221 0
-1221 1237 0
-29 -1221 1222 0
-1222 1238 0
-30 -1222 1223 0
-1223 1239 0
-31 -1223 1224 0
-1224 1240 0
-32 -1224 1225 0
-1225 1241 0
-33 -1225 1226 0
-1226 1242 0
-34 -1226 1227 0
-1227 1243 0
-35 -1227 1228 0
-1228 1244 0
-36 -1228 1229 0
-1229 1245 0
-37 -1229 1230 0
-1230 1246 0
-38 -1230 1231 0
-1231 1247 0
-39 -1231 1232 0
-1232 1248 0
-40 -1232 1233 0
-1233 1249 0
-41 -1233 1234 0
-1234 1250 0
-42 -1234 1235 0
-1235 1251 0
-43 -1235 1236 0
-1236 1252 0
-44 -1236 0
-29 1237 0
-1237 1253 0
-30 -1237 1238 0
-1238 1254 0
-31 -1238 1239 0
-1239 1255 0
-32 -1239 1240 0
-1240 1256 0
-33 -1240 1241 0
-1241 1257 0
-34 -1241 1242 0
-1242 1258 0
-35 -1242 1243 0
-1243 1259 0
-36 -1243 1244 0
-1244 1260 0
-37 -1244 1245 0
-1245 1261 0
-38 -1245 1246 0
-1246 1262 0
-39 -1246 1247 0
-1247 1263 0
-40 -1247 1248 0
-1248 1264 0
-41 -1248 1249 0
-1249 1265 0
-42 -1249 1250 0
-1250 1266 0
-43 -1250 1251 0
-1251 1267 0
-44 -1251 1252 0
-1252 1268 0
-45 -1252 0
-30 1253 0
-1253 1269 0
-31 -1253 1254 0
-1254 1270 0
-32 -1254 1255 0
-1255 1271 0
-33 -1255 1256 0
-1256 1272 0
-34 -1256 1257 0
-1257 1273 0
-35 -1257 1258 0
-1258 1274 0
-36 -1258 1259 0
-1259 1275 0
-37 -1259 1260 0
-1260 1276 0
-38 -1260 1261 0
-1261 1277 0
-39 -1261 1262 0
-1262 1278 0
-40 -1262 1263 0
-1263 1279 0
-41 -1263 1264 0
-1264 1280 0
-42 -1264 1265 0
-1265 1281 0
-43 -1265 1266 0
-1266 1282 0
-44 -1266 1267 0
-1267 1283 0
-45 -1267 1268 0
-1268 1284 0
-46 -1268 0
-31 1269 0
-1269 1285 0
-32 -1269 1270 0
-1270 1286 0
-33 -1270 1271 0
-1271 1287 0
-34 -1271 1272 0
-1272 1288 0
-35 -1272 1273 0
-1273 1289 0
-36 -1273 1274 0
-1274 1290 0
-37 -1274 1275 0
-1275 1291 0
-38 -1275 1276 0
-1276 1292 0
-39 -1276 1277 0
-1277 1293 0
-40 -1277 1278 0
-1278 1294 0
-41 -1278 1279 0
-1279 1295 0
-42 -1279 1280 0
-1280 1296 0
-43 -1280 1281 0
-1281 1297 0
-44 -1281 1282 0
-1282 1298 0
-45 -1282 1283 0
-1283 1299 0
-46 -1283 1284 0
-1284 1300 0
-47 -1284 0
-32 1285 0
-1285 1301 0
-33 -1285 1286 0
-1286 1302 0
-34 -1286 1287 0
-1287 1303 0
-35 -1287 1288 0
-1288 1304 0
-36 -1288 1289 0
-1289 1305 0
-37 -1289 1290 0
-1290 1306 0
-38 -1290 1291 0
-1291 1307 0
-39 -1291 1292 0
-1292 1308 0
-40 -1292 1293 0
-1293 1309 0
-41 -1293 1294 0
-1294 1310 0
-42 -1294 1295 0
-1295 1311 0
-43 -1295 1296 0
-1296 1312 0
-44 -1296 1297 0
-1297 1313 0
-45 -1297 1298 0
-1298 1314 0
-46 -1298 1299 0
-1299 1315 0
-47 -1299 1300 0
-1300 1316 0
-48 -1300 0
-33 1301 0
-1301 1317 0
-34 -1301 1302 0
-1302 1318 0
-35 -1302 1303 0
-1303 1319 0
-36 -1303 1304 0
-1304 1320 0
-37 -1304 1305 0
-1305 1321 0
-38 -1305 1306 0
-1306 1322 0
-39 -1306 1307 0
-1307 1323 0
-40 -1307 1308 0
-1308 1324 0
-41 -1308 1309 0
-1309 1325 0
-42 -1309 1310 0
-1310 1326 0
-43 -1310 1311 0
-1311 1327 0
-44 -1311 1312 0
-1312 1328 0
-45 -1312 1313 0
-1313 1329 0
-46 -1313 1314 0
-1314 1330 0
-47 -1314 1315 0
-1315 1331 0
-48 -1315 1316 0
-1316 1332 0
-49 -1316 0
-34 1317 0
-1317 1333 0
-35 -1317 1318 0
-1318 1334 0
-36 -1318 1319 0
-1319 1335 0
-37 -1319 1320 0
-1320 1336 0
-38 -1320 1321 0
-1321 1337 0
-39 -1321 1322 0
-1322 1338 0
-40 -1322 1323 0
-1323 1339 0
-41 -1323 1324 0
-1324 1340 0
-42 -1324 1325 0
-1325 1341 0
-43 -1325 1326 0
-1326 1342 0
-44 -1326 1327 0
-1327 1343 0
-45 -1327 1328 0
-1328 1344 0
-46 -1328 1329 0
-1329 1345 0
-47 -1329 1330 0
-1330 1346 0
-48 -1330 1331 0
-1331 1347 0
-49 -1331 1332 0
-1332 1348 0
-50 -1332 0
-35 1333 0
-1333 1349 0
-36 -1333 1334 0
-1334 1350 0
-37 -1334 1335 0
-1335 1351 0
-38 -1335 1336 0
-1336 1352 0
-39 -1336 1337 0
-1337 1353 0
-40 -1337 1338 0
-1338 1354 0
-41 -1338 1339 0
-1339 1355 0
-42 -1339 1340 0
-1340 1356 0
-43 -1340 1341 0
-1341 1357 0
-44 -1341 1342 0
-1342 1358 0
-45 -1342 1343 0
-1343 1359 0
-46 -1343 1344 0
-1344 1360 0
-47 -1344 1345 0
-1345 1361 0
-48 -1345 1346 0
-1346 1362 0
-49 -1346 1347 0
-1347 1363 0
-50 -1347 1348 0
-1348 1364 0
-51 -1348 0
-36 1349 0
-1349 1365 0
-37 -1349 1350 0
-1350 1366 0
-38 -1350 1351 0
-1351 1367 0
-39 -1351 1352 0
-1352 1368 0
-40 -1352 1353 0
-1353 1369 0
-41 -1353 1354 0
-1354 1370 0
-42 -1354 1355 0
-1355 1371 0
-43 -1355 1356 0
-1356 1372 0
-44 -1356 1357 0
-1357 1373 0
-45 -1357 1358 0
-1358 1374 0
-46 -1358 1359 0
-1359 1375 0
-47 -1359 1360 0
-1360 1376 0
-48 -1360 1361 0
-1361 1377 0
-49 -1361 1362 0
-1362 1378 0
-50 -1362 1363 0
-1363 1379 0
-51 -1363 1364 0
-1364 1380 0
-52 -1364 0
-37 1365 0
-1365 1381 0
-38 -1365 1366 0
-1366 1382 0
-39 -1366 1367 0
-1367 1383 0
-40 -1367 1368 0
-1368 1384 0
-41 -1368 1369 0
-1369 1385 0
-42 -1369 1370 0
-1370 1386 0
-43 -1370 1371 0
-1371 1387 0
-44 -1371 1372 0
-1372 1388 0
-45 -1372 1373 0
-1373 1389 0
-46 -1373 1374 0
-1374 1390 0
-47 -1374 1375 0
-1375 1391 0
-48 -1375 1376 0
-1376 1392 0
-49 -1376 1377 0
-1377 1393 0
-50 -1377 1378 0
-1378 1394 0
-51 -1378 1379 0
-1379 1395 0
-52 -1379 1380 0
-1380 1396 0
-53 -1380 0
-38 1381 0
-1381 1397 0
-39 -1381 1382 0
-1382 1398 0
-40 -1382 1383 0
-1383 1399 0
-41 -1383 1384 0
-1384 1400 0
-42 -1384 1385 0
-1385 1401 0
-43 -1385 1386 0
-1386 1402 0
-44 -1386 1387 0
-1387 1403 0
-45 -1387 1388 0
-1388 1404 0
-46 -1388 1389 0
-1389 1405 0
-47 -1389 1390 0
-1390 1406 0
-48 -1390 1391 0
-1391 1407 0
-49 -1391 1392 0
-1392 1408 0
-50 -1392 1393 0
-1393 1409 0
-51 -1393 1394 0
-1394 1410 0
-52 -1394 1395 0
-1395 1411 0
-53 -1395 1396 0
-1396 1412 0
-54 -1396 0
-39 1397 0
-1397 1413 0
-40 -1397 1398 0
-1398 1414 0
-41 -1398 1399 0
-1399 1415 0
-42 -1399 1400 0
-1400 1416 0
-43 -1400 1401 0
-1401 1417 0
-44 -1401 1402 0
-1402 1418 0
-45 -1402 1403 0
-1403 1419 0
-46 -1403 1404 0
-1404 1420 0
-47 -1404 1405 0
-1405 1421 0
-48 -1405 1406 0
-1406 1422 0
-49 -1406 1407 0
-1407 1423 0
-50 -1407 1408 0
-1408 1424 0
-51 -1408 1409 0
-1409 1425 0
-52 -1409 1410 0
-1410 1426 0
-53 -1410 1411 0
-1411 1427 0
-54 -1411 1412 0
-1412 1428 0
-55 -1412 0
-40 1413 0
-1413 1429 0
-41 -1413 1414 0
-1414 1430 0
-42 -1414 1415 0
-1415 1431 0
-43 -1415 1416 0
-1416 1432 0
-44 -1416 1417 0
-1417 1433 0
-45 -1417 1418 0
-1418 1434 0
-46 -1418 1419 0
-1419 1435 0
-47 -1419 1420 0
-1420 1436 0
-48 -1420 1421 0
-1421 1437 0
-49 -1421 1422 0
-1422 1438 0
-50 -1422 1423 0
-1423 1439 0
-51 -1423 1424 0
-1424 1440 0
-52 -1424 1425 0
-1425 1441 0
-53 -1425 1426 0
-1426 1442 0
-54 -1426 1427 0
-1427 1443 0
-55 -1427 1428 0
-1428 1444 0
-56 -1428 0
-41 1429 0
-1429 1445 0
-42 -1429 1430 0
-1430 1446 0
-43 -1430 1431 0
-1431 1447 0
-44 -1431 1432 0
-1432 1448 0
-45 -1432 1433 0
-1433 1449 0
-46 -1433 1434 0
-1434 1450 0
-47 -1434 1435 0
-1435 1451 0
-48 -1435 1436 0
-1436 1452 0
-49 -1436 1437 0
-1437 1453 0
-50 -1437 1438 0
-1438 1454 0
-51 -1438 1439 0
-1439 1455 0
-52 -1439 1440 0
-1440 1456 0
-53 -1440 1441 0
-1441 1457 0
-54 -1441 1442 0
-1442 1458 0
-55 -1442 1443 0
-1443 1459 0
-56 -1443 1444 0
-1444 1460 0
-57 -1444 0
-42 1445 0
-43 -1445 1446 0
-44 -1446 1447 0
-45 -1447 1448 0
-46 -1448 1449 0
-47 -1449 1450 0
-48 -1450 1451 0
-49 -1451 1452 0
-50 -1452 1453 0
-51 -1453 1454 0
-52 -1454 1455 0
-53 -1455 1456 0
-54 -1456 1457 0
-55 -1457 1458 0
-56 -1458 1459 0
-57 -1459 1460 0
-58 -1460 0
-59 1461 0
-1461 1462 0
-60 -1461 1463 0
-1463 1464 0
-61 -1463 1465 0
-1465 1466 0
-62 -1465 1467 0
-1467 1468 0
-63 -1467 1469 0
-1469 1470 0
-64 -1469 1471 0
-1471 1472 0
-65 -1471 1473 0
-1473 1474 0
-66 -1473 1475 0
-1475 1476 0
-67 -1475 1477 0
-1477 1478 0
-68 -1477 1479 0
-1479 1480 0
-69 -1479 1481 0
-1481 1482 0
-70 -1481 1483 0
-1483 1484 0
-71 -1483 1485 0
-1485 1486 0
-72 -1485 1487 0
-1487 1488 0
-73 -1487 1489 0
-1489 1490 0
-74 -1489 1491 0
-1491 1492 0
-75 -1491 1493 0
-1493 1494 0
-76 -1493 1495 0
-1495 1496 0
-77 -1495 1497 0
-1497 1498 0
-78 -1497 1499 0
-1499 1500 0
-79 -1499 1501 0
-1501 1502 0
-80 -1501 1503 0
-1503 1504 0
-81 -1503 1505 0
-1505 1506 0
-82 -1505 1507 0
-1507 1508 0
-83 -1507 1509 0
-1509 1510 0
-84 -1509 0
-60 1462 0
-1462 1511 0
-61 -1462 1464 0
-1464 1512 0
-62 -1464 1466 0
-1466 1513 0
-63 -1466 1468 0
-1468 1514 0
-64 -1468 1470 0
-1470 1515 0
-65 -1470 1472 0
-1472 1516 0
-66 -1472 1474 0
-1474 1517 0
-67 -1474 1476 0
-1476 1518 0
-68 -1476 1478 0
-1478 1519 0
-69 -1478 1480 0
-1480 1520 0
-70 -1480 1482 0
-1482 1521 0
-71 -1482 1484 0
-1484 1522 0
-72 -1484 1486 0
-1486 1523 0
-73 -1486 1488 0
-1488 1524 0
-74 -1488 1490 0
-1490 1525 0
-75 -1490 1492 0
-1492 1526 0
-76 -1492 1494 0
-1494 1527 0
-77 -1494 1496 0
-1496 1528 0
-78 -1496 1498 0
-1498 1529 0
-79 -1498 1500 0
-1500 1530 0
-80 -1500 1502 0
-1502 1531 0
-81 -1502 1504 0
-1504 1532 0
-82 -1504 1506 0
-1506 1533 0
-83 -1506 1508 0
-1508 1534 0
-84 -1508 1510 0
-1510 1535 0
-85 -1510 0
-61 1511 0
-1511 1536 0
-62 -1511 1512 0
-1512 1537 0
-63 -1512 1513 0
-1513 1538 0
-64 -1513 1514 0
-1514 1539 0
-65 -1514 1515 0
-1515 1540 0
-66 -1515 1516 0
-1516 1541 0
-67 -1516 1517 0
-1517 1542 0
-68 -1517 1518 0
-1518 1543 0
-69 -1518 1519 0
-1519 1544 0
-70 -1519 1520 0
-1520 1545 0
-71 -1520 1521 0
-1521 1546 0
-72 -1521 1522 0
-1522 1547 0
-73 -1522 1523 0
-1523 1548 0
-74 -1523 1524 0
-1524 1549 0
-75 -1524 1525 0
-1525 1550 0
-76 -1525 1526 0
-1526 1551 0
-77 -1526 1527 0
-1527 1552 0
-78 -1527 1528 0
-1528 1553 0
-79 -1528 1529 0
-1529 1554 0
-80 -1529 1530 0
-1530 1555 0
-81 -1530 1531 0
-1531 1556 0
-82 -1531 1532 0
-1532 1557 0
-83 -1532 1533 0
-1533 1558 0
-84 -1533 1534 0
-1534 1559 0
-85 -1534 1535 0
-1535 1560 0
-86 -1535 0
-62 1536 0
-1536 1561 0
-63 -1536 1537 0
-1537 1562 0
-64 -1537 1538 0
-1538 1563 0
-65 -1538 1539 0
-1539 1564 0
-66 -1539 1540 0
-1540 1565 0
-67 -1540 1541 0
-1541 1566 0
-68 -1541 1542 0
-1542 1567 0
-69 -1542 1543 0
-1543 1568 0
-70 -1543 1544 0
-1544 1569 0
-71 -1544 1545 0
-1545 1570 0
-72 -1545 1546 0
-1546 1571 0
-73 -1546 1547 0
-1547 1572 0
-74 -1547 1548 0
-1548 1573 0
-75 -1548 1549 0
-1549 1574 0
-76 -1549 1550 0
-1550 1575 0
-77 -1550 1551 0
-1551 1576 0
-78 -1551 1552 0
-1552 1577 0
-79 -1552 1553 0
-1553 1578 0
-80 -1553 1554 0
-1554 1579 0
-81 -1554 1555 0
-1555 1580 0
-82 -1555 1556 0
-1556 1581 0
-83 -1556 1557 0
-1557 1582 0
-84 -1557 1558 0
-1558 1583 0
-85 -1558 1559 0
-1559 1584 0
-86 -1559 1560 0
-1560 1585 0
-87 -1560 0
-63 1561 0
-1561 1586 0
-64 -1561 1562 0
-1562 1587 0
-65 -1562 1563 0
-1563 1588 0
-66 -1563 1564 0
-1564 1589 0
-67 -1564 1565 0
-1565 1590 0
-68 -1565 1566 0
-1566 1591 0
-69 -1566 1567 0
-1567 1592 0
-70 -1567 1568 0
-1568 1593 0
-71 -1568 1569 0
-1569 1594 0
-72 -1569 1570 0
-1570 1595 0
-73 -1570 1571 0
-1571 1596 0
-74 -1571 1572 0
-1572 1597 0
-75 -1572 1573 0
-1573 1598 0
-76 -1573 1574 0
-1574 1599 0
-77 -1574 1575 0
-1575 1600 0
-78 -1575 1576 0
-1576 1601 0
-79 -1576 1577 0
-1577 1602 0
-80 -1577 1578 0
-1578 1603 0
-81 -1578 1579 0
-1579 1604 0
-82 -1579 1580 0
-1580 1605 0
-83 -1580 1581 0
-1581 1606 0
-84 -1581 1582 0
-1582 1607 0
-85 -1582 1583 0
-1583 1608 0
-86 -1583 1584 0
-1584 1609 0
-87 -1584 1585 0
-1585 1610 0
-88 -1585 0
-64 1586 0
-1586 1611 0
-65 -1586 1587 0
-1587 1612 0
-66 -1587 1588 0
-1588 1613 0
-67 -1588 1589 0
-1589 1614 0
-68 -1589 1590 0
-1590 1615 0
-69 -1590 1591 0
-1591 1616 0
-70 -1591 1592 0
-1592 1617 0
-71 -1592 1593 0
-1593 1618 0
-72 -1593 1594 0
-1594 1619 0
-73 -1594 1595 0
-1595 1620 0
-74 -1595 1596 0
-1596 1621 0
-75 -1596 1597 0
-1597 1622 0
-76 -1597 1598 0
-1598 1623 0
-77 -1598 1599 0
-1599 1624 0
-78 -1599 1600 0
-1600 1625 0
-79 -1600 1601 0
-1601 1626 0
-80 -1601 1602 0
-1602 1627 0
-81 -1602 1603 0
-1603 1628 0
-82 -1603 1604 0
-1604 1629 0
-83 -1604 1605 0
-1605 1630 0
-84 -1605 1606 0
-1606 1631 0
-85 -1606 1607 0
-1607 1632 0
-86 -1607 1608 0
-1608 1633 0
-87 -1608 1609 0
-1609 1634 0
-88 -1609 1610 0
-1610 1635 0
-89 -1610 0
-65 1611 0
-1611 1636 0
-66 -1611 1612 0
-1612 1637 0
-67 -1612 1613 0
-1613 1638 0
-68 -1613 1614 0
-1614 1639 0
-69 -1614 1615 0
-1615 1640 0
-70 -1615 1616 0
-1616 1641 0
-71 -1616 1617 0
-1617 1642 0
-72 -1617 1618 0
-1618 1643 0
-73 -1618 1619 0
-1619 1644 0
-74 -1619 1620 0
-1620 1645 0
-75 -1620 1621 0
-1621 1646 0
-76 -1621 1622 0
-1622 1647 0
-77 -1622 1623 0
-1623 1648 0
-78 -1623 1624 0
-1624 1649 0
-79 -1624 1625 0
-1625 1650 0
-80 -1625 1626 0
-1626 1651 0
-81 -1626 1627 0
-1627 1652 0
-82 -1627 1628 0
-1628 1653 0
-83 -1628 1629 0
-1629 1654 0
-84 -1629 1630 0
-1630 1655 0
-85 -1630 1631 0
-1631 1656 0
-86 -1631 1632 0
-1632 1657 0
-87 -1632 1633 0
-1633 1658 0
-88 -1633 1634 0
-1634 1659 0
-89 -1634 1635 0
-1635 1660 0
-90 -1635 0
-66 1636 0
-1636 1661 0
-67 -1636 1637 0
-1637 1662 0
-68 -1637 1638 0
-1638 1663 0
-69 -1638 1639 0
-1639 1664 0
-70 -1639 1640 0
-1640 1665 0
-71 -1640 1641 0
-1641 1666 0
-72 -1641 1642 0
-1642 1667 0
-73 -1642 1643 0
-1643 1668 0
-74 -1643 1644 0
-1644 1669 0
-75 -1644 1645 0
-1645 1670 0
-76 -1645 1646 0
-1646 1671 0
-77 -1646 1647 0
-1647 1672 0
-78 -1647 1648 0
-1648 1673 0
-79 -1648 1649 0
-1649 1674 0
-80 -1649 1650 0
-1650 1675 0
-81 -1650 1651 0
-1651 1676 0
-82 -1651 1652 0
-1652 1677 0
-83 -1652 1653 0
-1653 1678 0
-84 -1653 1654 0
-1654 1679 0
-85 -1654 1655 0
-1655 1680 0
-86 -1655 1656 0
-1656 1681 0
-87 -1656 1657 0
-1657 1682 0
-88 -1657 1658 0
-1658 1683 0
-89 -1658 1659 0
-1659 1684 0
-90 -1659 1660 0
-1660 1685 0
-91 -1660 0
-67 1661 0
-1661 1686 0
-68 -1661 1662 0
-1662 1687 0
-69 -1662 1663 0
-1663 1688 0
-70 -1663 1664 0
-1664 1689 0
-71 -1664 1665 0
-1665 1690 0
-72 -1665 1666 0
-1666 1691 0
-73 -1666 1667 0
-1667 1692 0
-74 -1667 1668 0
-1668 1693 0
-75 -1668 1669 0
-1669 1694 0
-76 -1669 1670 0
-1670 1695 0
-77 -1670 1671 0
-1671 1696 0
-78 -1671 1672 0
-1672 1697 0
-79 -1672 1673 0
-1673 1698 0
-80 -1673 1674 0
-1674 1699 0
-81 -1674 1675 0
-1675 1700 0
-82 -1675 1676 0
-1676 1701 0
-83 -1676 1677 0
-1677 1702 0
-84 -1677 1678 0
-1678 1703 0
-85 -1678 1679 0
-1679 1704 0
-86 -1679 1680 0
-1680 1705 0
-87 -1680 1681 0
-1681 1706 0
-88 -1681 1682 0
-1682 1707 0
-89 -1682 1683 0
-1683 1708 0
-90 -1683 1684 0
-1684 1709 0
-91 -1684 1685 0
-1685 1710 0
-92 -1685 0
-68 1686 0
-1686 1711 0
-69 -1686 1687 0
-1687 1712 0
-70 -1687 1688 0
-1688 1713 0
-71 -1688 1689 0
-1689 1714 0
-72 -1689 1690 0
-1690 1715 0
-73 -1690 1691 0
-1691 1716 0
-74 -1691 1692 0
-1692 1717 0
-75 -1692 1693 0
-1693 1718 0
-76 -1693 1694 0
-1694 1719 0
-77 -1694 1695 0
-1695 1720 0
-78 -1695 1696 0
-1696 1721 0
-79 -1696 1697 0
-1697 1722 0
-80 -1697 1698 0
-1698 1723 0
-81 -1698 1699 0
-1699 1724 0
-82 -1699 1700 0
-1700 1725 0
-83 -1700 1701 0
-1701 1726 0
-84 -1701 1702 0
-1702 1727 0
-85 -1702 1703 0
-1703 1728 0
-86 -1703 1704 0
-1704 1729 0
-87 -1704 1705 0
-1705 1730 0
-88 -1705 1706 0
-1706 1731 0
-89 -1706 1707 0
-1707 1732 0
-90 -1707 1708 0
-1708 1733 0
-91 -1708 1709 0
-1709 1734 0
-92 -1709 1710 0
-1710 1735 0
-93 -1710 0
-69 1711 0
-1711 1736 0
-70 -1711 1712 0
-1712 1737 0
-71 -1712 1713 0
-1713 1738 0
-72 -1713 1714 0
-1714 1739 0
-73 -1714 1715 0
-1715 1740 0
-74 -1715 1716 0
-1716 1741 0
-75 -1716 1717 0
-1717 1742 0
-76 -1717 1718 0
-1718 1743 0
-77 -1718 1719 0
-1719 1744 0
-78 -1719 1720 0
-1720 1745 0
-79 -1720 1721 0
-1721 1746 0
-80 -1721 1722 0
-1722 1747 0
-81 -1722 1723 0
-1723 1748 0
-82 -1723 1724 0
-1724 1749 0
-83 -1724 1725 0
-1725 1750 0
-84 -1725 1726 0
-1726 1751 0
-85 -1726 1727 0
-1727 1752 0
-86 -1727 1728 0
-1728 1753 0
-87 -1728 1729 0
-1729 1754 0
-88 -1729 1730 0
-1730 1755 0
-89 -1730 1731 0
-1731 1756 0
-90 -1731 1732 0
-1732 1757 0
-91 -1732 1733 0
-1733 1758 0
-92 -1733 1734 0
-1734 1759 0
-93 -1734 1735 0
-1735 1760 0
-94 -1735 0
-70 1736 0
-1736 1761 0
-71 -1736 1737 0
-1737 1762 0
-72 -1737 1738 0
-1738 1763 0
-73 -1738 1739 0
-1739 1764 0
-74 -1739 1740 0
-1740 1765 0
-75 -1740 1741 0
-1741 1766 0
-76 -1741 1742 0
-1742 1767 0
-77 -1742 1743 0
-1743 1768 0
-78 -1743 1744 0
-1744 1769 0
-79 -1744 1745 0
-1745 1770 0
-80 -1745 1746 0
-1746 1771 0
-81 -1746 1747 0
-1747 1772 0
-82 -1747 1748 0
-1748 1773 0
-83 -1748 1749 0
-1749 1774 0
-84 -1749 1750 0
-1750 1775 0
-85 -1750 1751 0
-1751 1776 0
-86 -1751 1752 0
-1752 1777 0
-87 -1752 1753 0
-1753 1778 0
-88 -1753 1754 0
-1754 1779 0
-89 -1754 1755 0
-1755 1780 0
-90 -1755 1756 0
-1756 1781 0
-91 -1756 1757 0
-1757 1782 0
-92 -1757 1758 0
-1758 1783 0
-93 -1758 1759 0
-1759 1784 0
-94 -1759 1760 0
-1760 1785 0
-95 -1760 0
-71 1761 0
-1761 1786 0
-72 -1761 1762 0
-1762 1787 0
-73 -1762 1763 0
-1763 1788 0
-74 -1763 1764 0
-1764 1789 0
-75 -1764 1765 0
-1765 1790 0
-76 -1765 1766 0
-1766 1791 0
-77 -1766 1767 0
-1767 1792 0
-78 -1767 1768 0
-1768 1793 0
-79 -1768 1769 0
-1769 1794 0
-80 -1769 1770 0
-1770 1795 0
-81 -1770 1771 0
-1771 1796 0
-82 -1771 1772 0
-1772 1797 0
-83 -1772 1773 0
-1773 1798 0
-84 -1773 1774 0
-1774 1799 0
-85 -1774 1775 0
-1775 1800 0
-86 -1775 1776 0
-1776 1801 0
-87 -1776 1777 0
-1777 1802 0
-88 -1777 1778 0
-1778 1803 0
-89 -1778 1779 0
-1779 1804 0
-90 -1779 1780 0
-1780 1805 0
-91 -1780 1781 0
-1781 1806 0
-92 -1781 1782 0
-1782 1807 0
-93 -1782 1783 0
-1783 1808 0
-94 -1783 1784 0
-1784 1809 0
-95 -1784 1785 0
-1785 1810 0
-96 -1785 0
-72 1786 0
-1786 1811 0
-73 -1786 1787 0
-1787 1812 0
-74 -1787 1788 0
-1788 1813 0
-75 -1788 1789 0
-1789 1814 0
-76 -1789 1790 0
-1790 1815 0
-77 -1790 1791 0
-1791 1816 0
-78 -1791 1792 0
-1792 1817 0
-79 -1792 1793 0
-1793 1818 0
-80 -1793 1794 0
-1794 1819 0
-81 -1794 1795 0
-1795 1820 0
-82 -1795 1796 0
-1796 1821 0
-83 -1796 1797 0
-1797 1822 0
-84 -1797 1798 0
-1798 1823 0
-85 -1798 1799 0
-1799 1824 0
-86 -1799 1800 0
-1800 1825 0
-87 -1800 1801 0
-1801 1826 0
-88 -1801 1802 0
-1802 1827 0
-89 -1802 1803 0
-1803 1828 0
-90 -1803 1804 0
-1804 1829 0
-91 -1804 1805 0
-1805 1830 0
-92 -1805 1806 0
-1806 1831 0
-93 -1806 1807 0
-1807 1832 0
-94 -1807 1808 0
-1808 1833 0
-95 -1808 1809 0
-1809 1834 0
-96 -1809 1810 0
-1810 1835 0
-97 -1810 0
-73 1811 0
-1811 1836 0
-74 -1811 1812 0
-1812 1837 0
-75 -1812 1813 0
-1813 1838 0
-76 -1813 1814 0
-1814 1839 0
-77 -1814 1815 0
-1815 1840 0
-78 -1815 1816 0
-1816 1841 0
-79 -1816 1817 0
-1817 1842 0
-80 -1817 1818 0
-1818 1843 0
-81 -1818 1819 0
-1819 1844 0
-82 -1819 1820 0
-1820 1845 0
-83 -1820 1821 0
-1821 1846 0
-84 -1821 1822 0
-1822 1847 0
-85 -1822 1823 0
-1823 1848 0
-86 -1823 1824 0
-1824 1849 0
-87 -1824 1825 0
-1825 1850 0
-88 -1825 1826 0
-1826 1851 0
-89 -1826 1827 0
-1827 1852 0
-90 -1827 1828 0
-1828 1853 0
-91 -1828 1829 0
-1829 1854 0
-92 -1829 1830 0
-1830 1855 0
-93 -1830 1831 0
-1831 1856 0
-94 -1831 1832 0
-1832 1857 0
-95 -1832 1833 0
-1833 1858 0
-96 -1833 1834 0
-1834 1859 0
-97 -1834 1835 0
-1835 1860 0
-98 -1835 0
-74 1836 0
-1836 1861 0
-75 -1836 1837 0
-1837 1862 0
-76 -1837 1838 0
-1838 1863 0
-77 -1838 1839 0
-1839 1864 0
-78 -1839 1840 0
-1840 1865 0
-79 -1840 1841 0
-1841 1866 0
-80 -1841 1842 0
-1842 1867 0
-81 -1842 1843 0
-1843 1868 0
-82 -1843 1844 0
-1844 1869 0
-83 -1844 1845 0
-1845 1870 0
-84 -1845 1846 0
-1846 1871 0
-85 -1846 1847 0
-1847 1872 0
-86 -1847 1848 0
-1848 1873 0
-87 -1848 1849 0
-1849 1874 0
-88 -1849 1850 0
-1850 1875 0
-89 -1850 1851 0
-1851 1876 0
-90 -1851 1852 0
-1852 1877 0
-91 -1852 1853 0
-1853 1878 0
-92 -1853 1854 0
-1854 1879 0
-93 -1854 1855 0
-1855 1880 0
-94 -1855 1856 0
-1856 1881 0
-95 -1856 1857 0
-1857 1882 0
-96 -1857 1858 0
-1858 1883 0
-97 -1858 1859 0
-1859 1884 0
-98 -1859 1860 0
-1860 1885 0
-99 -1860 0
-75 1861 0
-1861 1886 0
-76 -1861 1862 0
-1862 1887 0
-77 -1862 1863 0
-1863 1888 0
-78 -1863 1864 0
-1864 1889 0
-79 -1864 1865 0
-1865 1890 0
-80 -1865 1866 0
-1866 1891 0
-81 -1866 1867 0
-1867 1892 0
-82 -1867 1868 0
-1868 1893 0
-83 -1868 1869 0
-1869 1894 0
-84 -1869 1870 0
-1870 1895 0
-85 -1870 1871 0
-1871 1896 0
-86 -1871 1872 0
-1872 1897 0
-87 -1872 1873 0
-1873 1898 0
-88 -1873 1874 0
-1874 1899 0
-89 -1874 1875 0
-1875 1900 0
-90 -1875 1876 0
-1876 1901 0
-91 -1876 1877 0
-1877 1902 0
-92 -1877 1878 0
-1878 1903 0
-93 -1878 1879 0
-1879 1904 0
-94 -1879 1880 0
-1880 1905 0
-95 -1880 1881 0
-1881 1906 0
-96 -1881 1882 0
-1882 1907 0
-97 -1882 1883 0
-1883 1908 0
-98 -1883 1884 0
-1884 1909 0
-99 -1884 1885 0
-1885 1910 0
-100 -1885 0
-76 1886 0
-1886 1911 0
-77 -1886 1887 0
-1887 1912 0
-78 -1887 1888 0
-1888 1913 0
-79 -1888 1889 0
-1889 1914 0
-80 -1889 1890 0
-1890 1915 0
-81 -1890 1891 0
-1891 1916 0
-82 -1891 1892 0
-1892 1917 0
-83 -1892 1893 0
-1893 1918 0
-84 -1893 1894 0
-1894 1919 0
-85 -1894 1895 0
-1895 1920 0
-86 -1895 1896 0
-1896 1921 0
-87 -1896 1897 0
-1897 1922 0
-88 -1897 1898 0
-1898 1923 0
-89 -1898 1899 0
-1899 1924 0
-90 -1899 1900 0
-1900 1925 0
-91 -1900 1901 0
-1901 1926 0
-92 -1901 1902 0
-1902 1927 0
-93 -1902 1903 0
-1903 1928 0
-94 -1903 1904 0
-1904 1929 0
-95 -1904 1905 0
-1905 1930 0
-96 -1905 1906 0
-1906 1931 0
-97 -1906 1907 0
-1907 1932 0
-98 -1907 1908 0
-1908 1933 0
-99 -1908 1909 0
-1909 1934 0
-100 -1909 1910 0
-1910 1935 0
-101 -1910 0
-77 1911 0
-1911 1936 0
-78 -1911 1912 0
-1912 1937 0
-79 -1912 1913 0
-1913 1938 0
-80 -1913 1914 0
-1914 1939 0
-81 -1914 1915 0
-1915 1940 0
-82 -1915 1916 0
-1916 1941 0
-83 -1916 1917 0
-1917 1942 0
-84 -1917 1918 0
-1918 1943 0
-85 -1918 1919 0
-1919 1944 0
-86 -1919 1920 0
-1920 1945 0
-87 -1920 1921 0
-1921 1946 0
-88 -1921 1922 0
-1922 1947 0
-89 -1922 1923 0
-1923 1948 0
-90 -1923 1924 0
-1924 1949 0
-91 -1924 1925 0
-1925 1950 0
-92 -1925 1926 0
-1926 1951 0
-93 -1926 1927 0
-1927 1952 0
-94 -1927 1928 0
-1928 1953 0
-95 -1928 1929 0
-1929 1954 0
-96 -1929 1930 0
-1930 1955 0
-97 -1930 1931 0
-1931 1956 0
-98 -1931 1932 0
-1932 1957 0
-99 -1932 1933 0
-1933 1958 0
-100 -1933 1934 0
-1934 1959 0
-101 -1934 1935 0
-1935 1960 0
-102 -1935 0
-78 1936 0
-1936 1961 0
-79 -1936 1937 0
-1937 1962 0
-80 -1937 1938 0
-1938 1963 0
-81 -1938 1939 0
-1939 1964 0
-82 -1939 1940 0
-1940 1965 0
-83 -1940 1941 0
-1941 1966 0
-84 -1941 1942 0
-1942 1967 0
-85 -1942 1943 0
-1943 1968 0
-86 -1943 1944 0
-1944 1969 0
-87 -1944 1945 0
-1945 1970 0
-88 -1945 1946 0
-1946 1971 0
-89 -1946 1947 0
-1947 1972 0
-90 -1947 1948 0
-1948 1973 0
-91 -1948 1949 0
-1949 1974 0
-92 -1949 1950 0
-1950 1975 0
-93 -1950 1951 0
-1951 1976 0
-94 -1951 1952 0
-1952 1977 0
-95 -1952 1953 0
-1953 1978 0
-96 -1953 1954 0
-1954 1979 0
-97 -1954 1955 0
-1955 1980 0
-98 -1955 1956 0
-1956 1981 0
-99 -1956 1957 0
-1957 1982 0
-100 -1957 1958 0
-1958 1983 0
-101 -1958 1959 0
-1959 1984 0
-102 -1959 1960 0
-1960 1985 0
-103 -1960 0
-79 1961 0
-1961 1986 0
-80 -1961 1962 0
-1962 1987 0
-81 -1962 1963 0
-1963 1988 0
-82 -1963 1964 0
-1964 1989 0
-83 -1964 1965 0
-1965 1990 0
-84 -1965 1966 0
-1966 1991 0
-85 -1966 1967 0
-1967 1992 0
-86 -1967 1968 0
-1968 1993 0
-87 -1968 1969 0
-1969 1994 0
-88 -1969 1970 0
-1970 1995 0
-89 -1970 1971 0
-1971 1996 0
-90 -1971 1972 0
-1972 1997 0
-91 -1972 1973 0
-1973 1998 0
-92 -1973 1974 0
-1974 1999 0
-93 -1974 1975 0
-1975 2000 0
-94 -1975 1976 0
-1976 2001 0
-95 -1976 1977 0
-1977 2002 0
-96 -1977 1978 0
-1978 2003 0
-97 -1978 1979 0
-1979 2004 0
-98 -1979 1980 0
-1980 2005 0
-99 -1980 1981 0
-1981 2006 0
-100 -1981 1982 0
-1982 2007 0
-101 -1982 1983 0
-1983 2008 0
-102 -1983 1984 0
-1984 2009 0
-103 -1984 1985 0
-1985 2010 0
-104 -1985 0
-80 1986 0
-1986 2011 0
-81 -1986 1987 0
-1987 2012 0
-82 -1987 1988 0
-1988 2013 0
-83 -1988 1989 0
-1989 2014 0
-84 -1989 1990 0
-1990 2015 0
-85 -1990 1991 0
-1991 2016 0
-86 -1991 1992 0
-1992 2017 0
-87 -1992 1993 0
-1993 2018 0
-88 -1993 1994 0
-1994 2019 0
-89 -1994 1995 0
-1995 2020 0
-90 -1995 1996 0
-1996 2021 0
-91 -1996 1997 0
-1997 2022 0
-92 -1997 1998 0
-1998 2023 0
-93 -1998 1999 0
-1999 2024 0
-94 -1999 2000 0
-2000 2025 0
-95 -2000 2001 0
-2001 2026 0
-96 -2001 2002 0
-2002 2027 0
-97 -2002 2003 0
-2003 2028 0
-98 -2003 2004 0
-2004 2029 0
-99 -2004 2005 0
-2005 2030 0
-100 -2005 2006 0
-2006 2031 0
-101 -2006 2007 0
-2007 2032 0
-102 -2007 2008 0
-2008 2033 0
-103 -2008 2009 0
-2009 2034 0
-104 -2009 2010 0
-2010 2035 0
-105 -2010 0
-81 2011 0
-2011 2036 0
-82 -2011 2012 0
-2012 2037 0
-83 -2012 2013 0
-2013 2038 0
-84 -2013 2014 0
-2014 2039 0
-85 -2014 2015 0
-2015 2040 0
-86 -2015 2016 0
-2016 2041 0
-87 -2016 2017 0
-2017 2042 0
-88 -2017 2018 0
-2018 2043 0
-89 -2018 2019 0
-2019 2044 0
-90 -2019 2020 0
-2020 2045 0
-91 -2020 2021 0
-2021 2046 0
-92 -2021 2022 0
-2022 2047 0
-93 -2022 2023 0
-2023 2048 0
-94 -2023 2024 0
-2024 2049 0
-95 -2024 2025 0
-2025 2050 0
-96 -2025 2026 0
-2026 2051 0
-97 -2026 2027 0
-2027 2052 0
-98 -2027 2028 0
-2028 2053 0
-99 -2028 2029 0
-2029 2054 0
-100 -2029 2030 0
-2030 2055 0
-101 -2030 2031 0
-2031 2056 0
-102 -2031 2032 0
-2032 2057 0
-103 -2032 2033 0
-2033 2058 0
-104 -2033 2034 0
-2034 2059 0
-105 -2034 2035 0
-2035 2060 0
-106 -2035 0
-82 2036 0
-2036 2061 0
-83 -2036 2037 0
-2037 2062 0
-84 -2037 2038 0
-2038 2063 0
-85 -2038 2039 0
-2039 2064 0
-86 -2039 2040 0
-2040 2065 0
-87 -2040 2041 0
-2041 2066 0
-88 -2041 2042 0
-2042 2067 0
-89 -2042 2043 0
-2043 2068 0
-90 -2043 2044 0
-2044 2069 0
-91 -2044 2045 0
-2045 2070 0
-92 -2045 2046 0
-2046 2071 0
-93 -2046 2047 0
-2047 2072 0
-94 -2047 2048 0
-2048 2073 0
-95 -2048 2049 0
-2049 2074 0
-96 -2049 2050 0
-2050 2075 0
-97 -2050 2051 0
-2051 2076 0
-98 -2051 2052 0
-2052 2077 0
-99 -2052 2053 0
-2053 2078 0
-100 -2053 2054 0
-2054 2079 0
-101 -2054 2055 0
-2055 2080 0
-102 -2055 2056 0
-2056 2081 0
-103 -2056 2057 0
-2057 2082 0
-104 -2057 2058 0
-2058 2083 0
-105 -2058 2059 0
-2059 2084 0
-106 -2059 2060 0
-2060 2085 0
-107 -2060 0
-83 2061 0
-2061 2086 0
-84 -2061 2062 0
-2062 2087 0
-85 -2062 2063 0
-2063 2088 0
-86 -2063 2064 0
-2064 2089 0
-87 -2064 2065 0
-2065 2090 0
-88 -2065 2066 0
-2066 2091 0
-89 -2066 2067 0
-2067 2092 0
-90 -2067 2068 0
-2068 2093 0
-91 -2068 2069 0
-2069 2094 0
-92 -2069 2070 0
-2070 2095 0
-93 -2070 2071 0
-2071 2096 0
-94 -2071 2072 0
-2072 2097 0
-95 -2072 2073 0
-2073 2098 0
-96 -2073 2074 0
-2074 2099 0
-97 -2074 2075 0
-2075 2100 0
-98 -2075 2076 0
-2076 2101 0
-99 -2076 2077 0
-2077 2102 0
-100 -2077 2078 0
-2078 2103 0
-101 -2078 2079 0
-2079 2104 0
-102 -2079 2080 0
-2080 2105 0
-103 -2080 2081 0
-2081 2106 0
-104 -2081 2082 0
-2082 2107 0
-105 -2082 2083 0
-2083 2108 0
-106 -2083 2084 0
-2084 2109 0
-107 -2084 2085 0
-2085 2110 0
-108 -2085 0
-84 2086 0
-2086 2111 0
-85 -2086 2087 0
-2087 2112 0
-86 -2087 2088 0
-2088 2113 0
-87 -2088 2089 0
-2089 2114 0
-88 -2089 2090 0
-2090 2115 0
-89 -2090 2091 0
-2091 2116 0
-90 -2091 2092 0
-2092 2117 0
-91 -2092 2093 0
-2093 2118 0
-92 -2093 2094 0
-2094 2119 0
-93 -2094 2095 0
-2095 2120 0
-94 -2095 2096 0
-2096 2121 0
-95 -2096 2097 0
-2097 2122 0
-96 -2097 2098 0
-2098 2123 0
-97 -2098 2099 0
-2099 2124 0
-98 -2099 2100 0
-2100 2125 0
-99 -2100 2101 0
-2101 2126 0
-100 -2101 2102 0
-2102 2127 0
-101 -2102 2103 0
-2103 2128 0
-102 -2103 2104 0
-2104 2129 0
-103 -2104 2105 0
-2105 2130 0
-104 -2105 2106 0
-2106 2131 0
-105 -2106 2107 0
-2107 2132 0
-106 -2107 2108 0
-2108 2133 0
-107 -2108 2109 0
-2109 2134 0
-108 -2109 2110 0
-2110 2135 0
-109 -2110 0
-85 2111 0
-2111 2136 0
-86 -2111 2112 0
-2112 2137 0
-87 -2112 2113 0
-2113 2138 0
-88 -2113 2114 0
-2114 2139 0
-89 -2114 2115 0
-2115 2140 0
-90 -2115 2116 0
-2116 2141 0
-91 -2116 2117 0
-2117 2142 0
-92 -2117 2118 0
-2118 2143 0
-93 -2118 2119 0
-2119 2144 0
-94 -2119 2120 0
-2120 2145 0
-95 -2120 2121 0
-2121 2146 0
-96 -2121 2122 0
-2122 2147 0
-97 -2122 2123 0
-2123 2148 0
-98 -2123 2124 0
-2124 2149 0
-99 -2124 2125 0
-2125 2150 0
-100 -2125 2126 0
-2126 2151 0
-101 -2126 2127 0
-2127 2152 0
-102 -2127 2128 0
-2128 2153 0
-103 -2128 2129 0
-2129 2154 0
-104 -2129 2130 0
-2130 2155 0
-105 -2130 2131 0
-2131 2156 0
-106 -2131 2132 0
-2132 2157 0
-107 -2132 2133 0
-2133 2158 0
-108 -2133 2134 0
-2134 2159 0
-109 -2134 2135 0
-2135 2160 0
-110 -2135 0
-86 2136 0
-2136 2161 0
-87 -2136 2137 0
-2137 2162 0
-88 -2137 2138 0
-2138 2163 0
-89 -2138 2139 0
-2139 2164 0
-90 -2139 2140 0
-2140 2165 0
-91 -2140 2141 0
-2141 2166 0
-92 -2141 2142 0
-2142 2167 0
-93 -2142 2143 0
-2143 2168 0
-94 -2143 2144 0
-2144 2169 0
-95 -2144 2145 0
-2145 2170 0
-96 -2145 2146 0
-2146 2171 0
-97 -2146 2147 0
-2147 2172 0
-98 -2147 2148 0
-2148 2173 0
-99 -2148 2149 0
-2149 2174 0
-100 -2149 2150 0
-2150 2175 0
-101 -2150 2151 0
-2151 2176 0
-102 -2151 2152 0
-2152 2177 0
-103 -2152 2153 0
-2153 2178 0
-104 -2153 2154 0
-2154 2179 0
-105 -2154 2155 0
-2155 2180 0
-106 -2155 2156 0
-2156 2181 0
-107 -2156 2157 0
-2157 2182 0
-108 -2157 2158 0
-2158 2183 0
-109 -2158 2159 0
-2159 2184 0
-110 -2159 2160 0
-2160 2185 0
-111 -2160 0
-87 2161 0
-2161 2186 0
-88 -2161 2162 0
-2162 2187 0
-89 -2162 2163 0
-2163 2188 0
-90 -2163 2164 0
-2164 2189 0
-91 -2164 2165 0
-2165 2190 0
-92 -2165 2166 0
-2166 2191 0
-93 -2166 2167 0
-2167 2192 0
-94 -2167 2168 0
-2168 2193 0
-95 -2168 2169 0
-2169 2194 0
-96 -2169 2170 0
-2170 2195 0
-97 -2170 2171 0
-2171 2196 0
-98 -2171 2172 0
-2172 2197 0
-99 -2172 2173 0
-2173 2198 0
-100 -2173 2174 0
-2174 2199 0
-101 -2174 2175 0
-2175 2200 0
-102 -2175 2176 0
-2176 2201 0
-103 -2176 2177 0
-2177 2202 0
-104 -2177 2178 0
-2178 2203 0
-105 -2178 2179 0
-2179 2204 0
-106 -2179 2180 0
-2180 2205 0
-107 -2180 2181 0
-2181 2206 0
-108 -2181 2182 0
-2182 2207 0
-109 -2182 2183 0
-2183 2208 0
-110 -2183 2184 0
-2184 2209 0
-111 -2184 2185 0
-2185 2210 0
-112 -2185 0
-88 2186 0
-2186 2211 0
-89 -2186 2187 0
-2187 2212 0
-90 -2187 2188 0
-2188 2213 0
-91 -2188 2189 0
-2189 2214 0
-92 -2189 2190 0
-2190 2215 0
-93 -2190 2191 0
-2191 2216 0
-94 -2191 2192 0
-2192 2217 0
-95 -2192 2193 0
-2193 2218 0
-96 -2193 2194 0
-2194 2219 0
-97 -2194 2195 0
-2195 2220 0
-98 -2195 2196 0
-2196 2221 0
-99 -2196 2197 0
-2197 2222 0
-100 -2197 2198 0
-2198 2223 0
-101 -2198 2199 0
-2199 2224 0
-102 -2199 2200 0
-2200 2225 0
-103 -2200 2201 0
-2201 2226 0
-104 -2201 2202 0
-2202 2227 0
-105 -2202 2203 0
-2203 2228 0
-106 -2203 2204 0
-2204 2229 0
-107 -2204 2205 0
-2205 2230 0
-108 -2205 2206 0
-2206 2231 0
-109 -2206 2207 0
-2207 2232 0
-110 -2207 2208 0
-2208 2233 0
-111 -2208 2209 0
-2209 2234 0
-112 -2209 2210 0
-2210 2235 0
-113 -2210 0
-89 2211 0
-2211 2236 0
-90 -2211 2212 0
-2212 2237 0
-91 -2212 2213 0
-2213 2238 0
-92 -2213 2214 0
-2214 2239 0
-93 -2214 2215 0
-2215 2240 0
-94 -2215 2216 0
-2216 2241 0
-95 -2216 2217 0
-2217 2242 0
-96 -2217 2218 0
-2218 2243 0
-97 -2218 2219 0
-2219 2244 0
-98 -2219 2220 0
-2220 2245 0
-99 -2220 2221 0
-2221 2246 0
-100 -2221 2222 0
-2222 2247 0
-101 -2222 2223 0
-2223 2248 0
-102 -2223 2224 0
-2224 2249 0
-103 -2224 2225 0
-2225 2250 0
-104 -2225 2226 0
-2226 2251 0
-105 -2226 2227 0
-2227 2252 0
-106 -2227 2228 0
-2228 2253 0
-107 -2228 2229 0
-2229 2254 0
-108 -2229 2230 0
-2230 2255 0
-109 -2230 2231 0
-2231 2256 0
-110 -2231 2232 0
-2232 2257 0
-111 -2232 2233 0
-2233 2258 0
-112 -2233 2234 0
-2234 2259 0
-113 -2234 2235 0
-2235 2260 0
-114 -2235 0
-90 2236 0
-2236 2261 0
-91 -2236 2237 0
-2237 2262 0
-92 -2237 2238 0
-2238 2263 0
-93 -2238 2239 0
-2239 2264 0
-94 -2239 2240 0
-2240 2265 0
-95 -2240 2241 0
-2241 2266 0
-96 -2241 2242 0
-2242 2267 0
-97 -2242 2243 0
-2243 2268 0
-98 -2243 2244 0
-2244 2269 0
-99 -2244 2245 0
-2245 2270 0
-100 -2245 2246 0
-2246 2271 0
-101 -2246 2247 0
-2247 2272 0
-102 -2247 2248 0
-2248 2273 0
-103 -2248 2249 0
-2249 2274 0
-104 -2249 2250 0
-2250 2275 0
-105 -2250 2251 0
-2251 2276 0
-106 -2251 2252 0
-2252 2277 0
-107 -2252 2253 0
-2253 2278 0
-108 -2253 2254 0
-2254 2279 0
-109 -2254 2255 0
-2255 2280 0
-110 -2255 2256 0
-2256 2281 0
-111 -2256 2257 0
-2257 2282 0
-112 -2257 2258 0
-2258 2283 0
-113 -2258 2259 0
-2259 2284 0
-114 -2259 2260 0
-2260 2285 0
-115 -2260 0
-91 2261 0
-92 -2261 2262 0
-93 -2262 2263 0
-94 -2263 2264 0
-95 -2264 2265 0
-96 -2265 2266 0
-97 -2266 2267 0
-98 -2267 2268 0
-99 -2268 2269 0
-100 -2269 2270 0
-101 -2270 2271 0
-102 -2271 2272 0
-103 -2272 2273 0
-104 -2273 2274 0
-105 -2274 2275 0
-106 -2275 2276 0
-107 -2276 2277 0
-108 -2277 2278 0
-109 -2278 2279 0
-110 -2279 2280 0
-111 -2280 2281 0
-112 -2281 2282 0
-113 -2282 2283 0
-114 -2283 2284 0
-115 -2284 2285 0
-116 -2285 0
1 30 0
