p cnf 1577 3197
-1 47 0
-2 47 0
-23 47 0
-24 47 0
-47 1 2 23 24 0
-2 48 0
-1 48 0
-3 48 0
-25 48 0
-48 2 1 3 25 0
-3 49 0
-2 49 0
-4 49 0
-26 49 0
-49 3 2 4 26 0
-4 50 0
-3 50 0
-5 50 0
-27 50 0
-50 4 3 5 27 0
-5 51 0
-4 51 0
-6 51 0
-28 51 0
-51 5 4 6 28 0
-6 52 0
-5 52 0
-7 52 0
-29 52 0
-52 6 5 7 29 0
-7 53 0
-6 53 0
-8 53 0
-30 53 0
-53 7 6 8 30 0
-8 54 0
-7 54 0
-9 54 0
-31 54 0
-54 8 7 9 31 0
-9 55 0
-8 55 0
-10 55 0
-32 55 0
-55 9 8 10 32 0
-10 56 0
-9 56 0
-11 56 0
-33 56 0
-56 10 9 11 33 0
-11 57 0
-10 57 0
-12 57 0
-34 57 0
-57 11 10 12 34 0
-12 58 0
-11 58 0
-13 58 0
-35 58 0
-58 12 11 13 35 0
-13 59 0
-12 59 0
-14 59 0
-36 59 0
-59 13 12 14 36 0
-14 60 0
-13 60 0
-15 60 0
-37 60 0
-60 14 13 15 37 0
-15 61 0
-14 61 0
-16 61 0
-38 61 0
-61 15 14 16 38 0
-16 62 0
-15 62 0
-17 62 0
-39 62 0
-62 16 15 17 39 0
-17 63 0
-16 63 0
-18 63 0
-40 63 0
-63 17 16 18 40 0
-18 64 0
-17 64 0
-19 64 0
-41 64 0
-64 18 17 19 41 0
-19 65 0
-18 65 0
-20 65 0
-42 65 0
-65 19 18 20 42 0
-20 66 0
-19 66 0
-21 66 0
-43 66 0
-66 20 19 21 43 0
-21 67 0
-20 67 0
-22 67 0
-44 67 0
-67 21 20 22 44 0
-22 68 0
-21 68 0
-23 68 0
-45 68 0
-68 22 21 23 45 0
-23 69 0
-1 69 0
-22 69 0
-46 69 0
-69 23 1 22 46 0
-24 70 0
-1 70 0
-28 70 0
-43 70 0
-70 24 1 28 43 0
-25 71 0
-2 71 0
-29 71 0
-44 71 0
-71 25 2 29 44 0
-26 72 0
-3 72 0
-30 72 0
-45 72 0
-72 26 3 30 45 0
-27 73 0
-4 73 0
-31 73 0
-46 73 0
-73 27 4 31 46 0
-28 74 0
-5 74 0
-24 74 0
-32 74 0
-74 28 5 24 32 0
-29 75 0
-6 75 0
-25 75 0
-33 75 0
-75 29 6 25 33 0
-30 76 0
-7 76 0
-26 76 0
-34 76 0
-76 30 7 26 34 0
-31 77 0
-8 77 0
-27 77 0
-35 77 0
-77 31 8 27 35 0
-32 78 0
-9 78 0
-28 78 0
-36 78 0
-78 32 9 28 36 0
-33 79 0
-10 79 0
-29 79 0
-37 79 0
-79 33 10 29 37 0
-34 80 0
-11 80 0
-30 80 0
-38 80 0
-80 34 11 30 38 0
-35 81 0
-12 81 0
-31 81 0
-39 81 0
-81 35 12 31 39 0
-36 82 0
-13 82 0
-32 82 0
-40 82 0
-82 36 13 32 40 0
-37 83 0
-14 83 0
-33 83 0
-41 83 0
-83 37 14 33 41 0
-38 84 0
-15 84 0
-34 84 0
-42 84 0
-84 38 15 34 42 0
-39 85 0
-16 85 0
-35 85 0
-43 85 0
-85 39 16 35 43 0
-40 86 0
-17 86 0
-36 86 0
-44 86 0
-86 40 17 36 44 0
-41 87 0
-18 87 0
-37 87 0
-45 87 0
-87 41 18 37 45 0
-42 88 0
-19 88 0
-38 88 0
-46 88 0
-88 42 19 38 46 0
-43 89 0
-20 89 0
-24 89 0
-39 89 0
-89 43 20 24 39 0
-44 90 0
-21 90 0
-25 90 0
-40 90 0
-90 44 21 25 40 0
-45 91 0
-22 91 0
-26 91 0
-41 91 0
-91 45 22 26 41 0
-46 92 0
-23 92 0
-27 92 0
-42 92 0
-92 46 23 27 42 0
1 93 0
-93 94 0
2 -93 95 0
-95 96 0
3 -95 97 0
-97 98 0
4 -97 99 0
-99 100 0
5 -99 101 0
-101 102 0
6 -101 103 0
-103 104 0
7 -103 105 0
-105 106 0
8 -105 107 0
-107 108 0
9 -107 109 0
-109 110 0
10 -109 111 0
-111 112 0
11 -111 113 0
-113 114 0
12 -113 115 0
-115 116 0
13 -115 117 0
-117 118 0
14 -117 119 0
-119 120 0
15 -119 121 0
-121 122 0
16 -121 123 0
-123 124 0
17 -123 125 0
-125 126 0
18 -125 127 0
-127 128 0
19 -127 129 0
-129 130 0
20 -129 131 0
-131 132 0
21 -131 133 0
-133 134 0
22 -133 135 0
-135 136 0
23 -135 137 0
-137 138 0
24 -137 139 0
-139 140 0
25 -139 141 0
-141 142 0
26 -141 143 0
-143 144 0
27 -143 145 0
-145 146 0
28 -145 147 0
-147 148 0
29 -147 149 0
-149 150 0
30 -149 151 0
-151 152 0
31 -151 0
2 94 0
-94 153 0
3 -94 96 0
-96 154 0
4 -96 98 0
-98 155 0
5 -98 100 0
-100 156 0
6 -100 102 0
-102 157 0
7 -102 104 0
-104 158 0
8 -104 106 0
-106 159 0
9 -106 108 0
-108 160 0
10 -108 110 0
-110 161 0
11 -110 112 0
-112 162 0
12 -112 114 0
-114 163 0
13 -114 116 0
-116 164 0
14 -116 118 0
-118 165 0
15 -118 120 0
-120 166 0
16 -120 122 0
-122 167 0
17 -122 124 0
-124 168 0
18 -124 126 0
-126 169 0
19 -126 128 0
-128 170 0
20 -128 130 0
-130 171 0
21 -130 132 0
-132 172 0
22 -132 134 0
-134 173 0
23 -134 136 0
-136 174 0
24 -136 138 0
-138 175 0
25 -138 140 0
-140 176 0
26 -140 142 0
-142 177 0
27 -142 144 0
-144 178 0
28 -144 146 0
-146 179 0
29 -146 148 0
-148 180 0
30 -148 150 0
-150 181 0
31 -150 152 0
-152 182 0
32 -152 0
3 153 0
-153 183 0
4 -153 154 0
-154 184 0
5 -154 155 0
-155 185 0
6 -155 156 0
-156 186 0
7 -156 157 0
-157 187 0
8 -157 158 0
-158 188 0
9 -158 159 0
-159 189 0
10 -159 160 0
-160 190 0
11 -160 161 0
-161 191 0
12 -161 162 0
-162 192 0
13 -162 163 0
-163 193 0
14 -163 164 0
-164 194 0
15 -164 165 0
-165 195 0
16 -165 166 0
-166 196 0
17 -166 167 0
-167 197 0
18 -167 168 0
-168 198 0
19 -168 169 0
-169 199 0
20 -169 170 0
-170 200 0
21 -170 171 0
-171 201 0
22 -171 172 0
-172 202 0
23 -172 173 0
-173 203 0
24 -173 174 0
-174 204 0
25 -174 175 0
-175 205 0
26 -175 176 0
-176 206 0
27 -176 177 0
-177 207 0
28 -177 178 0
-178 208 0
29 -178 179 0
-179 209 0
30 -179 180 0
-180 210 0
31 -180 181 0
-181 211 0
32 -181 182 0
-182 212 0
33 -182 0
4 183 0
-183 213 0
5 -183 184 0
-184 214 0
6 -184 185 0
-185 215 0
7 -185 186 0
-186 216 0
8 -186 187 0
-187 217 0
9 -187 188 0
-188 218 0
10 -188 189 0
-189 219 0
11 -189 190 0
-190 220 0
12 -190 191 0
-191 221 0
13 -191 192 0
-192 222 0
14 -192 193 0
-193 223 0
15 -193 194 0
-194 224 0
16 -194 195 0
-195 225 0
17 -195 196 0
-196 226 0
18 -196 197 0
-197 227 0
19 -197 198 0
-198 228 0
20 -198 199 0
-199 229 0
21 -199 200 0
-200 230 0
22 -200 201 0
-201 231 0
23 -201 202 0
-202 232 0
24 -202 203 0
-203 233 0
25 -203 204 0
-204 234 0
26 -204 205 0
-205 235 0
27 -205 206 0
-206 236 0
28 -206 207 0
-207 237 0
29 -207 208 0
-208 238 0
30 -208 209 0
-209 239 0
31 -209 210 0
-210 240 0
32 -210 211 0
-211 241 0
33 -211 212 0
-212 242 0
34 -212 0
5 213 0
-213 243 0
6 -213 214 0
-214 244 0
7 -214 215 0
-215 245 0
8 -215 216 0
-216 246 0
9 -216 217 0
-217 247 0
10 -217 218 0
-218 248 0
11 -218 219 0
-219 249 0
12 -219 220 0
-220 250 0
13 -220 221 0
-221 251 0
14 -221 222 0
-222 252 0
15 -222 223 0
-223 253 0
16 -223 224 0
-224 254 0
17 -224 225 0
-225 255 0
18 -225 226 0
-226 256 0
19 -226 227 0
-227 257 0
20 -227 228 0
-228 258 0
21 -228 229 0
-229 259 0
22 -229 230 0
-230 260 0
23 -230 231 0
-231 261 0
24 -231 232 0
-232 262 0
25 -232 233 0
-233 263 0
26 -233 234 0
-234 264 0
27 -234 235 0
-235 265 0
28 -235 236 0
-236 266 0
29 -236 237 0
-237 267 0
30 -237 238 0
-238 268 0
31 -238 239 0
-239 269 0
32 -239 240 0
-240 270 0
33 -240 241 0
-241 271 0
34 -241 242 0
-242 272 0
35 -242 0
6 243 0
-243 273 0
7 -243 244 0
-244 274 0
8 -244 245 0
-245 275 0
9 -245 246 0
-246 276 0
10 -246 247 0
-247 277 0
11 -247 248 0
-248 278 0
12 -248 249 0
-249 279 0
13 -249 250 0
-250 280 0
14 -250 251 0
-251 281 0
15 -251 252 0
-252 282 0
16 -252 253 0
-253 283 0
17 -253 254 0
-254 284 0
18 -254 255 0
-255 285 0
19 -255 256 0
-256 286 0
20 -256 257 0
-257 287 0
21 -257 258 0
-258 288 0
22 -258 259 0
-259 289 0
23 -259 260 0
-260 290 0
24 -260 261 0
-261 291 0
25 -261 262 0
-262 292 0
26 -262 263 0
-263 293 0
27 -263 264 0
-264 294 0
28 -264 265 0
-265 295 0
29 -265 266 0
-266 296 0
30 -266 267 0
-267 297 0
31 -267 268 0
-268 298 0
32 -268 269 0
-269 299 0
33 -269 270 0
-270 300 0
34 -270 271 0
-271 301 0
35 -271 272 0
-272 302 0
36 -272 0
7 273 0
-273 303 0
8 -273 274 0
-274 304 0
9 -274 275 0
-275 305 0
10 -275 276 0
-276 306 0
11 -276 277 0
-277 307 0
12 -277 278 0
-278 308 0
13 -278 279 0
-279 309 0
14 -279 280 0
-280 310 0
15 -280 281 0
-281 311 0
16 -281 282 0
-282 312 0
17 -282 283 0
-283 313 0
18 -283 284 0
-284 314 0
19 -284 285 0
-285 315 0
20 -285 286 0
-286 316 0
21 -286 287 0
-287 317 0
22 -287 288 0
-288 318 0
23 -288 289 0
-289 319 0
24 -289 290 0
-290 320 0
25 -290 291 0
-291 321 0
26 -291 292 0
-292 322 0
27 -292 293 0
-293 323 0
28 -293 294 0
-294 324 0
29 -294 295 0
-295 325 0
30 -295 296 0
-296 326 0
31 -296 297 0
-297 327 0
32 -297 298 0
-298 328 0
33 -298 299 0
-299 329 0
34 -299 300 0
-300 330 0
35 -300 301 0
-301 331 0
36 -301 302 0
-302 332 0
37 -302 0
8 303 0
-303 333 0
9 -303 304 0
-304 334 0
10 -304 305 0
-305 335 0
11 -305 306 0
-306 336 0
12 -306 307 0
-307 337 0
13 -307 308 0
-308 338 0
14 -308 309 0
-309 339 0
15 -309 310 0
-310 340 0
16 -310 311 0
-311 341 0
17 -311 312 0
-312 342 0
18 -312 313 0
-313 343 0
19 -313 314 0
-314 344 0
20 -314 315 0
-315 345 0
21 -315 316 0
-316 346 0
22 -316 317 0
-317 347 0
23 -317 318 0
-318 348 0
24 -318 319 0
-319 349 0
25 -319 320 0
-320 350 0
26 -320 321 0
-321 351 0
27 -321 322 0
-322 352 0
28 -322 323 0
-323 353 0
29 -323 324 0
-324 354 0
30 -324 325 0
-325 355 0
31 -325 326 0
-326 356 0
32 -326 327 0
-327 357 0
33 -327 328 0
-328 358 0
34 -328 329 0
-329 359 0
35 -329 330 0
-330 360 0
36 -330 331 0
-331 361 0
37 -331 332 0
-332 362 0
38 -332 0
9 333 0
-333 363 0
10 -333 334 0
-334 364 0
11 -334 335 0
-335 365 0
12 -335 336 0
-336 366 0
13 -336 337 0
-337 367 0
14 -337 338 0
-338 368 0
15 -338 339 0
-339 369 0
16 -339 340 0
-340 370 0
17 -340 341 0
-341 371 0
18 -341 342 0
-342 372 0
19 -342 343 0
-343 373 0
20 -343 344 0
-344 374 0
21 -344 345 0
-345 375 0
22 -345 346 0
-346 376 0
23 -346 347 0
-347 377 0
24 -347 348 0
-348 378 0
25 -348 349 0
-349 379 0
26 -349 350 0
-350 380 0
27 -350 351 0
-351 381 0
28 -351 352 0
-352 382 0
29 -352 353 0
-353 383 0
30 -353 354 0
-354 384 0
31 -354 355 0
-355 385 0
32 -355 356 0
-356 386 0
33 -356 357 0
-357 387 0
34 -357 358 0
-358 388 0
35 -358 359 0
-359 389 0
36 -359 360 0
-360 390 0
37 -360 361 0
-361 391 0
38 -361 362 0
-362 392 0
39 -362 0
10 363 0
-363 393 0
11 -363 364 0
-364 394 0
12 -364 365 0
-365 395 0
13 -365 366 0
-366 396 0
14 -366 367 0
-367 397 0
15 -367 368 0
-368 398 0
16 -368 369 0
-369 399 0
17 -369 370 0
-370 400 0
18 -370 371 0
-371 401 0
19 -371 372 0
-372 402 0
20 -372 373 0
-373 403 0
21 -373 374 0
-374 404 0
22 -374 375 0
-375 405 0
23 -375 376 0
-376 406 0
24 -376 377 0
-377 407 0
25 -377 378 0
-378 408 0
26 -378 379 0
-379 409 0
27 -379 380 0
-380 410 0
28 -380 381 0
-381 411 0
29 -381 382 0
-382 412 0
30 -382 383 0
-383 413 0
31 -383 384 0
-384 414 0
32 -384 385 0
-385 415 0
33 -385 386 0
-386 416 0
34 -386 387 0
-387 417 0
35 -387 388 0
-388 418 0
36 -388 389 0
-389 419 0
37 -389 390 0
-390 420 0
38 -390 391 0
-391 421 0
39 -391 392 0
-392 422 0
40 -392 0
11 393 0
-393 423 0
12 -393 394 0
-394 424 0
13 -394 395 0
-395 425 0
14 -395 396 0
-396 426 0
15 -396 397 0
-397 427 0
16 -397 398 0
-398 428 0
17 -398 399 0
-399 429 0
18 -399 400 0
-400 430 0
19 -400 401 0
-401 431 0
20 -401 402 0
-402 432 0
21 -402 403 0
-403 433 0
22 -403 404 0
-404 434 0
23 -404 405 0
-405 435 0
24 -405 406 0
-406 436 0
25 -406 407 0
-407 437 0
26 -407 408 0
-408 438 0
27 -408 409 0
-409 439 0
28 -409 410 0
-410 440 0
29 -410 411 0
-411 441 0
30 -411 412 0
-412 442 0
31 -412 413 0
-413 443 0
32 -413 414 0
-414 444 0
33 -414 415 0
-415 445 0
34 -415 416 0
-416 446 0
35 -416 417 0
-417 447 0
36 -417 418 0
-418 448 0
37 -418 419 0
-419 449 0
38 -419 420 0
-420 450 0
39 -420 421 0
-421 451 0
40 -421 422 0
-422 452 0
41 -422 0
12 423 0
-423 453 0
13 -423 424 0
-424 454 0
14 -424 425 0
-425 455 0
15 -425 426 0
-426 456 0
16 -426 427 0
-427 457 0
17 -427 428 0
-428 458 0
18 -428 429 0
-429 459 0
19 -429 430 0
-430 460 0
20 -430 431 0
-431 461 0
21 -431 432 0
-432 462 0
22 -432 433 0
-433 463 0
23 -433 434 0
-434 464 0
24 -434 435 0
-435 465 0
25 -435 436 0
-436 466 0
26 -436 437 0
-437 467 0
27 -437 438 0
-438 468 0
28 -438 439 0
-439 469 0
29 -439 440 0
-440 470 0
30 -440 441 0
-441 471 0
31 -441 442 0
-442 472 0
32 -442 443 0
-443 473 0
33 -443 444 0
-444 474 0
34 -444 445 0
-445 475 0
35 -445 446 0
-446 476 0
36 -446 447 0
-447 477 0
37 -447 448 0
-448 478 0
38 -448 449 0
-449 479 0
39 -449 450 0
-450 480 0
40 -450 451 0
-451 481 0
41 -451 452 0
-452 482 0
42 -452 0
13 453 0
-453 483 0
14 -453 454 0
-454 484 0
15 -454 455 0
-455 485 0
16 -455 456 0
-456 486 0
17 -456 457 0
-457 487 0
18 -457 458 0
-458 488 0
19 -458 459 0
-459 489 0
20 -459 460 0
-460 490 0
21 -460 461 0
-461 491 0
22 -461 462 0
-462 492 0
23 -462 463 0
-463 493 0
24 -463 464 0
-464 494 0
25 -464 465 0
-465 495 0
26 -465 466 0
-466 496 0
27 -466 467 0
-467 497 0
28 -467 468 0
-468 498 0
29 -468 469 0
-469 499 0
30 -469 470 0
-470 500 0
31 -470 471 0
-471 501 0
32 -471 472 0
-472 502 0
33 -472 473 0
-473 503 0
34 -473 474 0
-474 504 0
35 -474 475 0
-475 505 0
36 -475 476 0
-476 506 0
37 -476 477 0
-477 507 0
38 -477 478 0
-478 508 0
39 -478 479 0
-479 509 0
40 -479 480 0
-480 510 0
41 -480 481 0
-481 511 0
42 -481 482 0
-482 512 0
43 -482 0
14 483 0
-483 513 0
15 -483 484 0
-484 514 0
16 -484 485 0
-485 515 0
17 -485 486 0
-486 516 0
18 -486 487 0
-487 517 0
19 -487 488 0
-488 518 0
20 -488 489 0
-489 519 0
21 -489 490 0
-490 520 0
22 -490 491 0
-491 521 0
23 -491 492 0
-492 522 0
24 -492 493 0
-493 523 0
25 -493 494 0
-494 524 0
26 -494 495 0
-495 525 0
27 -495 496 0
-496 526 0
28 -496 497 0
-497 527 0
29 -497 498 0
-498 528 0
30 -498 499 0
-499 529 0
31 -499 500 0
-500 530 0
32 -500 501 0
-501 531 0
33 -501 502 0
-502 532 0
34 -502 503 0
-503 533 0
35 -503 504 0
-504 534 0
36 -504 505 0
-505 535 0
37 -505 506 0
-506 536 0
38 -506 507 0
-507 537 0
39 -507 508 0
-508 538 0
40 -508 509 0
-509 539 0
41 -509 510 0
-510 540 0
42 -510 511 0
-511 541 0
43 -511 512 0
-512 542 0
44 -512 0
15 513 0
-513 543 0
16 -513 514 0
-514 544 0
17 -514 515 0
-515 545 0
18 -515 516 0
-516 546 0
19 -516 517 0
-517 547 0
20 -517 518 0
-518 548 0
21 -518 519 0
-519 549 0
22 -519 520 0
-520 550 0
23 -520 521 0
-521 551 0
24 -521 522 0
-522 552 0
25 -522 523 0
-523 553 0
26 -523 524 0
-524 554 0
27 -524 525 0
-525 555 0
28 -525 526 0
-526 556 0
29 -526 527 0
-527 557 0
30 -527 528 0
-528 558 0
31 -528 529 0
-529 559 0
32 -529 530 0
-530 560 0
33 -530 531 0
-531 561 0
34 -531 532 0
-532 562 0
35 -532 533 0
-533 563 0
36 -533 534 0
-534 564 0
37 -534 535 0
-535 565 0
38 -535 536 0
-536 566 0
39 -536 537 0
-537 567 0
40 -537 538 0
-538 568 0
41 -538 539 0
-539 569 0
42 -539 540 0
-540 570 0
43 -540 541 0
-541 571 0
44 -541 542 0
-542 572 0
45 -542 0
16 543 0
17 -543 544 0
18 -544 545 0
19 -545 546 0
20 -546 547 0
21 -547 548 0
22 -548 549 0
23 -549 550 0
24 -550 551 0
25 -551 552 0
26 -552 553 0
27 -553 554 0
28 -554 555 0
29 -555 556 0
30 -556 557 0
31 -557 558 0
32 -558 559 0
33 -559 560 0
34 -560 561 0
35 -561 562 0
36 -562 563 0
37 -563 564 0
38 -564 565 0
39 -565 566 0
40 -566 567 0
41 -567 568 0
42 -568 569 0
43 -569 570 0
44 -570 571 0
45 -571 572 0
46 -572 0
-1 573 0
-573 574 0
-2 -573 575 0
-575 576 0
-3 -575 577 0
-577 578 0
-4 -577 579 0
-579 580 0
-5 -579 581 0
-581 582 0
-6 -581 583 0
-583 584 0
-7 -583 585 0
-585 586 0
-8 -585 587 0
-587 588 0
-9 -587 589 0
-589 590 0
-10 -589 591 0
-591 592 0
-11 -591 593 0
-593 594 0
-12 -593 595 0
-595 596 0
-13 -595 597 0
-597 598 0
-14 -597 599 0
-599 600 0
-15 -599 601 0
-601 602 0
-16 -601 603 0
-603 604 0
-17 -603 0
-2 574 0
-574 605 0
-3 -574 576 0
-576 606 0
-4 -576 578 0
-578 607 0
-5 -578 580 0
-580 608 0
-6 -580 582 0
-582 609 0
-7 -582 584 0
-584 610 0
-8 -584 586 0
-586 611 0
-9 -586 588 0
-588 612 0
-10 -588 590 0
-590 613 0
-11 -590 592 0
-592 614 0
-12 -592 594 0
-594 615 0
-13 -594 596 0
-596 616 0
-14 -596 598 0
-598 617 0
-15 -598 600 0
-600 618 0
-16 -600 602 0
-602 619 0
-17 -602 604 0
-604 620 0
-18 -604 0
-3 605 0
-605 621 0
-4 -605 606 0
-606 622 0
-5 -606 607 0
-607 623 0
-6 -607 608 0
-608 624 0
-7 -608 609 0
-609 625 0
-8 -609 610 0
-610 626 0
-9 -610 611 0
-611 627 0
-10 -611 612 0
-612 628 0
-11 -612 613 0
-613 629 0
-12 -613 614 0
-614 630 0
-13 -614 615 0
-615 631 0
-14 -615 616 0
-616 632 0
-15 -616 617 0
-617 633 0
-16 -617 618 0
-618 634 0
-17 -618 619 0
-619 635 0
-18 -619 620 0
-620 636 0
-19 -620 0
-4 621 0
-621 637 0
-5 -621 622 0
-622 638 0
-6 -622 623 0
-623 639 0
-7 -623 624 0
-624 640 0
-8 -624 625 0
-625 641 0
-9 -625 626 0
-626 642 0
-10 -626 627 0
-627 643 0
-11 -627 628 0
-628 644 0
-12 -628 629 0
-629 645 0
-13 -629 630 0
-630 646 0
-14 -630 631 0
-631 647 0
-15 -631 632 0
-632 648 0
-16 -632 633 0
-633 649 0
-17 -633 634 0
-634 650 0
-18 -634 635 0
-635 651 0
-19 -635 636 0
-636 652 0
-20 -636 0
-5 637 0
-637 653 0
-6 -637 638 0
-638 654 0
-7 -638 639 0
-639 655 0
-8 -639 640 0
-640 656 0
-9 -640 641 0
-641 657 0
-10 -641 642 0
-642 658 0
-11 -642 643 0
-643 659 0
-12 -643 644 0
-644 660 0
-13 -644 645 0
-645 661 0
-14 -645 646 0
-646 662 0
-15 -646 647 0
-647 663 0
-16 -647 648 0
-648 664 0
-17 -648 649 0
-649 665 0
-18 -649 650 0
-650 666 0
-19 -650 651 0
-651 667 0
-20 -651 652 0
-652 668 0
-21 -652 0
-6 653 0
-653 669 0
-7 -653 654 0
-654 670 0
-8 -654 655 0
-655 671 0
-9 -655 656 0
-656 672 0
-10 -656 657 0
-657 673 0
-11 -657 658 0
-658 674 0
-12 -658 659 0
-659 675 0
-13 -659 660 0
-660 676 0
-14 -660 661 0
-661 677 0
-15 -661 662 0
-662 678 0
-16 -662 663 0
-663 679 0
-17 -663 664 0
-664 680 0
-18 -664 665 0
-665 681 0
-19 -665 666 0
-666 682 0
-20 -666 667 0
-667 683 0
-21 -667 668 0
-668 684 0
-22 -668 0
-7 669 0
-669 685 0
-8 -669 670 0
-670 686 0
-9 -670 671 0
-671 687 0
-10 -671 672 0
-672 688 0
-11 -672 673 0
-673 689 0
-12 -673 674 0
-674 690 0
-13 -674 675 0
-675 691 0
-14 -675 676 0
-676 692 0
-15 -676 677 0
-677 693 0
-16 -677 678 0
-678 694 0
-17 -678 679 0
-679 695 0
-18 -679 680 0
-680 696 0
-19 -680 681 0
-681 697 0
-20 -681 682 0
-682 698 0
-21 -682 683 0
-683 699 0
-22 -683 684 0
-684 700 0
-23 -684 0
-8 685 0
-685 701 0
-9 -685 686 0
-686 702 0
-10 -686 687 0
-687 703 0
-11 -687 688 0
-688 704 0
-12 -688 689 0
-689 705 0
-13 -689 690 0
-690 706 0
-14 -690 691 0
-691 707 0
-15 -691 692 0
-692 708 0
-16 -692 693 0
-693 709 0
-17 -693 694 0
-694 710 0
-18 -694 695 0
-695 711 0
-19 -695 696 0
-696 712 0
-20 -696 697 0
-697 713 0
-21 -697 698 0
-698 714 0
-22 -698 699 0
-699 715 0
-23 -699 700 0
-700 716 0
-24 -700 0
-9 701 0
-701 717 0
-10 -701 702 0
-702 718 0
-11 -702 703 0
-703 719 0
-12 -703 704 0
-704 720 0
-13 -704 705 0
-705 721 0
-14 -705 706 0
-706 722 0
-15 -706 707 0
-707 723 0
-16 -707 708 0
-708 724 0
-17 -708 709 0
-709 725 0
-18 -709 710 0
-710 726 0
-19 -710 711 0
-711 727 0
-20 -711 712 0
-712 728 0
-21 -712 713 0
-713 729 0
-22 -713 714 0
-714 730 0
-23 -714 715 0
-715 731 0
-24 -715 716 0
-716 732 0
-25 -716 0
-10 717 0
-717 733 0
-11 -717 718 0
-718 734 0
-12 -718 719 0
-719 735 0
-13 -719 720 0
-720 736 0
-14 -720 721 0
-721 737 0
-15 -721 722 0
-722 738 0
-16 -722 723 0
-723 739 0
-17 -723 724 0
-724 740 0
-18 -724 725 0
-725 741 0
-19 -725 726 0
-726 742 0
-20 -726 727 0
-727 743 0
-21 -727 728 0
-728 744 0
-22 -728 729 0
-729 745 0
-23 -729 730 0
-730 746 0
-24 -730 731 0
-731 747 0
-25 -731 732 0
-732 748 0
-26 -732 0
-11 733 0
-733 749 0
-12 -733 734 0
-734 750 0
-13 -734 735 0
-735 751 0
-14 -735 736 0
-736 752 0
-15 -736 737 0
-737 753 0
-16 -737 738 0
-738 754 0
-17 -738 739 0
-739 755 0
-18 -739 740 0
-740 756 0
-19 -740 741 0
-741 757 0
-20 -741 742 0
-742 758 0
-21 -742 743 0
-743 759 0
-22 -743 744 0
-744 760 0
-23 -744 745 0
-745 761 0
-24 -745 746 0
-746 762 0
-25 -746 747 0
-747 763 0
-26 -747 748 0
-748 764 0
-27 -748 0
-12 749 0
-749 765 0
-13 -749 750 0
-750 766 0
-14 -750 751 0
-751 767 0
-15 -751 752 0
-752 768 0
-16 -752 753 0
-753 769 0
-17 -753 754 0
-754 770 0
-18 -754 755 0
-755 771 0
-19 -755 756 0
-756 772 0
-20 -756 757 0
-757 773 0
-21 -757 758 0
-758 774 0
-22 -758 759 0
-759 775 0
-23 -759 760 0
-760 776 0
-24 -760 761 0
-761 777 0
-25 -761 762 0
-762 778 0
-26 -762 763 0
-763 779 0
-27 -763 764 0
-764 780 0
-28 -764 0
-13 765 0
-765 781 0
-14 -765 766 0
-766 782 0
-15 -766 767 0
-767 783 0
-16 -767 768 0
-768 784 0
-17 -768 769 0
-769 785 0
-18 -769 770 0
-770 786 0
-19 -770 771 0
-771 787 0
-20 -771 772 0
-772 788 0
-21 -772 773 0
-773 789 0
-22 -773 774 0
-774 790 0
-23 -774 775 0
-775 791 0
-24 -775 776 0
-776 792 0
-25 -776 777 0
-777 793 0
-26 -777 778 0
-778 794 0
-27 -778 779 0
-779 795 0
-28 -779 780 0
-780 796 0
-29 -780 0
-14 781 0
-781 797 0
-15 -781 782 0
-782 798 0
-16 -782 783 0
-783 799 0
-17 -783 784 0
-784 800 0
-18 -784 785 0
-785 801 0
-19 -785 786 0
-786 802 0
-20 -786 787 0
-787 803 0
-21 -787 788 0
-788 804 0
-22 -788 789 0
-789 805 0
-23 -789 790 0
-790 806 0
-24 -790 791 0
-791 807 0
-25 -791 792 0
-792 808 0
-26 -792 793 0
-793 809 0
-27 -793 794 0
-794 810 0
-28 -794 795 0
-795 811 0
-29 -795 796 0
-796 812 0
-30 -796 0
-15 797 0
-797 813 0
-16 -797 798 0
-798 814 0
-17 -798 799 0
-799 815 0
-18 -799 800 0
-800 816 0
-19 -800 801 0
-801 817 0
-20 -801 802 0
-802 818 0
-21 -802 803 0
-803 819 0
-22 -803 804 0
-804 820 0
-23 -804 805 0
-805 821 0
-24 -805 806 0
-806 822 0
-25 -806 807 0
-807 823 0
-26 -807 808 0
-808 824 0
-27 -808 809 0
-809 825 0
-28 -809 810 0
-810 826 0
-29 -810 811 0
-811 827 0
-30 -811 812 0
-812 828 0
-31 -812 0
-16 813 0
-813 829 0
-17 -813 814 0
-814 830 0
-18 -814 815 0
-815 831 0
-19 -815 816 0
-816 832 0
-20 -816 817 0
-817 833 0
-21 -817 818 0
-818 834 0
-22 -818 819 0
-819 835 0
-23 -819 820 0
-820 836 0
-24 -820 821 0
-821 837 0
-25 -821 822 0
-822 838 0
-26 -822 823 0
-823 839 0
-27 -823 824 0
-824 840 0
-28 -824 825 0
-825 841 0
-29 -825 826 0
-826 842 0
-30 -826 827 0
-827 843 0
-31 -827 828 0
-828 844 0
-32 -828 0
-17 829 0
-829 845 0
-18 -829 830 0
-830 846 0
-19 -830 831 0
-831 847 0
-20 -831 832 0
-832 848 0
-21 -832 833 0
-833 849 0
-22 -833 834 0
-834 850 0
-23 -834 835 0
-835 851 0
-24 -835 836 0
-836 852 0
-25 -836 837 0
-837 853 0
-26 -837 838 0
-838 854 0
-27 -838 839 0
-839 855 0
-28 -839 840 0
-840 856 0
-29 -840 841 0
-841 857 0
-30 -841 842 0
-842 858 0
-31 -842 843 0
-843 859 0
-32 -843 844 0
-844 860 0
-33 -844 0
-18 845 0
-845 861 0
-19 -845 846 0
-846 862 0
-20 -846 847 0
-847 863 0
-21 -847 848 0
-848 864 0
-22 -848 849 0
-849 865 0
-23 -849 850 0
-850 866 0
-24 -850 851 0
-851 867 0
-25 -851 852 0
-852 868 0
-26 -852 853 0
-853 869 0
-27 -853 854 0
-854 870 0
-28 -854 855 0
-855 871 0
-29 -855 856 0
-856 872 0
-30 -856 857 0
-857 873 0
-31 -857 858 0
-858 874 0
-32 -858 859 0
-859 875 0
-33 -859 860 0
-860 876 0
-34 -860 0
-19 861 0
-861 877 0
-20 -861 862 0
-862 878 0
-21 -862 863 0
-863 879 0
-22 -863 864 0
-864 880 0
-23 -864 865 0
-865 881 0
-24 -865 866 0
-866 882 0
-25 -866 867 0
-867 883 0
-26 -867 868 0
-868 884 0
-27 -868 869 0
-869 885 0
-28 -869 870 0
-870 886 0
-29 -870 871 0
-871 887 0
-30 -871 872 0
-872 888 0
-31 -872 873 0
-873 889 0
-32 -873 874 0
-874 890 0
-33 -874 875 0
-875 891 0
-34 -875 876 0
-876 892 0
-35 -876 0
-20 877 0
-877 893 0
-21 -877 878 0
-878 894 0
-22 -878 879 0
-879 895 0
-23 -879 880 0
-880 896 0
-24 -880 881 0
-881 897 0
-25 -881 882 0
-882 898 0
-26 -882 883 0
-883 899 0
-27 -883 884 0
-884 900 0
-28 -884 885 0
-885 901 0
-29 -885 886 0
-886 902 0
-30 -886 887 0
-887 903 0
-31 -887 888 0
-888 904 0
-32 -888 889 0
-889 905 0
-33 -889 890 0
-890 906 0
-34 -890 891 0
-891 907 0
-35 -891 892 0
-892 908 0
-36 -892 0
-21 893 0
-893 909 0
-22 -893 894 0
-894 910 0
-23 -894 895 0
-895 911 0
-24 -895 896 0
-896 912 0
-25 -896 897 0
-897 913 0
-26 -897 898 0
-898 914 0
-27 -898 899 0
-899 915 0
-28 -899 900 0
-900 916 0
-29 -900 901 0
-901 917 0
-30 -901 902 0
-902 918 0
-31 -902 903 0
-903 919 0
-32 -903 904 0
-904 920 0
-33 -904 905 0
-905 921 0
-34 -905 906 0
-906 922 0
-35 -906 907 0
-907 923 0
-36 -907 908 0
-908 924 0
-37 -908 0
-22 909 0
-909 925 0
-23 -909 910 0
-910 926 0
-24 -910 911 0
-911 927 0
-25 -911 912 0
-912 928 0
-26 -912 913 0
-913 929 0
-27 -913 914 0
-914 930 0
-28 -914 915 0
-915 931 0
-29 -915 916 0
-916 932 0
-30 -916 917 0
-917 933 0
-31 -917 918 0
-918 934 0
-32 -918 919 0
-919 935 0
-33 -919 920 0
-920 936 0
-34 -920 921 0
-921 937 0
-35 -921 922 0
-922 938 0
-36 -922 923 0
-923 939 0
-37 -923 924 0
-924 940 0
-38 -924 0
-23 925 0
-925 941 0
-24 -925 926 0
-926 942 0
-25 -926 927 0
-927 943 0
-26 -927 928 0
-928 944 0
-27 -928 929 0
-929 945 0
-28 -929 930 0
-930 946 0
-29 -930 931 0
-931 947 0
-30 -931 932 0
-932 948 0
-31 -932 933 0
-933 949 0
-32 -933 934 0
-934 950 0
-33 -934 935 0
-935 951 0
-34 -935 936 0
-936 952 0
-35 -936 937 0
-937 953 0
-36 -937 938 0
-938 954 0
-37 -938 939 0
-939 955 0
-38 -939 940 0
-940 956 0
-39 -940 0
-24 941 0
-941 957 0
-25 -941 942 0
-942 958 0
-26 -942 943 0
-943 959 0
-27 -943 944 0
-944 960 0
-28 -944 945 0
-945 961 0
-29 -945 946 0
-946 962 0
-30 -946 947 0
-947 963 0
-31 -947 948 0
-948 964 0
-32 -948 949 0
-949 965 0
-33 -949 950 0
-950 966 0
-34 -950 951 0
-951 967 0
-35 -951 952 0
-952 968 0
-36 -952 953 0
-953 969 0
-37 -953 954 0
-954 970 0
-38 -954 955 0
-955 971 0
-39 -955 956 0
-956 972 0
-40 -956 0
-25 957 0
-957 973 0
-26 -957 958 0
-958 974 0
-27 -958 959 0
-959 975 0
-28 -959 960 0
-960 976 0
-29 -960 961 0
-961 977 0
-30 -961 962 0
-962 978 0
-31 -962 963 0
-963 979 0
-32 -963 964 0
-964 980 0
-33 -964 965 0
-965 981 0
-34 -965 966 0
-966 982 0
-35 -966 967 0
-967 983 0
-36 -967 968 0
-968 984 0
-37 -968 969 0
-969 985 0
-38 -969 970 0
-970 986 0
-39 -970 971 0
-971 987 0
-40 -971 972 0
-972 988 0
-41 -972 0
-26 973 0
-973 989 0
-27 -973 974 0
-974 990 0
-28 -974 975 0
-975 991 0
-29 -975 976 0
-976 992 0
-30 -976 977 0
-977 993 0
-31 -977 978 0
-978 994 0
-32 -978 979 0
-979 995 0
-33 -979 980 0
-980 996 0
-34 -980 981 0
-981 997 0
-35 -981 982 0
-982 998 0
-36 -982 983 0
-983 999 0
-37 -983 984 0
-984 1000 0
-38 -984 985 0
-985 1001 0
-39 -985 986 0
-986 1002 0
-40 -986 987 0
-987 1003 0
-41 -987 988 0
-988 1004 0
-42 -988 0
-27 989 0
-989 1005 0
-28 -989 990 0
-990 1006 0
-29 -990 991 0
-991 1007 0
-30 -991 992 0
-992 1008 0
-31 -992 993 0
-993 1009 0
-32 -993 994 0
-994 1010 0
-33 -994 995 0
-995 1011 0
-34 -995 996 0
-996 1012 0
-35 -996 997 0
-997 1013 0
-36 -997 998 0
-998 1014 0
-37 -998 999 0
-999 1015 0
-38 -999 1000 0
-1000 1016 0
-39 -1000 1001 0
-1001 1017 0
-40 -1001 1002 0
-1002 1018 0
-41 -1002 1003 0
-1003 1019 0
-42 -1003 1004 0
-1004 1020 0
-43 -1004 0
-28 1005 0
-1005 1021 0
-29 -1005 1006 0
-1006 1022 0
-30 -1006 1007 0
-1007 1023 0
-31 -1007 1008 0
-1008 1024 0
-32 -1008 1009 0
-1009 1025 0
-33 -1009 1010 0
-1010 1026 0
-34 -1010 1011 0
-1011 1027 0
-35 -1011 1012 0
-1012 1028 0
-36 -1012 1013 0
-1013 1029 0
-37 -1013 1014 0
-1014 1030 0
-38 -1014 1015 0
-1015 1031 0
-39 -1015 1016 0
-1016 1032 0
-40 -1016 1017 0
-1017 1033 0
-41 -1017 1018 0
-1018 1034 0
-42 -1018 1019 0
-1019 1035 0
-43 -1019 1020 0
-1020 1036 0
-44 -1020 0
-29 1021 0
-1021 1037 0
-30 -1021 1022 0
-1022 1038 0
-31 -1022 1023 0
-1023 1039 0
-32 -1023 1024 0
-1024 1040 0
-33 -1024 1025 0
-1025 1041 0
-34 -1025 1026 0
-1026 1042 0
-35 -1026 1027 0
-1027 1043 0
-36 -1027 1028 0
-1028 1044 0
-37 -1028 1029 0
-1029 1045 0
-38 -1029 1030 0
-1030 1046 0
-39 -1030 1031 0
-1031 1047 0
-40 -1031 1032 0
-1032 1048 0
-41 -1032 1033 0
-1033 1049 0
-42 -1033 1034 0
-1034 1050 0
-43 -1034 1035 0
-1035 1051 0
-44 -1035 1036 0
-1036 1052 0
-45 -1036 0
-30 1037 0
-31 -1037 1038 0
-32 -1038 1039 0
-33 -1039 1040 0
-34 -1040 1041 0
-35 -1041 1042 0
-36 -1042 1043 0
-37 -1043 1044 0
-38 -1044 1045 0
-39 -1045 1046 0
-40 -1046 1047 0
-41 -1047 1048 0
-42 -1048 1049 0
-43 -1049 1050 0
-44 -1050 1051 0
-45 -1051 1052 0
-46 -1052 0
-47 1053 0
-1053 1054 0
-48 -1053 1055 0
-1055 1056 0
-49 -1055 1057 0
-1057 1058 0
-50 -1057 1059 0
-1059 1060 0
-51 -1059 1061 0
-1061 1062 0
-52 -1061 1063 0
-1063 1064 0
-53 -1063 1065 0
-1065 1066 0
-54 -1065 1067 0
-1067 1068 0
-55 -1067 1069 0
-1069 1070 0
-56 -1069 1071 0
-1071 1072 0
-57 -1071 1073 0
-1073 1074 0
-58 -1073 1075 0
-1075 1076 0
-59 -1075 1077 0
-1077 1078 0
-60 -1077 1079 0
-1079 1080 0
-61 -1079 1081 0
-1081 1082 0
-62 -1081 1083 0
-1083 1084 0
-63 -1083 1085 0
-1085 1086 0
-64 -1085 1087 0
-1087 1088 0
-65 -1087 1089 0
-1089 1090 0
-66 -1089 1091 0
-1091 1092 0
-67 -1091 1093 0
-1093 1094 0
-68 -1093 1095 0
-1095 1096 0
-69 -1095 1097 0
-1097 1098 0
-70 -1097 1099 0
-1099 1100 0
-71 -1099 1101 0
-1101 1102 0
-72 -1101 0
-48 1054 0
-1054 1103 0
-49 -1054 1056 0
-1056 1104 0
-50 -1056 1058 0
-1058 1105 0
-51 -1058 1060 0
-1060 1106 0
-52 -1060 1062 0
-1062 1107 0
-53 -1062 1064 0
-1064 1108 0
-54 -1064 1066 0
-1066 1109 0
-55 -1066 1068 0
-1068 1110 0
-56 -1068 1070 0
-1070 1111 0
-57 -1070 1072 0
-1072 1112 0
-58 -1072 1074 0
-1074 1113 0
-59 -1074 1076 0
-1076 1114 0
-60 -1076 1078 0
-1078 1115 0
-61 -1078 1080 0
-1080 1116 0
-62 -1080 1082 0
-1082 1117 0
-63 -1082 1084 0
-1084 1118 0
-64 -1084 1086 0
-1086 1119 0
-65 -1086 1088 0
-1088 1120 0
-66 -1088 1090 0
-1090 1121 0
-67 -1090 1092 0
-1092 1122 0
-68 -1092 1094 0
-1094 1123 0
-69 -1094 1096 0
-1096 1124 0
-70 -1096 1098 0
-1098 1125 0
-71 -1098 1100 0
-1100 1126 0
-72 -1100 1102 0
-1102 1127 0
-73 -1102 0
-49 1103 0
-1103 1128 0
-50 -1103 1104 0
-1104 1129 0
-51 -1104 1105 0
-1105 1130 0
-52 -1105 1106 0
-1106 1131 0
-53 -1106 1107 0
-1107 1132 0
-54 -1107 1108 0
-1108 1133 0
-55 -1108 1109 0
-1109 1134 0
-56 -1109 1110 0
-1110 1135 0
-57 -1110 1111 0
-1111 1136 0
-58 -1111 1112 0
-1112 1137 0
-59 -1112 1113 0
-1113 1138 0
-60 -1113 1114 0
-1114 1139 0
-61 -1114 1115 0
-1115 1140 0
-62 -1115 1116 0
-1116 1141 0
-63 -1116 1117 0
-1117 1142 0
-64 -1117 1118 0
-1118 1143 0
-65 -1118 1119 0
-1119 1144 0
-66 -1119 1120 0
-1120 1145 0
-67 -1120 1121 0
-1121 1146 0
-68 -1121 1122 0
-1122 1147 0
-69 -1122 1123 0
-1123 1148 0
-70 -1123 1124 0
-1124 1149 0
-71 -1124 1125 0
-1125 1150 0
-72 -1125 1126 0
-1126 1151 0
-73 -1126 1127 0
-1127 1152 0
-74 -1127 0
-50 1128 0
-1128 1153 0
-51 -1128 1129 0
-1129 1154 0
-52 -1129 1130 0
-1130 1155 0
-53 -1130 1131 0
-1131 1156 0
-54 -1131 1132 0
-1132 1157 0
-55 -1132 1133 0
-1133 1158 0
-56 -1133 1134 0
-1134 1159 0
-57 -1134 1135 0
-1135 1160 0
-58 -1135 1136 0
-1136 1161 0
-59 -1136 1137 0
-1137 1162 0
-60 -1137 1138 0
-1138 1163 0
-61 -1138 1139 0
-1139 1164 0
-62 -1139 1140 0
-1140 1165 0
-63 -1140 1141 0
-1141 1166 0
-64 -1141 1142 0
-1142 1167 0
-65 -1142 1143 0
-1143 1168 0
-66 -1143 1144 0
-1144 1169 0
-67 -1144 1145 0
-1145 1170 0
-68 -1145 1146 0
-1146 1171 0
-69 -1146 1147 0
-1147 1172 0
-70 -1147 1148 0
-1148 1173 0
-71 -1148 1149 0
-1149 1174 0
-72 -1149 1150 0
-1150 1175 0
-73 -1150 1151 0
-1151 1176 0
-74 -1151 1152 0
-1152 1177 0
-75 -1152 0
-51 1153 0
-1153 1178 0
-52 -1153 1154 0
-1154 1179 0
-53 -1154 1155 0
-1155 1180 0
-54 -1155 1156 0
-1156 1181 0
-55 -1156 1157 0
-1157 1182 0
-56 -1157 1158 0
-1158 1183 0
-57 -1158 1159 0
-1159 1184 0
-58 -1159 1160 0
-1160 1185 0
-59 -1160 1161 0
-1161 1186 0
-60 -1161 1162 0
-1162 1187 0
-61 -1162 1163 0
-1163 1188 0
-62 -1163 1164 0
-1164 1189 0
-63 -1164 1165 0
-1165 1190 0
-64 -1165 1166 0
-1166 1191 0
-65 -1166 1167 0
-1167 1192 0
-66 -1167 1168 0
-1168 1193 0
-67 -1168 1169 0
-1169 1194 0
-68 -1169 1170 0
-1170 1195 0
-69 -1170 1171 0
-1171 1196 0
-70 -1171 1172 0
-1172 1197 0
-71 -1172 1173 0
-1173 1198 0
-72 -1173 1174 0
-1174 1199 0
-73 -1174 1175 0
-1175 1200 0
-74 -1175 1176 0
-1176 1201 0
-75 -1176 1177 0
-1177 1202 0
-76 -1177 0
-52 1178 0
-1178 1203 0
-53 -1178 1179 0
-1179 1204 0
-54 -1179 1180 0
-1180 1205 0
-55 -1180 1181 0
-1181 1206 0
-56 -1181 1182 0
-1182 1207 0
-57 -1182 1183 0
-1183 1208 0
-58 -1183 1184 0
-1184 1209 0
-59 -1184 1185 0
-1185 1210 0
-60 -1185 1186 0
-1186 1211 0
-61 -1186 1187 0
-1187 1212 0
-62 -1187 1188 0
-1188 1213 0
-63 -1188 1189 0
-1189 1214 0
-64 -1189 1190 0
-1190 1215 0
-65 -1190 1191 0
-1191 1216 0
-66 -1191 1192 0
-1192 1217 0
-67 -1192 1193 0
-1193 1218 0
-68 -1193 1194 0
-1194 1219 0
-69 -1194 1195 0
-1195 1220 0
-70 -1195 1196 0
-1196 1221 0
-71 -1196 1197 0
-1197 1222 0
-72 -1197 1198 0
-1198 1223 0
-73 -1198 1199 0
-1199 1224 0
-74 -1199 1200 0
-1200 1225 0
-75 -1200 1201 0
-1201 1226 0
-76 -1201 1202 0
-1202 1227 0
-77 -1202 0
-53 1203 0
-1203 1228 0
-54 -1203 1204 0
-1204 1229 0
-55 -1204 1205 0
-1205 1230 0
-56 -1205 1206 0
-1206 1231 0
-57 -1206 1207 0
-1207 1232 0
-58 -1207 1208 0
-1208 1233 0
-59 -1208 1209 0
-1209 1234 0
-60 -1209 1210 0
-1210 1235 0
-61 -1210 1211 0
-1211 1236 0
-62 -1211 1212 0
-1212 1237 0
-63 -1212 1213 0
-1213 1238 0
-64 -1213 1214 0
-1214 1239 0
-65 -1214 1215 0
-1215 1240 0
-66 -1215 1216 0
-1216 1241 0
-67 -1216 1217 0
-1217 1242 0
-68 -1217 1218 0
-1218 1243 0
-69 -1218 1219 0
-1219 1244 0
-70 -1219 1220 0
-1220 1245 0
-71 -1220 1221 0
-1221 1246 0
-72 -1221 1222 0
-1222 1247 0
-73 -1222 1223 0
-1223 1248 0
-74 -1223 1224 0
-1224 1249 0
-75 -1224 1225 0
-1225 1250 0
-76 -1225 1226 0
-1226 1251 0
-77 -1226 1227 0
-1227 1252 0
-78 -1227 0
-54 1228 0
-1228 1253 0
-55 -1228 1229 0
-1229 1254 0
-56 -1229 1230 0
-1230 1255 0
-57 -1230 1231 0
-1231 1256 0
-58 -1231 1232 0
-1232 1257 0
-59 -1232 1233 0
-1233 1258 0
-60 -1233 1234 0
-1234 1259 0
-61 -1234 1235 0
-1235 1260 0
-62 -1235 1236 0
-1236 1261 0
-63 -1236 1237 0
-1237 1262 0
-64 -1237 1238 0
-1238 1263 0
-65 -1238 1239 0
-1239 1264 0
-66 -1239 1240 0
-1240 1265 0
-67 -1240 1241 0
-1241 1266 0
-68 -1241 1242 0
-1242 1267 0
-69 -1242 1243 0
-1243 1268 0
-70 -1243 1244 0
-1244 1269 0
-71 -1244 1245 0
-1245 1270 0
-72 -1245 1246 0
-1246 1271 0
-73 -1246 1247 0
-1247 1272 0
-74 -1247 1248 0
-1248 1273 0
-75 -1248 1249 0
-1249 1274 0
-76 -1249 1250 0
-1250 1275 0
-77 -1250 1251 0
-1251 1276 0
-78 -1251 1252 0
-1252 1277 0
-79 -1252 0
-55 1253 0
-1253 1278 0
-56 -1253 1254 0
-1254 1279 0
-57 -1254 1255 0
-1255 1280 0
-58 -1255 1256 0
-1256 1281 0
-59 -1256 1257 0
-1257 1282 0
-60 -1257 1258 0
-1258 1283 0
-61 -1258 1259 0
-1259 1284 0
-62 -1259 1260 0
-1260 1285 0
-63 -1260 1261 0
-1261 1286 0
-64 -1261 1262 0
-1262 1287 0
-65 -1262 1263 0
-1263 1288 0
-66 -1263 1264 0
-1264 1289 0
-67 -1264 1265 0
-1265 1290 0
-68 -1265 1266 0
-1266 1291 0
-69 -1266 1267 0
-1267 1292 0
-70 -1267 1268 0
-1268 1293 0
-71 -1268 1269 0
-1269 1294 0
-72 -1269 1270 0
-1270 1295 0
-73 -1270 1271 0
-1271 1296 0
-74 -1271 1272 0
-1272 1297 0
-75 -1272 1273 0
-1273 1298 0
-76 -1273 1274 0
-1274 1299 0
-77 -1274 1275 0
-1275 1300 0
-78 -1275 1276 0
-1276 1301 0
-79 -1276 1277 0
-1277 1302 0
-80 -1277 0
-56 1278 0
-1278 1303 0
-57 -1278 1279 0
-1279 1304 0
-58 -1279 1280 0
-1280 1305 0
-59 -1280 1281 0
-1281 1306 0
-60 -1281 1282 0
-1282 1307 0
-61 -1282 1283 0
-1283 1308 0
-62 -1283 1284 0
-1284 1309 0
-63 -1284 1285 0
-1285 1310 0
-64 -1285 1286 0
-1286 1311 0
-65 -1286 1287 0
-1287 1312 0
-66 -1287 1288 0
-1288 1313 0
-67 -1288 1289 0
-1289 1314 0
-68 -1289 1290 0
-1290 1315 0
-69 -1290 1291 0
-1291 1316 0
-70 -1291 1292 0
-1292 1317 0
-71 -1292 1293 0
-1293 1318 0
-72 -1293 1294 0
-1294 1319 0
-73 -1294 1295 0
-1295 1320 0
-74 -1295 1296 0
-1296 1321 0
-75 -1296 1297 0
-1297 1322 0
-76 -1297 1298 0
-1298 1323 0
-77 -1298 1299 0
-1299 1324 0
-78 -1299 1300 0
-1300 1325 0
-79 -1300 1301 0
-1301 1326 0
-80 -1301 1302 0
-1302 1327 0
-81 -1302 0
-57 1303 0
-1303 1328 0
-58 -1303 1304 0
-1304 1329 0
-59 -1304 1305 0
-1305 1330 0
-60 -1305 1306 0
-1306 1331 0
-61 -1306 1307 0
-1307 1332 0
-62 -1307 1308 0
-1308 1333 0
-63 -1308 1309 0
-1309 1334 0
-64 -1309 1310 0
-1310 1335 0
-65 -1310 1311 0
-1311 1336 0
-66 -1311 1312 0
-1312 1337 0
-67 -1312 1313 0
-1313 1338 0
-68 -1313 1314 0
-1314 1339 0
-69 -1314 1315 0
-1315 1340 0
-70 -1315 1316 0
-1316 1341 0
-71 -1316 1317 0
-1317 1342 0
-72 -1317 1318 0
-1318 1343 0
-73 -1318 1319 0
-1319 1344 0
-74 -1319 1320 0
-1320 1345 0
-75 -1320 1321 0
-1321 1346 0
-76 -1321 1322 0
-1322 1347 0
-77 -1322 1323 0
-1323 1348 0
-78 -1323 1324 0
-1324 1349 0
-79 -1324 1325 0
-1325 1350 0
-80 -1325 1326 0
-1326 1351 0
-81 -1326 1327 0
-1327 1352 0
-82 -1327 0
-58 1328 0
-1328 1353 0
-59 -1328 1329 0
-1329 1354 0
-60 -1329 1330 0
-1330 1355 0
-61 -1330 1331 0
-1331 1356 0
-62 -1331 1332 0
-1332 1357 0
-63 -1332 1333 0
-1333 1358 0
-64 -1333 1334 0
-1334 1359 0
-65 -1334 1335 0
-1335 1360 0
-66 -1335 1336 0
-1336 1361 0
-67 -1336 1337 0
-1337 1362 0
-68 -1337 1338 0
-1338 1363 0
-69 -1338 1339 0
-1339 1364 0
-70 -1339 1340 0
-1340 1365 0
-71 -1340 1341 0
-1341 1366 0
-72 -1341 1342 0
-1342 1367 0
-73 -1342 1343 0
-1343 1368 0
-74 -1343 1344 0
-1344 1369 0
-75 -1344 1345 0
-1345 1370 0
-76 -1345 1346 0
-1346 1371 0
-77 -1346 1347 0
-1347 1372 0
-78 -1347 1348 0
-1348 1373 0
-79 -1348 1349 0
-1349 1374 0
-80 -1349 1350 0
-1350 1375 0
-81 -1350 1351 0
-1351 1376 0
-82 -1351 1352 0
-1352 1377 0
-83 -1352 0
-59 1353 0
-1353 1378 0
-60 -1353 1354 0
-1354 1379 0
-61 -1354 1355 0
-1355 1380 0
-62 -1355 1356 0
-1356 1381 0
-63 -1356 1357 0
-1357 1382 0
-64 -1357 1358 0
-1358 1383 0
-65 -1358 1359 0
-1359 1384 0
-66 -1359 1360 0
-1360 1385 0
-67 -1360 1361 0
-1361 1386 0
-68 -1361 1362 0
-1362 1387 0
-69 -1362 1363 0
-1363 1388 0
-70 -1363 1364 0
-1364 1389 0
-71 -1364 1365 0
-1365 1390 0
-72 -1365 1366 0
-1366 1391 0
-73 -1366 1367 0
-1367 1392 0
-74 -1367 1368 0
-1368 1393 0
-75 -1368 1369 0
-1369 1394 0
-76 -1369 1370 0
-1370 1395 0
-77 -1370 1371 0
-1371 1396 0
-78 -1371 1372 0
-1372 1397 0
-79 -1372 1373 0
-1373 1398 0
-80 -1373 1374 0
-1374 1399 0
-81 -1374 1375 0
-1375 1400 0
-82 -1375 1376 0
-1376 1401 0
-83 -1376 1377 0
-1377 1402 0
-84 -1377 0
-60 1378 0
-1378 1403 0
-61 -1378 1379 0
-1379 1404 0
-62 -1379 1380 0
-1380 1405 0
-63 -1380 1381 0
-1381 1406 0
-64 -1381 1382 0
-1382 1407 0
-65 -1382 1383 0
-1383 1408 0
-66 -1383 1384 0
-1384 1409 0
-67 -1384 1385 0
-1385 1410 0
-68 -1385 1386 0
-1386 1411 0
-69 -1386 1387 0
-1387 1412 0
-70 -1387 1388 0
-1388 1413 0
-71 -1388 1389 0
-1389 1414 0
-72 -1389 1390 0
-1390 1415 0
-73 -1390 1391 0
-1391 1416 0
-74 -1391 1392 0
-1392 1417 0
-75 -1392 1393 0
-1393 1418 0
-76 -1393 1394 0
-1394 1419 0
-77 -1394 1395 0
-1395 1420 0
-78 -1395 1396 0
-1396 1421 0
-79 -1396 1397 0
-1397 1422 0
-80 -1397 1398 0
-1398 1423 0
-81 -1398 1399 0
-1399 1424 0
-82 -1399 1400 0
-1400 1425 0
-83 -1400 1401 0
-1401 1426 0
-84 -1401 1402 0
-1402 1427 0
-85 -1402 0
-61 1403 0
-1403 1428 0
-62 -1403 1404 0
-1404 1429 0
-63 -1404 1405 0
-1405 1430 0
-64 -1405 1406 0
-1406 1431 0
-65 -1406 1407 0
-1407 1432 0
-66 -1407 1408 0
-1408 1433 0
-67 -1408 1409 0
-1409 1434 0
-68 -1409 1410 0
-1410 1435 0
-69 -1410 1411 0
-1411 1436 0
-70 -1411 1412 0
-1412 1437 0
-71 -1412 1413 0
-1413 1438 0
-72 -1413 1414 0
-1414 1439 0
-73 -1414 1415 0
-1415 1440 0
-74 -1415 1416 0
-1416 1441 0
-75 -1416 1417 0
-1417 1442 0
-76 -1417 1418 0
-1418 1443 0
-77 -1418 1419 0
-1419 1444 0
-78 -1419 1420 0
-1420 1445 0
-79 -1420 1421 0
-1421 1446 0
-80 -1421 1422 0
-1422 1447 0
-81 -1422 1423 0
-1423 1448 0
-82 -1423 1424 0
-1424 1449 0
-83 -1424 1425 0
-1425 1450 0
-84 -1425 1426 0
-1426 1451 0
-85 -1426 1427 0
-1427 1452 0
-86 -1427 0
-62 1428 0
-1428 1453 0
-63 -1428 1429 0
-1429 1454 0
-64 -1429 1430 0
-1430 1455 0
-65 -1430 1431 0
-1431 1456 0
-66 -1431 1432 0
-1432 1457 0
-67 -1432 1433 0
-1433 1458 0
-68 -1433 1434 0
-1434 1459 0
-69 -1434 1435 0
-1435 1460 0
-70 -1435 1436 0
-1436 1461 0
-71 -1436 1437 0
-1437 1462 0
-72 -1437 1438 0
-1438 1463 0
-73 -1438 1439 0
-1439 1464 0
-74 -1439 1440 0
-1440 1465 0
-75 -1440 1441 0
-1441 1466 0
-76 -1441 1442 0
-1442 1467 0
-77 -1442 1443 0
-1443 1468 0
-78 -1443 1444 0
-1444 1469 0
-79 -1444 1445 0
-1445 1470 0
-80 -1445 1446 0
-1446 1471 0
-81 -1446 1447 0
-1447 1472 0
-82 -1447 1448 0
-1448 1473 0
-83 -1448 1449 0
-1449 1474 0
-84 -1449 1450 0
-1450 1475 0
-85 -1450 1451 0
-1451 1476 0
-86 -1451 1452 0
-1452 1477 0
-87 -1452 0
-63 1453 0
-1453 1478 0
-64 -1453 1454 0
-1454 1479 0
-65 -1454 1455 0
-1455 1480 0
-66 -1455 1456 0
-1456 1481 0
-67 -1456 1457 0
-1457 1482 0
-68 -1457 1458 0
-1458 1483 0
-69 -1458 1459 0
-1459 1484 0
-70 -1459 1460 0
-1460 1485 0
-71 -1460 1461 0
-1461 1486 0
-72 -1461 1462 0
-1462 1487 0
-73 -1462 1463 0
-1463 1488 0
-74 -1463 1464 0
-1464 1489 0
-75 -1464 1465 0
-1465 1490 0
-76 -1465 1466 0
-1466 1491 0
-77 -1466 1467 0
-1467 1492 0
-78 -1467 1468 0
-1468 1493 0
-79 -1468 1469 0
-1469 1494 0
-80 -1469 1470 0
-1470 1495 0
-81 -1470 1471 0
-1471 1496 0
-82 -1471 1472 0
-1472 1497 0
-83 -1472 1473 0
-1473 1498 0
-84 -1473 1474 0
-1474 1499 0
-85 -1474 1475 0
-1475 1500 0
-86 -1475 1476 0
-1476 1501 0
-87 -1476 1477 0
-1477 1502 0
-88 -1477 0
-64 1478 0
-1478 1503 0
-65 -1478 1479 0
-1479 1504 0
-66 -1479 1480 0
-1480 1505 0
-67 -1480 1481 0
-1481 1506 0
-68 -1481 1482 0
-1482 1507 0
-69 -1482 1483 0
-1483 1508 0
-70 -1483 1484 0
-1484 1509 0
-71 -1484 1485 0
-1485 1510 0
-72 -1485 1486 0
-1486 1511 0
-73 -1486 1487 0
-1487 1512 0
-74 -1487 1488 0
-1488 1513 0
-75 -1488 1489 0
-1489 1514 0
-76 -1489 1490 0
-1490 1515 0
-77 -1490 1491 0
-1491 1516 0
-78 -1491 1492 0
-1492 1517 0
-79 -1492 1493 0
-1493 1518 0
-80 -1493 1494 0
-1494 1519 0
-81 -1494 1495 0
-1495 1520 0
-82 -1495 1496 0
-1496 1521 0
-83 -1496 1497 0
-1497 1522 0
-84 -1497 1498 0
-1498 1523 0
-85 -1498 1499 0
-1499 1524 0
-86 -1499 1500 0
-1500 1525 0
-87 -1500 1501 0
-1501 1526 0
-88 -1501 1502 0
-1502 1527 0
-89 -1502 0
-65 1503 0
-1503 1528 0
-66 -1503 1504 0
-1504 1529 0
-67 -1504 1505 0
-1505 1530 0
-68 -1505 1506 0
-1506 1531 0
-69 -1506 1507 0
-1507 1532 0
-70 -1507 1508 0
-1508 1533 0
-71 -1508 1509 0
-1509 1534 0
-72 -1509 1510 0
-1510 1535 0
-73 -1510 1511 0
-1511 1536 0
-74 -1511 1512 0
-1512 1537 0
-75 -1512 1513 0
-1513 1538 0
-76 -1513 1514 0
-1514 1539 0
-77 -1514 1515 0
-1515 1540 0
-78 -1515 1516 0
-1516 1541 0
-79 -1516 1517 0
-1517 1542 0
-80 -1517 1518 0
-1518 1543 0
-81 -1518 1519 0
-1519 1544 0
-82 -1519 1520 0
-1520 1545 0
-83 -1520 1521 0
-1521 1546 0
-84 -1521 1522 0
-1522 1547 0
-85 -1522 1523 0
-1523 1548 0
-86 -1523 1524 0
-1524 1549 0
-87 -1524 1525 0
-1525 1550 0
-88 -1525 1526 0
-1526 1551 0
-89 -1526 1527 0
-1527 1552 0
-90 -1527 0
-66 1528 0
-1528 1553 0
-67 -1528 1529 0
-1529 1554 0
-68 -1529 1530 0
-1530 1555 0
-69 -1530 1531 0
-1531 1556 0
-70 -1531 1532 0
-1532 1557 0
-71 -1532 1533 0
-1533 1558 0
-72 -1533 1534 0
-1534 1559 0
-73 -1534 1535 0
-1535 1560 0
-74 -1535 1536 0
-1536 1561 0
-75 -1536 1537 0
-1537 1562 0
-76 -1537 1538 0
-1538 1563 0
-77 -1538 1539 0
-1539 1564 0
-78 -1539 1540 0
-1540 1565 0
-79 -1540 1541 0
-1541 1566 0
-80 -1541 1542 0
-1542 1567 0
-81 -1542 1543 0
-1543 1568 0
-82 -1543 1544 0
-1544 1569 0
-83 -1544 1545 0
-1545 1570 0
-84 -1545 1546 0
-1546 1571 0
-85 -1546 1547 0
-1547 1572 0
-86 -1547 1548 0
-1548 1573 0
-87 -1548 1549 0
-1549 1574 0
-88 -1549 1550 0
-1550 1575 0
-89 -1550 1551 0
-1551 1576 0
-90 -1551 1552 0
-1552 1577 0
-91 -1552 0
-67 1553 0
-68 -1553 1554 0
-69 -1554 1555 0
-70 -1555 1556 0
-71 -1556 1557 0
-72 -1557 1558 0
-73 -1558 1559 0
-74 -1559 1560 0
-75 -1560 1561 0
-76 -1561 1562 0
-77 -1562 1563 0
-78 -1563 1564 0
-79 -1564 1565 0
-80 -1565 1566 0
-81 -1566 1567 0
-82 -1567 1568 0
-83 -1568 1569 0
-84 -1569 1570 0
-85 -1570 1571 0
-86 -1571 1572 0
-87 -1572 1573 0
-88 -1573 1574 0
-89 -1574 1575 0
-90 -1575 1576 0
-91 -1576 1577 0
-92 -1577 0
1 24 0
