p cnf 2417 4957
-71 -1 0
-71 2 35 36 0
-2 1 71 0
-35 1 71 0
-36 1 71 0
-72 -2 0
-72 1 3 37 0
-1 2 72 0
-3 2 72 0
-37 2 72 0
-73 -3 0
-73 2 4 38 0
-2 3 73 0
-4 3 73 0
-38 3 73 0
-74 -4 0
-74 3 5 39 0
-3 4 74 0
-5 4 74 0
-39 4 74 0
-75 -5 0
-75 4 6 40 0
-4 5 75 0
-6 5 75 0
-40 5 75 0
-76 -6 0
-76 5 7 41 0
-5 6 76 0
-7 6 76 0
-41 6 76 0
-77 -7 0
-77 6 8 42 0
-6 7 77 0
-8 7 77 0
-42 7 77 0
-78 -8 0
-78 7 9 43 0
-7 8 78 0
-9 8 78 0
-43 8 78 0
-79 -9 0
-79 8 10 44 0
-8 9 79 0
-10 9 79 0
-44 9 79 0
-80 -10 0
-80 9 11 45 0
-9 10 80 0
-11 10 80 0
-45 10 80 0
-81 -11 0
-81 10 12 46 0
-10 11 81 0
-12 11 81 0
-46 11 81 0
-82 -12 0
-82 11 13 47 0
-11 12 82 0
-13 12 82 0
-47 12 82 0
-83 -13 0
-83 12 14 48 0
-12 13 83 0
-14 13 83 0
-48 13 83 0
-84 -14 0
-84 13 15 49 0
-13 14 84 0
-15 14 84 0
-49 14 84 0
-85 -15 0
-85 14 16 50 0
-14 15 85 0
-16 15 85 0
-50 15 85 0
-86 -16 0
-86 15 17 51 0
-15 16 86 0
-17 16 86 0
-51 16 86 0
-87 -17 0
-87 16 18 52 0
-16 17 87 0
-18 17 87 0
-52 17 87 0
-88 -18 0
-88 17 19 53 0
-17 18 88 0
-19 18 88 0
-53 18 88 0
-89 -19 0
-89 18 20 54 0
-18 19 89 0
-20 19 89 0
-54 19 89 0
-90 -20 0
-90 19 21 55 0
-19 20 90 0
-21 20 90 0
-55 20 90 0
-91 -21 0
-91 20 22 56 0
-20 21 91 0
-22 21 91 0
-56 21 91 0
-92 -22 0
-92 21 23 57 0
-21 22 92 0
-23 22 92 0
-57 22 92 0
-93 -23 0
-93 22 24 58 0
-22 23 93 0
-24 23 93 0
-58 23 93 0
-94 -24 0
-94 23 25 59 0
-23 24 94 0
-25 24 94 0
-59 24 94 0
-95 -25 0
-95 24 26 60 0
-24 25 95 0
-26 25 95 0
-60 25 95 0
-96 -26 0
-96 25 27 61 0
-25 26 96 0
-27 26 96 0
-61 26 96 0
-97 -27 0
-97 26 28 62 0
-26 27 97 0
-28 27 97 0
-62 27 97 0
-98 -28 0
-98 27 29 63 0
-27 28 98 0
-29 28 98 0
-63 28 98 0
-99 -29 0
-99 28 30 64 0
-28 29 99 0
-30 29 99 0
-64 29 99 0
-100 -30 0
-100 29 31 65 0
-29 30 100 0
-31 30 100 0
-65 30 100 0
-101 -31 0
-101 30 32 66 0
-30 31 101 0
-32 31 101 0
-66 31 101 0
-102 -32 0
-102 31 33 67 0
-31 32 102 0
-33 32 102 0
-67 32 102 0
-103 -33 0
-103 32 34 68 0
-32 33 103 0
-34 33 103 0
-68 33 103 0
-104 -34 0
-104 33 35 69 0
-33 34 104 0
-35 34 104 0
-69 34 104 0
-105 -35 0
-105 1 34 70 0
-1 35 105 0
-34 35 105 0
-70 35 105 0
-106 -36 0
-106 1 40 67 0
-1 36 106 0
-40 36 106 0
-67 36 106 0
-107 -37 0
-107 2 41 68 0
-2 37 107 0
-41 37 107 0
-68 37 107 0
-108 -38 0
-108 3 42 69 0
-3 38 108 0
-42 38 108 0
-69 38 108 0
-109 -39 0
-109 4 43 70 0
-4 39 109 0
-43 39 109 0
-70 39 109 0
-110 -40 0
-110 5 36 44 0
-5 40 110 0
-36 40 110 0
-44 40 110 0
-111 -41 0
-111 6 37 45 0
-6 41 111 0
-37 41 111 0
-45 41 111 0
-112 -42 0
-112 7 38 46 0
-7 42 112 0
-38 42 112 0
-46 42 112 0
-113 -43 0
-113 8 39 47 0
-8 43 113 0
-39 43 113 0
-47 43 113 0
-114 -44 0
-114 9 40 48 0
-9 44 114 0
-40 44 114 0
-48 44 114 0
-115 -45 0
-115 10 41 49 0
-10 45 115 0
-41 45 115 0
-49 45 115 0
-116 -46 0
-116 11 42 50 0
-11 46 116 0
-42 46 116 0
-50 46 116 0
-117 -47 0
-117 12 43 51 0
-12 47 117 0
-43 47 117 0
-51 47 117 0
-118 -48 0
-118 13 44 52 0
-13 48 118 0
-44 48 118 0
-52 48 118 0
-119 -49 0
-119 14 45 53 0
-14 49 119 0
-45 49 119 0
-53 49 119 0
-120 -50 0
-120 15 46 54 0
-15 50 120 0
-46 50 120 0
-54 50 120 0
-121 -51 0
-121 16 47 55 0
-16 51 121 0
-47 51 121 0
-55 51 121 0
-122 -52 0
-122 17 48 56 0
-17 52 122 0
-48 52 122 0
-56 52 122 0
-123 -53 0
-123 18 49 57 0
-18 53 123 0
-49 53 123 0
-57 53 123 0
-124 -54 0
-124 19 50 58 0
-19 54 124 0
-50 54 124 0
-58 54 124 0
-125 -55 0
-125 20 51 59 0
-20 55 125 0
-51 55 125 0
-59 55 125 0
-126 -56 0
-126 21 52 60 0
-21 56 126 0
-52 56 126 0
-60 56 126 0
-127 -57 0
-127 22 53 61 0
-22 57 127 0
-53 57 127 0
-61 57 127 0
-128 -58 0
-128 23 54 62 0
-23 58 128 0
-54 58 128 0
-62 58 128 0
-129 -59 0
-129 24 55 63 0
-24 59 129 0
-55 59 129 0
-63 59 129 0
-130 -60 0
-130 25 56 64 0
-25 60 130 0
-56 60 130 0
-64 60 130 0
-131 -61 0
-131 26 57 65 0
-26 61 131 0
-57 61 131 0
-65 61 131 0
-132 -62 0
-132 27 58 66 0
-27 62 132 0
-58 62 132 0
-66 62 132 0
-133 -63 0
-133 28 59 67 0
-28 63 133 0
-59 63 133 0
-67 63 133 0
-134 -64 0
-134 29 60 68 0
-29 64 134 0
-60 64 134 0
-68 64 134 0
-135 -65 0
-135 30 61 69 0
-30 65 135 0
-61 65 135 0
-69 65 135 0
-136 -66 0
-136 31 62 70 0
-31 66 136 0
-62 66 136 0
-70 66 136 0
-137 -67 0
-137 32 36 63 0
-32 67 137 0
-36 67 137 0
-63 67 137 0
-138 -68 0
-138 33 37 64 0
-33 68 138 0
-37 68 138 0
-64 68 138 0
-139 -69 0
-139 34 38 65 0
-34 69 139 0
-38 69 139 0
-65 69 139 0
-140 -70 0
-140 35 39 66 0
-35 70 140 0
-39 70 140 0
-66 70 140 0
1 141 0
-141 142 0
2 -141 143 0
-143 144 0
3 -143 145 0
-145 146 0
4 -145 147 0
-147 148 0
5 -147 149 0
-149 150 0
6 -149 151 0
-151 152 0
7 -151 153 0
-153 154 0
8 -153 155 0
-155 156 0
9 -155 157 0
-157 158 0
10 -157 159 0
-159 160 0
11 -159 161 0
-161 162 0
12 -161 163 0
-163 164 0
13 -163 165 0
-165 166 0
14 -165 167 0
-167 168 0
15 -167 169 0
-169 170 0
16 -169 171 0
-171 172 0
17 -171 173 0
-173 174 0
18 -173 175 0
-175 176 0
19 -175 177 0
-177 178 0
20 -177 179 0
-179 180 0
21 -179 181 0
-181 182 0
22 -181 183 0
-183 184 0
23 -183 185 0
-185 186 0
24 -185 187 0
-187 188 0
25 -187 189 0
-189 190 0
26 -189 191 0
-191 192 0
27 -191 193 0
-193 194 0
28 -193 195 0
-195 196 0
29 -195 197 0
-197 198 0
30 -197 199 0
-199 200 0
31 -199 201 0
-201 202 0
32 -201 203 0
-203 204 0
33 -203 205 0
-205 206 0
34 -205 207 0
-207 208 0
35 -207 209 0
-209 210 0
36 -209 211 0
-211 212 0
37 -211 213 0
-213 214 0
38 -213 215 0
-215 216 0
39 -215 217 0
-217 218 0
40 -217 219 0
-219 220 0
41 -219 221 0
-221 222 0
42 -221 223 0
-223 224 0
43 -223 225 0
-225 226 0
44 -225 227 0
-227 228 0
45 -227 229 0
-229 230 0
46 -229 231 0
-231 232 0
47 -231 233 0
-233 234 0
48 -233 235 0
-235 236 0
49 -235 237 0
-237 238 0
50 -237 239 0
-239 240 0
51 -239 241 0
-241 242 0
52 -241 243 0
-243 244 0
53 -243 245 0
-245 246 0
54 -245 247 0
-247 248 0
55 -247 0
2 142 0
-142 249 0
3 -142 144 0
-144 250 0
4 -144 146 0
-146 251 0
5 -146 148 0
-148 252 0
6 -148 150 0
-150 253 0
7 -150 152 0
-152 254 0
8 -152 154 0
-154 255 0
9 -154 156 0
-156 256 0
10 -156 158 0
-158 257 0
11 -158 160 0
-160 258 0
12 -160 162 0
-162 259 0
13 -162 164 0
-164 260 0
14 -164 166 0
-166 261 0
15 -166 168 0
-168 262 0
16 -168 170 0
-170 263 0
17 -170 172 0
-172 264 0
18 -172 174 0
-174 265 0
19 -174 176 0
-176 266 0
20 -176 178 0
-178 267 0
21 -178 180 0
-180 268 0
22 -180 182 0
-182 269 0
23 -182 184 0
-184 270 0
24 -184 186 0
-186 271 0
25 -186 188 0
-188 272 0
26 -188 190 0
-190 273 0
27 -190 192 0
-192 274 0
28 -192 194 0
-194 275 0
29 -194 196 0
-196 276 0
30 -196 198 0
-198 277 0
31 -198 200 0
-200 278 0
32 -200 202 0
-202 279 0
33 -202 204 0
-204 280 0
34 -204 206 0
-206 281 0
35 -206 208 0
-208 282 0
36 -208 210 0
-210 283 0
37 -210 212 0
-212 284 0
38 -212 214 0
-214 285 0
39 -214 216 0
-216 286 0
40 -216 218 0
-218 287 0
41 -218 220 0
-220 288 0
42 -220 222 0
-222 289 0
43 -222 224 0
-224 290 0
44 -224 226 0
-226 291 0
45 -226 228 0
-228 292 0
46 -228 230 0
-230 293 0
47 -230 232 0
-232 294 0
48 -232 234 0
-234 295 0
49 -234 236 0
-236 296 0
50 -236 238 0
-238 297 0
51 -238 240 0
-240 298 0
52 -240 242 0
-242 299 0
53 -242 244 0
-244 300 0
54 -244 246 0
-246 301 0
55 -246 248 0
-248 302 0
56 -248 0
3 249 0
-249 303 0
4 -249 250 0
-250 304 0
5 -250 251 0
-251 305 0
6 -251 252 0
-252 306 0
7 -252 253 0
-253 307 0
8 -253 254 0
-254 308 0
9 -254 255 0
-255 309 0
10 -255 256 0
-256 310 0
11 -256 257 0
-257 311 0
12 -257 258 0
-258 312 0
13 -258 259 0
-259 313 0
14 -259 260 0
-260 314 0
15 -260 261 0
-261 315 0
16 -261 262 0
-262 316 0
17 -262 263 0
-263 317 0
18 -263 264 0
-264 318 0
19 -264 265 0
-265 319 0
20 -265 266 0
-266 320 0
21 -266 267 0
-267 321 0
22 -267 268 0
-268 322 0
23 -268 269 0
-269 323 0
24 -269 270 0
-270 324 0
25 -270 271 0
-271 325 0
26 -271 272 0
-272 326 0
27 -272 273 0
-273 327 0
28 -273 274 0
-274 328 0
29 -274 275 0
-275 329 0
30 -275 276 0
-276 330 0
31 -276 277 0
-277 331 0
32 -277 278 0
-278 332 0
33 -278 279 0
-279 333 0
34 -279 280 0
-280 334 0
35 -280 281 0
-281 335 0
36 -281 282 0
-282 336 0
37 -282 283 0
-283 337 0
38 -283 284 0
-284 338 0
39 -284 285 0
-285 339 0
40 -285 286 0
-286 340 0
41 -286 287 0
-287 341 0
42 -287 288 0
-288 342 0
43 -288 289 0
-289 343 0
44 -289 290 0
-290 344 0
45 -290 291 0
-291 345 0
46 -291 292 0
-292 346 0
47 -292 293 0
-293 347 0
48 -293 294 0
-294 348 0
49 -294 295 0
-295 349 0
50 -295 296 0
-296 350 0
51 -296 297 0
-297 351 0
52 -297 298 0
-298 352 0
53 -298 299 0
-299 353 0
54 -299 300 0
-300 354 0
55 -300 301 0
-301 355 0
56 -301 302 0
-302 356 0
57 -302 0
4 303 0
-303 357 0
5 -303 304 0
-304 358 0
6 -304 305 0
-305 359 0
7 -305 306 0
-306 360 0
8 -306 307 0
-307 361 0
9 -307 308 0
-308 362 0
10 -308 309 0
-309 363 0
11 -309 310 0
-310 364 0
12 -310 311 0
-311 365 0
13 -311 312 0
-312 366 0
14 -312 313 0
-313 367 0
15 -313 314 0
-314 368 0
16 -314 315 0
-315 369 0
17 -315 316 0
-316 370 0
18 -316 317 0
-317 371 0
19 -317 318 0
-318 372 0
20 -318 319 0
-319 373 0
21 -319 320 0
-320 374 0
22 -320 321 0
-321 375 0
23 -321 322 0
-322 376 0
24 -322 323 0
-323 377 0
25 -323 324 0
-324 378 0
26 -324 325 0
-325 379 0
27 -325 326 0
-326 380 0
28 -326 327 0
-327 381 0
29 -327 328 0
-328 382 0
30 -328 329 0
-329 383 0
31 -329 330 0
-330 384 0
32 -330 331 0
-331 385 0
33 -331 332 0
-332 386 0
34 -332 333 0
-333 387 0
35 -333 334 0
-334 388 0
36 -334 335 0
-335 389 0
37 -335 336 0
-336 390 0
38 -336 337 0
-337 391 0
39 -337 338 0
-338 392 0
40 -338 339 0
-339 393 0
41 -339 340 0
-340 394 0
42 -340 341 0
-341 395 0
43 -341 342 0
-342 396 0
44 -342 343 0
-343 397 0
45 -343 344 0
-344 398 0
46 -344 345 0
-345 399 0
47 -345 346 0
-346 400 0
48 -346 347 0
-347 401 0
49 -347 348 0
-348 402 0
50 -348 349 0
-349 403 0
51 -349 350 0
-350 404 0
52 -350 351 0
-351 405 0
53 -351 352 0
-352 406 0
54 -352 353 0
-353 407 0
55 -353 354 0
-354 408 0
56 -354 355 0
-355 409 0
57 -355 356 0
-356 410 0
58 -356 0
5 357 0
-357 411 0
6 -357 358 0
-358 412 0
7 -358 359 0
-359 413 0
8 -359 360 0
-360 414 0
9 -360 361 0
-361 415 0
10 -361 362 0
-362 416 0
11 -362 363 0
-363 417 0
12 -363 364 0
-364 418 0
13 -364 365 0
-365 419 0
14 -365 366 0
-366 420 0
15 -366 367 0
-367 421 0
16 -367 368 0
-368 422 0
17 -368 369 0
-369 423 0
18 -369 370 0
-370 424 0
19 -370 371 0
-371 425 0
20 -371 372 0
-372 426 0
21 -372 373 0
-373 427 0
22 -373 374 0
-374 428 0
23 -374 375 0
-375 429 0
24 -375 376 0
-376 430 0
25 -376 377 0
-377 431 0
26 -377 378 0
-378 432 0
27 -378 379 0
-379 433 0
28 -379 380 0
-380 434 0
29 -380 381 0
-381 435 0
30 -381 382 0
-382 436 0
31 -382 383 0
-383 437 0
32 -383 384 0
-384 438 0
33 -384 385 0
-385 439 0
34 -385 386 0
-386 440 0
35 -386 387 0
-387 441 0
36 -387 388 0
-388 442 0
37 -388 389 0
-389 443 0
38 -389 390 0
-390 444 0
39 -390 391 0
-391 445 0
40 -391 392 0
-392 446 0
41 -392 393 0
-393 447 0
42 -393 394 0
-394 448 0
43 -394 395 0
-395 449 0
44 -395 396 0
-396 450 0
45 -396 397 0
-397 451 0
46 -397 398 0
-398 452 0
47 -398 399 0
-399 453 0
48 -399 400 0
-400 454 0
49 -400 401 0
-401 455 0
50 -401 402 0
-402 456 0
51 -402 403 0
-403 457 0
52 -403 404 0
-404 458 0
53 -404 405 0
-405 459 0
54 -405 406 0
-406 460 0
55 -406 407 0
-407 461 0
56 -407 408 0
-408 462 0
57 -408 409 0
-409 463 0
58 -409 410 0
-410 464 0
59 -410 0
6 411 0
-411 465 0
7 -411 412 0
-412 466 0
8 -412 413 0
-413 467 0
9 -413 414 0
-414 468 0
10 -414 415 0
-415 469 0
11 -415 416 0
-416 470 0
12 -416 417 0
-417 471 0
13 -417 418 0
-418 472 0
14 -418 419 0
-419 473 0
15 -419 420 0
-420 474 0
16 -420 421 0
-421 475 0
17 -421 422 0
-422 476 0
18 -422 423 0
-423 477 0
19 -423 424 0
-424 478 0
20 -424 425 0
-425 479 0
21 -425 426 0
-426 480 0
22 -426 427 0
-427 481 0
23 -427 428 0
-428 482 0
24 -428 429 0
-429 483 0
25 -429 430 0
-430 484 0
26 -430 431 0
-431 485 0
27 -431 432 0
-432 486 0
28 -432 433 0
-433 487 0
29 -433 434 0
-434 488 0
30 -434 435 0
-435 489 0
31 -435 436 0
-436 490 0
32 -436 437 0
-437 491 0
33 -437 438 0
-438 492 0
34 -438 439 0
-439 493 0
35 -439 440 0
-440 494 0
36 -440 441 0
-441 495 0
37 -441 442 0
-442 496 0
38 -442 443 0
-443 497 0
39 -443 444 0
-444 498 0
40 -444 445 0
-445 499 0
41 -445 446 0
-446 500 0
42 -446 447 0
-447 501 0
43 -447 448 0
-448 502 0
44 -448 449 0
-449 503 0
45 -449 450 0
-450 504 0
46 -450 451 0
-451 505 0
47 -451 452 0
-452 506 0
48 -452 453 0
-453 507 0
49 -453 454 0
-454 508 0
50 -454 455 0
-455 509 0
51 -455 456 0
-456 510 0
52 -456 457 0
-457 511 0
53 -457 458 0
-458 512 0
54 -458 459 0
-459 513 0
55 -459 460 0
-460 514 0
56 -460 461 0
-461 515 0
57 -461 462 0
-462 516 0
58 -462 463 0
-463 517 0
59 -463 464 0
-464 518 0
60 -464 0
7 465 0
-465 519 0
8 -465 466 0
-466 520 0
9 -466 467 0
-467 521 0
10 -467 468 0
-468 522 0
11 -468 469 0
-469 523 0
12 -469 470 0
-470 524 0
13 -470 471 0
-471 525 0
14 -471 472 0
-472 526 0
15 -472 473 0
-473 527 0
16 -473 474 0
-474 528 0
17 -474 475 0
-475 529 0
18 -475 476 0
-476 530 0
19 -476 477 0
-477 531 0
20 -477 478 0
-478 532 0
21 -478 479 0
-479 533 0
22 -479 480 0
-480 534 0
23 -480 481 0
-481 535 0
24 -481 482 0
-482 536 0
25 -482 483 0
-483 537 0
26 -483 484 0
-484 538 0
27 -484 485 0
-485 539 0
28 -485 486 0
-486 540 0
29 -486 487 0
-487 541 0
30 -487 488 0
-488 542 0
31 -488 489 0
-489 543 0
32 -489 490 0
-490 544 0
33 -490 491 0
-491 545 0
34 -491 492 0
-492 546 0
35 -492 493 0
-493 547 0
36 -493 494 0
-494 548 0
37 -494 495 0
-495 549 0
38 -495 496 0
-496 550 0
39 -496 497 0
-497 551 0
40 -497 498 0
-498 552 0
41 -498 499 0
-499 553 0
42 -499 500 0
-500 554 0
43 -500 501 0
-501 555 0
44 -501 502 0
-502 556 0
45 -502 503 0
-503 557 0
46 -503 504 0
-504 558 0
47 -504 505 0
-505 559 0
48 -505 506 0
-506 560 0
49 -506 507 0
-507 561 0
50 -507 508 0
-508 562 0
51 -508 509 0
-509 563 0
52 -509 510 0
-510 564 0
53 -510 511 0
-511 565 0
54 -511 512 0
-512 566 0
55 -512 513 0
-513 567 0
56 -513 514 0
-514 568 0
57 -514 515 0
-515 569 0
58 -515 516 0
-516 570 0
59 -516 517 0
-517 571 0
60 -517 518 0
-518 572 0
61 -518 0
8 519 0
-519 573 0
9 -519 520 0
-520 574 0
10 -520 521 0
-521 575 0
11 -521 522 0
-522 576 0
12 -522 523 0
-523 577 0
13 -523 524 0
-524 578 0
14 -524 525 0
-525 579 0
15 -525 526 0
-526 580 0
16 -526 527 0
-527 581 0
17 -527 528 0
-528 582 0
18 -528 529 0
-529 583 0
19 -529 530 0
-530 584 0
20 -530 531 0
-531 585 0
21 -531 532 0
-532 586 0
22 -532 533 0
-533 587 0
23 -533 534 0
-534 588 0
24 -534 535 0
-535 589 0
25 -535 536 0
-536 590 0
26 -536 537 0
-537 591 0
27 -537 538 0
-538 592 0
28 -538 539 0
-539 593 0
29 -539 540 0
-540 594 0
30 -540 541 0
-541 595 0
31 -541 542 0
-542 596 0
32 -542 543 0
-543 597 0
33 -543 544 0
-544 598 0
34 -544 545 0
-545 599 0
35 -545 546 0
-546 600 0
36 -546 547 0
-547 601 0
37 -547 548 0
-548 602 0
38 -548 549 0
-549 603 0
39 -549 550 0
-550 604 0
40 -550 551 0
-551 605 0
41 -551 552 0
-552 606 0
42 -552 553 0
-553 607 0
43 -553 554 0
-554 608 0
44 -554 555 0
-555 609 0
45 -555 556 0
-556 610 0
46 -556 557 0
-557 611 0
47 -557 558 0
-558 612 0
48 -558 559 0
-559 613 0
49 -559 560 0
-560 614 0
50 -560 561 0
-561 615 0
51 -561 562 0
-562 616 0
52 -562 563 0
-563 617 0
53 -563 564 0
-564 618 0
54 -564 565 0
-565 619 0
55 -565 566 0
-566 620 0
56 -566 567 0
-567 621 0
57 -567 568 0
-568 622 0
58 -568 569 0
-569 623 0
59 -569 570 0
-570 624 0
60 -570 571 0
-571 625 0
61 -571 572 0
-572 626 0
62 -572 0
9 573 0
-573 627 0
10 -573 574 0
-574 628 0
11 -574 575 0
-575 629 0
12 -575 576 0
-576 630 0
13 -576 577 0
-577 631 0
14 -577 578 0
-578 632 0
15 -578 579 0
-579 633 0
16 -579 580 0
-580 634 0
17 -580 581 0
-581 635 0
18 -581 582 0
-582 636 0
19 -582 583 0
-583 637 0
20 -583 584 0
-584 638 0
21 -584 585 0
-585 639 0
22 -585 586 0
-586 640 0
23 -586 587 0
-587 641 0
24 -587 588 0
-588 642 0
25 -588 589 0
-589 643 0
26 -589 590 0
-590 644 0
27 -590 591 0
-591 645 0
28 -591 592 0
-592 646 0
29 -592 593 0
-593 647 0
30 -593 594 0
-594 648 0
31 -594 595 0
-595 649 0
32 -595 596 0
-596 650 0
33 -596 597 0
-597 651 0
34 -597 598 0
-598 652 0
35 -598 599 0
-599 653 0
36 -599 600 0
-600 654 0
37 -600 601 0
-601 655 0
38 -601 602 0
-602 656 0
39 -602 603 0
-603 657 0
40 -603 604 0
-604 658 0
41 -604 605 0
-605 659 0
42 -605 606 0
-606 660 0
43 -606 607 0
-607 661 0
44 -607 608 0
-608 662 0
45 -608 609 0
-609 663 0
46 -609 610 0
-610 664 0
47 -610 611 0
-611 665 0
48 -611 612 0
-612 666 0
49 -612 613 0
-613 667 0
50 -613 614 0
-614 668 0
51 -614 615 0
-615 669 0
52 -615 616 0
-616 670 0
53 -616 617 0
-617 671 0
54 -617 618 0
-618 672 0
55 -618 619 0
-619 673 0
56 -619 620 0
-620 674 0
57 -620 621 0
-621 675 0
58 -621 622 0
-622 676 0
59 -622 623 0
-623 677 0
60 -623 624 0
-624 678 0
61 -624 625 0
-625 679 0
62 -625 626 0
-626 680 0
63 -626 0
10 627 0
-627 681 0
11 -627 628 0
-628 682 0
12 -628 629 0
-629 683 0
13 -629 630 0
-630 684 0
14 -630 631 0
-631 685 0
15 -631 632 0
-632 686 0
16 -632 633 0
-633 687 0
17 -633 634 0
-634 688 0
18 -634 635 0
-635 689 0
19 -635 636 0
-636 690 0
20 -636 637 0
-637 691 0
21 -637 638 0
-638 692 0
22 -638 639 0
-639 693 0
23 -639 640 0
-640 694 0
24 -640 641 0
-641 695 0
25 -641 642 0
-642 696 0
26 -642 643 0
-643 697 0
27 -643 644 0
-644 698 0
28 -644 645 0
-645 699 0
29 -645 646 0
-646 700 0
30 -646 647 0
-647 701 0
31 -647 648 0
-648 702 0
32 -648 649 0
-649 703 0
33 -649 650 0
-650 704 0
34 -650 651 0
-651 705 0
35 -651 652 0
-652 706 0
36 -652 653 0
-653 707 0
37 -653 654 0
-654 708 0
38 -654 655 0
-655 709 0
39 -655 656 0
-656 710 0
40 -656 657 0
-657 711 0
41 -657 658 0
-658 712 0
42 -658 659 0
-659 713 0
43 -659 660 0
-660 714 0
44 -660 661 0
-661 715 0
45 -661 662 0
-662 716 0
46 -662 663 0
-663 717 0
47 -663 664 0
-664 718 0
48 -664 665 0
-665 719 0
49 -665 666 0
-666 720 0
50 -666 667 0
-667 721 0
51 -667 668 0
-668 722 0
52 -668 669 0
-669 723 0
53 -669 670 0
-670 724 0
54 -670 671 0
-671 725 0
55 -671 672 0
-672 726 0
56 -672 673 0
-673 727 0
57 -673 674 0
-674 728 0
58 -674 675 0
-675 729 0
59 -675 676 0
-676 730 0
60 -676 677 0
-677 731 0
61 -677 678 0
-678 732 0
62 -678 679 0
-679 733 0
63 -679 680 0
-680 734 0
64 -680 0
11 681 0
-681 735 0
12 -681 682 0
-682 736 0
13 -682 683 0
-683 737 0
14 -683 684 0
-684 738 0
15 -684 685 0
-685 739 0
16 -685 686 0
-686 740 0
17 -686 687 0
-687 741 0
18 -687 688 0
-688 742 0
19 -688 689 0
-689 743 0
20 -689 690 0
-690 744 0
21 -690 691 0
-691 745 0
22 -691 692 0
-692 746 0
23 -692 693 0
-693 747 0
24 -693 694 0
-694 748 0
25 -694 695 0
-695 749 0
26 -695 696 0
-696 750 0
27 -696 697 0
-697 751 0
28 -697 698 0
-698 752 0
29 -698 699 0
-699 753 0
30 -699 700 0
-700 754 0
31 -700 701 0
-701 755 0
32 -701 702 0
-702 756 0
33 -702 703 0
-703 757 0
34 -703 704 0
-704 758 0
35 -704 705 0
-705 759 0
36 -705 706 0
-706 760 0
37 -706 707 0
-707 761 0
38 -707 708 0
-708 762 0
39 -708 709 0
-709 763 0
40 -709 710 0
-710 764 0
41 -710 711 0
-711 765 0
42 -711 712 0
-712 766 0
43 -712 713 0
-713 767 0
44 -713 714 0
-714 768 0
45 -714 715 0
-715 769 0
46 -715 716 0
-716 770 0
47 -716 717 0
-717 771 0
48 -717 718 0
-718 772 0
49 -718 719 0
-719 773 0
50 -719 720 0
-720 774 0
51 -720 721 0
-721 775 0
52 -721 722 0
-722 776 0
53 -722 723 0
-723 777 0
54 -723 724 0
-724 778 0
55 -724 725 0
-725 779 0
56 -725 726 0
-726 780 0
57 -726 727 0
-727 781 0
58 -727 728 0
-728 782 0
59 -728 729 0
-729 783 0
60 -729 730 0
-730 784 0
61 -730 731 0
-731 785 0
62 -731 732 0
-732 786 0
63 -732 733 0
-733 787 0
64 -733 734 0
-734 788 0
65 -734 0
12 735 0
-735 789 0
13 -735 736 0
-736 790 0
14 -736 737 0
-737 791 0
15 -737 738 0
-738 792 0
16 -738 739 0
-739 793 0
17 -739 740 0
-740 794 0
18 -740 741 0
-741 795 0
19 -741 742 0
-742 796 0
20 -742 743 0
-743 797 0
21 -743 744 0
-744 798 0
22 -744 745 0
-745 799 0
23 -745 746 0
-746 800 0
24 -746 747 0
-747 801 0
25 -747 748 0
-748 802 0
26 -748 749 0
-749 803 0
27 -749 750 0
-750 804 0
28 -750 751 0
-751 805 0
29 -751 752 0
-752 806 0
30 -752 753 0
-753 807 0
31 -753 754 0
-754 808 0
32 -754 755 0
-755 809 0
33 -755 756 0
-756 810 0
34 -756 757 0
-757 811 0
35 -757 758 0
-758 812 0
36 -758 759 0
-759 813 0
37 -759 760 0
-760 814 0
38 -760 761 0
-761 815 0
39 -761 762 0
-762 816 0
40 -762 763 0
-763 817 0
41 -763 764 0
-764 818 0
42 -764 765 0
-765 819 0
43 -765 766 0
-766 820 0
44 -766 767 0
-767 821 0
45 -767 768 0
-768 822 0
46 -768 769 0
-769 823 0
47 -769 770 0
-770 824 0
48 -770 771 0
-771 825 0
49 -771 772 0
-772 826 0
50 -772 773 0
-773 827 0
51 -773 774 0
-774 828 0
52 -774 775 0
-775 829 0
53 -775 776 0
-776 830 0
54 -776 777 0
-777 831 0
55 -777 778 0
-778 832 0
56 -778 779 0
-779 833 0
57 -779 780 0
-780 834 0
58 -780 781 0
-781 835 0
59 -781 782 0
-782 836 0
60 -782 783 0
-783 837 0
61 -783 784 0
-784 838 0
62 -784 785 0
-785 839 0
63 -785 786 0
-786 840 0
64 -786 787 0
-787 841 0
65 -787 788 0
-788 842 0
66 -788 0
13 789 0
-789 843 0
14 -789 790 0
-790 844 0
15 -790 791 0
-791 845 0
16 -791 792 0
-792 846 0
17 -792 793 0
-793 847 0
18 -793 794 0
-794 848 0
19 -794 795 0
-795 849 0
20 -795 796 0
-796 850 0
21 -796 797 0
-797 851 0
22 -797 798 0
-798 852 0
23 -798 799 0
-799 853 0
24 -799 800 0
-800 854 0
25 -800 801 0
-801 855 0
26 -801 802 0
-802 856 0
27 -802 803 0
-803 857 0
28 -803 804 0
-804 858 0
29 -804 805 0
-805 859 0
30 -805 806 0
-806 860 0
31 -806 807 0
-807 861 0
32 -807 808 0
-808 862 0
33 -808 809 0
-809 863 0
34 -809 810 0
-810 864 0
35 -810 811 0
-811 865 0
36 -811 812 0
-812 866 0
37 -812 813 0
-813 867 0
38 -813 814 0
-814 868 0
39 -814 815 0
-815 869 0
40 -815 816 0
-816 870 0
41 -816 817 0
-817 871 0
42 -817 818 0
-818 872 0
43 -818 819 0
-819 873 0
44 -819 820 0
-820 874 0
45 -820 821 0
-821 875 0
46 -821 822 0
-822 876 0
47 -822 823 0
-823 877 0
48 -823 824 0
-824 878 0
49 -824 825 0
-825 879 0
50 -825 826 0
-826 880 0
51 -826 827 0
-827 881 0
52 -827 828 0
-828 882 0
53 -828 829 0
-829 883 0
54 -829 830 0
-830 884 0
55 -830 831 0
-831 885 0
56 -831 832 0
-832 886 0
57 -832 833 0
-833 887 0
58 -833 834 0
-834 888 0
59 -834 835 0
-835 889 0
60 -835 836 0
-836 890 0
61 -836 837 0
-837 891 0
62 -837 838 0
-838 892 0
63 -838 839 0
-839 893 0
64 -839 840 0
-840 894 0
65 -840 841 0
-841 895 0
66 -841 842 0
-842 896 0
67 -842 0
14 843 0
-843 897 0
15 -843 844 0
-844 898 0
16 -844 845 0
-845 899 0
17 -845 846 0
-846 900 0
18 -846 847 0
-847 901 0
19 -847 848 0
-848 902 0
20 -848 849 0
-849 903 0
21 -849 850 0
-850 904 0
22 -850 851 0
-851 905 0
23 -851 852 0
-852 906 0
24 -852 853 0
-853 907 0
25 -853 854 0
-854 908 0
26 -854 855 0
-855 909 0
27 -855 856 0
-856 910 0
28 -856 857 0
-857 911 0
29 -857 858 0
-858 912 0
30 -858 859 0
-859 913 0
31 -859 860 0
-860 914 0
32 -860 861 0
-861 915 0
33 -861 862 0
-862 916 0
34 -862 863 0
-863 917 0
35 -863 864 0
-864 918 0
36 -864 865 0
-865 919 0
37 -865 866 0
-866 920 0
38 -866 867 0
-867 921 0
39 -867 868 0
-868 922 0
40 -868 869 0
-869 923 0
41 -869 870 0
-870 924 0
42 -870 871 0
-871 925 0
43 -871 872 0
-872 926 0
44 -872 873 0
-873 927 0
45 -873 874 0
-874 928 0
46 -874 875 0
-875 929 0
47 -875 876 0
-876 930 0
48 -876 877 0
-877 931 0
49 -877 878 0
-878 932 0
50 -878 879 0
-879 933 0
51 -879 880 0
-880 934 0
52 -880 881 0
-881 935 0
53 -881 882 0
-882 936 0
54 -882 883 0
-883 937 0
55 -883 884 0
-884 938 0
56 -884 885 0
-885 939 0
57 -885 886 0
-886 940 0
58 -886 887 0
-887 941 0
59 -887 888 0
-888 942 0
60 -888 889 0
-889 943 0
61 -889 890 0
-890 944 0
62 -890 891 0
-891 945 0
63 -891 892 0
-892 946 0
64 -892 893 0
-893 947 0
65 -893 894 0
-894 948 0
66 -894 895 0
-895 949 0
67 -895 896 0
-896 950 0
68 -896 0
15 897 0
-897 951 0
16 -897 898 0
-898 952 0
17 -898 899 0
-899 953 0
18 -899 900 0
-900 954 0
19 -900 901 0
-901 955 0
20 -901 902 0
-902 956 0
21 -902 903 0
-903 957 0
22 -903 904 0
-904 958 0
23 -904 905 0
-905 959 0
24 -905 906 0
-906 960 0
25 -906 907 0
-907 961 0
26 -907 908 0
-908 962 0
27 -908 909 0
-909 963 0
28 -909 910 0
-910 964 0
29 -910 911 0
-911 965 0
30 -911 912 0
-912 966 0
31 -912 913 0
-913 967 0
32 -913 914 0
-914 968 0
33 -914 915 0
-915 969 0
34 -915 916 0
-916 970 0
35 -916 917 0
-917 971 0
36 -917 918 0
-918 972 0
37 -918 919 0
-919 973 0
38 -919 920 0
-920 974 0
39 -920 921 0
-921 975 0
40 -921 922 0
-922 976 0
41 -922 923 0
-923 977 0
42 -923 924 0
-924 978 0
43 -924 925 0
-925 979 0
44 -925 926 0
-926 980 0
45 -926 927 0
-927 981 0
46 -927 928 0
-928 982 0
47 -928 929 0
-929 983 0
48 -929 930 0
-930 984 0
49 -930 931 0
-931 985 0
50 -931 932 0
-932 986 0
51 -932 933 0
-933 987 0
52 -933 934 0
-934 988 0
53 -934 935 0
-935 989 0
54 -935 936 0
-936 990 0
55 -936 937 0
-937 991 0
56 -937 938 0
-938 992 0
57 -938 939 0
-939 993 0
58 -939 940 0
-940 994 0
59 -940 941 0
-941 995 0
60 -941 942 0
-942 996 0
61 -942 943 0
-943 997 0
62 -943 944 0
-944 998 0
63 -944 945 0
-945 999 0
64 -945 946 0
-946 1000 0
65 -946 947 0
-947 1001 0
66 -947 948 0
-948 1002 0
67 -948 949 0
-949 1003 0
68 -949 950 0
-950 1004 0
69 -950 0
16 951 0
17 -951 952 0
18 -952 953 0
19 -953 954 0
20 -954 955 0
21 -955 956 0
22 -956 957 0
23 -957 958 0
24 -958 959 0
25 -959 960 0
26 -960 961 0
27 -961 962 0
28 -962 963 0
29 -963 964 0
30 -964 965 0
31 -965 966 0
32 -966 967 0
33 -967 968 0
34 -968 969 0
35 -969 970 0
36 -970 971 0
37 -971 972 0
38 -972 973 0
39 -973 974 0
40 -974 975 0
41 -975 976 0
42 -976 977 0
43 -977 978 0
44 -978 979 0
45 -979 980 0
46 -980 981 0
47 -981 982 0
48 -982 983 0
49 -983 984 0
50 -984 985 0
51 -985 986 0
52 -986 987 0
53 -987 988 0
54 -988 989 0
55 -989 990 0
56 -990 991 0
57 -991 992 0
58 -992 993 0
59 -993 994 0
60 -994 995 0
61 -995 996 0
62 -996 997 0
63 -997 998 0
64 -998 999 0
65 -999 1000 0
66 -1000 1001 0
67 -1001 1002 0
68 -1002 1003 0
69 -1003 1004 0
70 -1004 0
-1 1005 0
-1005 1006 0
-2 -1005 1007 0
-1007 1008 0
-3 -1007 1009 0
-1009 1010 0
-4 -1009 1011 0
-1011 1012 0
-5 -1011 1013 0
-1013 1014 0
-6 -1013 1015 0
-1015 1016 0
-7 -1015 1017 0
-1017 1018 0
-8 -1017 1019 0
-1019 1020 0
-9 -1019 1021 0
-1021 1022 0
-10 -1021 1023 0
-1023 1024 0
-11 -1023 1025 0
-1025 1026 0
-12 -1025 1027 0
-1027 1028 0
-13 -1027 1029 0
-1029 1030 0
-14 -1029 1031 0
-1031 1032 0
-15 -1031 1033 0
-1033 1034 0
-16 -1033 1035 0
-1035 1036 0
-17 -1035 0
-2 1006 0
-1006 1037 0
-3 -1006 1008 0
-1008 1038 0
-4 -1008 1010 0
-1010 1039 0
-5 -1010 1012 0
-1012 1040 0
-6 -1012 1014 0
-1014 1041 0
-7 -1014 1016 0
-1016 1042 0
-8 -1016 1018 0
-1018 1043 0
-9 -1018 1020 0
-1020 1044 0
-10 -1020 1022 0
-1022 1045 0
-11 -1022 1024 0
-1024 1046 0
-12 -1024 1026 0
-1026 1047 0
-13 -1026 1028 0
-1028 1048 0
-14 -1028 1030 0
-1030 1049 0
-15 -1030 1032 0
-1032 1050 0
-16 -1032 1034 0
-1034 1051 0
-17 -1034 1036 0
-1036 1052 0
-18 -1036 0
-3 1037 0
-1037 1053 0
-4 -1037 1038 0
-1038 1054 0
-5 -1038 1039 0
-1039 1055 0
-6 -1039 1040 0
-1040 1056 0
-7 -1040 1041 0
-1041 1057 0
-8 -1041 1042 0
-1042 1058 0
-9 -1042 1043 0
-1043 1059 0
-10 -1043 1044 0
-1044 1060 0
-11 -1044 1045 0
-1045 1061 0
-12 -1045 1046 0
-1046 1062 0
-13 -1046 1047 0
-1047 1063 0
-14 -1047 1048 0
-1048 1064 0
-15 -1048 1049 0
-1049 1065 0
-16 -1049 1050 0
-1050 1066 0
-17 -1050 1051 0
-1051 1067 0
-18 -1051 1052 0
-1052 1068 0
-19 -1052 0
-4 1053 0
-1053 1069 0
-5 -1053 1054 0
-1054 1070 0
-6 -1054 1055 0
-1055 1071 0
-7 -1055 1056 0
-1056 1072 0
-8 -1056 1057 0
-1057 1073 0
-9 -1057 1058 0
-1058 1074 0
-10 -1058 1059 0
-1059 1075 0
-11 -1059 1060 0
-1060 1076 0
-12 -1060 1061 0
-1061 1077 0
-13 -1061 1062 0
-1062 1078 0
-14 -1062 1063 0
-1063 1079 0
-15 -1063 1064 0
-1064 1080 0
-16 -1064 1065 0
-1065 1081 0
-17 -1065 1066 0
-1066 1082 0
-18 -1066 1067 0
-1067 1083 0
-19 -1067 1068 0
-1068 1084 0
-20 -1068 0
-5 1069 0
-1069 1085 0
-6 -1069 1070 0
-1070 1086 0
-7 -1070 1071 0
-1071 1087 0
-8 -1071 1072 0
-1072 1088 0
-9 -1072 1073 0
-1073 1089 0
-10 -1073 1074 0
-1074 1090 0
-11 -1074 1075 0
-1075 1091 0
-12 -1075 1076 0
-1076 1092 0
-13 -1076 1077 0
-1077 1093 0
-14 -1077 1078 0
-1078 1094 0
-15 -1078 1079 0
-1079 1095 0
-16 -1079 1080 0
-1080 1096 0
-17 -1080 1081 0
-1081 1097 0
-18 -1081 1082 0
-1082 1098 0
-19 -1082 1083 0
-1083 1099 0
-20 -1083 1084 0
-1084 1100 0
-21 -1084 0
-6 1085 0
-1085 1101 0
-7 -1085 1086 0
-1086 1102 0
-8 -1086 1087 0
-1087 1103 0
-9 -1087 1088 0
-1088 1104 0
-10 -1088 1089 0
-1089 1105 0
-11 -1089 1090 0
-1090 1106 0
-12 -1090 1091 0
-1091 1107 0
-13 -1091 1092 0
-1092 1108 0
-14 -1092 1093 0
-1093 1109 0
-15 -1093 1094 0
-1094 1110 0
-16 -1094 1095 0
-1095 1111 0
-17 -1095 1096 0
-1096 1112 0
-18 -1096 1097 0
-1097 1113 0
-19 -1097 1098 0
-1098 1114 0
-20 -1098 1099 0
-1099 1115 0
-21 -1099 1100 0
-1100 1116 0
-22 -1100 0
-7 1101 0
-1101 1117 0
-8 -1101 1102 0
-1102 1118 0
-9 -1102 1103 0
-1103 1119 0
-10 -1103 1104 0
-1104 1120 0
-11 -1104 1105 0
-1105 1121 0
-12 -1105 1106 0
-1106 1122 0
-13 -1106 1107 0
-1107 1123 0
-14 -1107 1108 0
-1108 1124 0
-15 -1108 1109 0
-1109 1125 0
-16 -1109 1110 0
-1110 1126 0
-17 -1110 1111 0
-1111 1127 0
-18 -1111 1112 0
-1112 1128 0
-19 -1112 1113 0
-1113 1129 0
-20 -1113 1114 0
-1114 1130 0
-21 -1114 1115 0
-1115 1131 0
-22 -1115 1116 0
-1116 1132 0
-23 -1116 0
-8 1117 0
-1117 1133 0
-9 -1117 1118 0
-1118 1134 0
-10 -1118 1119 0
-1119 1135 0
-11 -1119 1120 0
-1120 1136 0
-12 -1120 1121 0
-1121 1137 0
-13 -1121 1122 0
-1122 1138 0
-14 -1122 1123 0
-1123 1139 0
-15 -1123 1124 0
-1124 1140 0
-16 -1124 1125 0
-1125 1141 0
-17 -1125 1126 0
-1126 1142 0
-18 -1126 1127 0
-1127 1143 0
-19 -1127 1128 0
-1128 1144 0
-20 -1128 1129 0
-1129 1145 0
-21 -1129 1130 0
-1130 1146 0
-22 -1130 1131 0
-1131 1147 0
-23 -1131 1132 0
-1132 1148 0
-24 -1132 0
-9 1133 0
-1133 1149 0
-10 -1133 1134 0
-1134 1150 0
-11 -1134 1135 0
-1135 1151 0
-12 -1135 1136 0
-1136 1152 0
-13 -1136 1137 0
-1137 1153 0
-14 -1137 1138 0
-1138 1154 0
-15 -1138 1139 0
-1139 1155 0
-16 -1139 1140 0
-1140 1156 0
-17 -1140 1141 0
-1141 1157 0
-18 -1141 1142 0
-1142 1158 0
-19 -1142 1143 0
-1143 1159 0
-20 -1143 1144 0
-1144 1160 0
-21 -1144 1145 0
-1145 1161 0
-22 -1145 1146 0
-1146 1162 0
-23 -1146 1147 0
-1147 1163 0
-24 -1147 1148 0
-1148 1164 0
-25 -1148 0
-10 1149 0
-1149 1165 0
-11 -1149 1150 0
-1150 1166 0
-12 -1150 1151 0
-1151 1167 0
-13 -1151 1152 0
-1152 1168 0
-14 -1152 1153 0
-1153 1169 0
-15 -1153 1154 0
-1154 1170 0
-16 -1154 1155 0
-1155 1171 0
-17 -1155 1156 0
-1156 1172 0
-18 -1156 1157 0
-1157 1173 0
-19 -1157 1158 0
-1158 1174 0
-20 -1158 1159 0
-1159 1175 0
-21 -1159 1160 0
-1160 1176 0
-22 -1160 1161 0
-1161 1177 0
-23 -1161 1162 0
-1162 1178 0
-24 -1162 1163 0
-1163 1179 0
-25 -1163 1164 0
-1164 1180 0
-26 -1164 0
-11 1165 0
-1165 1181 0
-12 -1165 1166 0
-1166 1182 0
-13 -1166 1167 0
-1167 1183 0
-14 -1167 1168 0
-1168 1184 0
-15 -1168 1169 0
-1169 1185 0
-16 -1169 1170 0
-1170 1186 0
-17 -1170 1171 0
-1171 1187 0
-18 -1171 1172 0
-1172 1188 0
-19 -1172 1173 0
-1173 1189 0
-20 -1173 1174 0
-1174 1190 0
-21 -1174 1175 0
-1175 1191 0
-22 -1175 1176 0
-1176 1192 0
-23 -1176 1177 0
-1177 1193 0
-24 -1177 1178 0
-1178 1194 0
-25 -1178 1179 0
-1179 1195 0
-26 -1179 1180 0
-1180 1196 0
-27 -1180 0
-12 1181 0
-1181 1197 0
-13 -1181 1182 0
-1182 1198 0
-14 -1182 1183 0
-1183 1199 0
-15 -1183 1184 0
-1184 1200 0
-16 -1184 1185 0
-1185 1201 0
-17 -1185 1186 0
-1186 1202 0
-18 -1186 1187 0
-1187 1203 0
-19 -1187 1188 0
-1188 1204 0
-20 -1188 1189 0
-1189 1205 0
-21 -1189 1190 0
-1190 1206 0
-22 -1190 1191 0
-1191 1207 0
-23 -1191 1192 0
-1192 1208 0
-24 -1192 1193 0
-1193 1209 0
-25 -1193 1194 0
-1194 1210 0
-26 -1194 1195 0
-1195 1211 0
-27 -1195 1196 0
-1196 1212 0
-28 -1196 0
-13 1197 0
-1197 1213 0
-14 -1197 1198 0
-1198 1214 0
-15 -1198 1199 0
-1199 1215 0
-16 -1199 1200 0
-1200 1216 0
-17 -1200 1201 0
-1201 1217 0
-18 -1201 1202 0
-1202 1218 0
-19 -1202 1203 0
-1203 1219 0
-20 -1203 1204 0
-1204 1220 0
-21 -1204 1205 0
-1205 1221 0
-22 -1205 1206 0
-1206 1222 0
-23 -1206 1207 0
-1207 1223 0
-24 -1207 1208 0
-1208 1224 0
-25 -1208 1209 0
-1209 1225 0
-26 -1209 1210 0
-1210 1226 0
-27 -1210 1211 0
-1211 1227 0
-28 -1211 1212 0
-1212 1228 0
-29 -1212 0
-14 1213 0
-1213 1229 0
-15 -1213 1214 0
-1214 1230 0
-16 -1214 1215 0
-1215 1231 0
-17 -1215 1216 0
-1216 1232 0
-18 -1216 1217 0
-1217 1233 0
-19 -1217 1218 0
-1218 1234 0
-20 -1218 1219 0
-1219 1235 0
-21 -1219 1220 0
-1220 1236 0
-22 -1220 1221 0
-1221 1237 0
-23 -1221 1222 0
-1222 1238 0
-24 -1222 1223 0
-1223 1239 0
-25 -1223 1224 0
-1224 1240 0
-26 -1224 1225 0
-1225 1241 0
-27 -1225 1226 0
-1226 1242 0
-28 -1226 1227 0
-1227 1243 0
-29 -1227 1228 0
-1228 1244 0
-30 -1228 0
-15 1229 0
-1229 1245 0
-16 -1229 1230 0
-1230 1246 0
-17 -1230 1231 0
-1231 1247 0
-18 -1231 1232 0
-1232 1248 0
-19 -1232 1233 0
-1233 1249 0
-20 -1233 1234 0
-1234 1250 0
-21 -1234 1235 0
-1235 1251 0
-22 -1235 1236 0
-1236 1252 0
-23 -1236 1237 0
-1237 1253 0
-24 -1237 1238 0
-1238 1254 0
-25 -1238 1239 0
-1239 1255 0
-26 -1239 1240 0
-1240 1256 0
-27 -1240 1241 0
-1241 1257 0
-28 -1241 1242 0
-1242 1258 0
-29 -1242 1243 0
-1243 1259 0
-30 -1243 1244 0
-1244 1260 0
-31 -1244 0
-16 1245 0
-1245 1261 0
-17 -1245 1246 0
-1246 1262 0
-18 -1246 1247 0
-1247 1263 0
-19 -1247 1248 0
-1248 1264 0
-20 -1248 1249 0
-1249 1265 0
-21 -1249 1250 0
-1250 1266 0
-22 -1250 1251 0
-1251 1267 0
-23 -1251 1252 0
-1252 1268 0
-24 -1252 1253 0
-1253 1269 0
-25 -1253 1254 0
-1254 1270 0
-26 -1254 1255 0
-1255 1271 0
-27 -1255 1256 0
-1256 1272 0
-28 -1256 1257 0
-1257 1273 0
-29 -1257 1258 0
-1258 1274 0
-30 -1258 1259 0
-1259 1275 0
-31 -1259 1260 0
-1260 1276 0
-32 -1260 0
-17 1261 0
-1261 1277 0
-18 -1261 1262 0
-1262 1278 0
-19 -1262 1263 0
-1263 1279 0
-20 -1263 1264 0
-1264 1280 0
-21 -1264 1265 0
-1265 1281 0
-22 -1265 1266 0
-1266 1282 0
-23 -1266 1267 0
-1267 1283 0
-24 -1267 1268 0
-1268 1284 0
-25 -1268 1269 0
-1269 1285 0
-26 -1269 1270 0
-1270 1286 0
-27 -1270 1271 0
-1271 1287 0
-28 -1271 1272 0
-1272 1288 0
-29 -1272 1273 0
-1273 1289 0
-30 -1273 1274 0
-1274 1290 0
-31 -1274 1275 0
-1275 1291 0
-32 -1275 1276 0
-1276 1292 0
-33 -1276 0
-18 1277 0
-1277 1293 0
-19 -1277 1278 0
-1278 1294 0
-20 -1278 1279 0
-1279 1295 0
-21 -1279 1280 0
-1280 1296 0
-22 -1280 1281 0
-1281 1297 0
-23 -1281 1282 0
-1282 1298 0
-24 -1282 1283 0
-1283 1299 0
-25 -1283 1284 0
-1284 1300 0
-26 -1284 1285 0
-1285 1301 0
-27 -1285 1286 0
-1286 1302 0
-28 -1286 1287 0
-1287 1303 0
-29 -1287 1288 0
-1288 1304 0
-30 -1288 1289 0
-1289 1305 0
-31 -1289 1290 0
-1290 1306 0
-32 -1290 1291 0
-1291 1307 0
-33 -1291 1292 0
-1292 1308 0
-34 -1292 0
-19 1293 0
-1293 1309 0
-20 -1293 1294 0
-1294 1310 0
-21 -1294 1295 0
-1295 1311 0
-22 -1295 1296 0
-1296 1312 0
-23 -1296 1297 0
-1297 1313 0
-24 -1297 1298 0
-1298 1314 0
-25 -1298 1299 0
-1299 1315 0
-26 -1299 1300 0
-1300 1316 0
-27 -1300 1301 0
-1301 1317 0
-28 -1301 1302 0
-1302 1318 0
-29 -1302 1303 0
-1303 1319 0
-30 -1303 1304 0
-1304 1320 0
-31 -1304 1305 0
-1305 1321 0
-32 -1305 1306 0
-1306 1322 0
-33 -1306 1307 0
-1307 1323 0
-34 -1307 1308 0
-1308 1324 0
-35 -1308 0
-20 1309 0
-1309 1325 0
-21 -1309 1310 0
-1310 1326 0
-22 -1310 1311 0
-1311 1327 0
-23 -1311 1312 0
-1312 1328 0
-24 -1312 1313 0
-1313 1329 0
-25 -1313 1314 0
-1314 1330 0
-26 -1314 1315 0
-1315 1331 0
-27 -1315 1316 0
-1316 1332 0
-28 -1316 1317 0
-1317 1333 0
-29 -1317 1318 0
-1318 1334 0
-30 -1318 1319 0
-1319 1335 0
-31 -1319 1320 0
-1320 1336 0
-32 -1320 1321 0
-1321 1337 0
-33 -1321 1322 0
-1322 1338 0
-34 -1322 1323 0
-1323 1339 0
-35 -1323 1324 0
-1324 1340 0
-36 -1324 0
-21 1325 0
-1325 1341 0
-22 -1325 1326 0
-1326 1342 0
-23 -1326 1327 0
-1327 1343 0
-24 -1327 1328 0
-1328 1344 0
-25 -1328 1329 0
-1329 1345 0
-26 -1329 1330 0
-1330 1346 0
-27 -1330 1331 0
-1331 1347 0
-28 -1331 1332 0
-1332 1348 0
-29 -1332 1333 0
-1333 1349 0
-30 -1333 1334 0
-1334 1350 0
-31 -1334 1335 0
-1335 1351 0
-32 -1335 1336 0
-1336 1352 0
-33 -1336 1337 0
-1337 1353 0
-34 -1337 1338 0
-1338 1354 0
-35 -1338 1339 0
-1339 1355 0
-36 -1339 1340 0
-1340 1356 0
-37 -1340 0
-22 1341 0
-1341 1357 0
-23 -1341 1342 0
-1342 1358 0
-24 -1342 1343 0
-1343 1359 0
-25 -1343 1344 0
-1344 1360 0
-26 -1344 1345 0
-1345 1361 0
-27 -1345 1346 0
-1346 1362 0
-28 -1346 1347 0
-1347 1363 0
-29 -1347 1348 0
-1348 1364 0
-30 -1348 1349 0
-1349 1365 0
-31 -1349 1350 0
-1350 1366 0
-32 -1350 1351 0
-1351 1367 0
-33 -1351 1352 0
-1352 1368 0
-34 -1352 1353 0
-1353 1369 0
-35 -1353 1354 0
-1354 1370 0
-36 -1354 1355 0
-1355 1371 0
-37 -1355 1356 0
-1356 1372 0
-38 -1356 0
-23 1357 0
-1357 1373 0
-24 -1357 1358 0
-1358 1374 0
-25 -1358 1359 0
-1359 1375 0
-26 -1359 1360 0
-1360 1376 0
-27 -1360 1361 0
-1361 1377 0
-28 -1361 1362 0
-1362 1378 0
-29 -1362 1363 0
-1363 1379 0
-30 -1363 1364 0
-1364 1380 0
-31 -1364 1365 0
-1365 1381 0
-32 -1365 1366 0
-1366 1382 0
-33 -1366 1367 0
-1367 1383 0
-34 -1367 1368 0
-1368 1384 0
-35 -1368 1369 0
-1369 1385 0
-36 -1369 1370 0
-1370 1386 0
-37 -1370 1371 0
-1371 1387 0
-38 -1371 1372 0
-1372 1388 0
-39 -1372 0
-24 1373 0
-1373 1389 0
-25 -1373 1374 0
-1374 1390 0
-26 -1374 1375 0
-1375 1391 0
-27 -1375 1376 0
-1376 1392 0
-28 -1376 1377 0
-1377 1393 0
-29 -1377 1378 0
-1378 1394 0
-30 -1378 1379 0
-1379 1395 0
-31 -1379 1380 0
-1380 1396 0
-32 -1380 1381 0
-1381 1397 0
-33 -1381 1382 0
-1382 1398 0
-34 -1382 1383 0
-1383 1399 0
-35 -1383 1384 0
-1384 1400 0
-36 -1384 1385 0
-1385 1401 0
-37 -1385 1386 0
-1386 1402 0
-38 -1386 1387 0
-1387 1403 0
-39 -1387 1388 0
-1388 1404 0
-40 -1388 0
-25 1389 0
-1389 1405 0
-26 -1389 1390 0
-1390 1406 0
-27 -1390 1391 0
-1391 1407 0
-28 -1391 1392 0
-1392 1408 0
-29 -1392 1393 0
-1393 1409 0
-30 -1393 1394 0
-1394 1410 0
-31 -1394 1395 0
-1395 1411 0
-32 -1395 1396 0
-1396 1412 0
-33 -1396 1397 0
-1397 1413 0
-34 -1397 1398 0
-1398 1414 0
-35 -1398 1399 0
-1399 1415 0
-36 -1399 1400 0
-1400 1416 0
-37 -1400 1401 0
-1401 1417 0
-38 -1401 1402 0
-1402 1418 0
-39 -1402 1403 0
-1403 1419 0
-40 -1403 1404 0
-1404 1420 0
-41 -1404 0
-26 1405 0
-1405 1421 0
-27 -1405 1406 0
-1406 1422 0
-28 -1406 1407 0
-1407 1423 0
-29 -1407 1408 0
-1408 1424 0
-30 -1408 1409 0
-1409 1425 0
-31 -1409 1410 0
-1410 1426 0
-32 -1410 1411 0
-1411 1427 0
-33 -1411 1412 0
-1412 1428 0
-34 -1412 1413 0
-1413 1429 0
-35 -1413 1414 0
-1414 1430 0
-36 -1414 1415 0
-1415 1431 0
-37 -1415 1416 0
-1416 1432 0
-38 -1416 1417 0
-1417 1433 0
-39 -1417 1418 0
-1418 1434 0
-40 -1418 1419 0
-1419 1435 0
-41 -1419 1420 0
-1420 1436 0
-42 -1420 0
-27 1421 0
-1421 1437 0
-28 -1421 1422 0
-1422 1438 0
-29 -1422 1423 0
-1423 1439 0
-30 -1423 1424 0
-1424 1440 0
-31 -1424 1425 0
-1425 1441 0
-32 -1425 1426 0
-1426 1442 0
-33 -1426 1427 0
-1427 1443 0
-34 -1427 1428 0
-1428 1444 0
-35 -1428 1429 0
-1429 1445 0
-36 -1429 1430 0
-1430 1446 0
-37 -1430 1431 0
-1431 1447 0
-38 -1431 1432 0
-1432 1448 0
-39 -1432 1433 0
-1433 1449 0
-40 -1433 1434 0
-1434 1450 0
-41 -1434 1435 0
-1435 1451 0
-42 -1435 1436 0
-1436 1452 0
-43 -1436 0
-28 1437 0
-1437 1453 0
-29 -1437 1438 0
-1438 1454 0
-30 -1438 1439 0
-1439 1455 0
-31 -1439 1440 0
-1440 1456 0
-32 -1440 1441 0
-1441 1457 0
-33 -1441 1442 0
-1442 1458 0
-34 -1442 1443 0
-1443 1459 0
-35 -1443 1444 0
-1444 1460 0
-36 -1444 1445 0
-1445 1461 0
-37 -1445 1446 0
-1446 1462 0
-38 -1446 1447 0
-1447 1463 0
-39 -1447 1448 0
-1448 1464 0
-40 -1448 1449 0
-1449 1465 0
-41 -1449 1450 0
-1450 1466 0
-42 -1450 1451 0
-1451 1467 0
-43 -1451 1452 0
-1452 1468 0
-44 -1452 0
-29 1453 0
-1453 1469 0
-30 -1453 1454 0
-1454 1470 0
-31 -1454 1455 0
-1455 1471 0
-32 -1455 1456 0
-1456 1472 0
-33 -1456 1457 0
-1457 1473 0
-34 -1457 1458 0
-1458 1474 0
-35 -1458 1459 0
-1459 1475 0
-36 -1459 1460 0
-1460 1476 0
-37 -1460 1461 0
-1461 1477 0
-38 -1461 1462 0
-1462 1478 0
-39 -1462 1463 0
-1463 1479 0
-40 -1463 1464 0
-1464 1480 0
-41 -1464 1465 0
-1465 1481 0
-42 -1465 1466 0
-1466 1482 0
-43 -1466 1467 0
-1467 1483 0
-44 -1467 1468 0
-1468 1484 0
-45 -1468 0
-30 1469 0
-1469 1485 0
-31 -1469 1470 0
-1470 1486 0
-32 -1470 1471 0
-1471 1487 0
-33 -1471 1472 0
-1472 1488 0
-34 -1472 1473 0
-1473 1489 0
-35 -1473 1474 0
-1474 1490 0
-36 -1474 1475 0
-1475 1491 0
-37 -1475 1476 0
-1476 1492 0
-38 -1476 1477 0
-1477 1493 0
-39 -1477 1478 0
-1478 1494 0
-40 -1478 1479 0
-1479 1495 0
-41 -1479 1480 0
-1480 1496 0
-42 -1480 1481 0
-1481 1497 0
-43 -1481 1482 0
-1482 1498 0
-44 -1482 1483 0
-1483 1499 0
-45 -1483 1484 0
-1484 1500 0
-46 -1484 0
-31 1485 0
-1485 1501 0
-32 -1485 1486 0
-1486 1502 0
-33 -1486 1487 0
-1487 1503 0
-34 -1487 1488 0
-1488 1504 0
-35 -1488 1489 0
-1489 1505 0
-36 -1489 1490 0
-1490 1506 0
-37 -1490 1491 0
-1491 1507 0
-38 -1491 1492 0
-1492 1508 0
-39 -1492 1493 0
-1493 1509 0
-40 -1493 1494 0
-1494 1510 0
-41 -1494 1495 0
-1495 1511 0
-42 -1495 1496 0
-1496 1512 0
-43 -1496 1497 0
-1497 1513 0
-44 -1497 1498 0
-1498 1514 0
-45 -1498 1499 0
-1499 1515 0
-46 -1499 1500 0
-1500 1516 0
-47 -1500 0
-32 1501 0
-1501 1517 0
-33 -1501 1502 0
-1502 1518 0
-34 -1502 1503 0
-1503 1519 0
-35 -1503 1504 0
-1504 1520 0
-36 -1504 1505 0
-1505 1521 0
-37 -1505 1506 0
-1506 1522 0
-38 -1506 1507 0
-1507 1523 0
-39 -1507 1508 0
-1508 1524 0
-40 -1508 1509 0
-1509 1525 0
-41 -1509 1510 0
-1510 1526 0
-42 -1510 1511 0
-1511 1527 0
-43 -1511 1512 0
-1512 1528 0
-44 -1512 1513 0
-1513 1529 0
-45 -1513 1514 0
-1514 1530 0
-46 -1514 1515 0
-1515 1531 0
-47 -1515 1516 0
-1516 1532 0
-48 -1516 0
-33 1517 0
-1517 1533 0
-34 -1517 1518 0
-1518 1534 0
-35 -1518 1519 0
-1519 1535 0
-36 -1519 1520 0
-1520 1536 0
-37 -1520 1521 0
-1521 1537 0
-38 -1521 1522 0
-1522 1538 0
-39 -1522 1523 0
-1523 1539 0
-40 -1523 1524 0
-1524 1540 0
-41 -1524 1525 0
-1525 1541 0
-42 -1525 1526 0
-1526 1542 0
-43 -1526 1527 0
-1527 1543 0
-44 -1527 1528 0
-1528 1544 0
-45 -1528 1529 0
-1529 1545 0
-46 -1529 1530 0
-1530 1546 0
-47 -1530 1531 0
-1531 1547 0
-48 -1531 1532 0
-1532 1548 0
-49 -1532 0
-34 1533 0
-1533 1549 0
-35 -1533 1534 0
-1534 1550 0
-36 -1534 1535 0
-1535 1551 0
-37 -1535 1536 0
-1536 1552 0
-38 -1536 1537 0
-1537 1553 0
-39 -1537 1538 0
-1538 1554 0
-40 -1538 1539 0
-1539 1555 0
-41 -1539 1540 0
-1540 1556 0
-42 -1540 1541 0
-1541 1557 0
-43 -1541 1542 0
-1542 1558 0
-44 -1542 1543 0
-1543 1559 0
-45 -1543 1544 0
-1544 1560 0
-46 -1544 1545 0
-1545 1561 0
-47 -1545 1546 0
-1546 1562 0
-48 -1546 1547 0
-1547 1563 0
-49 -1547 1548 0
-1548 1564 0
-50 -1548 0
-35 1549 0
-1549 1565 0
-36 -1549 1550 0
-1550 1566 0
-37 -1550 1551 0
-1551 1567 0
-38 -1551 1552 0
-1552 1568 0
-39 -1552 1553 0
-1553 1569 0
-40 -1553 1554 0
-1554 1570 0
-41 -1554 1555 0
-1555 1571 0
-42 -1555 1556 0
-1556 1572 0
-43 -1556 1557 0
-1557 1573 0
-44 -1557 1558 0
-1558 1574 0
-45 -1558 1559 0
-1559 1575 0
-46 -1559 1560 0
-1560 1576 0
-47 -1560 1561 0
-1561 1577 0
-48 -1561 1562 0
-1562 1578 0
-49 -1562 1563 0
-1563 1579 0
-50 -1563 1564 0
-1564 1580 0
-51 -1564 0
-36 1565 0
-1565 1581 0
-37 -1565 1566 0
-1566 1582 0
-38 -1566 1567 0
-1567 1583 0
-39 -1567 1568 0
-1568 1584 0
-40 -1568 1569 0
-1569 1585 0
-41 -1569 1570 0
-1570 1586 0
-42 -1570 1571 0
-1571 1587 0
-43 -1571 1572 0
-1572 1588 0
-44 -1572 1573 0
-1573 1589 0
-45 -1573 1574 0
-1574 1590 0
-46 -1574 1575 0
-1575 1591 0
-47 -1575 1576 0
-1576 1592 0
-48 -1576 1577 0
-1577 1593 0
-49 -1577 1578 0
-1578 1594 0
-50 -1578 1579 0
-1579 1595 0
-51 -1579 1580 0
-1580 1596 0
-52 -1580 0
-37 1581 0
-1581 1597 0
-38 -1581 1582 0
-1582 1598 0
-39 -1582 1583 0
-1583 1599 0
-40 -1583 1584 0
-1584 1600 0
-41 -1584 1585 0
-1585 1601 0
-42 -1585 1586 0
-1586 1602 0
-43 -1586 1587 0
-1587 1603 0
-44 -1587 1588 0
-1588 1604 0
-45 -1588 1589 0
-1589 1605 0
-46 -1589 1590 0
-1590 1606 0
-47 -1590 1591 0
-1591 1607 0
-48 -1591 1592 0
-1592 1608 0
-49 -1592 1593 0
-1593 1609 0
-50 -1593 1594 0
-1594 1610 0
-51 -1594 1595 0
-1595 1611 0
-52 -1595 1596 0
-1596 1612 0
-53 -1596 0
-38 1597 0
-1597 1613 0
-39 -1597 1598 0
-1598 1614 0
-40 -1598 1599 0
-1599 1615 0
-41 -1599 1600 0
-1600 1616 0
-42 -1600 1601 0
-1601 1617 0
-43 -1601 1602 0
-1602 1618 0
-44 -1602 1603 0
-1603 1619 0
-45 -1603 1604 0
-1604 1620 0
-46 -1604 1605 0
-1605 1621 0
-47 -1605 1606 0
-1606 1622 0
-48 -1606 1607 0
-1607 1623 0
-49 -1607 1608 0
-1608 1624 0
-50 -1608 1609 0
-1609 1625 0
-51 -1609 1610 0
-1610 1626 0
-52 -1610 1611 0
-1611 1627 0
-53 -1611 1612 0
-1612 1628 0
-54 -1612 0
-39 1613 0
-1613 1629 0
-40 -1613 1614 0
-1614 1630 0
-41 -1614 1615 0
-1615 1631 0
-42 -1615 1616 0
-1616 1632 0
-43 -1616 1617 0
-1617 1633 0
-44 -1617 1618 0
-1618 1634 0
-45 -1618 1619 0
-1619 1635 0
-46 -1619 1620 0
-1620 1636 0
-47 -1620 1621 0
-1621 1637 0
-48 -1621 1622 0
-1622 1638 0
-49 -1622 1623 0
-1623 1639 0
-50 -1623 1624 0
-1624 1640 0
-51 -1624 1625 0
-1625 1641 0
-52 -1625 1626 0
-1626 1642 0
-53 -1626 1627 0
-1627 1643 0
-54 -1627 1628 0
-1628 1644 0
-55 -1628 0
-40 1629 0
-1629 1645 0
-41 -1629 1630 0
-1630 1646 0
-42 -1630 1631 0
-1631 1647 0
-43 -1631 1632 0
-1632 1648 0
-44 -1632 1633 0
-1633 1649 0
-45 -1633 1634 0
-1634 1650 0
-46 -1634 1635 0
-1635 1651 0
-47 -1635 1636 0
-1636 1652 0
-48 -1636 1637 0
-1637 1653 0
-49 -1637 1638 0
-1638 1654 0
-50 -1638 1639 0
-1639 1655 0
-51 -1639 1640 0
-1640 1656 0
-52 -1640 1641 0
-1641 1657 0
-53 -1641 1642 0
-1642 1658 0
-54 -1642 1643 0
-1643 1659 0
-55 -1643 1644 0
-1644 1660 0
-56 -1644 0
-41 1645 0
-1645 1661 0
-42 -1645 1646 0
-1646 1662 0
-43 -1646 1647 0
-1647 1663 0
-44 -1647 1648 0
-1648 1664 0
-45 -1648 1649 0
-1649 1665 0
-46 -1649 1650 0
-1650 1666 0
-47 -1650 1651 0
-1651 1667 0
-48 -1651 1652 0
-1652 1668 0
-49 -1652 1653 0
-1653 1669 0
-50 -1653 1654 0
-1654 1670 0
-51 -1654 1655 0
-1655 1671 0
-52 -1655 1656 0
-1656 1672 0
-53 -1656 1657 0
-1657 1673 0
-54 -1657 1658 0
-1658 1674 0
-55 -1658 1659 0
-1659 1675 0
-56 -1659 1660 0
-1660 1676 0
-57 -1660 0
-42 1661 0
-1661 1677 0
-43 -1661 1662 0
-1662 1678 0
-44 -1662 1663 0
-1663 1679 0
-45 -1663 1664 0
-1664 1680 0
-46 -1664 1665 0
-1665 1681 0
-47 -1665 1666 0
-1666 1682 0
-48 -1666 1667 0
-1667 1683 0
-49 -1667 1668 0
-1668 1684 0
-50 -1668 1669 0
-1669 1685 0
-51 -1669 1670 0
-1670 1686 0
-52 -1670 1671 0
-1671 1687 0
-53 -1671 1672 0
-1672 1688 0
-54 -1672 1673 0
-1673 1689 0
-55 -1673 1674 0
-1674 1690 0
-56 -1674 1675 0
-1675 1691 0
-57 -1675 1676 0
-1676 1692 0
-58 -1676 0
-43 1677 0
-1677 1693 0
-44 -1677 1678 0
-1678 1694 0
-45 -1678 1679 0
-1679 1695 0
-46 -1679 1680 0
-1680 1696 0
-47 -1680 1681 0
-1681 1697 0
-48 -1681 1682 0
-1682 1698 0
-49 -1682 1683 0
-1683 1699 0
-50 -1683 1684 0
-1684 1700 0
-51 -1684 1685 0
-1685 1701 0
-52 -1685 1686 0
-1686 1702 0
-53 -1686 1687 0
-1687 1703 0
-54 -1687 1688 0
-1688 1704 0
-55 -1688 1689 0
-1689 1705 0
-56 -1689 1690 0
-1690 1706 0
-57 -1690 1691 0
-1691 1707 0
-58 -1691 1692 0
-1692 1708 0
-59 -1692 0
-44 1693 0
-1693 1709 0
-45 -1693 1694 0
-1694 1710 0
-46 -1694 1695 0
-1695 1711 0
-47 -1695 1696 0
-1696 1712 0
-48 -1696 1697 0
-1697 1713 0
-49 -1697 1698 0
-1698 1714 0
-50 -1698 1699 0
-1699 1715 0
-51 -1699 1700 0
-1700 1716 0
-52 -1700 1701 0
-1701 1717 0
-53 -1701 1702 0
-1702 1718 0
-54 -1702 1703 0
-1703 1719 0
-55 -1703 1704 0
-1704 1720 0
-56 -1704 1705 0
-1705 1721 0
-57 -1705 1706 0
-1706 1722 0
-58 -1706 1707 0
-1707 1723 0
-59 -1707 1708 0
-1708 1724 0
-60 -1708 0
-45 1709 0
-1709 1725 0
-46 -1709 1710 0
-1710 1726 0
-47 -1710 1711 0
-1711 1727 0
-48 -1711 1712 0
-1712 1728 0
-49 -1712 1713 0
-1713 1729 0
-50 -1713 1714 0
-1714 1730 0
-51 -1714 1715 0
-1715 1731 0
-52 -1715 1716 0
-1716 1732 0
-53 -1716 1717 0
-1717 1733 0
-54 -1717 1718 0
-1718 1734 0
-55 -1718 1719 0
-1719 1735 0
-56 -1719 1720 0
-1720 1736 0
-57 -1720 1721 0
-1721 1737 0
-58 -1721 1722 0
-1722 1738 0
-59 -1722 1723 0
-1723 1739 0
-60 -1723 1724 0
-1724 1740 0
-61 -1724 0
-46 1725 0
-1725 1741 0
-47 -1725 1726 0
-1726 1742 0
-48 -1726 1727 0
-1727 1743 0
-49 -1727 1728 0
-1728 1744 0
-50 -1728 1729 0
-1729 1745 0
-51 -1729 1730 0
-1730 1746 0
-52 -1730 1731 0
-1731 1747 0
-53 -1731 1732 0
-1732 1748 0
-54 -1732 1733 0
-1733 1749 0
-55 -1733 1734 0
-1734 1750 0
-56 -1734 1735 0
-1735 1751 0
-57 -1735 1736 0
-1736 1752 0
-58 -1736 1737 0
-1737 1753 0
-59 -1737 1738 0
-1738 1754 0
-60 -1738 1739 0
-1739 1755 0
-61 -1739 1740 0
-1740 1756 0
-62 -1740 0
-47 1741 0
-1741 1757 0
-48 -1741 1742 0
-1742 1758 0
-49 -1742 1743 0
-1743 1759 0
-50 -1743 1744 0
-1744 1760 0
-51 -1744 1745 0
-1745 1761 0
-52 -1745 1746 0
-1746 1762 0
-53 -1746 1747 0
-1747 1763 0
-54 -1747 1748 0
-1748 1764 0
-55 -1748 1749 0
-1749 1765 0
-56 -1749 1750 0
-1750 1766 0
-57 -1750 1751 0
-1751 1767 0
-58 -1751 1752 0
-1752 1768 0
-59 -1752 1753 0
-1753 1769 0
-60 -1753 1754 0
-1754 1770 0
-61 -1754 1755 0
-1755 1771 0
-62 -1755 1756 0
-1756 1772 0
-63 -1756 0
-48 1757 0
-1757 1773 0
-49 -1757 1758 0
-1758 1774 0
-50 -1758 1759 0
-1759 1775 0
-51 -1759 1760 0
-1760 1776 0
-52 -1760 1761 0
-1761 1777 0
-53 -1761 1762 0
-1762 1778 0
-54 -1762 1763 0
-1763 1779 0
-55 -1763 1764 0
-1764 1780 0
-56 -1764 1765 0
-1765 1781 0
-57 -1765 1766 0
-1766 1782 0
-58 -1766 1767 0
-1767 1783 0
-59 -1767 1768 0
-1768 1784 0
-60 -1768 1769 0
-1769 1785 0
-61 -1769 1770 0
-1770 1786 0
-62 -1770 1771 0
-1771 1787 0
-63 -1771 1772 0
-1772 1788 0
-64 -1772 0
-49 1773 0
-1773 1789 0
-50 -1773 1774 0
-1774 1790 0
-51 -1774 1775 0
-1775 1791 0
-52 -1775 1776 0
-1776 1792 0
-53 -1776 1777 0
-1777 1793 0
-54 -1777 1778 0
-1778 1794 0
-55 -1778 1779 0
-1779 1795 0
-56 -1779 1780 0
-1780 1796 0
-57 -1780 1781 0
-1781 1797 0
-58 -1781 1782 0
-1782 1798 0
-59 -1782 1783 0
-1783 1799 0
-60 -1783 1784 0
-1784 1800 0
-61 -1784 1785 0
-1785 1801 0
-62 -1785 1786 0
-1786 1802 0
-63 -1786 1787 0
-1787 1803 0
-64 -1787 1788 0
-1788 1804 0
-65 -1788 0
-50 1789 0
-1789 1805 0
-51 -1789 1790 0
-1790 1806 0
-52 -1790 1791 0
-1791 1807 0
-53 -1791 1792 0
-1792 1808 0
-54 -1792 1793 0
-1793 1809 0
-55 -1793 1794 0
-1794 1810 0
-56 -1794 1795 0
-1795 1811 0
-57 -1795 1796 0
-1796 1812 0
-58 -1796 1797 0
-1797 1813 0
-59 -1797 1798 0
-1798 1814 0
-60 -1798 1799 0
-1799 1815 0
-61 -1799 1800 0
-1800 1816 0
-62 -1800 1801 0
-1801 1817 0
-63 -1801 1802 0
-1802 1818 0
-64 -1802 1803 0
-1803 1819 0
-65 -1803 1804 0
-1804 1820 0
-66 -1804 0
-51 1805 0
-1805 1821 0
-52 -1805 1806 0
-1806 1822 0
-53 -1806 1807 0
-1807 1823 0
-54 -1807 1808 0
-1808 1824 0
-55 -1808 1809 0
-1809 1825 0
-56 -1809 1810 0
-1810 1826 0
-57 -1810 1811 0
-1811 1827 0
-58 -1811 1812 0
-1812 1828 0
-59 -1812 1813 0
-1813 1829 0
-60 -1813 1814 0
-1814 1830 0
-61 -1814 1815 0
-1815 1831 0
-62 -1815 1816 0
-1816 1832 0
-63 -1816 1817 0
-1817 1833 0
-64 -1817 1818 0
-1818 1834 0
-65 -1818 1819 0
-1819 1835 0
-66 -1819 1820 0
-1820 1836 0
-67 -1820 0
-52 1821 0
-1821 1837 0
-53 -1821 1822 0
-1822 1838 0
-54 -1822 1823 0
-1823 1839 0
-55 -1823 1824 0
-1824 1840 0
-56 -1824 1825 0
-1825 1841 0
-57 -1825 1826 0
-1826 1842 0
-58 -1826 1827 0
-1827 1843 0
-59 -1827 1828 0
-1828 1844 0
-60 -1828 1829 0
-1829 1845 0
-61 -1829 1830 0
-1830 1846 0
-62 -1830 1831 0
-1831 1847 0
-63 -1831 1832 0
-1832 1848 0
-64 -1832 1833 0
-1833 1849 0
-65 -1833 1834 0
-1834 1850 0
-66 -1834 1835 0
-1835 1851 0
-67 -1835 1836 0
-1836 1852 0
-68 -1836 0
-53 1837 0
-1837 1853 0
-54 -1837 1838 0
-1838 1854 0
-55 -1838 1839 0
-1839 1855 0
-56 -1839 1840 0
-1840 1856 0
-57 -1840 1841 0
-1841 1857 0
-58 -1841 1842 0
-1842 1858 0
-59 -1842 1843 0
-1843 1859 0
-60 -1843 1844 0
-1844 1860 0
-61 -1844 1845 0
-1845 1861 0
-62 -1845 1846 0
-1846 1862 0
-63 -1846 1847 0
-1847 1863 0
-64 -1847 1848 0
-1848 1864 0
-65 -1848 1849 0
-1849 1865 0
-66 -1849 1850 0
-1850 1866 0
-67 -1850 1851 0
-1851 1867 0
-68 -1851 1852 0
-1852 1868 0
-69 -1852 0
-54 1853 0
-55 -1853 1854 0
-56 -1854 1855 0
-57 -1855 1856 0
-58 -1856 1857 0
-59 -1857 1858 0
-60 -1858 1859 0
-61 -1859 1860 0
-62 -1860 1861 0
-63 -1861 1862 0
-64 -1862 1863 0
-65 -1863 1864 0
-66 -1864 1865 0
-67 -1865 1866 0
-68 -1866 1867 0
-69 -1867 1868 0
-70 -1868 0
-71 1869 0
-1869 1870 0
-72 -1869 1871 0
-1871 1872 0
-73 -1871 1873 0
-1873 1874 0
-74 -1873 1875 0
-1875 1876 0
-75 -1875 1877 0
-1877 1878 0
-76 -1877 1879 0
-1879 1880 0
-77 -1879 1881 0
-1881 1882 0
-78 -1881 1883 0
-1883 1884 0
-79 -1883 1885 0
-1885 1886 0
-80 -1885 0
-72 1870 0
-1870 1887 0
-73 -1870 1872 0
-1872 1888 0
-74 -1872 1874 0
-1874 1889 0
-75 -1874 1876 0
-1876 1890 0
-76 -1876 1878 0
-1878 1891 0
-77 -1878 1880 0
-1880 1892 0
-78 -1880 1882 0
-1882 1893 0
-79 -1882 1884 0
-1884 1894 0
-80 -1884 1886 0
-1886 1895 0
-81 -1886 0
-73 1887 0
-1887 1896 0
-74 -1887 1888 0
-1888 1897 0
-75 -1888 1889 0
-1889 1898 0
-76 -1889 1890 0
-1890 1899 0
-77 -1890 1891 0
-1891 1900 0
-78 -1891 1892 0
-1892 1901 0
-79 -1892 1893 0
-1893 1902 0
-80 -1893 1894 0
-1894 1903 0
-81 -1894 1895 0
-1895 1904 0
-82 -1895 0
-74 1896 0
-1896 1905 0
-75 -1896 1897 0
-1897 1906 0
-76 -1897 1898 0
-1898 1907 0
-77 -1898 1899 0
-1899 1908 0
-78 -1899 1900 0
-1900 1909 0
-79 -1900 1901 0
-1901 1910 0
-80 -1901 1902 0
-1902 1911 0
-81 -1902 1903 0
-1903 1912 0
-82 -1903 1904 0
-1904 1913 0
-83 -1904 0
-75 1905 0
-1905 1914 0
-76 -1905 1906 0
-1906 1915 0
-77 -1906 1907 0
-1907 1916 0
-78 -1907 1908 0
-1908 1917 0
-79 -1908 1909 0
-1909 1918 0
-80 -1909 1910 0
-1910 1919 0
-81 -1910 1911 0
-1911 1920 0
-82 -1911 1912 0
-1912 1921 0
-83 -1912 1913 0
-1913 1922 0
-84 -1913 0
-76 1914 0
-1914 1923 0
-77 -1914 1915 0
-1915 1924 0
-78 -1915 1916 0
-1916 1925 0
-79 -1916 1917 0
-1917 1926 0
-80 -1917 1918 0
-1918 1927 0
-81 -1918 1919 0
-1919 1928 0
-82 -1919 1920 0
-1920 1929 0
-83 -1920 1921 0
-1921 1930 0
-84 -1921 1922 0
-1922 1931 0
-85 -1922 0
-77 1923 0
-1923 1932 0
-78 -1923 1924 0
-1924 1933 0
-79 -1924 1925 0
-1925 1934 0
-80 -1925 1926 0
-1926 1935 0
-81 -1926 1927 0
-1927 1936 0
-82 -1927 1928 0
-1928 1937 0
-83 -1928 1929 0
-1929 1938 0
-84 -1929 1930 0
-1930 1939 0
-85 -1930 1931 0
-1931 1940 0
-86 -1931 0
-78 1932 0
-1932 1941 0
-79 -1932 1933 0
-1933 1942 0
-80 -1933 1934 0
-1934 1943 0
-81 -1934 1935 0
-1935 1944 0
-82 -1935 1936 0
-1936 1945 0
-83 -1936 1937 0
-1937 1946 0
-84 -1937 1938 0
-1938 1947 0
-85 -1938 1939 0
-1939 1948 0
-86 -1939 1940 0
-1940 1949 0
-87 -1940 0
-79 1941 0
-1941 1950 0
-80 -1941 1942 0
-1942 1951 0
-81 -1942 1943 0
-1943 1952 0
-82 -1943 1944 0
-1944 1953 0
-83 -1944 1945 0
-1945 1954 0
-84 -1945 1946 0
-1946 1955 0
-85 -1946 1947 0
-1947 1956 0
-86 -1947 1948 0
-1948 1957 0
-87 -1948 1949 0
-1949 1958 0
-88 -1949 0
-80 1950 0
-1950 1959 0
-81 -1950 1951 0
-1951 1960 0
-82 -1951 1952 0
-1952 1961 0
-83 -1952 1953 0
-1953 1962 0
-84 -1953 1954 0
-1954 1963 0
-85 -1954 1955 0
-1955 1964 0
-86 -1955 1956 0
-1956 1965 0
-87 -1956 1957 0
-1957 1966 0
-88 -1957 1958 0
-1958 1967 0
-89 -1958 0
-81 1959 0
-1959 1968 0
-82 -1959 1960 0
-1960 1969 0
-83 -1960 1961 0
-1961 1970 0
-84 -1961 1962 0
-1962 1971 0
-85 -1962 1963 0
-1963 1972 0
-86 -1963 1964 0
-1964 1973 0
-87 -1964 1965 0
-1965 1974 0
-88 -1965 1966 0
-1966 1975 0
-89 -1966 1967 0
-1967 1976 0
-90 -1967 0
-82 1968 0
-1968 1977 0
-83 -1968 1969 0
-1969 1978 0
-84 -1969 1970 0
-1970 1979 0
-85 -1970 1971 0
-1971 1980 0
-86 -1971 1972 0
-1972 1981 0
-87 -1972 1973 0
-1973 1982 0
-88 -1973 1974 0
-1974 1983 0
-89 -1974 1975 0
-1975 1984 0
-90 -1975 1976 0
-1976 1985 0
-91 -1976 0
-83 1977 0
-1977 1986 0
-84 -1977 1978 0
-1978 1987 0
-85 -1978 1979 0
-1979 1988 0
-86 -1979 1980 0
-1980 1989 0
-87 -1980 1981 0
-1981 1990 0
-88 -1981 1982 0
-1982 1991 0
-89 -1982 1983 0
-1983 1992 0
-90 -1983 1984 0
-1984 1993 0
-91 -1984 1985 0
-1985 1994 0
-92 -1985 0
-84 1986 0
-1986 1995 0
-85 -1986 1987 0
-1987 1996 0
-86 -1987 1988 0
-1988 1997 0
-87 -1988 1989 0
-1989 1998 0
-88 -1989 1990 0
-1990 1999 0
-89 -1990 1991 0
-1991 2000 0
-90 -1991 1992 0
-1992 2001 0
-91 -1992 1993 0
-1993 2002 0
-92 -1993 1994 0
-1994 2003 0
-93 -1994 0
-85 1995 0
-1995 2004 0
-86 -1995 1996 0
-1996 2005 0
-87 -1996 1997 0
-1997 2006 0
-88 -1997 1998 0
-1998 2007 0
-89 -1998 1999 0
-1999 2008 0
-90 -1999 2000 0
-2000 2009 0
-91 -2000 2001 0
-2001 2010 0
-92 -2001 2002 0
-2002 2011 0
-93 -2002 2003 0
-2003 2012 0
-94 -2003 0
-86 2004 0
-2004 2013 0
-87 -2004 2005 0
-2005 2014 0
-88 -2005 2006 0
-2006 2015 0
-89 -2006 2007 0
-2007 2016 0
-90 -2007 2008 0
-2008 2017 0
-91 -2008 2009 0
-2009 2018 0
-92 -2009 2010 0
-2010 2019 0
-93 -2010 2011 0
-2011 2020 0
-94 -2011 2012 0
-2012 2021 0
-95 -2012 0
-87 2013 0
-2013 2022 0
-88 -2013 2014 0
-2014 2023 0
-89 -2014 2015 0
-2015 2024 0
-90 -2015 2016 0
-2016 2025 0
-91 -2016 2017 0
-2017 2026 0
-92 -2017 2018 0
-2018 2027 0
-93 -2018 2019 0
-2019 2028 0
-94 -2019 2020 0
-2020 2029 0
-95 -2020 2021 0
-2021 2030 0
-96 -2021 0
-88 2022 0
-2022 2031 0
-89 -2022 2023 0
-2023 2032 0
-90 -2023 2024 0
-2024 2033 0
-91 -2024 2025 0
-2025 2034 0
-92 -2025 2026 0
-2026 2035 0
-93 -2026 2027 0
-2027 2036 0
-94 -2027 2028 0
-2028 2037 0
-95 -2028 2029 0
-2029 2038 0
-96 -2029 2030 0
-2030 2039 0
-97 -2030 0
-89 2031 0
-2031 2040 0
-90 -2031 2032 0
-2032 2041 0
-91 -2032 2033 0
-2033 2042 0
-92 -2033 2034 0
-2034 2043 0
-93 -2034 2035 0
-2035 2044 0
-94 -2035 2036 0
-2036 2045 0
-95 -2036 2037 0
-2037 2046 0
-96 -2037 2038 0
-2038 2047 0
-97 -2038 2039 0
-2039 2048 0
-98 -2039 0
-90 2040 0
-2040 2049 0
-91 -2040 2041 0
-2041 2050 0
-92 -2041 2042 0
-2042 2051 0
-93 -2042 2043 0
-2043 2052 0
-94 -2043 2044 0
-2044 2053 0
-95 -2044 2045 0
-2045 2054 0
-96 -2045 2046 0
-2046 2055 0
-97 -2046 2047 0
-2047 2056 0
-98 -2047 2048 0
-2048 2057 0
-99 -2048 0
-91 2049 0
-2049 2058 0
-92 -2049 2050 0
-2050 2059 0
-93 -2050 2051 0
-2051 2060 0
-94 -2051 2052 0
-2052 2061 0
-95 -2052 2053 0
-2053 2062 0
-96 -2053 2054 0
-2054 2063 0
-97 -2054 2055 0
-2055 2064 0
-98 -2055 2056 0
-2056 2065 0
-99 -2056 2057 0
-2057 2066 0
-100 -2057 0
-92 2058 0
-2058 2067 0
-93 -2058 2059 0
-2059 2068 0
-94 -2059 2060 0
-2060 2069 0
-95 -2060 2061 0
-2061 2070 0
-96 -2061 2062 0
-2062 2071 0
-97 -2062 2063 0
-2063 2072 0
-98 -2063 2064 0
-2064 2073 0
-99 -2064 2065 0
-2065 2074 0
-100 -2065 2066 0
-2066 2075 0
-101 -2066 0
-93 2067 0
-2067 2076 0
-94 -2067 2068 0
-2068 2077 0
-95 -2068 2069 0
-2069 2078 0
-96 -2069 2070 0
-2070 2079 0
-97 -2070 2071 0
-2071 2080 0
-98 -2071 2072 0
-2072 2081 0
-99 -2072 2073 0
-2073 2082 0
-100 -2073 2074 0
-2074 2083 0
-101 -2074 2075 0
-2075 2084 0
-102 -2075 0
-94 2076 0
-2076 2085 0
-95 -2076 2077 0
-2077 2086 0
-96 -2077 2078 0
-2078 2087 0
-97 -2078 2079 0
-2079 2088 0
-98 -2079 2080 0
-2080 2089 0
-99 -2080 2081 0
-2081 2090 0
-100 -2081 2082 0
-2082 2091 0
-101 -2082 2083 0
-2083 2092 0
-102 -2083 2084 0
-2084 2093 0
-103 -2084 0
-95 2085 0
-2085 2094 0
-96 -2085 2086 0
-2086 2095 0
-97 -2086 2087 0
-2087 2096 0
-98 -2087 2088 0
-2088 2097 0
-99 -2088 2089 0
-2089 2098 0
-100 -2089 2090 0
-2090 2099 0
-101 -2090 2091 0
-2091 2100 0
-102 -2091 2092 0
-2092 2101 0
-103 -2092 2093 0
-2093 2102 0
-104 -2093 0
-96 2094 0
-2094 2103 0
-97 -2094 2095 0
-2095 2104 0
-98 -2095 2096 0
-2096 2105 0
-99 -2096 2097 0
-2097 2106 0
-100 -2097 2098 0
-2098 2107 0
-101 -2098 2099 0
-2099 2108 0
-102 -2099 2100 0
-2100 2109 0
-103 -2100 2101 0
-2101 2110 0
-104 -2101 2102 0
-2102 2111 0
-105 -2102 0
-97 2103 0
-2103 2112 0
-98 -2103 2104 0
-2104 2113 0
-99 -2104 2105 0
-2105 2114 0
-100 -2105 2106 0
-2106 2115 0
-101 -2106 2107 0
-2107 2116 0
-102 -2107 2108 0
-2108 2117 0
-103 -2108 2109 0
-2109 2118 0
-104 -2109 2110 0
-2110 2119 0
-105 -2110 2111 0
-2111 2120 0
-106 -2111 0
-98 2112 0
-2112 2121 0
-99 -2112 2113 0
-2113 2122 0
-100 -2113 2114 0
-2114 2123 0
-101 -2114 2115 0
-2115 2124 0
-102 -2115 2116 0
-2116 2125 0
-103 -2116 2117 0
-2117 2126 0
-104 -2117 2118 0
-2118 2127 0
-105 -2118 2119 0
-2119 2128 0
-106 -2119 2120 0
-2120 2129 0
-107 -2120 0
-99 2121 0
-2121 2130 0
-100 -2121 2122 0
-2122 2131 0
-101 -2122 2123 0
-2123 2132 0
-102 -2123 2124 0
-2124 2133 0
-103 -2124 2125 0
-2125 2134 0
-104 -2125 2126 0
-2126 2135 0
-105 -2126 2127 0
-2127 2136 0
-106 -2127 2128 0
-2128 2137 0
-107 -2128 2129 0
-2129 2138 0
-108 -2129 0
-100 2130 0
-2130 2139 0
-101 -2130 2131 0
-2131 2140 0
-102 -2131 2132 0
-2132 2141 0
-103 -2132 2133 0
-2133 2142 0
-104 -2133 2134 0
-2134 2143 0
-105 -2134 2135 0
-2135 2144 0
-106 -2135 2136 0
-2136 2145 0
-107 -2136 2137 0
-2137 2146 0
-108 -2137 2138 0
-2138 2147 0
-109 -2138 0
-101 2139 0
-2139 2148 0
-102 -2139 2140 0
-2140 2149 0
-103 -2140 2141 0
-2141 2150 0
-104 -2141 2142 0
-2142 2151 0
-105 -2142 2143 0
-2143 2152 0
-106 -2143 2144 0
-2144 2153 0
-107 -2144 2145 0
-2145 2154 0
-108 -2145 2146 0
-2146 2155 0
-109 -2146 2147 0
-2147 2156 0
-110 -2147 0
-102 2148 0
-2148 2157 0
-103 -2148 2149 0
-2149 2158 0
-104 -2149 2150 0
-2150 2159 0
-105 -2150 2151 0
-2151 2160 0
-106 -2151 2152 0
-2152 2161 0
-107 -2152 2153 0
-2153 2162 0
-108 -2153 2154 0
-2154 2163 0
-109 -2154 2155 0
-2155 2164 0
-110 -2155 2156 0
-2156 2165 0
-111 -2156 0
-103 2157 0
-2157 2166 0
-104 -2157 2158 0
-2158 2167 0
-105 -2158 2159 0
-2159 2168 0
-106 -2159 2160 0
-2160 2169 0
-107 -2160 2161 0
-2161 2170 0
-108 -2161 2162 0
-2162 2171 0
-109 -2162 2163 0
-2163 2172 0
-110 -2163 2164 0
-2164 2173 0
-111 -2164 2165 0
-2165 2174 0
-112 -2165 0
-104 2166 0
-2166 2175 0
-105 -2166 2167 0
-2167 2176 0
-106 -2167 2168 0
-2168 2177 0
-107 -2168 2169 0
-2169 2178 0
-108 -2169 2170 0
-2170 2179 0
-109 -2170 2171 0
-2171 2180 0
-110 -2171 2172 0
-2172 2181 0
-111 -2172 2173 0
-2173 2182 0
-112 -2173 2174 0
-2174 2183 0
-113 -2174 0
-105 2175 0
-2175 2184 0
-106 -2175 2176 0
-2176 2185 0
-107 -2176 2177 0
-2177 2186 0
-108 -2177 2178 0
-2178 2187 0
-109 -2178 2179 0
-2179 2188 0
-110 -2179 2180 0
-2180 2189 0
-111 -2180 2181 0
-2181 2190 0
-112 -2181 2182 0
-2182 2191 0
-113 -2182 2183 0
-2183 2192 0
-114 -2183 0
-106 2184 0
-2184 2193 0
-107 -2184 2185 0
-2185 2194 0
-108 -2185 2186 0
-2186 2195 0
-109 -2186 2187 0
-2187 2196 0
-110 -2187 2188 0
-2188 2197 0
-111 -2188 2189 0
-2189 2198 0
-112 -2189 2190 0
-2190 2199 0
-113 -2190 2191 0
-2191 2200 0
-114 -2191 2192 0
-2192 2201 0
-115 -2192 0
-107 2193 0
-2193 2202 0
-108 -2193 2194 0
-2194 2203 0
-109 -2194 2195 0
-2195 2204 0
-110 -2195 2196 0
-2196 2205 0
-111 -2196 2197 0
-2197 2206 0
-112 -2197 2198 0
-2198 2207 0
-113 -2198 2199 0
-2199 2208 0
-114 -2199 2200 0
-2200 2209 0
-115 -2200 2201 0
-2201 2210 0
-116 -2201 0
-108 2202 0
-2202 2211 0
-109 -2202 2203 0
-2203 2212 0
-110 -2203 2204 0
-2204 2213 0
-111 -2204 2205 0
-2205 2214 0
-112 -2205 2206 0
-2206 2215 0
-113 -2206 2207 0
-2207 2216 0
-114 -2207 2208 0
-2208 2217 0
-115 -2208 2209 0
-2209 2218 0
-116 -2209 2210 0
-2210 2219 0
-117 -2210 0
-109 2211 0
-2211 2220 0
-110 -2211 2212 0
-2212 2221 0
-111 -2212 2213 0
-2213 2222 0
-112 -2213 2214 0
-2214 2223 0
-113 -2214 2215 0
-2215 2224 0
-114 -2215 2216 0
-2216 2225 0
-115 -2216 2217 0
-2217 2226 0
-116 -2217 2218 0
-2218 2227 0
-117 -2218 2219 0
-2219 2228 0
-118 -2219 0
-110 2220 0
-2220 2229 0
-111 -2220 2221 0
-2221 2230 0
-112 -2221 2222 0
-2222 2231 0
-113 -2222 2223 0
-2223 2232 0
-114 -2223 2224 0
-2224 2233 0
-115 -2224 2225 0
-2225 2234 0
-116 -2225 2226 0
-2226 2235 0
-117 -2226 2227 0
-2227 2236 0
-118 -2227 2228 0
-2228 2237 0
-119 -2228 0
-111 2229 0
-2229 2238 0
-112 -2229 2230 0
-2230 2239 0
-113 -2230 2231 0
-2231 2240 0
-114 -2231 2232 0
-2232 2241 0
-115 -2232 2233 0
-2233 2242 0
-116 -2233 2234 0
-2234 2243 0
-117 -2234 2235 0
-2235 2244 0
-118 -2235 2236 0
-2236 2245 0
-119 -2236 2237 0
-2237 2246 0
-120 -2237 0
-112 2238 0
-2238 2247 0
-113 -2238 2239 0
-2239 2248 0
-114 -2239 2240 0
-2240 2249 0
-115 -2240 2241 0
-2241 2250 0
-116 -2241 2242 0
-2242 2251 0
-117 -2242 2243 0
-2243 2252 0
-118 -2243 2244 0
-2244 2253 0
-119 -2244 2245 0
-2245 2254 0
-120 -2245 2246 0
-2246 2255 0
-121 -2246 0
-113 2247 0
-2247 2256 0
-114 -2247 2248 0
-2248 2257 0
-115 -2248 2249 0
-2249 2258 0
-116 -2249 2250 0
-2250 2259 0
-117 -2250 2251 0
-2251 2260 0
-118 -2251 2252 0
-2252 2261 0
-119 -2252 2253 0
-2253 2262 0
-120 -2253 2254 0
-2254 2263 0
-121 -2254 2255 0
-2255 2264 0
-122 -2255 0
-114 2256 0
-2256 2265 0
-115 -2256 2257 0
-2257 2266 0
-116 -2257 2258 0
-2258 2267 0
-117 -2258 2259 0
-2259 2268 0
-118 -2259 2260 0
-2260 2269 0
-119 -2260 2261 0
-2261 2270 0
-120 -2261 2262 0
-2262 2271 0
-121 -2262 2263 0
-2263 2272 0
-122 -2263 2264 0
-2264 2273 0
-123 -2264 0
-115 2265 0
-2265 2274 0
-116 -2265 2266 0
-2266 2275 0
-117 -2266 2267 0
-2267 2276 0
-118 -2267 2268 0
-2268 2277 0
-119 -2268 2269 0
-2269 2278 0
-120 -2269 2270 0
-2270 2279 0
-121 -2270 2271 0
-2271 2280 0
-122 -2271 2272 0
-2272 2281 0
-123 -2272 2273 0
-2273 2282 0
-124 -2273 0
-116 2274 0
-2274 2283 0
-117 -2274 2275 0
-2275 2284 0
-118 -2275 2276 0
-2276 2285 0
-119 -2276 2277 0
-2277 2286 0
-120 -2277 2278 0
-2278 2287 0
-121 -2278 2279 0
-2279 2288 0
-122 -2279 2280 0
-2280 2289 0
-123 -2280 2281 0
-2281 2290 0
-124 -2281 2282 0
-2282 2291 0
-125 -2282 0
-117 2283 0
-2283 2292 0
-118 -2283 2284 0
-2284 2293 0
-119 -2284 2285 0
-2285 2294 0
-120 -2285 2286 0
-2286 2295 0
-121 -2286 2287 0
-2287 2296 0
-122 -2287 2288 0
-2288 2297 0
-123 -2288 2289 0
-2289 2298 0
-124 -2289 2290 0
-2290 2299 0
-125 -2290 2291 0
-2291 2300 0
-126 -2291 0
-118 2292 0
-2292 2301 0
-119 -2292 2293 0
-2293 2302 0
-120 -2293 2294 0
-2294 2303 0
-121 -2294 2295 0
-2295 2304 0
-122 -2295 2296 0
-2296 2305 0
-123 -2296 2297 0
-2297 2306 0
-124 -2297 2298 0
-2298 2307 0
-125 -2298 2299 0
-2299 2308 0
-126 -2299 2300 0
-2300 2309 0
-127 -2300 0
-119 2301 0
-2301 2310 0
-120 -2301 2302 0
-2302 2311 0
-121 -2302 2303 0
-2303 2312 0
-122 -2303 2304 0
-2304 2313 0
-123 -2304 2305 0
-2305 2314 0
-124 -2305 2306 0
-2306 2315 0
-125 -2306 2307 0
-2307 2316 0
-126 -2307 2308 0
-2308 2317 0
-127 -2308 2309 0
-2309 2318 0
-128 -2309 0
-120 2310 0
-2310 2319 0
-121 -2310 2311 0
-2311 2320 0
-122 -2311 2312 0
-2312 2321 0
-123 -2312 2313 0
-2313 2322 0
-124 -2313 2314 0
-2314 2323 0
-125 -2314 2315 0
-2315 2324 0
-126 -2315 2316 0
-2316 2325 0
-127 -2316 2317 0
-2317 2326 0
-128 -2317 2318 0
-2318 2327 0
-129 -2318 0
-121 2319 0
-2319 2328 0
-122 -2319 2320 0
-2320 2329 0
-123 -2320 2321 0
-2321 2330 0
-124 -2321 2322 0
-2322 2331 0
-125 -2322 2323 0
-2323 2332 0
-126 -2323 2324 0
-2324 2333 0
-127 -2324 2325 0
-2325 2334 0
-128 -2325 2326 0
-2326 2335 0
-129 -2326 2327 0
-2327 2336 0
-130 -2327 0
-122 2328 0
-2328 2337 0
-123 -2328 2329 0
-2329 2338 0
-124 -2329 2330 0
-2330 2339 0
-125 -2330 2331 0
-2331 2340 0
-126 -2331 2332 0
-2332 2341 0
-127 -2332 2333 0
-2333 2342 0
-128 -2333 2334 0
-2334 2343 0
-129 -2334 2335 0
-2335 2344 0
-130 -2335 2336 0
-2336 2345 0
-131 -2336 0
-123 2337 0
-2337 2346 0
-124 -2337 2338 0
-2338 2347 0
-125 -2338 2339 0
-2339 2348 0
-126 -2339 2340 0
-2340 2349 0
-127 -2340 2341 0
-2341 2350 0
-128 -2341 2342 0
-2342 2351 0
-129 -2342 2343 0
-2343 2352 0
-130 -2343 2344 0
-2344 2353 0
-131 -2344 2345 0
-2345 2354 0
-132 -2345 0
-124 2346 0
-2346 2355 0
-125 -2346 2347 0
-2347 2356 0
-126 -2347 2348 0
-2348 2357 0
-127 -2348 2349 0
-2349 2358 0
-128 -2349 2350 0
-2350 2359 0
-129 -2350 2351 0
-2351 2360 0
-130 -2351 2352 0
-2352 2361 0
-131 -2352 2353 0
-2353 2362 0
-132 -2353 2354 0
-2354 2363 0
-133 -2354 0
-125 2355 0
-2355 2364 0
-126 -2355 2356 0
-2356 2365 0
-127 -2356 2357 0
-2357 2366 0
-128 -2357 2358 0
-2358 2367 0
-129 -2358 2359 0
-2359 2368 0
-130 -2359 2360 0
-2360 2369 0
-131 -2360 2361 0
-2361 2370 0
-132 -2361 2362 0
-2362 2371 0
-133 -2362 2363 0
-2363 2372 0
-134 -2363 0
-126 2364 0
-2364 2373 0
-127 -2364 2365 0
-2365 2374 0
-128 -2365 2366 0
-2366 2375 0
-129 -2366 2367 0
-2367 2376 0
-130 -2367 2368 0
-2368 2377 0
-131 -2368 2369 0
-2369 2378 0
-132 -2369 2370 0
-2370 2379 0
-133 -2370 2371 0
-2371 2380 0
-134 -2371 2372 0
-2372 2381 0
-135 -2372 0
-127 2373 0
-2373 2382 0
-128 -2373 2374 0
-2374 2383 0
-129 -2374 2375 0
-2375 2384 0
-130 -2375 2376 0
-2376 2385 0
-131 -2376 2377 0
-2377 2386 0
-132 -2377 2378 0
-2378 2387 0
-133 -2378 2379 0
-2379 2388 0
-134 -2379 2380 0
-2380 2389 0
-135 -2380 2381 0
-2381 2390 0
-136 -2381 0
-128 2382 0
-2382 2391 0
-129 -2382 2383 0
-2383 2392 0
-130 -2383 2384 0
-2384 2393 0
-131 -2384 2385 0
-2385 2394 0
-132 -2385 2386 0
-2386 2395 0
-133 -2386 2387 0
-2387 2396 0
-134 -2387 2388 0
-2388 2397 0
-135 -2388 2389 0
-2389 2398 0
-136 -2389 2390 0
-2390 2399 0
-137 -2390 0
-129 2391 0
-2391 2400 0
-130 -2391 2392 0
-2392 2401 0
-131 -2392 2393 0
-2393 2402 0
-132 -2393 2394 0
-2394 2403 0
-133 -2394 2395 0
-2395 2404 0
-134 -2395 2396 0
-2396 2405 0
-135 -2396 2397 0
-2397 2406 0
-136 -2397 2398 0
-2398 2407 0
-137 -2398 2399 0
-2399 2408 0
-138 -2399 0
-130 2400 0
-2400 2409 0
-131 -2400 2401 0
-2401 2410 0
-132 -2401 2402 0
-2402 2411 0
-133 -2402 2403 0
-2403 2412 0
-134 -2403 2404 0
-2404 2413 0
-135 -2404 2405 0
-2405 2414 0
-136 -2405 2406 0
-2406 2415 0
-137 -2406 2407 0
-2407 2416 0
-138 -2407 2408 0
-2408 2417 0
-139 -2408 0
-131 2409 0
-132 -2409 2410 0
-133 -2410 2411 0
-134 -2411 2412 0
-135 -2412 2413 0
-136 -2413 2414 0
-137 -2414 2415 0
-138 -2415 2416 0
-139 -2416 2417 0
-140 -2417 0
1 36 0
