p cnf 5513 11293
-143 -1 0
-143 2 71 72 0
-2 1 143 0
-71 1 143 0
-72 1 143 0
-144 -2 0
-144 1 3 73 0
-1 2 144 0
-3 2 144 0
-73 2 144 0
-145 -3 0
-145 2 4 74 0
-2 3 145 0
-4 3 145 0
-74 3 145 0
-146 -4 0
-146 3 5 75 0
-3 4 146 0
-5 4 146 0
-75 4 146 0
-147 -5 0
-147 4 6 76 0
-4 5 147 0
-6 5 147 0
-76 5 147 0
-148 -6 0
-148 5 7 77 0
-5 6 148 0
-7 6 148 0
-77 6 148 0
-149 -7 0
-149 6 8 78 0
-6 7 149 0
-8 7 149 0
-78 7 149 0
-150 -8 0
-150 7 9 79 0
-7 8 150 0
-9 8 150 0
-79 8 150 0
-151 -9 0
-151 8 10 80 0
-8 9 151 0
-10 9 151 0
-80 9 151 0
-152 -10 0
-152 9 11 81 0
-9 10 152 0
-11 10 152 0
-81 10 152 0
-153 -11 0
-153 10 12 82 0
-10 11 153 0
-12 11 153 0
-82 11 153 0
-154 -12 0
-154 11 13 83 0
-11 12 154 0
-13 12 154 0
-83 12 154 0
-155 -13 0
-155 12 14 84 0
-12 13 155 0
-14 13 155 0
-84 13 155 0
-156 -14 0
-156 13 15 85 0
-13 14 156 0
-15 14 156 0
-85 14 156 0
-157 -15 0
-157 14 16 86 0
-14 15 157 0
-16 15 157 0
-86 15 157 0
-158 -16 0
-158 15 17 87 0
-15 16 158 0
-17 16 158 0
-87 16 158 0
-159 -17 0
-159 16 18 88 0
-16 17 159 0
-18 17 159 0
-88 17 159 0
-160 -18 0
-160 17 19 89 0
-17 18 160 0
-19 18 160 0
-89 18 160 0
-161 -19 0
-161 18 20 90 0
-18 19 161 0
-20 19 161 0
-90 19 161 0
-162 -20 0
-162 19 21 91 0
-19 20 162 0
-21 20 162 0
-91 20 162 0
-163 -21 0
-163 20 22 92 0
-20 21 163 0
-22 21 163 0
-92 21 163 0
-164 -22 0
-164 21 23 93 0
-21 22 164 0
-23 22 164 0
-93 22 164 0
-165 -23 0
-165 22 24 94 0
-22 23 165 0
-24 23 165 0
-94 23 165 0
-166 -24 0
-166 23 25 95 0
-23 24 166 0
-25 24 166 0
-95 24 166 0
-167 -25 0
-167 24 26 96 0
-24 25 167 0
-26 25 167 0
-96 25 167 0
-168 -26 0
-168 25 27 97 0
-25 26 168 0
-27 26 168 0
-97 26 168 0
-169 -27 0
-169 26 28 98 0
-26 27 169 0
-28 27 169 0
-98 27 169 0
-170 -28 0
-170 27 29 99 0
-27 28 170 0
-29 28 170 0
-99 28 170 0
-171 -29 0
-171 28 30 100 0
-28 29 171 0
-30 29 171 0
-100 29 171 0
-172 -30 0
-172 29 31 101 0
-29 30 172 0
-31 30 172 0
-101 30 172 0
-173 -31 0
-173 30 32 102 0
-30 31 173 0
-32 31 173 0
-102 31 173 0
-174 -32 0
-174 31 33 103 0
-31 32 174 0
-33 32 174 0
-103 32 174 0
-175 -33 0
-175 32 34 104 0
-32 33 175 0
-34 33 175 0
-104 33 175 0
-176 -34 0
-176 33 35 105 0
-33 34 176 0
-35 34 176 0
-105 34 176 0
-177 -35 0
-177 34 36 106 0
-34 35 177 0
-36 35 177 0
-106 35 177 0
-178 -36 0
-178 35 37 107 0
-35 36 178 0
-37 36 178 0
-107 36 178 0
-179 -37 0
-179 36 38 108 0
-36 37 179 0
-38 37 179 0
-108 37 179 0
-180 -38 0
-180 37 39 109 0
-37 38 180 0
-39 38 180 0
-109 38 180 0
-181 -39 0
-181 38 40 110 0
-38 39 181 0
-40 39 181 0
-110 39 181 0
-182 -40 0
-182 39 41 111 0
-39 40 182 0
-41 40 182 0
-111 40 182 0
-183 -41 0
-183 40 42 112 0
-40 41 183 0
-42 41 183 0
-112 41 183 0
-184 -42 0
-184 41 43 113 0
-41 42 184 0
-43 42 184 0
-113 42 184 0
-185 -43 0
-185 42 44 114 0
-42 43 185 0
-44 43 185 0
-114 43 185 0
-186 -44 0
-186 43 45 115 0
-43 44 186 0
-45 44 186 0
-115 44 186 0
-187 -45 0
-187 44 46 116 0
-44 45 187 0
-46 45 187 0
-116 45 187 0
-188 -46 0
-188 45 47 117 0
-45 46 188 0
-47 46 188 0
-117 46 188 0
-189 -47 0
-189 46 48 118 0
-46 47 189 0
-48 47 189 0
-118 47 189 0
-190 -48 0
-190 47 49 119 0
-47 48 190 0
-49 48 190 0
-119 48 190 0
-191 -49 0
-191 48 50 120 0
-48 49 191 0
-50 49 191 0
-120 49 191 0
-192 -50 0
-192 49 51 121 0
-49 50 192 0
-51 50 192 0
-121 50 192 0
-193 -51 0
-193 50 52 122 0
-50 51 193 0
-52 51 193 0
-122 51 193 0
-194 -52 0
-194 51 53 123 0
-51 52 194 0
-53 52 194 0
-123 52 194 0
-195 -53 0
-195 52 54 124 0
-52 53 195 0
-54 53 195 0
-124 53 195 0
-196 -54 0
-196 53 55 125 0
-53 54 196 0
-55 54 196 0
-125 54 196 0
-197 -55 0
-197 54 56 126 0
-54 55 197 0
-56 55 197 0
-126 55 197 0
-198 -56 0
-198 55 57 127 0
-55 56 198 0
-57 56 198 0
-127 56 198 0
-199 -57 0
-199 56 58 128 0
-56 57 199 0
-58 57 199 0
-128 57 199 0
-200 -58 0
-200 57 59 129 0
-57 58 200 0
-59 58 200 0
-129 58 200 0
-201 -59 0
-201 58 60 130 0
-58 59 201 0
-60 59 201 0
-130 59 201 0
-202 -60 0
-202 59 61 131 0
-59 60 202 0
-61 60 202 0
-131 60 202 0
-203 -61 0
-203 60 62 132 0
-60 61 203 0
-62 61 203 0
-132 61 203 0
-204 -62 0
-204 61 63 133 0
-61 62 204 0
-63 62 204 0
-133 62 204 0
-205 -63 0
-205 62 64 134 0
-62 63 205 0
-64 63 205 0
-134 63 205 0
-206 -64 0
-206 63 65 135 0
-63 64 206 0
-65 64 206 0
-135 64 206 0
-207 -65 0
-207 64 66 136 0
-64 65 207 0
-66 65 207 0
-136 65 207 0
-208 -66 0
-208 65 67 137 0
-65 66 208 0
-67 66 208 0
-137 66 208 0
-209 -67 0
-209 66 68 138 0
-66 67 209 0
-68 67 209 0
-138 67 209 0
-210 -68 0
-210 67 69 139 0
-67 68 210 0
-69 68 210 0
-139 68 210 0
-211 -69 0
-211 68 70 140 0
-68 69 211 0
-70 69 211 0
-140 69 211 0
-212 -70 0
-212 69 71 141 0
-69 70 212 0
-71 70 212 0
-141 70 212 0
-213 -71 0
-213 1 70 142 0
-1 71 213 0
-70 71 213 0
-142 71 213 0
-214 -72 0
-214 1 76 139 0
-1 72 214 0
-76 72 214 0
-139 72 214 0
-215 -73 0
-215 2 77 140 0
-2 73 215 0
-77 73 215 0
-140 73 215 0
-216 -74 0
-216 3 78 141 0
-3 74 216 0
-78 74 216 0
-141 74 216 0
-217 -75 0
-217 4 79 142 0
-4 75 217 0
-79 75 217 0
-142 75 217 0
-218 -76 0
-218 5 72 80 0
-5 76 218 0
-72 76 218 0
-80 76 218 0
-219 -77 0
-219 6 73 81 0
-6 77 219 0
-73 77 219 0
-81 77 219 0
-220 -78 0
-220 7 74 82 0
-7 78 220 0
-74 78 220 0
-82 78 220 0
-221 -79 0
-221 8 75 83 0
-8 79 221 0
-75 79 221 0
-83 79 221 0
-222 -80 0
-222 9 76 84 0
-9 80 222 0
-76 80 222 0
-84 80 222 0
-223 -81 0
-223 10 77 85 0
-10 81 223 0
-77 81 223 0
-85 81 223 0
-224 -82 0
-224 11 78 86 0
-11 82 224 0
-78 82 224 0
-86 82 224 0
-225 -83 0
-225 12 79 87 0
-12 83 225 0
-79 83 225 0
-87 83 225 0
-226 -84 0
-226 13 80 88 0
-13 84 226 0
-80 84 226 0
-88 84 226 0
-227 -85 0
-227 14 81 89 0
-14 85 227 0
-81 85 227 0
-89 85 227 0
-228 -86 0
-228 15 82 90 0
-15 86 228 0
-82 86 228 0
-90 86 228 0
-229 -87 0
-229 16 83 91 0
-16 87 229 0
-83 87 229 0
-91 87 229 0
-230 -88 0
-230 17 84 92 0
-17 88 230 0
-84 88 230 0
-92 88 230 0
-231 -89 0
-231 18 85 93 0
-18 89 231 0
-85 89 231 0
-93 89 231 0
-232 -90 0
-232 19 86 94 0
-19 90 232 0
-86 90 232 0
-94 90 232 0
-233 -91 0
-233 20 87 95 0
-20 91 233 0
-87 91 233 0
-95 91 233 0
-234 -92 0
-234 21 88 96 0
-21 92 234 0
-88 92 234 0
-96 92 234 0
-235 -93 0
-235 22 89 97 0
-22 93 235 0
-89 93 235 0
-97 93 235 0
-236 -94 0
-236 23 90 98 0
-23 94 236 0
-90 94 236 0
-98 94 236 0
-237 -95 0
-237 24 91 99 0
-24 95 237 0
-91 95 237 0
-99 95 237 0
-238 -96 0
-238 25 92 100 0
-25 96 238 0
-92 96 238 0
-100 96 238 0
-239 -97 0
-239 26 93 101 0
-26 97 239 0
-93 97 239 0
-101 97 239 0
-240 -98 0
-240 27 94 102 0
-27 98 240 0
-94 98 240 0
-102 98 240 0
-241 -99 0
-241 28 95 103 0
-28 99 241 0
-95 99 241 0
-103 99 241 0
-242 -100 0
-242 29 96 104 0
-29 100 242 0
-96 100 242 0
-104 100 242 0
-243 -101 0
-243 30 97 105 0
-30 101 243 0
-97 101 243 0
-105 101 243 0
-244 -102 0
-244 31 98 106 0
-31 102 244 0
-98 102 244 0
-106 102 244 0
-245 -103 0
-245 32 99 107 0
-32 103 245 0
-99 103 245 0
-107 103 245 0
-246 -104 0
-246 33 100 108 0
-33 104 246 0
-100 104 246 0
-108 104 246 0
-247 -105 0
-247 34 101 109 0
-34 105 247 0
-101 105 247 0
-109 105 247 0
-248 -106 0
-248 35 102 110 0
-35 106 248 0
-102 106 248 0
-110 106 248 0
-249 -107 0
-249 36 103 111 0
-36 107 249 0
-103 107 249 0
-111 107 249 0
-250 -108 0
-250 37 104 112 0
-37 108 250 0
-104 108 250 0
-112 108 250 0
-251 -109 0
-251 38 105 113 0
-38 109 251 0
-105 109 251 0
-113 109 251 0
-252 -110 0
-252 39 106 114 0
-39 110 252 0
-106 110 252 0
-114 110 252 0
-253 -111 0
-253 40 107 115 0
-40 111 253 0
-107 111 253 0
-115 111 253 0
-254 -112 0
-254 41 108 116 0
-41 112 254 0
-108 112 254 0
-116 112 254 0
-255 -113 0
-255 42 109 117 0
-42 113 255 0
-109 113 255 0
-117 113 255 0
-256 -114 0
-256 43 110 118 0
-43 114 256 0
-110 114 256 0
-118 114 256 0
-257 -115 0
-257 44 111 119 0
-44 115 257 0
-111 115 257 0
-119 115 257 0
-258 -116 0
-258 45 112 120 0
-45 116 258 0
-112 116 258 0
-120 116 258 0
-259 -117 0
-259 46 113 121 0
-46 117 259 0
-113 117 259 0
-121 117 259 0
-260 -118 0
-260 47 114 122 0
-47 118 260 0
-114 118 260 0
-122 118 260 0
-261 -119 0
-261 48 115 123 0
-48 119 261 0
-115 119 261 0
-123 119 261 0
-262 -120 0
-262 49 116 124 0
-49 120 262 0
-116 120 262 0
-124 120 262 0
-263 -121 0
-263 50 117 125 0
-50 121 263 0
-117 121 263 0
-125 121 263 0
-264 -122 0
-264 51 118 126 0
-51 122 264 0
-118 122 264 0
-126 122 264 0
-265 -123 0
-265 52 119 127 0
-52 123 265 0
-119 123 265 0
-127 123 265 0
-266 -124 0
-266 53 120 128 0
-53 124 266 0
-120 124 266 0
-128 124 266 0
-267 -125 0
-267 54 121 129 0
-54 125 267 0
-121 125 267 0
-129 125 267 0
-268 -126 0
-268 55 122 130 0
-55 126 268 0
-122 126 268 0
-130 126 268 0
-269 -127 0
-269 56 123 131 0
-56 127 269 0
-123 127 269 0
-131 127 269 0
-270 -128 0
-270 57 124 132 0
-57 128 270 0
-124 128 270 0
-132 128 270 0
-271 -129 0
-271 58 125 133 0
-58 129 271 0
-125 129 271 0
-133 129 271 0
-272 -130 0
-272 59 126 134 0
-59 130 272 0
-126 130 272 0
-134 130 272 0
-273 -131 0
-273 60 127 135 0
-60 131 273 0
-127 131 273 0
-135 131 273 0
-274 -132 0
-274 61 128 136 0
-61 132 274 0
-128 132 274 0
-136 132 274 0
-275 -133 0
-275 62 129 137 0
-62 133 275 0
-129 133 275 0
-137 133 275 0
-276 -134 0
-276 63 130 138 0
-63 134 276 0
-130 134 276 0
-138 134 276 0
-277 -135 0
-277 64 131 139 0
-64 135 277 0
-131 135 277 0
-139 135 277 0
-278 -136 0
-278 65 132 140 0
-65 136 278 0
-132 136 278 0
-140 136 278 0
-279 -137 0
-279 66 133 141 0
-66 137 279 0
-133 137 279 0
-141 137 279 0
-280 -138 0
-280 67 134 142 0
-67 138 280 0
-134 138 280 0
-142 138 280 0
-281 -139 0
-281 68 72 135 0
-68 139 281 0
-72 139 281 0
-135 139 281 0
-282 -140 0
-282 69 73 136 0
-69 140 282 0
-73 140 282 0
-136 140 282 0
-283 -141 0
-283 70 74 137 0
-70 141 283 0
-74 141 283 0
-137 141 283 0
-284 -142 0
-284 71 75 138 0
-71 142 284 0
-75 142 284 0
-138 142 284 0
1 285 0
-285 286 0
2 -285 287 0
-287 288 0
3 -287 289 0
-289 290 0
4 -289 291 0
-291 292 0
5 -291 293 0
-293 294 0
6 -293 295 0
-295 296 0
7 -295 297 0
-297 298 0
8 -297 299 0
-299 300 0
9 -299 301 0
-301 302 0
10 -301 303 0
-303 304 0
11 -303 305 0
-305 306 0
12 -305 307 0
-307 308 0
13 -307 309 0
-309 310 0
14 -309 311 0
-311 312 0
15 -311 313 0
-313 314 0
16 -313 315 0
-315 316 0
17 -315 317 0
-317 318 0
18 -317 319 0
-319 320 0
19 -319 321 0
-321 322 0
20 -321 323 0
-323 324 0
21 -323 325 0
-325 326 0
22 -325 327 0
-327 328 0
23 -327 329 0
-329 330 0
24 -329 331 0
-331 332 0
25 -331 333 0
-333 334 0
26 -333 335 0
-335 336 0
27 -335 337 0
-337 338 0
28 -337 339 0
-339 340 0
29 -339 341 0
-341 342 0
30 -341 343 0
-343 344 0
31 -343 345 0
-345 346 0
32 -345 347 0
-347 348 0
33 -347 349 0
-349 350 0
34 -349 351 0
-351 352 0
35 -351 353 0
-353 354 0
36 -353 355 0
-355 356 0
37 -355 357 0
-357 358 0
38 -357 359 0
-359 360 0
39 -359 361 0
-361 362 0
40 -361 363 0
-363 364 0
41 -363 365 0
-365 366 0
42 -365 367 0
-367 368 0
43 -367 369 0
-369 370 0
44 -369 371 0
-371 372 0
45 -371 373 0
-373 374 0
46 -373 375 0
-375 376 0
47 -375 377 0
-377 378 0
48 -377 379 0
-379 380 0
49 -379 381 0
-381 382 0
50 -381 383 0
-383 384 0
51 -383 385 0
-385 386 0
52 -385 387 0
-387 388 0
53 -387 389 0
-389 390 0
54 -389 391 0
-391 392 0
55 -391 393 0
-393 394 0
56 -393 395 0
-395 396 0
57 -395 397 0
-397 398 0
58 -397 399 0
-399 400 0
59 -399 401 0
-401 402 0
60 -401 403 0
-403 404 0
61 -403 405 0
-405 406 0
62 -405 407 0
-407 408 0
63 -407 409 0
-409 410 0
64 -409 411 0
-411 412 0
65 -411 413 0
-413 414 0
66 -413 415 0
-415 416 0
67 -415 417 0
-417 418 0
68 -417 419 0
-419 420 0
69 -419 421 0
-421 422 0
70 -421 423 0
-423 424 0
71 -423 425 0
-425 426 0
72 -425 427 0
-427 428 0
73 -427 429 0
-429 430 0
74 -429 431 0
-431 432 0
75 -431 433 0
-433 434 0
76 -433 435 0
-435 436 0
77 -435 437 0
-437 438 0
78 -437 439 0
-439 440 0
79 -439 441 0
-441 442 0
80 -441 443 0
-443 444 0
81 -443 445 0
-445 446 0
82 -445 447 0
-447 448 0
83 -447 449 0
-449 450 0
84 -449 451 0
-451 452 0
85 -451 453 0
-453 454 0
86 -453 455 0
-455 456 0
87 -455 457 0
-457 458 0
88 -457 459 0
-459 460 0
89 -459 461 0
-461 462 0
90 -461 463 0
-463 464 0
91 -463 465 0
-465 466 0
92 -465 467 0
-467 468 0
93 -467 469 0
-469 470 0
94 -469 471 0
-471 472 0
95 -471 473 0
-473 474 0
96 -473 475 0
-475 476 0
97 -475 477 0
-477 478 0
98 -477 479 0
-479 480 0
99 -479 481 0
-481 482 0
100 -481 483 0
-483 484 0
101 -483 485 0
-485 486 0
102 -485 487 0
-487 488 0
103 -487 489 0
-489 490 0
104 -489 491 0
-491 492 0
105 -491 493 0
-493 494 0
106 -493 495 0
-495 496 0
107 -495 497 0
-497 498 0
108 -497 499 0
-499 500 0
109 -499 501 0
-501 502 0
110 -501 503 0
-503 504 0
111 -503 505 0
-505 506 0
112 -505 507 0
-507 508 0
113 -507 509 0
-509 510 0
114 -509 511 0
-511 512 0
115 -511 513 0
-513 514 0
116 -513 515 0
-515 516 0
117 -515 517 0
-517 518 0
118 -517 519 0
-519 520 0
119 -519 521 0
-521 522 0
120 -521 523 0
-523 524 0
121 -523 525 0
-525 526 0
122 -525 527 0
-527 528 0
123 -527 529 0
-529 530 0
124 -529 531 0
-531 532 0
125 -531 533 0
-533 534 0
126 -533 535 0
-535 536 0
127 -535 0
2 286 0
-286 537 0
3 -286 288 0
-288 538 0
4 -288 290 0
-290 539 0
5 -290 292 0
-292 540 0
6 -292 294 0
-294 541 0
7 -294 296 0
-296 542 0
8 -296 298 0
-298 543 0
9 -298 300 0
-300 544 0
10 -300 302 0
-302 545 0
11 -302 304 0
-304 546 0
12 -304 306 0
-306 547 0
13 -306 308 0
-308 548 0
14 -308 310 0
-310 549 0
15 -310 312 0
-312 550 0
16 -312 314 0
-314 551 0
17 -314 316 0
-316 552 0
18 -316 318 0
-318 553 0
19 -318 320 0
-320 554 0
20 -320 322 0
-322 555 0
21 -322 324 0
-324 556 0
22 -324 326 0
-326 557 0
23 -326 328 0
-328 558 0
24 -328 330 0
-330 559 0
25 -330 332 0
-332 560 0
26 -332 334 0
-334 561 0
27 -334 336 0
-336 562 0
28 -336 338 0
-338 563 0
29 -338 340 0
-340 564 0
30 -340 342 0
-342 565 0
31 -342 344 0
-344 566 0
32 -344 346 0
-346 567 0
33 -346 348 0
-348 568 0
34 -348 350 0
-350 569 0
35 -350 352 0
-352 570 0
36 -352 354 0
-354 571 0
37 -354 356 0
-356 572 0
38 -356 358 0
-358 573 0
39 -358 360 0
-360 574 0
40 -360 362 0
-362 575 0
41 -362 364 0
-364 576 0
42 -364 366 0
-366 577 0
43 -366 368 0
-368 578 0
44 -368 370 0
-370 579 0
45 -370 372 0
-372 580 0
46 -372 374 0
-374 581 0
47 -374 376 0
-376 582 0
48 -376 378 0
-378 583 0
49 -378 380 0
-380 584 0
50 -380 382 0
-382 585 0
51 -382 384 0
-384 586 0
52 -384 386 0
-386 587 0
53 -386 388 0
-388 588 0
54 -388 390 0
-390 589 0
55 -390 392 0
-392 590 0
56 -392 394 0
-394 591 0
57 -394 396 0
-396 592 0
58 -396 398 0
-398 593 0
59 -398 400 0
-400 594 0
60 -400 402 0
-402 595 0
61 -402 404 0
-404 596 0
62 -404 406 0
-406 597 0
63 -406 408 0
-408 598 0
64 -408 410 0
-410 599 0
65 -410 412 0
-412 600 0
66 -412 414 0
-414 601 0
67 -414 416 0
-416 602 0
68 -416 418 0
-418 603 0
69 -418 420 0
-420 604 0
70 -420 422 0
-422 605 0
71 -422 424 0
-424 606 0
72 -424 426 0
-426 607 0
73 -426 428 0
-428 608 0
74 -428 430 0
-430 609 0
75 -430 432 0
-432 610 0
76 -432 434 0
-434 611 0
77 -434 436 0
-436 612 0
78 -436 438 0
-438 613 0
79 -438 440 0
-440 614 0
80 -440 442 0
-442 615 0
81 -442 444 0
-444 616 0
82 -444 446 0
-446 617 0
83 -446 448 0
-448 618 0
84 -448 450 0
-450 619 0
85 -450 452 0
-452 620 0
86 -452 454 0
-454 621 0
87 -454 456 0
-456 622 0
88 -456 458 0
-458 623 0
89 -458 460 0
-460 624 0
90 -460 462 0
-462 625 0
91 -462 464 0
-464 626 0
92 -464 466 0
-466 627 0
93 -466 468 0
-468 628 0
94 -468 470 0
-470 629 0
95 -470 472 0
-472 630 0
96 -472 474 0
-474 631 0
97 -474 476 0
-476 632 0
98 -476 478 0
-478 633 0
99 -478 480 0
-480 634 0
100 -480 482 0
-482 635 0
101 -482 484 0
-484 636 0
102 -484 486 0
-486 637 0
103 -486 488 0
-488 638 0
104 -488 490 0
-490 639 0
105 -490 492 0
-492 640 0
106 -492 494 0
-494 641 0
107 -494 496 0
-496 642 0
108 -496 498 0
-498 643 0
109 -498 500 0
-500 644 0
110 -500 502 0
-502 645 0
111 -502 504 0
-504 646 0
112 -504 506 0
-506 647 0
113 -506 508 0
-508 648 0
114 -508 510 0
-510 649 0
115 -510 512 0
-512 650 0
116 -512 514 0
-514 651 0
117 -514 516 0
-516 652 0
118 -516 518 0
-518 653 0
119 -518 520 0
-520 654 0
120 -520 522 0
-522 655 0
121 -522 524 0
-524 656 0
122 -524 526 0
-526 657 0
123 -526 528 0
-528 658 0
124 -528 530 0
-530 659 0
125 -530 532 0
-532 660 0
126 -532 534 0
-534 661 0
127 -534 536 0
-536 662 0
128 -536 0
3 537 0
-537 663 0
4 -537 538 0
-538 664 0
5 -538 539 0
-539 665 0
6 -539 540 0
-540 666 0
7 -540 541 0
-541 667 0
8 -541 542 0
-542 668 0
9 -542 543 0
-543 669 0
10 -543 544 0
-544 670 0
11 -544 545 0
-545 671 0
12 -545 546 0
-546 672 0
13 -546 547 0
-547 673 0
14 -547 548 0
-548 674 0
15 -548 549 0
-549 675 0
16 -549 550 0
-550 676 0
17 -550 551 0
-551 677 0
18 -551 552 0
-552 678 0
19 -552 553 0
-553 679 0
20 -553 554 0
-554 680 0
21 -554 555 0
-555 681 0
22 -555 556 0
-556 682 0
23 -556 557 0
-557 683 0
24 -557 558 0
-558 684 0
25 -558 559 0
-559 685 0
26 -559 560 0
-560 686 0
27 -560 561 0
-561 687 0
28 -561 562 0
-562 688 0
29 -562 563 0
-563 689 0
30 -563 564 0
-564 690 0
31 -564 565 0
-565 691 0
32 -565 566 0
-566 692 0
33 -566 567 0
-567 693 0
34 -567 568 0
-568 694 0
35 -568 569 0
-569 695 0
36 -569 570 0
-570 696 0
37 -570 571 0
-571 697 0
38 -571 572 0
-572 698 0
39 -572 573 0
-573 699 0
40 -573 574 0
-574 700 0
41 -574 575 0
-575 701 0
42 -575 576 0
-576 702 0
43 -576 577 0
-577 703 0
44 -577 578 0
-578 704 0
45 -578 579 0
-579 705 0
46 -579 580 0
-580 706 0
47 -580 581 0
-581 707 0
48 -581 582 0
-582 708 0
49 -582 583 0
-583 709 0
50 -583 584 0
-584 710 0
51 -584 585 0
-585 711 0
52 -585 586 0
-586 712 0
53 -586 587 0
-587 713 0
54 -587 588 0
-588 714 0
55 -588 589 0
-589 715 0
56 -589 590 0
-590 716 0
57 -590 591 0
-591 717 0
58 -591 592 0
-592 718 0
59 -592 593 0
-593 719 0
60 -593 594 0
-594 720 0
61 -594 595 0
-595 721 0
62 -595 596 0
-596 722 0
63 -596 597 0
-597 723 0
64 -597 598 0
-598 724 0
65 -598 599 0
-599 725 0
66 -599 600 0
-600 726 0
67 -600 601 0
-601 727 0
68 -601 602 0
-602 728 0
69 -602 603 0
-603 729 0
70 -603 604 0
-604 730 0
71 -604 605 0
-605 731 0
72 -605 606 0
-606 732 0
73 -606 607 0
-607 733 0
74 -607 608 0
-608 734 0
75 -608 609 0
-609 735 0
76 -609 610 0
-610 736 0
77 -610 611 0
-611 737 0
78 -611 612 0
-612 738 0
79 -612 613 0
-613 739 0
80 -613 614 0
-614 740 0
81 -614 615 0
-615 741 0
82 -615 616 0
-616 742 0
83 -616 617 0
-617 743 0
84 -617 618 0
-618 744 0
85 -618 619 0
-619 745 0
86 -619 620 0
-620 746 0
87 -620 621 0
-621 747 0
88 -621 622 0
-622 748 0
89 -622 623 0
-623 749 0
90 -623 624 0
-624 750 0
91 -624 625 0
-625 751 0
92 -625 626 0
-626 752 0
93 -626 627 0
-627 753 0
94 -627 628 0
-628 754 0
95 -628 629 0
-629 755 0
96 -629 630 0
-630 756 0
97 -630 631 0
-631 757 0
98 -631 632 0
-632 758 0
99 -632 633 0
-633 759 0
100 -633 634 0
-634 760 0
101 -634 635 0
-635 761 0
102 -635 636 0
-636 762 0
103 -636 637 0
-637 763 0
104 -637 638 0
-638 764 0
105 -638 639 0
-639 765 0
106 -639 640 0
-640 766 0
107 -640 641 0
-641 767 0
108 -641 642 0
-642 768 0
109 -642 643 0
-643 769 0
110 -643 644 0
-644 770 0
111 -644 645 0
-645 771 0
112 -645 646 0
-646 772 0
113 -646 647 0
-647 773 0
114 -647 648 0
-648 774 0
115 -648 649 0
-649 775 0
116 -649 650 0
-650 776 0
117 -650 651 0
-651 777 0
118 -651 652 0
-652 778 0
119 -652 653 0
-653 779 0
120 -653 654 0
-654 780 0
121 -654 655 0
-655 781 0
122 -655 656 0
-656 782 0
123 -656 657 0
-657 783 0
124 -657 658 0
-658 784 0
125 -658 659 0
-659 785 0
126 -659 660 0
-660 786 0
127 -660 661 0
-661 787 0
128 -661 662 0
-662 788 0
129 -662 0
4 663 0
-663 789 0
5 -663 664 0
-664 790 0
6 -664 665 0
-665 791 0
7 -665 666 0
-666 792 0
8 -666 667 0
-667 793 0
9 -667 668 0
-668 794 0
10 -668 669 0
-669 795 0
11 -669 670 0
-670 796 0
12 -670 671 0
-671 797 0
13 -671 672 0
-672 798 0
14 -672 673 0
-673 799 0
15 -673 674 0
-674 800 0
16 -674 675 0
-675 801 0
17 -675 676 0
-676 802 0
18 -676 677 0
-677 803 0
19 -677 678 0
-678 804 0
20 -678 679 0
-679 805 0
21 -679 680 0
-680 806 0
22 -680 681 0
-681 807 0
23 -681 682 0
-682 808 0
24 -682 683 0
-683 809 0
25 -683 684 0
-684 810 0
26 -684 685 0
-685 811 0
27 -685 686 0
-686 812 0
28 -686 687 0
-687 813 0
29 -687 688 0
-688 814 0
30 -688 689 0
-689 815 0
31 -689 690 0
-690 816 0
32 -690 691 0
-691 817 0
33 -691 692 0
-692 818 0
34 -692 693 0
-693 819 0
35 -693 694 0
-694 820 0
36 -694 695 0
-695 821 0
37 -695 696 0
-696 822 0
38 -696 697 0
-697 823 0
39 -697 698 0
-698 824 0
40 -698 699 0
-699 825 0
41 -699 700 0
-700 826 0
42 -700 701 0
-701 827 0
43 -701 702 0
-702 828 0
44 -702 703 0
-703 829 0
45 -703 704 0
-704 830 0
46 -704 705 0
-705 831 0
47 -705 706 0
-706 832 0
48 -706 707 0
-707 833 0
49 -707 708 0
-708 834 0
50 -708 709 0
-709 835 0
51 -709 710 0
-710 836 0
52 -710 711 0
-711 837 0
53 -711 712 0
-712 838 0
54 -712 713 0
-713 839 0
55 -713 714 0
-714 840 0
56 -714 715 0
-715 841 0
57 -715 716 0
-716 842 0
58 -716 717 0
-717 843 0
59 -717 718 0
-718 844 0
60 -718 719 0
-719 845 0
61 -719 720 0
-720 846 0
62 -720 721 0
-721 847 0
63 -721 722 0
-722 848 0
64 -722 723 0
-723 849 0
65 -723 724 0
-724 850 0
66 -724 725 0
-725 851 0
67 -725 726 0
-726 852 0
68 -726 727 0
-727 853 0
69 -727 728 0
-728 854 0
70 -728 729 0
-729 855 0
71 -729 730 0
-730 856 0
72 -730 731 0
-731 857 0
73 -731 732 0
-732 858 0
74 -732 733 0
-733 859 0
75 -733 734 0
-734 860 0
76 -734 735 0
-735 861 0
77 -735 736 0
-736 862 0
78 -736 737 0
-737 863 0
79 -737 738 0
-738 864 0
80 -738 739 0
-739 865 0
81 -739 740 0
-740 866 0
82 -740 741 0
-741 867 0
83 -741 742 0
-742 868 0
84 -742 743 0
-743 869 0
85 -743 744 0
-744 870 0
86 -744 745 0
-745 871 0
87 -745 746 0
-746 872 0
88 -746 747 0
-747 873 0
89 -747 748 0
-748 874 0
90 -748 749 0
-749 875 0
91 -749 750 0
-750 876 0
92 -750 751 0
-751 877 0
93 -751 752 0
-752 878 0
94 -752 753 0
-753 879 0
95 -753 754 0
-754 880 0
96 -754 755 0
-755 881 0
97 -755 756 0
-756 882 0
98 -756 757 0
-757 883 0
99 -757 758 0
-758 884 0
100 -758 759 0
-759 885 0
101 -759 760 0
-760 886 0
102 -760 761 0
-761 887 0
103 -761 762 0
-762 888 0
104 -762 763 0
-763 889 0
105 -763 764 0
-764 890 0
106 -764 765 0
-765 891 0
107 -765 766 0
-766 892 0
108 -766 767 0
-767 893 0
109 -767 768 0
-768 894 0
110 -768 769 0
-769 895 0
111 -769 770 0
-770 896 0
112 -770 771 0
-771 897 0
113 -771 772 0
-772 898 0
114 -772 773 0
-773 899 0
115 -773 774 0
-774 900 0
116 -774 775 0
-775 901 0
117 -775 776 0
-776 902 0
118 -776 777 0
-777 903 0
119 -777 778 0
-778 904 0
120 -778 779 0
-779 905 0
121 -779 780 0
-780 906 0
122 -780 781 0
-781 907 0
123 -781 782 0
-782 908 0
124 -782 783 0
-783 909 0
125 -783 784 0
-784 910 0
126 -784 785 0
-785 911 0
127 -785 786 0
-786 912 0
128 -786 787 0
-787 913 0
129 -787 788 0
-788 914 0
130 -788 0
5 789 0
-789 915 0
6 -789 790 0
-790 916 0
7 -790 791 0
-791 917 0
8 -791 792 0
-792 918 0
9 -792 793 0
-793 919 0
10 -793 794 0
-794 920 0
11 -794 795 0
-795 921 0
12 -795 796 0
-796 922 0
13 -796 797 0
-797 923 0
14 -797 798 0
-798 924 0
15 -798 799 0
-799 925 0
16 -799 800 0
-800 926 0
17 -800 801 0
-801 927 0
18 -801 802 0
-802 928 0
19 -802 803 0
-803 929 0
20 -803 804 0
-804 930 0
21 -804 805 0
-805 931 0
22 -805 806 0
-806 932 0
23 -806 807 0
-807 933 0
24 -807 808 0
-808 934 0
25 -808 809 0
-809 935 0
26 -809 810 0
-810 936 0
27 -810 811 0
-811 937 0
28 -811 812 0
-812 938 0
29 -812 813 0
-813 939 0
30 -813 814 0
-814 940 0
31 -814 815 0
-815 941 0
32 -815 816 0
-816 942 0
33 -816 817 0
-817 943 0
34 -817 818 0
-818 944 0
35 -818 819 0
-819 945 0
36 -819 820 0
-820 946 0
37 -820 821 0
-821 947 0
38 -821 822 0
-822 948 0
39 -822 823 0
-823 949 0
40 -823 824 0
-824 950 0
41 -824 825 0
-825 951 0
42 -825 826 0
-826 952 0
43 -826 827 0
-827 953 0
44 -827 828 0
-828 954 0
45 -828 829 0
-829 955 0
46 -829 830 0
-830 956 0
47 -830 831 0
-831 957 0
48 -831 832 0
-832 958 0
49 -832 833 0
-833 959 0
50 -833 834 0
-834 960 0
51 -834 835 0
-835 961 0
52 -835 836 0
-836 962 0
53 -836 837 0
-837 963 0
54 -837 838 0
-838 964 0
55 -838 839 0
-839 965 0
56 -839 840 0
-840 966 0
57 -840 841 0
-841 967 0
58 -841 842 0
-842 968 0
59 -842 843 0
-843 969 0
60 -843 844 0
-844 970 0
61 -844 845 0
-845 971 0
62 -845 846 0
-846 972 0
63 -846 847 0
-847 973 0
64 -847 848 0
-848 974 0
65 -848 849 0
-849 975 0
66 -849 850 0
-850 976 0
67 -850 851 0
-851 977 0
68 -851 852 0
-852 978 0
69 -852 853 0
-853 979 0
70 -853 854 0
-854 980 0
71 -854 855 0
-855 981 0
72 -855 856 0
-856 982 0
73 -856 857 0
-857 983 0
74 -857 858 0
-858 984 0
75 -858 859 0
-859 985 0
76 -859 860 0
-860 986 0
77 -860 861 0
-861 987 0
78 -861 862 0
-862 988 0
79 -862 863 0
-863 989 0
80 -863 864 0
-864 990 0
81 -864 865 0
-865 991 0
82 -865 866 0
-866 992 0
83 -866 867 0
-867 993 0
84 -867 868 0
-868 994 0
85 -868 869 0
-869 995 0
86 -869 870 0
-870 996 0
87 -870 871 0
-871 997 0
88 -871 872 0
-872 998 0
89 -872 873 0
-873 999 0
90 -873 874 0
-874 1000 0
91 -874 875 0
-875 1001 0
92 -875 876 0
-876 1002 0
93 -876 877 0
-877 1003 0
94 -877 878 0
-878 1004 0
95 -878 879 0
-879 1005 0
96 -879 880 0
-880 1006 0
97 -880 881 0
-881 1007 0
98 -881 882 0
-882 1008 0
99 -882 883 0
-883 1009 0
100 -883 884 0
-884 1010 0
101 -884 885 0
-885 1011 0
102 -885 886 0
-886 1012 0
103 -886 887 0
-887 1013 0
104 -887 888 0
-888 1014 0
105 -888 889 0
-889 1015 0
106 -889 890 0
-890 1016 0
107 -890 891 0
-891 1017 0
108 -891 892 0
-892 1018 0
109 -892 893 0
-893 1019 0
110 -893 894 0
-894 1020 0
111 -894 895 0
-895 1021 0
112 -895 896 0
-896 1022 0
113 -896 897 0
-897 1023 0
114 -897 898 0
-898 1024 0
115 -898 899 0
-899 1025 0
116 -899 900 0
-900 1026 0
117 -900 901 0
-901 1027 0
118 -901 902 0
-902 1028 0
119 -902 903 0
-903 1029 0
120 -903 904 0
-904 1030 0
121 -904 905 0
-905 1031 0
122 -905 906 0
-906 1032 0
123 -906 907 0
-907 1033 0
124 -907 908 0
-908 1034 0
125 -908 909 0
-909 1035 0
126 -909 910 0
-910 1036 0
127 -910 911 0
-911 1037 0
128 -911 912 0
-912 1038 0
129 -912 913 0
-913 1039 0
130 -913 914 0
-914 1040 0
131 -914 0
6 915 0
-915 1041 0
7 -915 916 0
-916 1042 0
8 -916 917 0
-917 1043 0
9 -917 918 0
-918 1044 0
10 -918 919 0
-919 1045 0
11 -919 920 0
-920 1046 0
12 -920 921 0
-921 1047 0
13 -921 922 0
-922 1048 0
14 -922 923 0
-923 1049 0
15 -923 924 0
-924 1050 0
16 -924 925 0
-925 1051 0
17 -925 926 0
-926 1052 0
18 -926 927 0
-927 1053 0
19 -927 928 0
-928 1054 0
20 -928 929 0
-929 1055 0
21 -929 930 0
-930 1056 0
22 -930 931 0
-931 1057 0
23 -931 932 0
-932 1058 0
24 -932 933 0
-933 1059 0
25 -933 934 0
-934 1060 0
26 -934 935 0
-935 1061 0
27 -935 936 0
-936 1062 0
28 -936 937 0
-937 1063 0
29 -937 938 0
-938 1064 0
30 -938 939 0
-939 1065 0
31 -939 940 0
-940 1066 0
32 -940 941 0
-941 1067 0
33 -941 942 0
-942 1068 0
34 -942 943 0
-943 1069 0
35 -943 944 0
-944 1070 0
36 -944 945 0
-945 1071 0
37 -945 946 0
-946 1072 0
38 -946 947 0
-947 1073 0
39 -947 948 0
-948 1074 0
40 -948 949 0
-949 1075 0
41 -949 950 0
-950 1076 0
42 -950 951 0
-951 1077 0
43 -951 952 0
-952 1078 0
44 -952 953 0
-953 1079 0
45 -953 954 0
-954 1080 0
46 -954 955 0
-955 1081 0
47 -955 956 0
-956 1082 0
48 -956 957 0
-957 1083 0
49 -957 958 0
-958 1084 0
50 -958 959 0
-959 1085 0
51 -959 960 0
-960 1086 0
52 -960 961 0
-961 1087 0
53 -961 962 0
-962 1088 0
54 -962 963 0
-963 1089 0
55 -963 964 0
-964 1090 0
56 -964 965 0
-965 1091 0
57 -965 966 0
-966 1092 0
58 -966 967 0
-967 1093 0
59 -967 968 0
-968 1094 0
60 -968 969 0
-969 1095 0
61 -969 970 0
-970 1096 0
62 -970 971 0
-971 1097 0
63 -971 972 0
-972 1098 0
64 -972 973 0
-973 1099 0
65 -973 974 0
-974 1100 0
66 -974 975 0
-975 1101 0
67 -975 976 0
-976 1102 0
68 -976 977 0
-977 1103 0
69 -977 978 0
-978 1104 0
70 -978 979 0
-979 1105 0
71 -979 980 0
-980 1106 0
72 -980 981 0
-981 1107 0
73 -981 982 0
-982 1108 0
74 -982 983 0
-983 1109 0
75 -983 984 0
-984 1110 0
76 -984 985 0
-985 1111 0
77 -985 986 0
-986 1112 0
78 -986 987 0
-987 1113 0
79 -987 988 0
-988 1114 0
80 -988 989 0
-989 1115 0
81 -989 990 0
-990 1116 0
82 -990 991 0
-991 1117 0
83 -991 992 0
-992 1118 0
84 -992 993 0
-993 1119 0
85 -993 994 0
-994 1120 0
86 -994 995 0
-995 1121 0
87 -995 996 0
-996 1122 0
88 -996 997 0
-997 1123 0
89 -997 998 0
-998 1124 0
90 -998 999 0
-999 1125 0
91 -999 1000 0
-1000 1126 0
92 -1000 1001 0
-1001 1127 0
93 -1001 1002 0
-1002 1128 0
94 -1002 1003 0
-1003 1129 0
95 -1003 1004 0
-1004 1130 0
96 -1004 1005 0
-1005 1131 0
97 -1005 1006 0
-1006 1132 0
98 -1006 1007 0
-1007 1133 0
99 -1007 1008 0
-1008 1134 0
100 -1008 1009 0
-1009 1135 0
101 -1009 1010 0
-1010 1136 0
102 -1010 1011 0
-1011 1137 0
103 -1011 1012 0
-1012 1138 0
104 -1012 1013 0
-1013 1139 0
105 -1013 1014 0
-1014 1140 0
106 -1014 1015 0
-1015 1141 0
107 -1015 1016 0
-1016 1142 0
108 -1016 1017 0
-1017 1143 0
109 -1017 1018 0
-1018 1144 0
110 -1018 1019 0
-1019 1145 0
111 -1019 1020 0
-1020 1146 0
112 -1020 1021 0
-1021 1147 0
113 -1021 1022 0
-1022 1148 0
114 -1022 1023 0
-1023 1149 0
115 -1023 1024 0
-1024 1150 0
116 -1024 1025 0
-1025 1151 0
117 -1025 1026 0
-1026 1152 0
118 -1026 1027 0
-1027 1153 0
119 -1027 1028 0
-1028 1154 0
120 -1028 1029 0
-1029 1155 0
121 -1029 1030 0
-1030 1156 0
122 -1030 1031 0
-1031 1157 0
123 -1031 1032 0
-1032 1158 0
124 -1032 1033 0
-1033 1159 0
125 -1033 1034 0
-1034 1160 0
126 -1034 1035 0
-1035 1161 0
127 -1035 1036 0
-1036 1162 0
128 -1036 1037 0
-1037 1163 0
129 -1037 1038 0
-1038 1164 0
130 -1038 1039 0
-1039 1165 0
131 -1039 1040 0
-1040 1166 0
132 -1040 0
7 1041 0
-1041 1167 0
8 -1041 1042 0
-1042 1168 0
9 -1042 1043 0
-1043 1169 0
10 -1043 1044 0
-1044 1170 0
11 -1044 1045 0
-1045 1171 0
12 -1045 1046 0
-1046 1172 0
13 -1046 1047 0
-1047 1173 0
14 -1047 1048 0
-1048 1174 0
15 -1048 1049 0
-1049 1175 0
16 -1049 1050 0
-1050 1176 0
17 -1050 1051 0
-1051 1177 0
18 -1051 1052 0
-1052 1178 0
19 -1052 1053 0
-1053 1179 0
20 -1053 1054 0
-1054 1180 0
21 -1054 1055 0
-1055 1181 0
22 -1055 1056 0
-1056 1182 0
23 -1056 1057 0
-1057 1183 0
24 -1057 1058 0
-1058 1184 0
25 -1058 1059 0
-1059 1185 0
26 -1059 1060 0
-1060 1186 0
27 -1060 1061 0
-1061 1187 0
28 -1061 1062 0
-1062 1188 0
29 -1062 1063 0
-1063 1189 0
30 -1063 1064 0
-1064 1190 0
31 -1064 1065 0
-1065 1191 0
32 -1065 1066 0
-1066 1192 0
33 -1066 1067 0
-1067 1193 0
34 -1067 1068 0
-1068 1194 0
35 -1068 1069 0
-1069 1195 0
36 -1069 1070 0
-1070 1196 0
37 -1070 1071 0
-1071 1197 0
38 -1071 1072 0
-1072 1198 0
39 -1072 1073 0
-1073 1199 0
40 -1073 1074 0
-1074 1200 0
41 -1074 1075 0
-1075 1201 0
42 -1075 1076 0
-1076 1202 0
43 -1076 1077 0
-1077 1203 0
44 -1077 1078 0
-1078 1204 0
45 -1078 1079 0
-1079 1205 0
46 -1079 1080 0
-1080 1206 0
47 -1080 1081 0
-1081 1207 0
48 -1081 1082 0
-1082 1208 0
49 -1082 1083 0
-1083 1209 0
50 -1083 1084 0
-1084 1210 0
51 -1084 1085 0
-1085 1211 0
52 -1085 1086 0
-1086 1212 0
53 -1086 1087 0
-1087 1213 0
54 -1087 1088 0
-1088 1214 0
55 -1088 1089 0
-1089 1215 0
56 -1089 1090 0
-1090 1216 0
57 -1090 1091 0
-1091 1217 0
58 -1091 1092 0
-1092 1218 0
59 -1092 1093 0
-1093 1219 0
60 -1093 1094 0
-1094 1220 0
61 -1094 1095 0
-1095 1221 0
62 -1095 1096 0
-1096 1222 0
63 -1096 1097 0
-1097 1223 0
64 -1097 1098 0
-1098 1224 0
65 -1098 1099 0
-1099 1225 0
66 -1099 1100 0
-1100 1226 0
67 -1100 1101 0
-1101 1227 0
68 -1101 1102 0
-1102 1228 0
69 -1102 1103 0
-1103 1229 0
70 -1103 1104 0
-1104 1230 0
71 -1104 1105 0
-1105 1231 0
72 -1105 1106 0
-1106 1232 0
73 -1106 1107 0
-1107 1233 0
74 -1107 1108 0
-1108 1234 0
75 -1108 1109 0
-1109 1235 0
76 -1109 1110 0
-1110 1236 0
77 -1110 1111 0
-1111 1237 0
78 -1111 1112 0
-1112 1238 0
79 -1112 1113 0
-1113 1239 0
80 -1113 1114 0
-1114 1240 0
81 -1114 1115 0
-1115 1241 0
82 -1115 1116 0
-1116 1242 0
83 -1116 1117 0
-1117 1243 0
84 -1117 1118 0
-1118 1244 0
85 -1118 1119 0
-1119 1245 0
86 -1119 1120 0
-1120 1246 0
87 -1120 1121 0
-1121 1247 0
88 -1121 1122 0
-1122 1248 0
89 -1122 1123 0
-1123 1249 0
90 -1123 1124 0
-1124 1250 0
91 -1124 1125 0
-1125 1251 0
92 -1125 1126 0
-1126 1252 0
93 -1126 1127 0
-1127 1253 0
94 -1127 1128 0
-1128 1254 0
95 -1128 1129 0
-1129 1255 0
96 -1129 1130 0
-1130 1256 0
97 -1130 1131 0
-1131 1257 0
98 -1131 1132 0
-1132 1258 0
99 -1132 1133 0
-1133 1259 0
100 -1133 1134 0
-1134 1260 0
101 -1134 1135 0
-1135 1261 0
102 -1135 1136 0
-1136 1262 0
103 -1136 1137 0
-1137 1263 0
104 -1137 1138 0
-1138 1264 0
105 -1138 1139 0
-1139 1265 0
106 -1139 1140 0
-1140 1266 0
107 -1140 1141 0
-1141 1267 0
108 -1141 1142 0
-1142 1268 0
109 -1142 1143 0
-1143 1269 0
110 -1143 1144 0
-1144 1270 0
111 -1144 1145 0
-1145 1271 0
112 -1145 1146 0
-1146 1272 0
113 -1146 1147 0
-1147 1273 0
114 -1147 1148 0
-1148 1274 0
115 -1148 1149 0
-1149 1275 0
116 -1149 1150 0
-1150 1276 0
117 -1150 1151 0
-1151 1277 0
118 -1151 1152 0
-1152 1278 0
119 -1152 1153 0
-1153 1279 0
120 -1153 1154 0
-1154 1280 0
121 -1154 1155 0
-1155 1281 0
122 -1155 1156 0
-1156 1282 0
123 -1156 1157 0
-1157 1283 0
124 -1157 1158 0
-1158 1284 0
125 -1158 1159 0
-1159 1285 0
126 -1159 1160 0
-1160 1286 0
127 -1160 1161 0
-1161 1287 0
128 -1161 1162 0
-1162 1288 0
129 -1162 1163 0
-1163 1289 0
130 -1163 1164 0
-1164 1290 0
131 -1164 1165 0
-1165 1291 0
132 -1165 1166 0
-1166 1292 0
133 -1166 0
8 1167 0
-1167 1293 0
9 -1167 1168 0
-1168 1294 0
10 -1168 1169 0
-1169 1295 0
11 -1169 1170 0
-1170 1296 0
12 -1170 1171 0
-1171 1297 0
13 -1171 1172 0
-1172 1298 0
14 -1172 1173 0
-1173 1299 0
15 -1173 1174 0
-1174 1300 0
16 -1174 1175 0
-1175 1301 0
17 -1175 1176 0
-1176 1302 0
18 -1176 1177 0
-1177 1303 0
19 -1177 1178 0
-1178 1304 0
20 -1178 1179 0
-1179 1305 0
21 -1179 1180 0
-1180 1306 0
22 -1180 1181 0
-1181 1307 0
23 -1181 1182 0
-1182 1308 0
24 -1182 1183 0
-1183 1309 0
25 -1183 1184 0
-1184 1310 0
26 -1184 1185 0
-1185 1311 0
27 -1185 1186 0
-1186 1312 0
28 -1186 1187 0
-1187 1313 0
29 -1187 1188 0
-1188 1314 0
30 -1188 1189 0
-1189 1315 0
31 -1189 1190 0
-1190 1316 0
32 -1190 1191 0
-1191 1317 0
33 -1191 1192 0
-1192 1318 0
34 -1192 1193 0
-1193 1319 0
35 -1193 1194 0
-1194 1320 0
36 -1194 1195 0
-1195 1321 0
37 -1195 1196 0
-1196 1322 0
38 -1196 1197 0
-1197 1323 0
39 -1197 1198 0
-1198 1324 0
40 -1198 1199 0
-1199 1325 0
41 -1199 1200 0
-1200 1326 0
42 -1200 1201 0
-1201 1327 0
43 -1201 1202 0
-1202 1328 0
44 -1202 1203 0
-1203 1329 0
45 -1203 1204 0
-1204 1330 0
46 -1204 1205 0
-1205 1331 0
47 -1205 1206 0
-1206 1332 0
48 -1206 1207 0
-1207 1333 0
49 -1207 1208 0
-1208 1334 0
50 -1208 1209 0
-1209 1335 0
51 -1209 1210 0
-1210 1336 0
52 -1210 1211 0
-1211 1337 0
53 -1211 1212 0
-1212 1338 0
54 -1212 1213 0
-1213 1339 0
55 -1213 1214 0
-1214 1340 0
56 -1214 1215 0
-1215 1341 0
57 -1215 1216 0
-1216 1342 0
58 -1216 1217 0
-1217 1343 0
59 -1217 1218 0
-1218 1344 0
60 -1218 1219 0
-1219 1345 0
61 -1219 1220 0
-1220 1346 0
62 -1220 1221 0
-1221 1347 0
63 -1221 1222 0
-1222 1348 0
64 -1222 1223 0
-1223 1349 0
65 -1223 1224 0
-1224 1350 0
66 -1224 1225 0
-1225 1351 0
67 -1225 1226 0
-1226 1352 0
68 -1226 1227 0
-1227 1353 0
69 -1227 1228 0
-1228 1354 0
70 -1228 1229 0
-1229 1355 0
71 -1229 1230 0
-1230 1356 0
72 -1230 1231 0
-1231 1357 0
73 -1231 1232 0
-1232 1358 0
74 -1232 1233 0
-1233 1359 0
75 -1233 1234 0
-1234 1360 0
76 -1234 1235 0
-1235 1361 0
77 -1235 1236 0
-1236 1362 0
78 -1236 1237 0
-1237 1363 0
79 -1237 1238 0
-1238 1364 0
80 -1238 1239 0
-1239 1365 0
81 -1239 1240 0
-1240 1366 0
82 -1240 1241 0
-1241 1367 0
83 -1241 1242 0
-1242 1368 0
84 -1242 1243 0
-1243 1369 0
85 -1243 1244 0
-1244 1370 0
86 -1244 1245 0
-1245 1371 0
87 -1245 1246 0
-1246 1372 0
88 -1246 1247 0
-1247 1373 0
89 -1247 1248 0
-1248 1374 0
90 -1248 1249 0
-1249 1375 0
91 -1249 1250 0
-1250 1376 0
92 -1250 1251 0
-1251 1377 0
93 -1251 1252 0
-1252 1378 0
94 -1252 1253 0
-1253 1379 0
95 -1253 1254 0
-1254 1380 0
96 -1254 1255 0
-1255 1381 0
97 -1255 1256 0
-1256 1382 0
98 -1256 1257 0
-1257 1383 0
99 -1257 1258 0
-1258 1384 0
100 -1258 1259 0
-1259 1385 0
101 -1259 1260 0
-1260 1386 0
102 -1260 1261 0
-1261 1387 0
103 -1261 1262 0
-1262 1388 0
104 -1262 1263 0
-1263 1389 0
105 -1263 1264 0
-1264 1390 0
106 -1264 1265 0
-1265 1391 0
107 -1265 1266 0
-1266 1392 0
108 -1266 1267 0
-1267 1393 0
109 -1267 1268 0
-1268 1394 0
110 -1268 1269 0
-1269 1395 0
111 -1269 1270 0
-1270 1396 0
112 -1270 1271 0
-1271 1397 0
113 -1271 1272 0
-1272 1398 0
114 -1272 1273 0
-1273 1399 0
115 -1273 1274 0
-1274 1400 0
116 -1274 1275 0
-1275 1401 0
117 -1275 1276 0
-1276 1402 0
118 -1276 1277 0
-1277 1403 0
119 -1277 1278 0
-1278 1404 0
120 -1278 1279 0
-1279 1405 0
121 -1279 1280 0
-1280 1406 0
122 -1280 1281 0
-1281 1407 0
123 -1281 1282 0
-1282 1408 0
124 -1282 1283 0
-1283 1409 0
125 -1283 1284 0
-1284 1410 0
126 -1284 1285 0
-1285 1411 0
127 -1285 1286 0
-1286 1412 0
128 -1286 1287 0
-1287 1413 0
129 -1287 1288 0
-1288 1414 0
130 -1288 1289 0
-1289 1415 0
131 -1289 1290 0
-1290 1416 0
132 -1290 1291 0
-1291 1417 0
133 -1291 1292 0
-1292 1418 0
134 -1292 0
9 1293 0
-1293 1419 0
10 -1293 1294 0
-1294 1420 0
11 -1294 1295 0
-1295 1421 0
12 -1295 1296 0
-1296 1422 0
13 -1296 1297 0
-1297 1423 0
14 -1297 1298 0
-1298 1424 0
15 -1298 1299 0
-1299 1425 0
16 -1299 1300 0
-1300 1426 0
17 -1300 1301 0
-1301 1427 0
18 -1301 1302 0
-1302 1428 0
19 -1302 1303 0
-1303 1429 0
20 -1303 1304 0
-1304 1430 0
21 -1304 1305 0
-1305 1431 0
22 -1305 1306 0
-1306 1432 0
23 -1306 1307 0
-1307 1433 0
24 -1307 1308 0
-1308 1434 0
25 -1308 1309 0
-1309 1435 0
26 -1309 1310 0
-1310 1436 0
27 -1310 1311 0
-1311 1437 0
28 -1311 1312 0
-1312 1438 0
29 -1312 1313 0
-1313 1439 0
30 -1313 1314 0
-1314 1440 0
31 -1314 1315 0
-1315 1441 0
32 -1315 1316 0
-1316 1442 0
33 -1316 1317 0
-1317 1443 0
34 -1317 1318 0
-1318 1444 0
35 -1318 1319 0
-1319 1445 0
36 -1319 1320 0
-1320 1446 0
37 -1320 1321 0
-1321 1447 0
38 -1321 1322 0
-1322 1448 0
39 -1322 1323 0
-1323 1449 0
40 -1323 1324 0
-1324 1450 0
41 -1324 1325 0
-1325 1451 0
42 -1325 1326 0
-1326 1452 0
43 -1326 1327 0
-1327 1453 0
44 -1327 1328 0
-1328 1454 0
45 -1328 1329 0
-1329 1455 0
46 -1329 1330 0
-1330 1456 0
47 -1330 1331 0
-1331 1457 0
48 -1331 1332 0
-1332 1458 0
49 -1332 1333 0
-1333 1459 0
50 -1333 1334 0
-1334 1460 0
51 -1334 1335 0
-1335 1461 0
52 -1335 1336 0
-1336 1462 0
53 -1336 1337 0
-1337 1463 0
54 -1337 1338 0
-1338 1464 0
55 -1338 1339 0
-1339 1465 0
56 -1339 1340 0
-1340 1466 0
57 -1340 1341 0
-1341 1467 0
58 -1341 1342 0
-1342 1468 0
59 -1342 1343 0
-1343 1469 0
60 -1343 1344 0
-1344 1470 0
61 -1344 1345 0
-1345 1471 0
62 -1345 1346 0
-1346 1472 0
63 -1346 1347 0
-1347 1473 0
64 -1347 1348 0
-1348 1474 0
65 -1348 1349 0
-1349 1475 0
66 -1349 1350 0
-1350 1476 0
67 -1350 1351 0
-1351 1477 0
68 -1351 1352 0
-1352 1478 0
69 -1352 1353 0
-1353 1479 0
70 -1353 1354 0
-1354 1480 0
71 -1354 1355 0
-1355 1481 0
72 -1355 1356 0
-1356 1482 0
73 -1356 1357 0
-1357 1483 0
74 -1357 1358 0
-1358 1484 0
75 -1358 1359 0
-1359 1485 0
76 -1359 1360 0
-1360 1486 0
77 -1360 1361 0
-1361 1487 0
78 -1361 1362 0
-1362 1488 0
79 -1362 1363 0
-1363 1489 0
80 -1363 1364 0
-1364 1490 0
81 -1364 1365 0
-1365 1491 0
82 -1365 1366 0
-1366 1492 0
83 -1366 1367 0
-1367 1493 0
84 -1367 1368 0
-1368 1494 0
85 -1368 1369 0
-1369 1495 0
86 -1369 1370 0
-1370 1496 0
87 -1370 1371 0
-1371 1497 0
88 -1371 1372 0
-1372 1498 0
89 -1372 1373 0
-1373 1499 0
90 -1373 1374 0
-1374 1500 0
91 -1374 1375 0
-1375 1501 0
92 -1375 1376 0
-1376 1502 0
93 -1376 1377 0
-1377 1503 0
94 -1377 1378 0
-1378 1504 0
95 -1378 1379 0
-1379 1505 0
96 -1379 1380 0
-1380 1506 0
97 -1380 1381 0
-1381 1507 0
98 -1381 1382 0
-1382 1508 0
99 -1382 1383 0
-1383 1509 0
100 -1383 1384 0
-1384 1510 0
101 -1384 1385 0
-1385 1511 0
102 -1385 1386 0
-1386 1512 0
103 -1386 1387 0
-1387 1513 0
104 -1387 1388 0
-1388 1514 0
105 -1388 1389 0
-1389 1515 0
106 -1389 1390 0
-1390 1516 0
107 -1390 1391 0
-1391 1517 0
108 -1391 1392 0
-1392 1518 0
109 -1392 1393 0
-1393 1519 0
110 -1393 1394 0
-1394 1520 0
111 -1394 1395 0
-1395 1521 0
112 -1395 1396 0
-1396 1522 0
113 -1396 1397 0
-1397 1523 0
114 -1397 1398 0
-1398 1524 0
115 -1398 1399 0
-1399 1525 0
116 -1399 1400 0
-1400 1526 0
117 -1400 1401 0
-1401 1527 0
118 -1401 1402 0
-1402 1528 0
119 -1402 1403 0
-1403 1529 0
120 -1403 1404 0
-1404 1530 0
121 -1404 1405 0
-1405 1531 0
122 -1405 1406 0
-1406 1532 0
123 -1406 1407 0
-1407 1533 0
124 -1407 1408 0
-1408 1534 0
125 -1408 1409 0
-1409 1535 0
126 -1409 1410 0
-1410 1536 0
127 -1410 1411 0
-1411 1537 0
128 -1411 1412 0
-1412 1538 0
129 -1412 1413 0
-1413 1539 0
130 -1413 1414 0
-1414 1540 0
131 -1414 1415 0
-1415 1541 0
132 -1415 1416 0
-1416 1542 0
133 -1416 1417 0
-1417 1543 0
134 -1417 1418 0
-1418 1544 0
135 -1418 0
10 1419 0
-1419 1545 0
11 -1419 1420 0
-1420 1546 0
12 -1420 1421 0
-1421 1547 0
13 -1421 1422 0
-1422 1548 0
14 -1422 1423 0
-1423 1549 0
15 -1423 1424 0
-1424 1550 0
16 -1424 1425 0
-1425 1551 0
17 -1425 1426 0
-1426 1552 0
18 -1426 1427 0
-1427 1553 0
19 -1427 1428 0
-1428 1554 0
20 -1428 1429 0
-1429 1555 0
21 -1429 1430 0
-1430 1556 0
22 -1430 1431 0
-1431 1557 0
23 -1431 1432 0
-1432 1558 0
24 -1432 1433 0
-1433 1559 0
25 -1433 1434 0
-1434 1560 0
26 -1434 1435 0
-1435 1561 0
27 -1435 1436 0
-1436 1562 0
28 -1436 1437 0
-1437 1563 0
29 -1437 1438 0
-1438 1564 0
30 -1438 1439 0
-1439 1565 0
31 -1439 1440 0
-1440 1566 0
32 -1440 1441 0
-1441 1567 0
33 -1441 1442 0
-1442 1568 0
34 -1442 1443 0
-1443 1569 0
35 -1443 1444 0
-1444 1570 0
36 -1444 1445 0
-1445 1571 0
37 -1445 1446 0
-1446 1572 0
38 -1446 1447 0
-1447 1573 0
39 -1447 1448 0
-1448 1574 0
40 -1448 1449 0
-1449 1575 0
41 -1449 1450 0
-1450 1576 0
42 -1450 1451 0
-1451 1577 0
43 -1451 1452 0
-1452 1578 0
44 -1452 1453 0
-1453 1579 0
45 -1453 1454 0
-1454 1580 0
46 -1454 1455 0
-1455 1581 0
47 -1455 1456 0
-1456 1582 0
48 -1456 1457 0
-1457 1583 0
49 -1457 1458 0
-1458 1584 0
50 -1458 1459 0
-1459 1585 0
51 -1459 1460 0
-1460 1586 0
52 -1460 1461 0
-1461 1587 0
53 -1461 1462 0
-1462 1588 0
54 -1462 1463 0
-1463 1589 0
55 -1463 1464 0
-1464 1590 0
56 -1464 1465 0
-1465 1591 0
57 -1465 1466 0
-1466 1592 0
58 -1466 1467 0
-1467 1593 0
59 -1467 1468 0
-1468 1594 0
60 -1468 1469 0
-1469 1595 0
61 -1469 1470 0
-1470 1596 0
62 -1470 1471 0
-1471 1597 0
63 -1471 1472 0
-1472 1598 0
64 -1472 1473 0
-1473 1599 0
65 -1473 1474 0
-1474 1600 0
66 -1474 1475 0
-1475 1601 0
67 -1475 1476 0
-1476 1602 0
68 -1476 1477 0
-1477 1603 0
69 -1477 1478 0
-1478 1604 0
70 -1478 1479 0
-1479 1605 0
71 -1479 1480 0
-1480 1606 0
72 -1480 1481 0
-1481 1607 0
73 -1481 1482 0
-1482 1608 0
74 -1482 1483 0
-1483 1609 0
75 -1483 1484 0
-1484 1610 0
76 -1484 1485 0
-1485 1611 0
77 -1485 1486 0
-1486 1612 0
78 -1486 1487 0
-1487 1613 0
79 -1487 1488 0
-1488 1614 0
80 -1488 1489 0
-1489 1615 0
81 -1489 1490 0
-1490 1616 0
82 -1490 1491 0
-1491 1617 0
83 -1491 1492 0
-1492 1618 0
84 -1492 1493 0
-1493 1619 0
85 -1493 1494 0
-1494 1620 0
86 -1494 1495 0
-1495 1621 0
87 -1495 1496 0
-1496 1622 0
88 -1496 1497 0
-1497 1623 0
89 -1497 1498 0
-1498 1624 0
90 -1498 1499 0
-1499 1625 0
91 -1499 1500 0
-1500 1626 0
92 -1500 1501 0
-1501 1627 0
93 -1501 1502 0
-1502 1628 0
94 -1502 1503 0
-1503 1629 0
95 -1503 1504 0
-1504 1630 0
96 -1504 1505 0
-1505 1631 0
97 -1505 1506 0
-1506 1632 0
98 -1506 1507 0
-1507 1633 0
99 -1507 1508 0
-1508 1634 0
100 -1508 1509 0
-1509 1635 0
101 -1509 1510 0
-1510 1636 0
102 -1510 1511 0
-1511 1637 0
103 -1511 1512 0
-1512 1638 0
104 -1512 1513 0
-1513 1639 0
105 -1513 1514 0
-1514 1640 0
106 -1514 1515 0
-1515 1641 0
107 -1515 1516 0
-1516 1642 0
108 -1516 1517 0
-1517 1643 0
109 -1517 1518 0
-1518 1644 0
110 -1518 1519 0
-1519 1645 0
111 -1519 1520 0
-1520 1646 0
112 -1520 1521 0
-1521 1647 0
113 -1521 1522 0
-1522 1648 0
114 -1522 1523 0
-1523 1649 0
115 -1523 1524 0
-1524 1650 0
116 -1524 1525 0
-1525 1651 0
117 -1525 1526 0
-1526 1652 0
118 -1526 1527 0
-1527 1653 0
119 -1527 1528 0
-1528 1654 0
120 -1528 1529 0
-1529 1655 0
121 -1529 1530 0
-1530 1656 0
122 -1530 1531 0
-1531 1657 0
123 -1531 1532 0
-1532 1658 0
124 -1532 1533 0
-1533 1659 0
125 -1533 1534 0
-1534 1660 0
126 -1534 1535 0
-1535 1661 0
127 -1535 1536 0
-1536 1662 0
128 -1536 1537 0
-1537 1663 0
129 -1537 1538 0
-1538 1664 0
130 -1538 1539 0
-1539 1665 0
131 -1539 1540 0
-1540 1666 0
132 -1540 1541 0
-1541 1667 0
133 -1541 1542 0
-1542 1668 0
134 -1542 1543 0
-1543 1669 0
135 -1543 1544 0
-1544 1670 0
136 -1544 0
11 1545 0
-1545 1671 0
12 -1545 1546 0
-1546 1672 0
13 -1546 1547 0
-1547 1673 0
14 -1547 1548 0
-1548 1674 0
15 -1548 1549 0
-1549 1675 0
16 -1549 1550 0
-1550 1676 0
17 -1550 1551 0
-1551 1677 0
18 -1551 1552 0
-1552 1678 0
19 -1552 1553 0
-1553 1679 0
20 -1553 1554 0
-1554 1680 0
21 -1554 1555 0
-1555 1681 0
22 -1555 1556 0
-1556 1682 0
23 -1556 1557 0
-1557 1683 0
24 -1557 1558 0
-1558 1684 0
25 -1558 1559 0
-1559 1685 0
26 -1559 1560 0
-1560 1686 0
27 -1560 1561 0
-1561 1687 0
28 -1561 1562 0
-1562 1688 0
29 -1562 1563 0
-1563 1689 0
30 -1563 1564 0
-1564 1690 0
31 -1564 1565 0
-1565 1691 0
32 -1565 1566 0
-1566 1692 0
33 -1566 1567 0
-1567 1693 0
34 -1567 1568 0
-1568 1694 0
35 -1568 1569 0
-1569 1695 0
36 -1569 1570 0
-1570 1696 0
37 -1570 1571 0
-1571 1697 0
38 -1571 1572 0
-1572 1698 0
39 -1572 1573 0
-1573 1699 0
40 -1573 1574 0
-1574 1700 0
41 -1574 1575 0
-1575 1701 0
42 -1575 1576 0
-1576 1702 0
43 -1576 1577 0
-1577 1703 0
44 -1577 1578 0
-1578 1704 0
45 -1578 1579 0
-1579 1705 0
46 -1579 1580 0
-1580 1706 0
47 -1580 1581 0
-1581 1707 0
48 -1581 1582 0
-1582 1708 0
49 -1582 1583 0
-1583 1709 0
50 -1583 1584 0
-1584 1710 0
51 -1584 1585 0
-1585 1711 0
52 -1585 1586 0
-1586 1712 0
53 -1586 1587 0
-1587 1713 0
54 -1587 1588 0
-1588 1714 0
55 -1588 1589 0
-1589 1715 0
56 -1589 1590 0
-1590 1716 0
57 -1590 1591 0
-1591 1717 0
58 -1591 1592 0
-1592 1718 0
59 -1592 1593 0
-1593 1719 0
60 -1593 1594 0
-1594 1720 0
61 -1594 1595 0
-1595 1721 0
62 -1595 1596 0
-1596 1722 0
63 -1596 1597 0
-1597 1723 0
64 -1597 1598 0
-1598 1724 0
65 -1598 1599 0
-1599 1725 0
66 -1599 1600 0
-1600 1726 0
67 -1600 1601 0
-1601 1727 0
68 -1601 1602 0
-1602 1728 0
69 -1602 1603 0
-1603 1729 0
70 -1603 1604 0
-1604 1730 0
71 -1604 1605 0
-1605 1731 0
72 -1605 1606 0
-1606 1732 0
73 -1606 1607 0
-1607 1733 0
74 -1607 1608 0
-1608 1734 0
75 -1608 1609 0
-1609 1735 0
76 -1609 1610 0
-1610 1736 0
77 -1610 1611 0
-1611 1737 0
78 -1611 1612 0
-1612 1738 0
79 -1612 1613 0
-1613 1739 0
80 -1613 1614 0
-1614 1740 0
81 -1614 1615 0
-1615 1741 0
82 -1615 1616 0
-1616 1742 0
83 -1616 1617 0
-1617 1743 0
84 -1617 1618 0
-1618 1744 0
85 -1618 1619 0
-1619 1745 0
86 -1619 1620 0
-1620 1746 0
87 -1620 1621 0
-1621 1747 0
88 -1621 1622 0
-1622 1748 0
89 -1622 1623 0
-1623 1749 0
90 -1623 1624 0
-1624 1750 0
91 -1624 1625 0
-1625 1751 0
92 -1625 1626 0
-1626 1752 0
93 -1626 1627 0
-1627 1753 0
94 -1627 1628 0
-1628 1754 0
95 -1628 1629 0
-1629 1755 0
96 -1629 1630 0
-1630 1756 0
97 -1630 1631 0
-1631 1757 0
98 -1631 1632 0
-1632 1758 0
99 -1632 1633 0
-1633 1759 0
100 -1633 1634 0
-1634 1760 0
101 -1634 1635 0
-1635 1761 0
102 -1635 1636 0
-1636 1762 0
103 -1636 1637 0
-1637 1763 0
104 -1637 1638 0
-1638 1764 0
105 -1638 1639 0
-1639 1765 0
106 -1639 1640 0
-1640 1766 0
107 -1640 1641 0
-1641 1767 0
108 -1641 1642 0
-1642 1768 0
109 -1642 1643 0
-1643 1769 0
110 -1643 1644 0
-1644 1770 0
111 -1644 1645 0
-1645 1771 0
112 -1645 1646 0
-1646 1772 0
113 -1646 1647 0
-1647 1773 0
114 -1647 1648 0
-1648 1774 0
115 -1648 1649 0
-1649 1775 0
116 -1649 1650 0
-1650 1776 0
117 -1650 1651 0
-1651 1777 0
118 -1651 1652 0
-1652 1778 0
119 -1652 1653 0
-1653 1779 0
120 -1653 1654 0
-1654 1780 0
121 -1654 1655 0
-1655 1781 0
122 -1655 1656 0
-1656 1782 0
123 -1656 1657 0
-1657 1783 0
124 -1657 1658 0
-1658 1784 0
125 -1658 1659 0
-1659 1785 0
126 -1659 1660 0
-1660 1786 0
127 -1660 1661 0
-1661 1787 0
128 -1661 1662 0
-1662 1788 0
129 -1662 1663 0
-1663 1789 0
130 -1663 1664 0
-1664 1790 0
131 -1664 1665 0
-1665 1791 0
132 -1665 1666 0
-1666 1792 0
133 -1666 1667 0
-1667 1793 0
134 -1667 1668 0
-1668 1794 0
135 -1668 1669 0
-1669 1795 0
136 -1669 1670 0
-1670 1796 0
137 -1670 0
12 1671 0
-1671 1797 0
13 -1671 1672 0
-1672 1798 0
14 -1672 1673 0
-1673 1799 0
15 -1673 1674 0
-1674 1800 0
16 -1674 1675 0
-1675 1801 0
17 -1675 1676 0
-1676 1802 0
18 -1676 1677 0
-1677 1803 0
19 -1677 1678 0
-1678 1804 0
20 -1678 1679 0
-1679 1805 0
21 -1679 1680 0
-1680 1806 0
22 -1680 1681 0
-1681 1807 0
23 -1681 1682 0
-1682 1808 0
24 -1682 1683 0
-1683 1809 0
25 -1683 1684 0
-1684 1810 0
26 -1684 1685 0
-1685 1811 0
27 -1685 1686 0
-1686 1812 0
28 -1686 1687 0
-1687 1813 0
29 -1687 1688 0
-1688 1814 0
30 -1688 1689 0
-1689 1815 0
31 -1689 1690 0
-1690 1816 0
32 -1690 1691 0
-1691 1817 0
33 -1691 1692 0
-1692 1818 0
34 -1692 1693 0
-1693 1819 0
35 -1693 1694 0
-1694 1820 0
36 -1694 1695 0
-1695 1821 0
37 -1695 1696 0
-1696 1822 0
38 -1696 1697 0
-1697 1823 0
39 -1697 1698 0
-1698 1824 0
40 -1698 1699 0
-1699 1825 0
41 -1699 1700 0
-1700 1826 0
42 -1700 1701 0
-1701 1827 0
43 -1701 1702 0
-1702 1828 0
44 -1702 1703 0
-1703 1829 0
45 -1703 1704 0
-1704 1830 0
46 -1704 1705 0
-1705 1831 0
47 -1705 1706 0
-1706 1832 0
48 -1706 1707 0
-1707 1833 0
49 -1707 1708 0
-1708 1834 0
50 -1708 1709 0
-1709 1835 0
51 -1709 1710 0
-1710 1836 0
52 -1710 1711 0
-1711 1837 0
53 -1711 1712 0
-1712 1838 0
54 -1712 1713 0
-1713 1839 0
55 -1713 1714 0
-1714 1840 0
56 -1714 1715 0
-1715 1841 0
57 -1715 1716 0
-1716 1842 0
58 -1716 1717 0
-1717 1843 0
59 -1717 1718 0
-1718 1844 0
60 -1718 1719 0
-1719 1845 0
61 -1719 1720 0
-1720 1846 0
62 -1720 1721 0
-1721 1847 0
63 -1721 1722 0
-1722 1848 0
64 -1722 1723 0
-1723 1849 0
65 -1723 1724 0
-1724 1850 0
66 -1724 1725 0
-1725 1851 0
67 -1725 1726 0
-1726 1852 0
68 -1726 1727 0
-1727 1853 0
69 -1727 1728 0
-1728 1854 0
70 -1728 1729 0
-1729 1855 0
71 -1729 1730 0
-1730 1856 0
72 -1730 1731 0
-1731 1857 0
73 -1731 1732 0
-1732 1858 0
74 -1732 1733 0
-1733 1859 0
75 -1733 1734 0
-1734 1860 0
76 -1734 1735 0
-1735 1861 0
77 -1735 1736 0
-1736 1862 0
78 -1736 1737 0
-1737 1863 0
79 -1737 1738 0
-1738 1864 0
80 -1738 1739 0
-1739 1865 0
81 -1739 1740 0
-1740 1866 0
82 -1740 1741 0
-1741 1867 0
83 -1741 1742 0
-1742 1868 0
84 -1742 1743 0
-1743 1869 0
85 -1743 1744 0
-1744 1870 0
86 -1744 1745 0
-1745 1871 0
87 -1745 1746 0
-1746 1872 0
88 -1746 1747 0
-1747 1873 0
89 -1747 1748 0
-1748 1874 0
90 -1748 1749 0
-1749 1875 0
91 -1749 1750 0
-1750 1876 0
92 -1750 1751 0
-1751 1877 0
93 -1751 1752 0
-1752 1878 0
94 -1752 1753 0
-1753 1879 0
95 -1753 1754 0
-1754 1880 0
96 -1754 1755 0
-1755 1881 0
97 -1755 1756 0
-1756 1882 0
98 -1756 1757 0
-1757 1883 0
99 -1757 1758 0
-1758 1884 0
100 -1758 1759 0
-1759 1885 0
101 -1759 1760 0
-1760 1886 0
102 -1760 1761 0
-1761 1887 0
103 -1761 1762 0
-1762 1888 0
104 -1762 1763 0
-1763 1889 0
105 -1763 1764 0
-1764 1890 0
106 -1764 1765 0
-1765 1891 0
107 -1765 1766 0
-1766 1892 0
108 -1766 1767 0
-1767 1893 0
109 -1767 1768 0
-1768 1894 0
110 -1768 1769 0
-1769 1895 0
111 -1769 1770 0
-1770 1896 0
112 -1770 1771 0
-1771 1897 0
113 -1771 1772 0
-1772 1898 0
114 -1772 1773 0
-1773 1899 0
115 -1773 1774 0
-1774 1900 0
116 -1774 1775 0
-1775 1901 0
117 -1775 1776 0
-1776 1902 0
118 -1776 1777 0
-1777 1903 0
119 -1777 1778 0
-1778 1904 0
120 -1778 1779 0
-1779 1905 0
121 -1779 1780 0
-1780 1906 0
122 -1780 1781 0
-1781 1907 0
123 -1781 1782 0
-1782 1908 0
124 -1782 1783 0
-1783 1909 0
125 -1783 1784 0
-1784 1910 0
126 -1784 1785 0
-1785 1911 0
127 -1785 1786 0
-1786 1912 0
128 -1786 1787 0
-1787 1913 0
129 -1787 1788 0
-1788 1914 0
130 -1788 1789 0
-1789 1915 0
131 -1789 1790 0
-1790 1916 0
132 -1790 1791 0
-1791 1917 0
133 -1791 1792 0
-1792 1918 0
134 -1792 1793 0
-1793 1919 0
135 -1793 1794 0
-1794 1920 0
136 -1794 1795 0
-1795 1921 0
137 -1795 1796 0
-1796 1922 0
138 -1796 0
13 1797 0
-1797 1923 0
14 -1797 1798 0
-1798 1924 0
15 -1798 1799 0
-1799 1925 0
16 -1799 1800 0
-1800 1926 0
17 -1800 1801 0
-1801 1927 0
18 -1801 1802 0
-1802 1928 0
19 -1802 1803 0
-1803 1929 0
20 -1803 1804 0
-1804 1930 0
21 -1804 1805 0
-1805 1931 0
22 -1805 1806 0
-1806 1932 0
23 -1806 1807 0
-1807 1933 0
24 -1807 1808 0
-1808 1934 0
25 -1808 1809 0
-1809 1935 0
26 -1809 1810 0
-1810 1936 0
27 -1810 1811 0
-1811 1937 0
28 -1811 1812 0
-1812 1938 0
29 -1812 1813 0
-1813 1939 0
30 -1813 1814 0
-1814 1940 0
31 -1814 1815 0
-1815 1941 0
32 -1815 1816 0
-1816 1942 0
33 -1816 1817 0
-1817 1943 0
34 -1817 1818 0
-1818 1944 0
35 -1818 1819 0
-1819 1945 0
36 -1819 1820 0
-1820 1946 0
37 -1820 1821 0
-1821 1947 0
38 -1821 1822 0
-1822 1948 0
39 -1822 1823 0
-1823 1949 0
40 -1823 1824 0
-1824 1950 0
41 -1824 1825 0
-1825 1951 0
42 -1825 1826 0
-1826 1952 0
43 -1826 1827 0
-1827 1953 0
44 -1827 1828 0
-1828 1954 0
45 -1828 1829 0
-1829 1955 0
46 -1829 1830 0
-1830 1956 0
47 -1830 1831 0
-1831 1957 0
48 -1831 1832 0
-1832 1958 0
49 -1832 1833 0
-1833 1959 0
50 -1833 1834 0
-1834 1960 0
51 -1834 1835 0
-1835 1961 0
52 -1835 1836 0
-1836 1962 0
53 -1836 1837 0
-1837 1963 0
54 -1837 1838 0
-1838 1964 0
55 -1838 1839 0
-1839 1965 0
56 -1839 1840 0
-1840 1966 0
57 -1840 1841 0
-1841 1967 0
58 -1841 1842 0
-1842 1968 0
59 -1842 1843 0
-1843 1969 0
60 -1843 1844 0
-1844 1970 0
61 -1844 1845 0
-1845 1971 0
62 -1845 1846 0
-1846 1972 0
63 -1846 1847 0
-1847 1973 0
64 -1847 1848 0
-1848 1974 0
65 -1848 1849 0
-1849 1975 0
66 -1849 1850 0
-1850 1976 0
67 -1850 1851 0
-1851 1977 0
68 -1851 1852 0
-1852 1978 0
69 -1852 1853 0
-1853 1979 0
70 -1853 1854 0
-1854 1980 0
71 -1854 1855 0
-1855 1981 0
72 -1855 1856 0
-1856 1982 0
73 -1856 1857 0
-1857 1983 0
74 -1857 1858 0
-1858 1984 0
75 -1858 1859 0
-1859 1985 0
76 -1859 1860 0
-1860 1986 0
77 -1860 1861 0
-1861 1987 0
78 -1861 1862 0
-1862 1988 0
79 -1862 1863 0
-1863 1989 0
80 -1863 1864 0
-1864 1990 0
81 -1864 1865 0
-1865 1991 0
82 -1865 1866 0
-1866 1992 0
83 -1866 1867 0
-1867 1993 0
84 -1867 1868 0
-1868 1994 0
85 -1868 1869 0
-1869 1995 0
86 -1869 1870 0
-1870 1996 0
87 -1870 1871 0
-1871 1997 0
88 -1871 1872 0
-1872 1998 0
89 -1872 1873 0
-1873 1999 0
90 -1873 1874 0
-1874 2000 0
91 -1874 1875 0
-1875 2001 0
92 -1875 1876 0
-1876 2002 0
93 -1876 1877 0
-1877 2003 0
94 -1877 1878 0
-1878 2004 0
95 -1878 1879 0
-1879 2005 0
96 -1879 1880 0
-1880 2006 0
97 -1880 1881 0
-1881 2007 0
98 -1881 1882 0
-1882 2008 0
99 -1882 1883 0
-1883 2009 0
100 -1883 1884 0
-1884 2010 0
101 -1884 1885 0
-1885 2011 0
102 -1885 1886 0
-1886 2012 0
103 -1886 1887 0
-1887 2013 0
104 -1887 1888 0
-1888 2014 0
105 -1888 1889 0
-1889 2015 0
106 -1889 1890 0
-1890 2016 0
107 -1890 1891 0
-1891 2017 0
108 -1891 1892 0
-1892 2018 0
109 -1892 1893 0
-1893 2019 0
110 -1893 1894 0
-1894 2020 0
111 -1894 1895 0
-1895 2021 0
112 -1895 1896 0
-1896 2022 0
113 -1896 1897 0
-1897 2023 0
114 -1897 1898 0
-1898 2024 0
115 -1898 1899 0
-1899 2025 0
116 -1899 1900 0
-1900 2026 0
117 -1900 1901 0
-1901 2027 0
118 -1901 1902 0
-1902 2028 0
119 -1902 1903 0
-1903 2029 0
120 -1903 1904 0
-1904 2030 0
121 -1904 1905 0
-1905 2031 0
122 -1905 1906 0
-1906 2032 0
123 -1906 1907 0
-1907 2033 0
124 -1907 1908 0
-1908 2034 0
125 -1908 1909 0
-1909 2035 0
126 -1909 1910 0
-1910 2036 0
127 -1910 1911 0
-1911 2037 0
128 -1911 1912 0
-1912 2038 0
129 -1912 1913 0
-1913 2039 0
130 -1913 1914 0
-1914 2040 0
131 -1914 1915 0
-1915 2041 0
132 -1915 1916 0
-1916 2042 0
133 -1916 1917 0
-1917 2043 0
134 -1917 1918 0
-1918 2044 0
135 -1918 1919 0
-1919 2045 0
136 -1919 1920 0
-1920 2046 0
137 -1920 1921 0
-1921 2047 0
138 -1921 1922 0
-1922 2048 0
139 -1922 0
14 1923 0
-1923 2049 0
15 -1923 1924 0
-1924 2050 0
16 -1924 1925 0
-1925 2051 0
17 -1925 1926 0
-1926 2052 0
18 -1926 1927 0
-1927 2053 0
19 -1927 1928 0
-1928 2054 0
20 -1928 1929 0
-1929 2055 0
21 -1929 1930 0
-1930 2056 0
22 -1930 1931 0
-1931 2057 0
23 -1931 1932 0
-1932 2058 0
24 -1932 1933 0
-1933 2059 0
25 -1933 1934 0
-1934 2060 0
26 -1934 1935 0
-1935 2061 0
27 -1935 1936 0
-1936 2062 0
28 -1936 1937 0
-1937 2063 0
29 -1937 1938 0
-1938 2064 0
30 -1938 1939 0
-1939 2065 0
31 -1939 1940 0
-1940 2066 0
32 -1940 1941 0
-1941 2067 0
33 -1941 1942 0
-1942 2068 0
34 -1942 1943 0
-1943 2069 0
35 -1943 1944 0
-1944 2070 0
36 -1944 1945 0
-1945 2071 0
37 -1945 1946 0
-1946 2072 0
38 -1946 1947 0
-1947 2073 0
39 -1947 1948 0
-1948 2074 0
40 -1948 1949 0
-1949 2075 0
41 -1949 1950 0
-1950 2076 0
42 -1950 1951 0
-1951 2077 0
43 -1951 1952 0
-1952 2078 0
44 -1952 1953 0
-1953 2079 0
45 -1953 1954 0
-1954 2080 0
46 -1954 1955 0
-1955 2081 0
47 -1955 1956 0
-1956 2082 0
48 -1956 1957 0
-1957 2083 0
49 -1957 1958 0
-1958 2084 0
50 -1958 1959 0
-1959 2085 0
51 -1959 1960 0
-1960 2086 0
52 -1960 1961 0
-1961 2087 0
53 -1961 1962 0
-1962 2088 0
54 -1962 1963 0
-1963 2089 0
55 -1963 1964 0
-1964 2090 0
56 -1964 1965 0
-1965 2091 0
57 -1965 1966 0
-1966 2092 0
58 -1966 1967 0
-1967 2093 0
59 -1967 1968 0
-1968 2094 0
60 -1968 1969 0
-1969 2095 0
61 -1969 1970 0
-1970 2096 0
62 -1970 1971 0
-1971 2097 0
63 -1971 1972 0
-1972 2098 0
64 -1972 1973 0
-1973 2099 0
65 -1973 1974 0
-1974 2100 0
66 -1974 1975 0
-1975 2101 0
67 -1975 1976 0
-1976 2102 0
68 -1976 1977 0
-1977 2103 0
69 -1977 1978 0
-1978 2104 0
70 -1978 1979 0
-1979 2105 0
71 -1979 1980 0
-1980 2106 0
72 -1980 1981 0
-1981 2107 0
73 -1981 1982 0
-1982 2108 0
74 -1982 1983 0
-1983 2109 0
75 -1983 1984 0
-1984 2110 0
76 -1984 1985 0
-1985 2111 0
77 -1985 1986 0
-1986 2112 0
78 -1986 1987 0
-1987 2113 0
79 -1987 1988 0
-1988 2114 0
80 -1988 1989 0
-1989 2115 0
81 -1989 1990 0
-1990 2116 0
82 -1990 1991 0
-1991 2117 0
83 -1991 1992 0
-1992 2118 0
84 -1992 1993 0
-1993 2119 0
85 -1993 1994 0
-1994 2120 0
86 -1994 1995 0
-1995 2121 0
87 -1995 1996 0
-1996 2122 0
88 -1996 1997 0
-1997 2123 0
89 -1997 1998 0
-1998 2124 0
90 -1998 1999 0
-1999 2125 0
91 -1999 2000 0
-2000 2126 0
92 -2000 2001 0
-2001 2127 0
93 -2001 2002 0
-2002 2128 0
94 -2002 2003 0
-2003 2129 0
95 -2003 2004 0
-2004 2130 0
96 -2004 2005 0
-2005 2131 0
97 -2005 2006 0
-2006 2132 0
98 -2006 2007 0
-2007 2133 0
99 -2007 2008 0
-2008 2134 0
100 -2008 2009 0
-2009 2135 0
101 -2009 2010 0
-2010 2136 0
102 -2010 2011 0
-2011 2137 0
103 -2011 2012 0
-2012 2138 0
104 -2012 2013 0
-2013 2139 0
105 -2013 2014 0
-2014 2140 0
106 -2014 2015 0
-2015 2141 0
107 -2015 2016 0
-2016 2142 0
108 -2016 2017 0
-2017 2143 0
109 -2017 2018 0
-2018 2144 0
110 -2018 2019 0
-2019 2145 0
111 -2019 2020 0
-2020 2146 0
112 -2020 2021 0
-2021 2147 0
113 -2021 2022 0
-2022 2148 0
114 -2022 2023 0
-2023 2149 0
115 -2023 2024 0
-2024 2150 0
116 -2024 2025 0
-2025 2151 0
117 -2025 2026 0
-2026 2152 0
118 -2026 2027 0
-2027 2153 0
119 -2027 2028 0
-2028 2154 0
120 -2028 2029 0
-2029 2155 0
121 -2029 2030 0
-2030 2156 0
122 -2030 2031 0
-2031 2157 0
123 -2031 2032 0
-2032 2158 0
124 -2032 2033 0
-2033 2159 0
125 -2033 2034 0
-2034 2160 0
126 -2034 2035 0
-2035 2161 0
127 -2035 2036 0
-2036 2162 0
128 -2036 2037 0
-2037 2163 0
129 -2037 2038 0
-2038 2164 0
130 -2038 2039 0
-2039 2165 0
131 -2039 2040 0
-2040 2166 0
132 -2040 2041 0
-2041 2167 0
133 -2041 2042 0
-2042 2168 0
134 -2042 2043 0
-2043 2169 0
135 -2043 2044 0
-2044 2170 0
136 -2044 2045 0
-2045 2171 0
137 -2045 2046 0
-2046 2172 0
138 -2046 2047 0
-2047 2173 0
139 -2047 2048 0
-2048 2174 0
140 -2048 0
15 2049 0
-2049 2175 0
16 -2049 2050 0
-2050 2176 0
17 -2050 2051 0
-2051 2177 0
18 -2051 2052 0
-2052 2178 0
19 -2052 2053 0
-2053 2179 0
20 -2053 2054 0
-2054 2180 0
21 -2054 2055 0
-2055 2181 0
22 -2055 2056 0
-2056 2182 0
23 -2056 2057 0
-2057 2183 0
24 -2057 2058 0
-2058 2184 0
25 -2058 2059 0
-2059 2185 0
26 -2059 2060 0
-2060 2186 0
27 -2060 2061 0
-2061 2187 0
28 -2061 2062 0
-2062 2188 0
29 -2062 2063 0
-2063 2189 0
30 -2063 2064 0
-2064 2190 0
31 -2064 2065 0
-2065 2191 0
32 -2065 2066 0
-2066 2192 0
33 -2066 2067 0
-2067 2193 0
34 -2067 2068 0
-2068 2194 0
35 -2068 2069 0
-2069 2195 0
36 -2069 2070 0
-2070 2196 0
37 -2070 2071 0
-2071 2197 0
38 -2071 2072 0
-2072 2198 0
39 -2072 2073 0
-2073 2199 0
40 -2073 2074 0
-2074 2200 0
41 -2074 2075 0
-2075 2201 0
42 -2075 2076 0
-2076 2202 0
43 -2076 2077 0
-2077 2203 0
44 -2077 2078 0
-2078 2204 0
45 -2078 2079 0
-2079 2205 0
46 -2079 2080 0
-2080 2206 0
47 -2080 2081 0
-2081 2207 0
48 -2081 2082 0
-2082 2208 0
49 -2082 2083 0
-2083 2209 0
50 -2083 2084 0
-2084 2210 0
51 -2084 2085 0
-2085 2211 0
52 -2085 2086 0
-2086 2212 0
53 -2086 2087 0
-2087 2213 0
54 -2087 2088 0
-2088 2214 0
55 -2088 2089 0
-2089 2215 0
56 -2089 2090 0
-2090 2216 0
57 -2090 2091 0
-2091 2217 0
58 -2091 2092 0
-2092 2218 0
59 -2092 2093 0
-2093 2219 0
60 -2093 2094 0
-2094 2220 0
61 -2094 2095 0
-2095 2221 0
62 -2095 2096 0
-2096 2222 0
63 -2096 2097 0
-2097 2223 0
64 -2097 2098 0
-2098 2224 0
65 -2098 2099 0
-2099 2225 0
66 -2099 2100 0
-2100 2226 0
67 -2100 2101 0
-2101 2227 0
68 -2101 2102 0
-2102 2228 0
69 -2102 2103 0
-2103 2229 0
70 -2103 2104 0
-2104 2230 0
71 -2104 2105 0
-2105 2231 0
72 -2105 2106 0
-2106 2232 0
73 -2106 2107 0
-2107 2233 0
74 -2107 2108 0
-2108 2234 0
75 -2108 2109 0
-2109 2235 0
76 -2109 2110 0
-2110 2236 0
77 -2110 2111 0
-2111 2237 0
78 -2111 2112 0
-2112 2238 0
79 -2112 2113 0
-2113 2239 0
80 -2113 2114 0
-2114 2240 0
81 -2114 2115 0
-2115 2241 0
82 -2115 2116 0
-2116 2242 0
83 -2116 2117 0
-2117 2243 0
84 -2117 2118 0
-2118 2244 0
85 -2118 2119 0
-2119 2245 0
86 -2119 2120 0
-2120 2246 0
87 -2120 2121 0
-2121 2247 0
88 -2121 2122 0
-2122 2248 0
89 -2122 2123 0
-2123 2249 0
90 -2123 2124 0
-2124 2250 0
91 -2124 2125 0
-2125 2251 0
92 -2125 2126 0
-2126 2252 0
93 -2126 2127 0
-2127 2253 0
94 -2127 2128 0
-2128 2254 0
95 -2128 2129 0
-2129 2255 0
96 -2129 2130 0
-2130 2256 0
97 -2130 2131 0
-2131 2257 0
98 -2131 2132 0
-2132 2258 0
99 -2132 2133 0
-2133 2259 0
100 -2133 2134 0
-2134 2260 0
101 -2134 2135 0
-2135 2261 0
102 -2135 2136 0
-2136 2262 0
103 -2136 2137 0
-2137 2263 0
104 -2137 2138 0
-2138 2264 0
105 -2138 2139 0
-2139 2265 0
106 -2139 2140 0
-2140 2266 0
107 -2140 2141 0
-2141 2267 0
108 -2141 2142 0
-2142 2268 0
109 -2142 2143 0
-2143 2269 0
110 -2143 2144 0
-2144 2270 0
111 -2144 2145 0
-2145 2271 0
112 -2145 2146 0
-2146 2272 0
113 -2146 2147 0
-2147 2273 0
114 -2147 2148 0
-2148 2274 0
115 -2148 2149 0
-2149 2275 0
116 -2149 2150 0
-2150 2276 0
117 -2150 2151 0
-2151 2277 0
118 -2151 2152 0
-2152 2278 0
119 -2152 2153 0
-2153 2279 0
120 -2153 2154 0
-2154 2280 0
121 -2154 2155 0
-2155 2281 0
122 -2155 2156 0
-2156 2282 0
123 -2156 2157 0
-2157 2283 0
124 -2157 2158 0
-2158 2284 0
125 -2158 2159 0
-2159 2285 0
126 -2159 2160 0
-2160 2286 0
127 -2160 2161 0
-2161 2287 0
128 -2161 2162 0
-2162 2288 0
129 -2162 2163 0
-2163 2289 0
130 -2163 2164 0
-2164 2290 0
131 -2164 2165 0
-2165 2291 0
132 -2165 2166 0
-2166 2292 0
133 -2166 2167 0
-2167 2293 0
134 -2167 2168 0
-2168 2294 0
135 -2168 2169 0
-2169 2295 0
136 -2169 2170 0
-2170 2296 0
137 -2170 2171 0
-2171 2297 0
138 -2171 2172 0
-2172 2298 0
139 -2172 2173 0
-2173 2299 0
140 -2173 2174 0
-2174 2300 0
141 -2174 0
16 2175 0
17 -2175 2176 0
18 -2176 2177 0
19 -2177 2178 0
20 -2178 2179 0
21 -2179 2180 0
22 -2180 2181 0
23 -2181 2182 0
24 -2182 2183 0
25 -2183 2184 0
26 -2184 2185 0
27 -2185 2186 0
28 -2186 2187 0
29 -2187 2188 0
30 -2188 2189 0
31 -2189 2190 0
32 -2190 2191 0
33 -2191 2192 0
34 -2192 2193 0
35 -2193 2194 0
36 -2194 2195 0
37 -2195 2196 0
38 -2196 2197 0
39 -2197 2198 0
40 -2198 2199 0
41 -2199 2200 0
42 -2200 2201 0
43 -2201 2202 0
44 -2202 2203 0
45 -2203 2204 0
46 -2204 2205 0
47 -2205 2206 0
48 -2206 2207 0
49 -2207 2208 0
50 -2208 2209 0
51 -2209 2210 0
52 -2210 2211 0
53 -2211 2212 0
54 -2212 2213 0
55 -2213 2214 0
56 -2214 2215 0
57 -2215 2216 0
58 -2216 2217 0
59 -2217 2218 0
60 -2218 2219 0
61 -2219 2220 0
62 -2220 2221 0
63 -2221 2222 0
64 -2222 2223 0
65 -2223 2224 0
66 -2224 2225 0
67 -2225 2226 0
68 -2226 2227 0
69 -2227 2228 0
70 -2228 2229 0
71 -2229 2230 0
72 -2230 2231 0
73 -2231 2232 0
74 -2232 2233 0
75 -2233 2234 0
76 -2234 2235 0
77 -2235 2236 0
78 -2236 2237 0
79 -2237 2238 0
80 -2238 2239 0
81 -2239 2240 0
82 -2240 2241 0
83 -2241 2242 0
84 -2242 2243 0
85 -2243 2244 0
86 -2244 2245 0
87 -2245 2246 0
88 -2246 2247 0
89 -2247 2248 0
90 -2248 2249 0
91 -2249 2250 0
92 -2250 2251 0
93 -2251 2252 0
94 -2252 2253 0
95 -2253 2254 0
96 -2254 2255 0
97 -2255 2256 0
98 -2256 2257 0
99 -2257 2258 0
100 -2258 2259 0
101 -2259 2260 0
102 -2260 2261 0
103 -2261 2262 0
104 -2262 2263 0
105 -2263 2264 0
106 -2264 2265 0
107 -2265 2266 0
108 -2266 2267 0
109 -2267 2268 0
110 -2268 2269 0
111 -2269 2270 0
112 -2270 2271 0
113 -2271 2272 0
114 -2272 2273 0
115 -2273 2274 0
116 -2274 2275 0
117 -2275 2276 0
118 -2276 2277 0
119 -2277 2278 0
120 -2278 2279 0
121 -2279 2280 0
122 -2280 2281 0
123 -2281 2282 0
124 -2282 2283 0
125 -2283 2284 0
126 -2284 2285 0
127 -2285 2286 0
128 -2286 2287 0
129 -2287 2288 0
130 -2288 2289 0
131 -2289 2290 0
132 -2290 2291 0
133 -2291 2292 0
134 -2292 2293 0
135 -2293 2294 0
136 -2294 2295 0
137 -2295 2296 0
138 -2296 2297 0
139 -2297 2298 0
140 -2298 2299 0
141 -2299 2300 0
142 -2300 0
-1 2301 0
-2301 2302 0
-2 -2301 2303 0
-2303 2304 0
-3 -2303 2305 0
-2305 2306 0
-4 -2305 2307 0
-2307 2308 0
-5 -2307 2309 0
-2309 2310 0
-6 -2309 2311 0
-2311 2312 0
-7 -2311 2313 0
-2313 2314 0
-8 -2313 2315 0
-2315 2316 0
-9 -2315 2317 0
-2317 2318 0
-10 -2317 2319 0
-2319 2320 0
-11 -2319 2321 0
-2321 2322 0
-12 -2321 2323 0
-2323 2324 0
-13 -2323 2325 0
-2325 2326 0
-14 -2325 2327 0
-2327 2328 0
-15 -2327 2329 0
-2329 2330 0
-16 -2329 2331 0
-2331 2332 0
-17 -2331 0
-2 2302 0
-2302 2333 0
-3 -2302 2304 0
-2304 2334 0
-4 -2304 2306 0
-2306 2335 0
-5 -2306 2308 0
-2308 2336 0
-6 -2308 2310 0
-2310 2337 0
-7 -2310 2312 0
-2312 2338 0
-8 -2312 2314 0
-2314 2339 0
-9 -2314 2316 0
-2316 2340 0
-10 -2316 2318 0
-2318 2341 0
-11 -2318 2320 0
-2320 2342 0
-12 -2320 2322 0
-2322 2343 0
-13 -2322 2324 0
-2324 2344 0
-14 -2324 2326 0
-2326 2345 0
-15 -2326 2328 0
-2328 2346 0
-16 -2328 2330 0
-2330 2347 0
-17 -2330 2332 0
-2332 2348 0
-18 -2332 0
-3 2333 0
-2333 2349 0
-4 -2333 2334 0
-2334 2350 0
-5 -2334 2335 0
-2335 2351 0
-6 -2335 2336 0
-2336 2352 0
-7 -2336 2337 0
-2337 2353 0
-8 -2337 2338 0
-2338 2354 0
-9 -2338 2339 0
-2339 2355 0
-10 -2339 2340 0
-2340 2356 0
-11 -2340 2341 0
-2341 2357 0
-12 -2341 2342 0
-2342 2358 0
-13 -2342 2343 0
-2343 2359 0
-14 -2343 2344 0
-2344 2360 0
-15 -2344 2345 0
-2345 2361 0
-16 -2345 2346 0
-2346 2362 0
-17 -2346 2347 0
-2347 2363 0
-18 -2347 2348 0
-2348 2364 0
-19 -2348 0
-4 2349 0
-2349 2365 0
-5 -2349 2350 0
-2350 2366 0
-6 -2350 2351 0
-2351 2367 0
-7 -2351 2352 0
-2352 2368 0
-8 -2352 2353 0
-2353 2369 0
-9 -2353 2354 0
-2354 2370 0
-10 -2354 2355 0
-2355 2371 0
-11 -2355 2356 0
-2356 2372 0
-12 -2356 2357 0
-2357 2373 0
-13 -2357 2358 0
-2358 2374 0
-14 -2358 2359 0
-2359 2375 0
-15 -2359 2360 0
-2360 2376 0
-16 -2360 2361 0
-2361 2377 0
-17 -2361 2362 0
-2362 2378 0
-18 -2362 2363 0
-2363 2379 0
-19 -2363 2364 0
-2364 2380 0
-20 -2364 0
-5 2365 0
-2365 2381 0
-6 -2365 2366 0
-2366 2382 0
-7 -2366 2367 0
-2367 2383 0
-8 -2367 2368 0
-2368 2384 0
-9 -2368 2369 0
-2369 2385 0
-10 -2369 2370 0
-2370 2386 0
-11 -2370 2371 0
-2371 2387 0
-12 -2371 2372 0
-2372 2388 0
-13 -2372 2373 0
-2373 2389 0
-14 -2373 2374 0
-2374 2390 0
-15 -2374 2375 0
-2375 2391 0
-16 -2375 2376 0
-2376 2392 0
-17 -2376 2377 0
-2377 2393 0
-18 -2377 2378 0
-2378 2394 0
-19 -2378 2379 0
-2379 2395 0
-20 -2379 2380 0
-2380 2396 0
-21 -2380 0
-6 2381 0
-2381 2397 0
-7 -2381 2382 0
-2382 2398 0
-8 -2382 2383 0
-2383 2399 0
-9 -2383 2384 0
-2384 2400 0
-10 -2384 2385 0
-2385 2401 0
-11 -2385 2386 0
-2386 2402 0
-12 -2386 2387 0
-2387 2403 0
-13 -2387 2388 0
-2388 2404 0
-14 -2388 2389 0
-2389 2405 0
-15 -2389 2390 0
-2390 2406 0
-16 -2390 2391 0
-2391 2407 0
-17 -2391 2392 0
-2392 2408 0
-18 -2392 2393 0
-2393 2409 0
-19 -2393 2394 0
-2394 2410 0
-20 -2394 2395 0
-2395 2411 0
-21 -2395 2396 0
-2396 2412 0
-22 -2396 0
-7 2397 0
-2397 2413 0
-8 -2397 2398 0
-2398 2414 0
-9 -2398 2399 0
-2399 2415 0
-10 -2399 2400 0
-2400 2416 0
-11 -2400 2401 0
-2401 2417 0
-12 -2401 2402 0
-2402 2418 0
-13 -2402 2403 0
-2403 2419 0
-14 -2403 2404 0
-2404 2420 0
-15 -2404 2405 0
-2405 2421 0
-16 -2405 2406 0
-2406 2422 0
-17 -2406 2407 0
-2407 2423 0
-18 -2407 2408 0
-2408 2424 0
-19 -2408 2409 0
-2409 2425 0
-20 -2409 2410 0
-2410 2426 0
-21 -2410 2411 0
-2411 2427 0
-22 -2411 2412 0
-2412 2428 0
-23 -2412 0
-8 2413 0
-2413 2429 0
-9 -2413 2414 0
-2414 2430 0
-10 -2414 2415 0
-2415 2431 0
-11 -2415 2416 0
-2416 2432 0
-12 -2416 2417 0
-2417 2433 0
-13 -2417 2418 0
-2418 2434 0
-14 -2418 2419 0
-2419 2435 0
-15 -2419 2420 0
-2420 2436 0
-16 -2420 2421 0
-2421 2437 0
-17 -2421 2422 0
-2422 2438 0
-18 -2422 2423 0
-2423 2439 0
-19 -2423 2424 0
-2424 2440 0
-20 -2424 2425 0
-2425 2441 0
-21 -2425 2426 0
-2426 2442 0
-22 -2426 2427 0
-2427 2443 0
-23 -2427 2428 0
-2428 2444 0
-24 -2428 0
-9 2429 0
-2429 2445 0
-10 -2429 2430 0
-2430 2446 0
-11 -2430 2431 0
-2431 2447 0
-12 -2431 2432 0
-2432 2448 0
-13 -2432 2433 0
-2433 2449 0
-14 -2433 2434 0
-2434 2450 0
-15 -2434 2435 0
-2435 2451 0
-16 -2435 2436 0
-2436 2452 0
-17 -2436 2437 0
-2437 2453 0
-18 -2437 2438 0
-2438 2454 0
-19 -2438 2439 0
-2439 2455 0
-20 -2439 2440 0
-2440 2456 0
-21 -2440 2441 0
-2441 2457 0
-22 -2441 2442 0
-2442 2458 0
-23 -2442 2443 0
-2443 2459 0
-24 -2443 2444 0
-2444 2460 0
-25 -2444 0
-10 2445 0
-2445 2461 0
-11 -2445 2446 0
-2446 2462 0
-12 -2446 2447 0
-2447 2463 0
-13 -2447 2448 0
-2448 2464 0
-14 -2448 2449 0
-2449 2465 0
-15 -2449 2450 0
-2450 2466 0
-16 -2450 2451 0
-2451 2467 0
-17 -2451 2452 0
-2452 2468 0
-18 -2452 2453 0
-2453 2469 0
-19 -2453 2454 0
-2454 2470 0
-20 -2454 2455 0
-2455 2471 0
-21 -2455 2456 0
-2456 2472 0
-22 -2456 2457 0
-2457 2473 0
-23 -2457 2458 0
-2458 2474 0
-24 -2458 2459 0
-2459 2475 0
-25 -2459 2460 0
-2460 2476 0
-26 -2460 0
-11 2461 0
-2461 2477 0
-12 -2461 2462 0
-2462 2478 0
-13 -2462 2463 0
-2463 2479 0
-14 -2463 2464 0
-2464 2480 0
-15 -2464 2465 0
-2465 2481 0
-16 -2465 2466 0
-2466 2482 0
-17 -2466 2467 0
-2467 2483 0
-18 -2467 2468 0
-2468 2484 0
-19 -2468 2469 0
-2469 2485 0
-20 -2469 2470 0
-2470 2486 0
-21 -2470 2471 0
-2471 2487 0
-22 -2471 2472 0
-2472 2488 0
-23 -2472 2473 0
-2473 2489 0
-24 -2473 2474 0
-2474 2490 0
-25 -2474 2475 0
-2475 2491 0
-26 -2475 2476 0
-2476 2492 0
-27 -2476 0
-12 2477 0
-2477 2493 0
-13 -2477 2478 0
-2478 2494 0
-14 -2478 2479 0
-2479 2495 0
-15 -2479 2480 0
-2480 2496 0
-16 -2480 2481 0
-2481 2497 0
-17 -2481 2482 0
-2482 2498 0
-18 -2482 2483 0
-2483 2499 0
-19 -2483 2484 0
-2484 2500 0
-20 -2484 2485 0
-2485 2501 0
-21 -2485 2486 0
-2486 2502 0
-22 -2486 2487 0
-2487 2503 0
-23 -2487 2488 0
-2488 2504 0
-24 -2488 2489 0
-2489 2505 0
-25 -2489 2490 0
-2490 2506 0
-26 -2490 2491 0
-2491 2507 0
-27 -2491 2492 0
-2492 2508 0
-28 -2492 0
-13 2493 0
-2493 2509 0
-14 -2493 2494 0
-2494 2510 0
-15 -2494 2495 0
-2495 2511 0
-16 -2495 2496 0
-2496 2512 0
-17 -2496 2497 0
-2497 2513 0
-18 -2497 2498 0
-2498 2514 0
-19 -2498 2499 0
-2499 2515 0
-20 -2499 2500 0
-2500 2516 0
-21 -2500 2501 0
-2501 2517 0
-22 -2501 2502 0
-2502 2518 0
-23 -2502 2503 0
-2503 2519 0
-24 -2503 2504 0
-2504 2520 0
-25 -2504 2505 0
-2505 2521 0
-26 -2505 2506 0
-2506 2522 0
-27 -2506 2507 0
-2507 2523 0
-28 -2507 2508 0
-2508 2524 0
-29 -2508 0
-14 2509 0
-2509 2525 0
-15 -2509 2510 0
-2510 2526 0
-16 -2510 2511 0
-2511 2527 0
-17 -2511 2512 0
-2512 2528 0
-18 -2512 2513 0
-2513 2529 0
-19 -2513 2514 0
-2514 2530 0
-20 -2514 2515 0
-2515 2531 0
-21 -2515 2516 0
-2516 2532 0
-22 -2516 2517 0
-2517 2533 0
-23 -2517 2518 0
-2518 2534 0
-24 -2518 2519 0
-2519 2535 0
-25 -2519 2520 0
-2520 2536 0
-26 -2520 2521 0
-2521 2537 0
-27 -2521 2522 0
-2522 2538 0
-28 -2522 2523 0
-2523 2539 0
-29 -2523 2524 0
-2524 2540 0
-30 -2524 0
-15 2525 0
-2525 2541 0
-16 -2525 2526 0
-2526 2542 0
-17 -2526 2527 0
-2527 2543 0
-18 -2527 2528 0
-2528 2544 0
-19 -2528 2529 0
-2529 2545 0
-20 -2529 2530 0
-2530 2546 0
-21 -2530 2531 0
-2531 2547 0
-22 -2531 2532 0
-2532 2548 0
-23 -2532 2533 0
-2533 2549 0
-24 -2533 2534 0
-2534 2550 0
-25 -2534 2535 0
-2535 2551 0
-26 -2535 2536 0
-2536 2552 0
-27 -2536 2537 0
-2537 2553 0
-28 -2537 2538 0
-2538 2554 0
-29 -2538 2539 0
-2539 2555 0
-30 -2539 2540 0
-2540 2556 0
-31 -2540 0
-16 2541 0
-2541 2557 0
-17 -2541 2542 0
-2542 2558 0
-18 -2542 2543 0
-2543 2559 0
-19 -2543 2544 0
-2544 2560 0
-20 -2544 2545 0
-2545 2561 0
-21 -2545 2546 0
-2546 2562 0
-22 -2546 2547 0
-2547 2563 0
-23 -2547 2548 0
-2548 2564 0
-24 -2548 2549 0
-2549 2565 0
-25 -2549 2550 0
-2550 2566 0
-26 -2550 2551 0
-2551 2567 0
-27 -2551 2552 0
-2552 2568 0
-28 -2552 2553 0
-2553 2569 0
-29 -2553 2554 0
-2554 2570 0
-30 -2554 2555 0
-2555 2571 0
-31 -2555 2556 0
-2556 2572 0
-32 -2556 0
-17 2557 0
-2557 2573 0
-18 -2557 2558 0
-2558 2574 0
-19 -2558 2559 0
-2559 2575 0
-20 -2559 2560 0
-2560 2576 0
-21 -2560 2561 0
-2561 2577 0
-22 -2561 2562 0
-2562 2578 0
-23 -2562 2563 0
-2563 2579 0
-24 -2563 2564 0
-2564 2580 0
-25 -2564 2565 0
-2565 2581 0
-26 -2565 2566 0
-2566 2582 0
-27 -2566 2567 0
-2567 2583 0
-28 -2567 2568 0
-2568 2584 0
-29 -2568 2569 0
-2569 2585 0
-30 -2569 2570 0
-2570 2586 0
-31 -2570 2571 0
-2571 2587 0
-32 -2571 2572 0
-2572 2588 0
-33 -2572 0
-18 2573 0
-2573 2589 0
-19 -2573 2574 0
-2574 2590 0
-20 -2574 2575 0
-2575 2591 0
-21 -2575 2576 0
-2576 2592 0
-22 -2576 2577 0
-2577 2593 0
-23 -2577 2578 0
-2578 2594 0
-24 -2578 2579 0
-2579 2595 0
-25 -2579 2580 0
-2580 2596 0
-26 -2580 2581 0
-2581 2597 0
-27 -2581 2582 0
-2582 2598 0
-28 -2582 2583 0
-2583 2599 0
-29 -2583 2584 0
-2584 2600 0
-30 -2584 2585 0
-2585 2601 0
-31 -2585 2586 0
-2586 2602 0
-32 -2586 2587 0
-2587 2603 0
-33 -2587 2588 0
-2588 2604 0
-34 -2588 0
-19 2589 0
-2589 2605 0
-20 -2589 2590 0
-2590 2606 0
-21 -2590 2591 0
-2591 2607 0
-22 -2591 2592 0
-2592 2608 0
-23 -2592 2593 0
-2593 2609 0
-24 -2593 2594 0
-2594 2610 0
-25 -2594 2595 0
-2595 2611 0
-26 -2595 2596 0
-2596 2612 0
-27 -2596 2597 0
-2597 2613 0
-28 -2597 2598 0
-2598 2614 0
-29 -2598 2599 0
-2599 2615 0
-30 -2599 2600 0
-2600 2616 0
-31 -2600 2601 0
-2601 2617 0
-32 -2601 2602 0
-2602 2618 0
-33 -2602 2603 0
-2603 2619 0
-34 -2603 2604 0
-2604 2620 0
-35 -2604 0
-20 2605 0
-2605 2621 0
-21 -2605 2606 0
-2606 2622 0
-22 -2606 2607 0
-2607 2623 0
-23 -2607 2608 0
-2608 2624 0
-24 -2608 2609 0
-2609 2625 0
-25 -2609 2610 0
-2610 2626 0
-26 -2610 2611 0
-2611 2627 0
-27 -2611 2612 0
-2612 2628 0
-28 -2612 2613 0
-2613 2629 0
-29 -2613 2614 0
-2614 2630 0
-30 -2614 2615 0
-2615 2631 0
-31 -2615 2616 0
-2616 2632 0
-32 -2616 2617 0
-2617 2633 0
-33 -2617 2618 0
-2618 2634 0
-34 -2618 2619 0
-2619 2635 0
-35 -2619 2620 0
-2620 2636 0
-36 -2620 0
-21 2621 0
-2621 2637 0
-22 -2621 2622 0
-2622 2638 0
-23 -2622 2623 0
-2623 2639 0
-24 -2623 2624 0
-2624 2640 0
-25 -2624 2625 0
-2625 2641 0
-26 -2625 2626 0
-2626 2642 0
-27 -2626 2627 0
-2627 2643 0
-28 -2627 2628 0
-2628 2644 0
-29 -2628 2629 0
-2629 2645 0
-30 -2629 2630 0
-2630 2646 0
-31 -2630 2631 0
-2631 2647 0
-32 -2631 2632 0
-2632 2648 0
-33 -2632 2633 0
-2633 2649 0
-34 -2633 2634 0
-2634 2650 0
-35 -2634 2635 0
-2635 2651 0
-36 -2635 2636 0
-2636 2652 0
-37 -2636 0
-22 2637 0
-2637 2653 0
-23 -2637 2638 0
-2638 2654 0
-24 -2638 2639 0
-2639 2655 0
-25 -2639 2640 0
-2640 2656 0
-26 -2640 2641 0
-2641 2657 0
-27 -2641 2642 0
-2642 2658 0
-28 -2642 2643 0
-2643 2659 0
-29 -2643 2644 0
-2644 2660 0
-30 -2644 2645 0
-2645 2661 0
-31 -2645 2646 0
-2646 2662 0
-32 -2646 2647 0
-2647 2663 0
-33 -2647 2648 0
-2648 2664 0
-34 -2648 2649 0
-2649 2665 0
-35 -2649 2650 0
-2650 2666 0
-36 -2650 2651 0
-2651 2667 0
-37 -2651 2652 0
-2652 2668 0
-38 -2652 0
-23 2653 0
-2653 2669 0
-24 -2653 2654 0
-2654 2670 0
-25 -2654 2655 0
-2655 2671 0
-26 -2655 2656 0
-2656 2672 0
-27 -2656 2657 0
-2657 2673 0
-28 -2657 2658 0
-2658 2674 0
-29 -2658 2659 0
-2659 2675 0
-30 -2659 2660 0
-2660 2676 0
-31 -2660 2661 0
-2661 2677 0
-32 -2661 2662 0
-2662 2678 0
-33 -2662 2663 0
-2663 2679 0
-34 -2663 2664 0
-2664 2680 0
-35 -2664 2665 0
-2665 2681 0
-36 -2665 2666 0
-2666 2682 0
-37 -2666 2667 0
-2667 2683 0
-38 -2667 2668 0
-2668 2684 0
-39 -2668 0
-24 2669 0
-2669 2685 0
-25 -2669 2670 0
-2670 2686 0
-26 -2670 2671 0
-2671 2687 0
-27 -2671 2672 0
-2672 2688 0
-28 -2672 2673 0
-2673 2689 0
-29 -2673 2674 0
-2674 2690 0
-30 -2674 2675 0
-2675 2691 0
-31 -2675 2676 0
-2676 2692 0
-32 -2676 2677 0
-2677 2693 0
-33 -2677 2678 0
-2678 2694 0
-34 -2678 2679 0
-2679 2695 0
-35 -2679 2680 0
-2680 2696 0
-36 -2680 2681 0
-2681 2697 0
-37 -2681 2682 0
-2682 2698 0
-38 -2682 2683 0
-2683 2699 0
-39 -2683 2684 0
-2684 2700 0
-40 -2684 0
-25 2685 0
-2685 2701 0
-26 -2685 2686 0
-2686 2702 0
-27 -2686 2687 0
-2687 2703 0
-28 -2687 2688 0
-2688 2704 0
-29 -2688 2689 0
-2689 2705 0
-30 -2689 2690 0
-2690 2706 0
-31 -2690 2691 0
-2691 2707 0
-32 -2691 2692 0
-2692 2708 0
-33 -2692 2693 0
-2693 2709 0
-34 -2693 2694 0
-2694 2710 0
-35 -2694 2695 0
-2695 2711 0
-36 -2695 2696 0
-2696 2712 0
-37 -2696 2697 0
-2697 2713 0
-38 -2697 2698 0
-2698 2714 0
-39 -2698 2699 0
-2699 2715 0
-40 -2699 2700 0
-2700 2716 0
-41 -2700 0
-26 2701 0
-2701 2717 0
-27 -2701 2702 0
-2702 2718 0
-28 -2702 2703 0
-2703 2719 0
-29 -2703 2704 0
-2704 2720 0
-30 -2704 2705 0
-2705 2721 0
-31 -2705 2706 0
-2706 2722 0
-32 -2706 2707 0
-2707 2723 0
-33 -2707 2708 0
-2708 2724 0
-34 -2708 2709 0
-2709 2725 0
-35 -2709 2710 0
-2710 2726 0
-36 -2710 2711 0
-2711 2727 0
-37 -2711 2712 0
-2712 2728 0
-38 -2712 2713 0
-2713 2729 0
-39 -2713 2714 0
-2714 2730 0
-40 -2714 2715 0
-2715 2731 0
-41 -2715 2716 0
-2716 2732 0
-42 -2716 0
-27 2717 0
-2717 2733 0
-28 -2717 2718 0
-2718 2734 0
-29 -2718 2719 0
-2719 2735 0
-30 -2719 2720 0
-2720 2736 0
-31 -2720 2721 0
-2721 2737 0
-32 -2721 2722 0
-2722 2738 0
-33 -2722 2723 0
-2723 2739 0
-34 -2723 2724 0
-2724 2740 0
-35 -2724 2725 0
-2725 2741 0
-36 -2725 2726 0
-2726 2742 0
-37 -2726 2727 0
-2727 2743 0
-38 -2727 2728 0
-2728 2744 0
-39 -2728 2729 0
-2729 2745 0
-40 -2729 2730 0
-2730 2746 0
-41 -2730 2731 0
-2731 2747 0
-42 -2731 2732 0
-2732 2748 0
-43 -2732 0
-28 2733 0
-2733 2749 0
-29 -2733 2734 0
-2734 2750 0
-30 -2734 2735 0
-2735 2751 0
-31 -2735 2736 0
-2736 2752 0
-32 -2736 2737 0
-2737 2753 0
-33 -2737 2738 0
-2738 2754 0
-34 -2738 2739 0
-2739 2755 0
-35 -2739 2740 0
-2740 2756 0
-36 -2740 2741 0
-2741 2757 0
-37 -2741 2742 0
-2742 2758 0
-38 -2742 2743 0
-2743 2759 0
-39 -2743 2744 0
-2744 2760 0
-40 -2744 2745 0
-2745 2761 0
-41 -2745 2746 0
-2746 2762 0
-42 -2746 2747 0
-2747 2763 0
-43 -2747 2748 0
-2748 2764 0
-44 -2748 0
-29 2749 0
-2749 2765 0
-30 -2749 2750 0
-2750 2766 0
-31 -2750 2751 0
-2751 2767 0
-32 -2751 2752 0
-2752 2768 0
-33 -2752 2753 0
-2753 2769 0
-34 -2753 2754 0
-2754 2770 0
-35 -2754 2755 0
-2755 2771 0
-36 -2755 2756 0
-2756 2772 0
-37 -2756 2757 0
-2757 2773 0
-38 -2757 2758 0
-2758 2774 0
-39 -2758 2759 0
-2759 2775 0
-40 -2759 2760 0
-2760 2776 0
-41 -2760 2761 0
-2761 2777 0
-42 -2761 2762 0
-2762 2778 0
-43 -2762 2763 0
-2763 2779 0
-44 -2763 2764 0
-2764 2780 0
-45 -2764 0
-30 2765 0
-2765 2781 0
-31 -2765 2766 0
-2766 2782 0
-32 -2766 2767 0
-2767 2783 0
-33 -2767 2768 0
-2768 2784 0
-34 -2768 2769 0
-2769 2785 0
-35 -2769 2770 0
-2770 2786 0
-36 -2770 2771 0
-2771 2787 0
-37 -2771 2772 0
-2772 2788 0
-38 -2772 2773 0
-2773 2789 0
-39 -2773 2774 0
-2774 2790 0
-40 -2774 2775 0
-2775 2791 0
-41 -2775 2776 0
-2776 2792 0
-42 -2776 2777 0
-2777 2793 0
-43 -2777 2778 0
-2778 2794 0
-44 -2778 2779 0
-2779 2795 0
-45 -2779 2780 0
-2780 2796 0
-46 -2780 0
-31 2781 0
-2781 2797 0
-32 -2781 2782 0
-2782 2798 0
-33 -2782 2783 0
-2783 2799 0
-34 -2783 2784 0
-2784 2800 0
-35 -2784 2785 0
-2785 2801 0
-36 -2785 2786 0
-2786 2802 0
-37 -2786 2787 0
-2787 2803 0
-38 -2787 2788 0
-2788 2804 0
-39 -2788 2789 0
-2789 2805 0
-40 -2789 2790 0
-2790 2806 0
-41 -2790 2791 0
-2791 2807 0
-42 -2791 2792 0
-2792 2808 0
-43 -2792 2793 0
-2793 2809 0
-44 -2793 2794 0
-2794 2810 0
-45 -2794 2795 0
-2795 2811 0
-46 -2795 2796 0
-2796 2812 0
-47 -2796 0
-32 2797 0
-2797 2813 0
-33 -2797 2798 0
-2798 2814 0
-34 -2798 2799 0
-2799 2815 0
-35 -2799 2800 0
-2800 2816 0
-36 -2800 2801 0
-2801 2817 0
-37 -2801 2802 0
-2802 2818 0
-38 -2802 2803 0
-2803 2819 0
-39 -2803 2804 0
-2804 2820 0
-40 -2804 2805 0
-2805 2821 0
-41 -2805 2806 0
-2806 2822 0
-42 -2806 2807 0
-2807 2823 0
-43 -2807 2808 0
-2808 2824 0
-44 -2808 2809 0
-2809 2825 0
-45 -2809 2810 0
-2810 2826 0
-46 -2810 2811 0
-2811 2827 0
-47 -2811 2812 0
-2812 2828 0
-48 -2812 0
-33 2813 0
-2813 2829 0
-34 -2813 2814 0
-2814 2830 0
-35 -2814 2815 0
-2815 2831 0
-36 -2815 2816 0
-2816 2832 0
-37 -2816 2817 0
-2817 2833 0
-38 -2817 2818 0
-2818 2834 0
-39 -2818 2819 0
-2819 2835 0
-40 -2819 2820 0
-2820 2836 0
-41 -2820 2821 0
-2821 2837 0
-42 -2821 2822 0
-2822 2838 0
-43 -2822 2823 0
-2823 2839 0
-44 -2823 2824 0
-2824 2840 0
-45 -2824 2825 0
-2825 2841 0
-46 -2825 2826 0
-2826 2842 0
-47 -2826 2827 0
-2827 2843 0
-48 -2827 2828 0
-2828 2844 0
-49 -2828 0
-34 2829 0
-2829 2845 0
-35 -2829 2830 0
-2830 2846 0
-36 -2830 2831 0
-2831 2847 0
-37 -2831 2832 0
-2832 2848 0
-38 -2832 2833 0
-2833 2849 0
-39 -2833 2834 0
-2834 2850 0
-40 -2834 2835 0
-2835 2851 0
-41 -2835 2836 0
-2836 2852 0
-42 -2836 2837 0
-2837 2853 0
-43 -2837 2838 0
-2838 2854 0
-44 -2838 2839 0
-2839 2855 0
-45 -2839 2840 0
-2840 2856 0
-46 -2840 2841 0
-2841 2857 0
-47 -2841 2842 0
-2842 2858 0
-48 -2842 2843 0
-2843 2859 0
-49 -2843 2844 0
-2844 2860 0
-50 -2844 0
-35 2845 0
-2845 2861 0
-36 -2845 2846 0
-2846 2862 0
-37 -2846 2847 0
-2847 2863 0
-38 -2847 2848 0
-2848 2864 0
-39 -2848 2849 0
-2849 2865 0
-40 -2849 2850 0
-2850 2866 0
-41 -2850 2851 0
-2851 2867 0
-42 -2851 2852 0
-2852 2868 0
-43 -2852 2853 0
-2853 2869 0
-44 -2853 2854 0
-2854 2870 0
-45 -2854 2855 0
-2855 2871 0
-46 -2855 2856 0
-2856 2872 0
-47 -2856 2857 0
-2857 2873 0
-48 -2857 2858 0
-2858 2874 0
-49 -2858 2859 0
-2859 2875 0
-50 -2859 2860 0
-2860 2876 0
-51 -2860 0
-36 2861 0
-2861 2877 0
-37 -2861 2862 0
-2862 2878 0
-38 -2862 2863 0
-2863 2879 0
-39 -2863 2864 0
-2864 2880 0
-40 -2864 2865 0
-2865 2881 0
-41 -2865 2866 0
-2866 2882 0
-42 -2866 2867 0
-2867 2883 0
-43 -2867 2868 0
-2868 2884 0
-44 -2868 2869 0
-2869 2885 0
-45 -2869 2870 0
-2870 2886 0
-46 -2870 2871 0
-2871 2887 0
-47 -2871 2872 0
-2872 2888 0
-48 -2872 2873 0
-2873 2889 0
-49 -2873 2874 0
-2874 2890 0
-50 -2874 2875 0
-2875 2891 0
-51 -2875 2876 0
-2876 2892 0
-52 -2876 0
-37 2877 0
-2877 2893 0
-38 -2877 2878 0
-2878 2894 0
-39 -2878 2879 0
-2879 2895 0
-40 -2879 2880 0
-2880 2896 0
-41 -2880 2881 0
-2881 2897 0
-42 -2881 2882 0
-2882 2898 0
-43 -2882 2883 0
-2883 2899 0
-44 -2883 2884 0
-2884 2900 0
-45 -2884 2885 0
-2885 2901 0
-46 -2885 2886 0
-2886 2902 0
-47 -2886 2887 0
-2887 2903 0
-48 -2887 2888 0
-2888 2904 0
-49 -2888 2889 0
-2889 2905 0
-50 -2889 2890 0
-2890 2906 0
-51 -2890 2891 0
-2891 2907 0
-52 -2891 2892 0
-2892 2908 0
-53 -2892 0
-38 2893 0
-2893 2909 0
-39 -2893 2894 0
-2894 2910 0
-40 -2894 2895 0
-2895 2911 0
-41 -2895 2896 0
-2896 2912 0
-42 -2896 2897 0
-2897 2913 0
-43 -2897 2898 0
-2898 2914 0
-44 -2898 2899 0
-2899 2915 0
-45 -2899 2900 0
-2900 2916 0
-46 -2900 2901 0
-2901 2917 0
-47 -2901 2902 0
-2902 2918 0
-48 -2902 2903 0
-2903 2919 0
-49 -2903 2904 0
-2904 2920 0
-50 -2904 2905 0
-2905 2921 0
-51 -2905 2906 0
-2906 2922 0
-52 -2906 2907 0
-2907 2923 0
-53 -2907 2908 0
-2908 2924 0
-54 -2908 0
-39 2909 0
-2909 2925 0
-40 -2909 2910 0
-2910 2926 0
-41 -2910 2911 0
-2911 2927 0
-42 -2911 2912 0
-2912 2928 0
-43 -2912 2913 0
-2913 2929 0
-44 -2913 2914 0
-2914 2930 0
-45 -2914 2915 0
-2915 2931 0
-46 -2915 2916 0
-2916 2932 0
-47 -2916 2917 0
-2917 2933 0
-48 -2917 2918 0
-2918 2934 0
-49 -2918 2919 0
-2919 2935 0
-50 -2919 2920 0
-2920 2936 0
-51 -2920 2921 0
-2921 2937 0
-52 -2921 2922 0
-2922 2938 0
-53 -2922 2923 0
-2923 2939 0
-54 -2923 2924 0
-2924 2940 0
-55 -2924 0
-40 2925 0
-2925 2941 0
-41 -2925 2926 0
-2926 2942 0
-42 -2926 2927 0
-2927 2943 0
-43 -2927 2928 0
-2928 2944 0
-44 -2928 2929 0
-2929 2945 0
-45 -2929 2930 0
-2930 2946 0
-46 -2930 2931 0
-2931 2947 0
-47 -2931 2932 0
-2932 2948 0
-48 -2932 2933 0
-2933 2949 0
-49 -2933 2934 0
-2934 2950 0
-50 -2934 2935 0
-2935 2951 0
-51 -2935 2936 0
-2936 2952 0
-52 -2936 2937 0
-2937 2953 0
-53 -2937 2938 0
-2938 2954 0
-54 -2938 2939 0
-2939 2955 0
-55 -2939 2940 0
-2940 2956 0
-56 -2940 0
-41 2941 0
-2941 2957 0
-42 -2941 2942 0
-2942 2958 0
-43 -2942 2943 0
-2943 2959 0
-44 -2943 2944 0
-2944 2960 0
-45 -2944 2945 0
-2945 2961 0
-46 -2945 2946 0
-2946 2962 0
-47 -2946 2947 0
-2947 2963 0
-48 -2947 2948 0
-2948 2964 0
-49 -2948 2949 0
-2949 2965 0
-50 -2949 2950 0
-2950 2966 0
-51 -2950 2951 0
-2951 2967 0
-52 -2951 2952 0
-2952 2968 0
-53 -2952 2953 0
-2953 2969 0
-54 -2953 2954 0
-2954 2970 0
-55 -2954 2955 0
-2955 2971 0
-56 -2955 2956 0
-2956 2972 0
-57 -2956 0
-42 2957 0
-2957 2973 0
-43 -2957 2958 0
-2958 2974 0
-44 -2958 2959 0
-2959 2975 0
-45 -2959 2960 0
-2960 2976 0
-46 -2960 2961 0
-2961 2977 0
-47 -2961 2962 0
-2962 2978 0
-48 -2962 2963 0
-2963 2979 0
-49 -2963 2964 0
-2964 2980 0
-50 -2964 2965 0
-2965 2981 0
-51 -2965 2966 0
-2966 2982 0
-52 -2966 2967 0
-2967 2983 0
-53 -2967 2968 0
-2968 2984 0
-54 -2968 2969 0
-2969 2985 0
-55 -2969 2970 0
-2970 2986 0
-56 -2970 2971 0
-2971 2987 0
-57 -2971 2972 0
-2972 2988 0
-58 -2972 0
-43 2973 0
-2973 2989 0
-44 -2973 2974 0
-2974 2990 0
-45 -2974 2975 0
-2975 2991 0
-46 -2975 2976 0
-2976 2992 0
-47 -2976 2977 0
-2977 2993 0
-48 -2977 2978 0
-2978 2994 0
-49 -2978 2979 0
-2979 2995 0
-50 -2979 2980 0
-2980 2996 0
-51 -2980 2981 0
-2981 2997 0
-52 -2981 2982 0
-2982 2998 0
-53 -2982 2983 0
-2983 2999 0
-54 -2983 2984 0
-2984 3000 0
-55 -2984 2985 0
-2985 3001 0
-56 -2985 2986 0
-2986 3002 0
-57 -2986 2987 0
-2987 3003 0
-58 -2987 2988 0
-2988 3004 0
-59 -2988 0
-44 2989 0
-2989 3005 0
-45 -2989 2990 0
-2990 3006 0
-46 -2990 2991 0
-2991 3007 0
-47 -2991 2992 0
-2992 3008 0
-48 -2992 2993 0
-2993 3009 0
-49 -2993 2994 0
-2994 3010 0
-50 -2994 2995 0
-2995 3011 0
-51 -2995 2996 0
-2996 3012 0
-52 -2996 2997 0
-2997 3013 0
-53 -2997 2998 0
-2998 3014 0
-54 -2998 2999 0
-2999 3015 0
-55 -2999 3000 0
-3000 3016 0
-56 -3000 3001 0
-3001 3017 0
-57 -3001 3002 0
-3002 3018 0
-58 -3002 3003 0
-3003 3019 0
-59 -3003 3004 0
-3004 3020 0
-60 -3004 0
-45 3005 0
-3005 3021 0
-46 -3005 3006 0
-3006 3022 0
-47 -3006 3007 0
-3007 3023 0
-48 -3007 3008 0
-3008 3024 0
-49 -3008 3009 0
-3009 3025 0
-50 -3009 3010 0
-3010 3026 0
-51 -3010 3011 0
-3011 3027 0
-52 -3011 3012 0
-3012 3028 0
-53 -3012 3013 0
-3013 3029 0
-54 -3013 3014 0
-3014 3030 0
-55 -3014 3015 0
-3015 3031 0
-56 -3015 3016 0
-3016 3032 0
-57 -3016 3017 0
-3017 3033 0
-58 -3017 3018 0
-3018 3034 0
-59 -3018 3019 0
-3019 3035 0
-60 -3019 3020 0
-3020 3036 0
-61 -3020 0
-46 3021 0
-3021 3037 0
-47 -3021 3022 0
-3022 3038 0
-48 -3022 3023 0
-3023 3039 0
-49 -3023 3024 0
-3024 3040 0
-50 -3024 3025 0
-3025 3041 0
-51 -3025 3026 0
-3026 3042 0
-52 -3026 3027 0
-3027 3043 0
-53 -3027 3028 0
-3028 3044 0
-54 -3028 3029 0
-3029 3045 0
-55 -3029 3030 0
-3030 3046 0
-56 -3030 3031 0
-3031 3047 0
-57 -3031 3032 0
-3032 3048 0
-58 -3032 3033 0
-3033 3049 0
-59 -3033 3034 0
-3034 3050 0
-60 -3034 3035 0
-3035 3051 0
-61 -3035 3036 0
-3036 3052 0
-62 -3036 0
-47 3037 0
-3037 3053 0
-48 -3037 3038 0
-3038 3054 0
-49 -3038 3039 0
-3039 3055 0
-50 -3039 3040 0
-3040 3056 0
-51 -3040 3041 0
-3041 3057 0
-52 -3041 3042 0
-3042 3058 0
-53 -3042 3043 0
-3043 3059 0
-54 -3043 3044 0
-3044 3060 0
-55 -3044 3045 0
-3045 3061 0
-56 -3045 3046 0
-3046 3062 0
-57 -3046 3047 0
-3047 3063 0
-58 -3047 3048 0
-3048 3064 0
-59 -3048 3049 0
-3049 3065 0
-60 -3049 3050 0
-3050 3066 0
-61 -3050 3051 0
-3051 3067 0
-62 -3051 3052 0
-3052 3068 0
-63 -3052 0
-48 3053 0
-3053 3069 0
-49 -3053 3054 0
-3054 3070 0
-50 -3054 3055 0
-3055 3071 0
-51 -3055 3056 0
-3056 3072 0
-52 -3056 3057 0
-3057 3073 0
-53 -3057 3058 0
-3058 3074 0
-54 -3058 3059 0
-3059 3075 0
-55 -3059 3060 0
-3060 3076 0
-56 -3060 3061 0
-3061 3077 0
-57 -3061 3062 0
-3062 3078 0
-58 -3062 3063 0
-3063 3079 0
-59 -3063 3064 0
-3064 3080 0
-60 -3064 3065 0
-3065 3081 0
-61 -3065 3066 0
-3066 3082 0
-62 -3066 3067 0
-3067 3083 0
-63 -3067 3068 0
-3068 3084 0
-64 -3068 0
-49 3069 0
-3069 3085 0
-50 -3069 3070 0
-3070 3086 0
-51 -3070 3071 0
-3071 3087 0
-52 -3071 3072 0
-3072 3088 0
-53 -3072 3073 0
-3073 3089 0
-54 -3073 3074 0
-3074 3090 0
-55 -3074 3075 0
-3075 3091 0
-56 -3075 3076 0
-3076 3092 0
-57 -3076 3077 0
-3077 3093 0
-58 -3077 3078 0
-3078 3094 0
-59 -3078 3079 0
-3079 3095 0
-60 -3079 3080 0
-3080 3096 0
-61 -3080 3081 0
-3081 3097 0
-62 -3081 3082 0
-3082 3098 0
-63 -3082 3083 0
-3083 3099 0
-64 -3083 3084 0
-3084 3100 0
-65 -3084 0
-50 3085 0
-3085 3101 0
-51 -3085 3086 0
-3086 3102 0
-52 -3086 3087 0
-3087 3103 0
-53 -3087 3088 0
-3088 3104 0
-54 -3088 3089 0
-3089 3105 0
-55 -3089 3090 0
-3090 3106 0
-56 -3090 3091 0
-3091 3107 0
-57 -3091 3092 0
-3092 3108 0
-58 -3092 3093 0
-3093 3109 0
-59 -3093 3094 0
-3094 3110 0
-60 -3094 3095 0
-3095 3111 0
-61 -3095 3096 0
-3096 3112 0
-62 -3096 3097 0
-3097 3113 0
-63 -3097 3098 0
-3098 3114 0
-64 -3098 3099 0
-3099 3115 0
-65 -3099 3100 0
-3100 3116 0
-66 -3100 0
-51 3101 0
-3101 3117 0
-52 -3101 3102 0
-3102 3118 0
-53 -3102 3103 0
-3103 3119 0
-54 -3103 3104 0
-3104 3120 0
-55 -3104 3105 0
-3105 3121 0
-56 -3105 3106 0
-3106 3122 0
-57 -3106 3107 0
-3107 3123 0
-58 -3107 3108 0
-3108 3124 0
-59 -3108 3109 0
-3109 3125 0
-60 -3109 3110 0
-3110 3126 0
-61 -3110 3111 0
-3111 3127 0
-62 -3111 3112 0
-3112 3128 0
-63 -3112 3113 0
-3113 3129 0
-64 -3113 3114 0
-3114 3130 0
-65 -3114 3115 0
-3115 3131 0
-66 -3115 3116 0
-3116 3132 0
-67 -3116 0
-52 3117 0
-3117 3133 0
-53 -3117 3118 0
-3118 3134 0
-54 -3118 3119 0
-3119 3135 0
-55 -3119 3120 0
-3120 3136 0
-56 -3120 3121 0
-3121 3137 0
-57 -3121 3122 0
-3122 3138 0
-58 -3122 3123 0
-3123 3139 0
-59 -3123 3124 0
-3124 3140 0
-60 -3124 3125 0
-3125 3141 0
-61 -3125 3126 0
-3126 3142 0
-62 -3126 3127 0
-3127 3143 0
-63 -3127 3128 0
-3128 3144 0
-64 -3128 3129 0
-3129 3145 0
-65 -3129 3130 0
-3130 3146 0
-66 -3130 3131 0
-3131 3147 0
-67 -3131 3132 0
-3132 3148 0
-68 -3132 0
-53 3133 0
-3133 3149 0
-54 -3133 3134 0
-3134 3150 0
-55 -3134 3135 0
-3135 3151 0
-56 -3135 3136 0
-3136 3152 0
-57 -3136 3137 0
-3137 3153 0
-58 -3137 3138 0
-3138 3154 0
-59 -3138 3139 0
-3139 3155 0
-60 -3139 3140 0
-3140 3156 0
-61 -3140 3141 0
-3141 3157 0
-62 -3141 3142 0
-3142 3158 0
-63 -3142 3143 0
-3143 3159 0
-64 -3143 3144 0
-3144 3160 0
-65 -3144 3145 0
-3145 3161 0
-66 -3145 3146 0
-3146 3162 0
-67 -3146 3147 0
-3147 3163 0
-68 -3147 3148 0
-3148 3164 0
-69 -3148 0
-54 3149 0
-3149 3165 0
-55 -3149 3150 0
-3150 3166 0
-56 -3150 3151 0
-3151 3167 0
-57 -3151 3152 0
-3152 3168 0
-58 -3152 3153 0
-3153 3169 0
-59 -3153 3154 0
-3154 3170 0
-60 -3154 3155 0
-3155 3171 0
-61 -3155 3156 0
-3156 3172 0
-62 -3156 3157 0
-3157 3173 0
-63 -3157 3158 0
-3158 3174 0
-64 -3158 3159 0
-3159 3175 0
-65 -3159 3160 0
-3160 3176 0
-66 -3160 3161 0
-3161 3177 0
-67 -3161 3162 0
-3162 3178 0
-68 -3162 3163 0
-3163 3179 0
-69 -3163 3164 0
-3164 3180 0
-70 -3164 0
-55 3165 0
-3165 3181 0
-56 -3165 3166 0
-3166 3182 0
-57 -3166 3167 0
-3167 3183 0
-58 -3167 3168 0
-3168 3184 0
-59 -3168 3169 0
-3169 3185 0
-60 -3169 3170 0
-3170 3186 0
-61 -3170 3171 0
-3171 3187 0
-62 -3171 3172 0
-3172 3188 0
-63 -3172 3173 0
-3173 3189 0
-64 -3173 3174 0
-3174 3190 0
-65 -3174 3175 0
-3175 3191 0
-66 -3175 3176 0
-3176 3192 0
-67 -3176 3177 0
-3177 3193 0
-68 -3177 3178 0
-3178 3194 0
-69 -3178 3179 0
-3179 3195 0
-70 -3179 3180 0
-3180 3196 0
-71 -3180 0
-56 3181 0
-3181 3197 0
-57 -3181 3182 0
-3182 3198 0
-58 -3182 3183 0
-3183 3199 0
-59 -3183 3184 0
-3184 3200 0
-60 -3184 3185 0
-3185 3201 0
-61 -3185 3186 0
-3186 3202 0
-62 -3186 3187 0
-3187 3203 0
-63 -3187 3188 0
-3188 3204 0
-64 -3188 3189 0
-3189 3205 0
-65 -3189 3190 0
-3190 3206 0
-66 -3190 3191 0
-3191 3207 0
-67 -3191 3192 0
-3192 3208 0
-68 -3192 3193 0
-3193 3209 0
-69 -3193 3194 0
-3194 3210 0
-70 -3194 3195 0
-3195 3211 0
-71 -3195 3196 0
-3196 3212 0
-72 -3196 0
-57 3197 0
-3197 3213 0
-58 -3197 3198 0
-3198 3214 0
-59 -3198 3199 0
-3199 3215 0
-60 -3199 3200 0
-3200 3216 0
-61 -3200 3201 0
-3201 3217 0
-62 -3201 3202 0
-3202 3218 0
-63 -3202 3203 0
-3203 3219 0
-64 -3203 3204 0
-3204 3220 0
-65 -3204 3205 0
-3205 3221 0
-66 -3205 3206 0
-3206 3222 0
-67 -3206 3207 0
-3207 3223 0
-68 -3207 3208 0
-3208 3224 0
-69 -3208 3209 0
-3209 3225 0
-70 -3209 3210 0
-3210 3226 0
-71 -3210 3211 0
-3211 3227 0
-72 -3211 3212 0
-3212 3228 0
-73 -3212 0
-58 3213 0
-3213 3229 0
-59 -3213 3214 0
-3214 3230 0
-60 -3214 3215 0
-3215 3231 0
-61 -3215 3216 0
-3216 3232 0
-62 -3216 3217 0
-3217 3233 0
-63 -3217 3218 0
-3218 3234 0
-64 -3218 3219 0
-3219 3235 0
-65 -3219 3220 0
-3220 3236 0
-66 -3220 3221 0
-3221 3237 0
-67 -3221 3222 0
-3222 3238 0
-68 -3222 3223 0
-3223 3239 0
-69 -3223 3224 0
-3224 3240 0
-70 -3224 3225 0
-3225 3241 0
-71 -3225 3226 0
-3226 3242 0
-72 -3226 3227 0
-3227 3243 0
-73 -3227 3228 0
-3228 3244 0
-74 -3228 0
-59 3229 0
-3229 3245 0
-60 -3229 3230 0
-3230 3246 0
-61 -3230 3231 0
-3231 3247 0
-62 -3231 3232 0
-3232 3248 0
-63 -3232 3233 0
-3233 3249 0
-64 -3233 3234 0
-3234 3250 0
-65 -3234 3235 0
-3235 3251 0
-66 -3235 3236 0
-3236 3252 0
-67 -3236 3237 0
-3237 3253 0
-68 -3237 3238 0
-3238 3254 0
-69 -3238 3239 0
-3239 3255 0
-70 -3239 3240 0
-3240 3256 0
-71 -3240 3241 0
-3241 3257 0
-72 -3241 3242 0
-3242 3258 0
-73 -3242 3243 0
-3243 3259 0
-74 -3243 3244 0
-3244 3260 0
-75 -3244 0
-60 3245 0
-3245 3261 0
-61 -3245 3246 0
-3246 3262 0
-62 -3246 3247 0
-3247 3263 0
-63 -3247 3248 0
-3248 3264 0
-64 -3248 3249 0
-3249 3265 0
-65 -3249 3250 0
-3250 3266 0
-66 -3250 3251 0
-3251 3267 0
-67 -3251 3252 0
-3252 3268 0
-68 -3252 3253 0
-3253 3269 0
-69 -3253 3254 0
-3254 3270 0
-70 -3254 3255 0
-3255 3271 0
-71 -3255 3256 0
-3256 3272 0
-72 -3256 3257 0
-3257 3273 0
-73 -3257 3258 0
-3258 3274 0
-74 -3258 3259 0
-3259 3275 0
-75 -3259 3260 0
-3260 3276 0
-76 -3260 0
-61 3261 0
-3261 3277 0
-62 -3261 3262 0
-3262 3278 0
-63 -3262 3263 0
-3263 3279 0
-64 -3263 3264 0
-3264 3280 0
-65 -3264 3265 0
-3265 3281 0
-66 -3265 3266 0
-3266 3282 0
-67 -3266 3267 0
-3267 3283 0
-68 -3267 3268 0
-3268 3284 0
-69 -3268 3269 0
-3269 3285 0
-70 -3269 3270 0
-3270 3286 0
-71 -3270 3271 0
-3271 3287 0
-72 -3271 3272 0
-3272 3288 0
-73 -3272 3273 0
-3273 3289 0
-74 -3273 3274 0
-3274 3290 0
-75 -3274 3275 0
-3275 3291 0
-76 -3275 3276 0
-3276 3292 0
-77 -3276 0
-62 3277 0
-3277 3293 0
-63 -3277 3278 0
-3278 3294 0
-64 -3278 3279 0
-3279 3295 0
-65 -3279 3280 0
-3280 3296 0
-66 -3280 3281 0
-3281 3297 0
-67 -3281 3282 0
-3282 3298 0
-68 -3282 3283 0
-3283 3299 0
-69 -3283 3284 0
-3284 3300 0
-70 -3284 3285 0
-3285 3301 0
-71 -3285 3286 0
-3286 3302 0
-72 -3286 3287 0
-3287 3303 0
-73 -3287 3288 0
-3288 3304 0
-74 -3288 3289 0
-3289 3305 0
-75 -3289 3290 0
-3290 3306 0
-76 -3290 3291 0
-3291 3307 0
-77 -3291 3292 0
-3292 3308 0
-78 -3292 0
-63 3293 0
-3293 3309 0
-64 -3293 3294 0
-3294 3310 0
-65 -3294 3295 0
-3295 3311 0
-66 -3295 3296 0
-3296 3312 0
-67 -3296 3297 0
-3297 3313 0
-68 -3297 3298 0
-3298 3314 0
-69 -3298 3299 0
-3299 3315 0
-70 -3299 3300 0
-3300 3316 0
-71 -3300 3301 0
-3301 3317 0
-72 -3301 3302 0
-3302 3318 0
-73 -3302 3303 0
-3303 3319 0
-74 -3303 3304 0
-3304 3320 0
-75 -3304 3305 0
-3305 3321 0
-76 -3305 3306 0
-3306 3322 0
-77 -3306 3307 0
-3307 3323 0
-78 -3307 3308 0
-3308 3324 0
-79 -3308 0
-64 3309 0
-3309 3325 0
-65 -3309 3310 0
-3310 3326 0
-66 -3310 3311 0
-3311 3327 0
-67 -3311 3312 0
-3312 3328 0
-68 -3312 3313 0
-3313 3329 0
-69 -3313 3314 0
-3314 3330 0
-70 -3314 3315 0
-3315 3331 0
-71 -3315 3316 0
-3316 3332 0
-72 -3316 3317 0
-3317 3333 0
-73 -3317 3318 0
-3318 3334 0
-74 -3318 3319 0
-3319 3335 0
-75 -3319 3320 0
-3320 3336 0
-76 -3320 3321 0
-3321 3337 0
-77 -3321 3322 0
-3322 3338 0
-78 -3322 3323 0
-3323 3339 0
-79 -3323 3324 0
-3324 3340 0
-80 -3324 0
-65 3325 0
-3325 3341 0
-66 -3325 3326 0
-3326 3342 0
-67 -3326 3327 0
-3327 3343 0
-68 -3327 3328 0
-3328 3344 0
-69 -3328 3329 0
-3329 3345 0
-70 -3329 3330 0
-3330 3346 0
-71 -3330 3331 0
-3331 3347 0
-72 -3331 3332 0
-3332 3348 0
-73 -3332 3333 0
-3333 3349 0
-74 -3333 3334 0
-3334 3350 0
-75 -3334 3335 0
-3335 3351 0
-76 -3335 3336 0
-3336 3352 0
-77 -3336 3337 0
-3337 3353 0
-78 -3337 3338 0
-3338 3354 0
-79 -3338 3339 0
-3339 3355 0
-80 -3339 3340 0
-3340 3356 0
-81 -3340 0
-66 3341 0
-3341 3357 0
-67 -3341 3342 0
-3342 3358 0
-68 -3342 3343 0
-3343 3359 0
-69 -3343 3344 0
-3344 3360 0
-70 -3344 3345 0
-3345 3361 0
-71 -3345 3346 0
-3346 3362 0
-72 -3346 3347 0
-3347 3363 0
-73 -3347 3348 0
-3348 3364 0
-74 -3348 3349 0
-3349 3365 0
-75 -3349 3350 0
-3350 3366 0
-76 -3350 3351 0
-3351 3367 0
-77 -3351 3352 0
-3352 3368 0
-78 -3352 3353 0
-3353 3369 0
-79 -3353 3354 0
-3354 3370 0
-80 -3354 3355 0
-3355 3371 0
-81 -3355 3356 0
-3356 3372 0
-82 -3356 0
-67 3357 0
-3357 3373 0
-68 -3357 3358 0
-3358 3374 0
-69 -3358 3359 0
-3359 3375 0
-70 -3359 3360 0
-3360 3376 0
-71 -3360 3361 0
-3361 3377 0
-72 -3361 3362 0
-3362 3378 0
-73 -3362 3363 0
-3363 3379 0
-74 -3363 3364 0
-3364 3380 0
-75 -3364 3365 0
-3365 3381 0
-76 -3365 3366 0
-3366 3382 0
-77 -3366 3367 0
-3367 3383 0
-78 -3367 3368 0
-3368 3384 0
-79 -3368 3369 0
-3369 3385 0
-80 -3369 3370 0
-3370 3386 0
-81 -3370 3371 0
-3371 3387 0
-82 -3371 3372 0
-3372 3388 0
-83 -3372 0
-68 3373 0
-3373 3389 0
-69 -3373 3374 0
-3374 3390 0
-70 -3374 3375 0
-3375 3391 0
-71 -3375 3376 0
-3376 3392 0
-72 -3376 3377 0
-3377 3393 0
-73 -3377 3378 0
-3378 3394 0
-74 -3378 3379 0
-3379 3395 0
-75 -3379 3380 0
-3380 3396 0
-76 -3380 3381 0
-3381 3397 0
-77 -3381 3382 0
-3382 3398 0
-78 -3382 3383 0
-3383 3399 0
-79 -3383 3384 0
-3384 3400 0
-80 -3384 3385 0
-3385 3401 0
-81 -3385 3386 0
-3386 3402 0
-82 -3386 3387 0
-3387 3403 0
-83 -3387 3388 0
-3388 3404 0
-84 -3388 0
-69 3389 0
-3389 3405 0
-70 -3389 3390 0
-3390 3406 0
-71 -3390 3391 0
-3391 3407 0
-72 -3391 3392 0
-3392 3408 0
-73 -3392 3393 0
-3393 3409 0
-74 -3393 3394 0
-3394 3410 0
-75 -3394 3395 0
-3395 3411 0
-76 -3395 3396 0
-3396 3412 0
-77 -3396 3397 0
-3397 3413 0
-78 -3397 3398 0
-3398 3414 0
-79 -3398 3399 0
-3399 3415 0
-80 -3399 3400 0
-3400 3416 0
-81 -3400 3401 0
-3401 3417 0
-82 -3401 3402 0
-3402 3418 0
-83 -3402 3403 0
-3403 3419 0
-84 -3403 3404 0
-3404 3420 0
-85 -3404 0
-70 3405 0
-3405 3421 0
-71 -3405 3406 0
-3406 3422 0
-72 -3406 3407 0
-3407 3423 0
-73 -3407 3408 0
-3408 3424 0
-74 -3408 3409 0
-3409 3425 0
-75 -3409 3410 0
-3410 3426 0
-76 -3410 3411 0
-3411 3427 0
-77 -3411 3412 0
-3412 3428 0
-78 -3412 3413 0
-3413 3429 0
-79 -3413 3414 0
-3414 3430 0
-80 -3414 3415 0
-3415 3431 0
-81 -3415 3416 0
-3416 3432 0
-82 -3416 3417 0
-3417 3433 0
-83 -3417 3418 0
-3418 3434 0
-84 -3418 3419 0
-3419 3435 0
-85 -3419 3420 0
-3420 3436 0
-86 -3420 0
-71 3421 0
-3421 3437 0
-72 -3421 3422 0
-3422 3438 0
-73 -3422 3423 0
-3423 3439 0
-74 -3423 3424 0
-3424 3440 0
-75 -3424 3425 0
-3425 3441 0
-76 -3425 3426 0
-3426 3442 0
-77 -3426 3427 0
-3427 3443 0
-78 -3427 3428 0
-3428 3444 0
-79 -3428 3429 0
-3429 3445 0
-80 -3429 3430 0
-3430 3446 0
-81 -3430 3431 0
-3431 3447 0
-82 -3431 3432 0
-3432 3448 0
-83 -3432 3433 0
-3433 3449 0
-84 -3433 3434 0
-3434 3450 0
-85 -3434 3435 0
-3435 3451 0
-86 -3435 3436 0
-3436 3452 0
-87 -3436 0
-72 3437 0
-3437 3453 0
-73 -3437 3438 0
-3438 3454 0
-74 -3438 3439 0
-3439 3455 0
-75 -3439 3440 0
-3440 3456 0
-76 -3440 3441 0
-3441 3457 0
-77 -3441 3442 0
-3442 3458 0
-78 -3442 3443 0
-3443 3459 0
-79 -3443 3444 0
-3444 3460 0
-80 -3444 3445 0
-3445 3461 0
-81 -3445 3446 0
-3446 3462 0
-82 -3446 3447 0
-3447 3463 0
-83 -3447 3448 0
-3448 3464 0
-84 -3448 3449 0
-3449 3465 0
-85 -3449 3450 0
-3450 3466 0
-86 -3450 3451 0
-3451 3467 0
-87 -3451 3452 0
-3452 3468 0
-88 -3452 0
-73 3453 0
-3453 3469 0
-74 -3453 3454 0
-3454 3470 0
-75 -3454 3455 0
-3455 3471 0
-76 -3455 3456 0
-3456 3472 0
-77 -3456 3457 0
-3457 3473 0
-78 -3457 3458 0
-3458 3474 0
-79 -3458 3459 0
-3459 3475 0
-80 -3459 3460 0
-3460 3476 0
-81 -3460 3461 0
-3461 3477 0
-82 -3461 3462 0
-3462 3478 0
-83 -3462 3463 0
-3463 3479 0
-84 -3463 3464 0
-3464 3480 0
-85 -3464 3465 0
-3465 3481 0
-86 -3465 3466 0
-3466 3482 0
-87 -3466 3467 0
-3467 3483 0
-88 -3467 3468 0
-3468 3484 0
-89 -3468 0
-74 3469 0
-3469 3485 0
-75 -3469 3470 0
-3470 3486 0
-76 -3470 3471 0
-3471 3487 0
-77 -3471 3472 0
-3472 3488 0
-78 -3472 3473 0
-3473 3489 0
-79 -3473 3474 0
-3474 3490 0
-80 -3474 3475 0
-3475 3491 0
-81 -3475 3476 0
-3476 3492 0
-82 -3476 3477 0
-3477 3493 0
-83 -3477 3478 0
-3478 3494 0
-84 -3478 3479 0
-3479 3495 0
-85 -3479 3480 0
-3480 3496 0
-86 -3480 3481 0
-3481 3497 0
-87 -3481 3482 0
-3482 3498 0
-88 -3482 3483 0
-3483 3499 0
-89 -3483 3484 0
-3484 3500 0
-90 -3484 0
-75 3485 0
-3485 3501 0
-76 -3485 3486 0
-3486 3502 0
-77 -3486 3487 0
-3487 3503 0
-78 -3487 3488 0
-3488 3504 0
-79 -3488 3489 0
-3489 3505 0
-80 -3489 3490 0
-3490 3506 0
-81 -3490 3491 0
-3491 3507 0
-82 -3491 3492 0
-3492 3508 0
-83 -3492 3493 0
-3493 3509 0
-84 -3493 3494 0
-3494 3510 0
-85 -3494 3495 0
-3495 3511 0
-86 -3495 3496 0
-3496 3512 0
-87 -3496 3497 0
-3497 3513 0
-88 -3497 3498 0
-3498 3514 0
-89 -3498 3499 0
-3499 3515 0
-90 -3499 3500 0
-3500 3516 0
-91 -3500 0
-76 3501 0
-3501 3517 0
-77 -3501 3502 0
-3502 3518 0
-78 -3502 3503 0
-3503 3519 0
-79 -3503 3504 0
-3504 3520 0
-80 -3504 3505 0
-3505 3521 0
-81 -3505 3506 0
-3506 3522 0
-82 -3506 3507 0
-3507 3523 0
-83 -3507 3508 0
-3508 3524 0
-84 -3508 3509 0
-3509 3525 0
-85 -3509 3510 0
-3510 3526 0
-86 -3510 3511 0
-3511 3527 0
-87 -3511 3512 0
-3512 3528 0
-88 -3512 3513 0
-3513 3529 0
-89 -3513 3514 0
-3514 3530 0
-90 -3514 3515 0
-3515 3531 0
-91 -3515 3516 0
-3516 3532 0
-92 -3516 0
-77 3517 0
-3517 3533 0
-78 -3517 3518 0
-3518 3534 0
-79 -3518 3519 0
-3519 3535 0
-80 -3519 3520 0
-3520 3536 0
-81 -3520 3521 0
-3521 3537 0
-82 -3521 3522 0
-3522 3538 0
-83 -3522 3523 0
-3523 3539 0
-84 -3523 3524 0
-3524 3540 0
-85 -3524 3525 0
-3525 3541 0
-86 -3525 3526 0
-3526 3542 0
-87 -3526 3527 0
-3527 3543 0
-88 -3527 3528 0
-3528 3544 0
-89 -3528 3529 0
-3529 3545 0
-90 -3529 3530 0
-3530 3546 0
-91 -3530 3531 0
-3531 3547 0
-92 -3531 3532 0
-3532 3548 0
-93 -3532 0
-78 3533 0
-3533 3549 0
-79 -3533 3534 0
-3534 3550 0
-80 -3534 3535 0
-3535 3551 0
-81 -3535 3536 0
-3536 3552 0
-82 -3536 3537 0
-3537 3553 0
-83 -3537 3538 0
-3538 3554 0
-84 -3538 3539 0
-3539 3555 0
-85 -3539 3540 0
-3540 3556 0
-86 -3540 3541 0
-3541 3557 0
-87 -3541 3542 0
-3542 3558 0
-88 -3542 3543 0
-3543 3559 0
-89 -3543 3544 0
-3544 3560 0
-90 -3544 3545 0
-3545 3561 0
-91 -3545 3546 0
-3546 3562 0
-92 -3546 3547 0
-3547 3563 0
-93 -3547 3548 0
-3548 3564 0
-94 -3548 0
-79 3549 0
-3549 3565 0
-80 -3549 3550 0
-3550 3566 0
-81 -3550 3551 0
-3551 3567 0
-82 -3551 3552 0
-3552 3568 0
-83 -3552 3553 0
-3553 3569 0
-84 -3553 3554 0
-3554 3570 0
-85 -3554 3555 0
-3555 3571 0
-86 -3555 3556 0
-3556 3572 0
-87 -3556 3557 0
-3557 3573 0
-88 -3557 3558 0
-3558 3574 0
-89 -3558 3559 0
-3559 3575 0
-90 -3559 3560 0
-3560 3576 0
-91 -3560 3561 0
-3561 3577 0
-92 -3561 3562 0
-3562 3578 0
-93 -3562 3563 0
-3563 3579 0
-94 -3563 3564 0
-3564 3580 0
-95 -3564 0
-80 3565 0
-3565 3581 0
-81 -3565 3566 0
-3566 3582 0
-82 -3566 3567 0
-3567 3583 0
-83 -3567 3568 0
-3568 3584 0
-84 -3568 3569 0
-3569 3585 0
-85 -3569 3570 0
-3570 3586 0
-86 -3570 3571 0
-3571 3587 0
-87 -3571 3572 0
-3572 3588 0
-88 -3572 3573 0
-3573 3589 0
-89 -3573 3574 0
-3574 3590 0
-90 -3574 3575 0
-3575 3591 0
-91 -3575 3576 0
-3576 3592 0
-92 -3576 3577 0
-3577 3593 0
-93 -3577 3578 0
-3578 3594 0
-94 -3578 3579 0
-3579 3595 0
-95 -3579 3580 0
-3580 3596 0
-96 -3580 0
-81 3581 0
-3581 3597 0
-82 -3581 3582 0
-3582 3598 0
-83 -3582 3583 0
-3583 3599 0
-84 -3583 3584 0
-3584 3600 0
-85 -3584 3585 0
-3585 3601 0
-86 -3585 3586 0
-3586 3602 0
-87 -3586 3587 0
-3587 3603 0
-88 -3587 3588 0
-3588 3604 0
-89 -3588 3589 0
-3589 3605 0
-90 -3589 3590 0
-3590 3606 0
-91 -3590 3591 0
-3591 3607 0
-92 -3591 3592 0
-3592 3608 0
-93 -3592 3593 0
-3593 3609 0
-94 -3593 3594 0
-3594 3610 0
-95 -3594 3595 0
-3595 3611 0
-96 -3595 3596 0
-3596 3612 0
-97 -3596 0
-82 3597 0
-3597 3613 0
-83 -3597 3598 0
-3598 3614 0
-84 -3598 3599 0
-3599 3615 0
-85 -3599 3600 0
-3600 3616 0
-86 -3600 3601 0
-3601 3617 0
-87 -3601 3602 0
-3602 3618 0
-88 -3602 3603 0
-3603 3619 0
-89 -3603 3604 0
-3604 3620 0
-90 -3604 3605 0
-3605 3621 0
-91 -3605 3606 0
-3606 3622 0
-92 -3606 3607 0
-3607 3623 0
-93 -3607 3608 0
-3608 3624 0
-94 -3608 3609 0
-3609 3625 0
-95 -3609 3610 0
-3610 3626 0
-96 -3610 3611 0
-3611 3627 0
-97 -3611 3612 0
-3612 3628 0
-98 -3612 0
-83 3613 0
-3613 3629 0
-84 -3613 3614 0
-3614 3630 0
-85 -3614 3615 0
-3615 3631 0
-86 -3615 3616 0
-3616 3632 0
-87 -3616 3617 0
-3617 3633 0
-88 -3617 3618 0
-3618 3634 0
-89 -3618 3619 0
-3619 3635 0
-90 -3619 3620 0
-3620 3636 0
-91 -3620 3621 0
-3621 3637 0
-92 -3621 3622 0
-3622 3638 0
-93 -3622 3623 0
-3623 3639 0
-94 -3623 3624 0
-3624 3640 0
-95 -3624 3625 0
-3625 3641 0
-96 -3625 3626 0
-3626 3642 0
-97 -3626 3627 0
-3627 3643 0
-98 -3627 3628 0
-3628 3644 0
-99 -3628 0
-84 3629 0
-3629 3645 0
-85 -3629 3630 0
-3630 3646 0
-86 -3630 3631 0
-3631 3647 0
-87 -3631 3632 0
-3632 3648 0
-88 -3632 3633 0
-3633 3649 0
-89 -3633 3634 0
-3634 3650 0
-90 -3634 3635 0
-3635 3651 0
-91 -3635 3636 0
-3636 3652 0
-92 -3636 3637 0
-3637 3653 0
-93 -3637 3638 0
-3638 3654 0
-94 -3638 3639 0
-3639 3655 0
-95 -3639 3640 0
-3640 3656 0
-96 -3640 3641 0
-3641 3657 0
-97 -3641 3642 0
-3642 3658 0
-98 -3642 3643 0
-3643 3659 0
-99 -3643 3644 0
-3644 3660 0
-100 -3644 0
-85 3645 0
-3645 3661 0
-86 -3645 3646 0
-3646 3662 0
-87 -3646 3647 0
-3647 3663 0
-88 -3647 3648 0
-3648 3664 0
-89 -3648 3649 0
-3649 3665 0
-90 -3649 3650 0
-3650 3666 0
-91 -3650 3651 0
-3651 3667 0
-92 -3651 3652 0
-3652 3668 0
-93 -3652 3653 0
-3653 3669 0
-94 -3653 3654 0
-3654 3670 0
-95 -3654 3655 0
-3655 3671 0
-96 -3655 3656 0
-3656 3672 0
-97 -3656 3657 0
-3657 3673 0
-98 -3657 3658 0
-3658 3674 0
-99 -3658 3659 0
-3659 3675 0
-100 -3659 3660 0
-3660 3676 0
-101 -3660 0
-86 3661 0
-3661 3677 0
-87 -3661 3662 0
-3662 3678 0
-88 -3662 3663 0
-3663 3679 0
-89 -3663 3664 0
-3664 3680 0
-90 -3664 3665 0
-3665 3681 0
-91 -3665 3666 0
-3666 3682 0
-92 -3666 3667 0
-3667 3683 0
-93 -3667 3668 0
-3668 3684 0
-94 -3668 3669 0
-3669 3685 0
-95 -3669 3670 0
-3670 3686 0
-96 -3670 3671 0
-3671 3687 0
-97 -3671 3672 0
-3672 3688 0
-98 -3672 3673 0
-3673 3689 0
-99 -3673 3674 0
-3674 3690 0
-100 -3674 3675 0
-3675 3691 0
-101 -3675 3676 0
-3676 3692 0
-102 -3676 0
-87 3677 0
-3677 3693 0
-88 -3677 3678 0
-3678 3694 0
-89 -3678 3679 0
-3679 3695 0
-90 -3679 3680 0
-3680 3696 0
-91 -3680 3681 0
-3681 3697 0
-92 -3681 3682 0
-3682 3698 0
-93 -3682 3683 0
-3683 3699 0
-94 -3683 3684 0
-3684 3700 0
-95 -3684 3685 0
-3685 3701 0
-96 -3685 3686 0
-3686 3702 0
-97 -3686 3687 0
-3687 3703 0
-98 -3687 3688 0
-3688 3704 0
-99 -3688 3689 0
-3689 3705 0
-100 -3689 3690 0
-3690 3706 0
-101 -3690 3691 0
-3691 3707 0
-102 -3691 3692 0
-3692 3708 0
-103 -3692 0
-88 3693 0
-3693 3709 0
-89 -3693 3694 0
-3694 3710 0
-90 -3694 3695 0
-3695 3711 0
-91 -3695 3696 0
-3696 3712 0
-92 -3696 3697 0
-3697 3713 0
-93 -3697 3698 0
-3698 3714 0
-94 -3698 3699 0
-3699 3715 0
-95 -3699 3700 0
-3700 3716 0
-96 -3700 3701 0
-3701 3717 0
-97 -3701 3702 0
-3702 3718 0
-98 -3702 3703 0
-3703 3719 0
-99 -3703 3704 0
-3704 3720 0
-100 -3704 3705 0
-3705 3721 0
-101 -3705 3706 0
-3706 3722 0
-102 -3706 3707 0
-3707 3723 0
-103 -3707 3708 0
-3708 3724 0
-104 -3708 0
-89 3709 0
-3709 3725 0
-90 -3709 3710 0
-3710 3726 0
-91 -3710 3711 0
-3711 3727 0
-92 -3711 3712 0
-3712 3728 0
-93 -3712 3713 0
-3713 3729 0
-94 -3713 3714 0
-3714 3730 0
-95 -3714 3715 0
-3715 3731 0
-96 -3715 3716 0
-3716 3732 0
-97 -3716 3717 0
-3717 3733 0
-98 -3717 3718 0
-3718 3734 0
-99 -3718 3719 0
-3719 3735 0
-100 -3719 3720 0
-3720 3736 0
-101 -3720 3721 0
-3721 3737 0
-102 -3721 3722 0
-3722 3738 0
-103 -3722 3723 0
-3723 3739 0
-104 -3723 3724 0
-3724 3740 0
-105 -3724 0
-90 3725 0
-3725 3741 0
-91 -3725 3726 0
-3726 3742 0
-92 -3726 3727 0
-3727 3743 0
-93 -3727 3728 0
-3728 3744 0
-94 -3728 3729 0
-3729 3745 0
-95 -3729 3730 0
-3730 3746 0
-96 -3730 3731 0
-3731 3747 0
-97 -3731 3732 0
-3732 3748 0
-98 -3732 3733 0
-3733 3749 0
-99 -3733 3734 0
-3734 3750 0
-100 -3734 3735 0
-3735 3751 0
-101 -3735 3736 0
-3736 3752 0
-102 -3736 3737 0
-3737 3753 0
-103 -3737 3738 0
-3738 3754 0
-104 -3738 3739 0
-3739 3755 0
-105 -3739 3740 0
-3740 3756 0
-106 -3740 0
-91 3741 0
-3741 3757 0
-92 -3741 3742 0
-3742 3758 0
-93 -3742 3743 0
-3743 3759 0
-94 -3743 3744 0
-3744 3760 0
-95 -3744 3745 0
-3745 3761 0
-96 -3745 3746 0
-3746 3762 0
-97 -3746 3747 0
-3747 3763 0
-98 -3747 3748 0
-3748 3764 0
-99 -3748 3749 0
-3749 3765 0
-100 -3749 3750 0
-3750 3766 0
-101 -3750 3751 0
-3751 3767 0
-102 -3751 3752 0
-3752 3768 0
-103 -3752 3753 0
-3753 3769 0
-104 -3753 3754 0
-3754 3770 0
-105 -3754 3755 0
-3755 3771 0
-106 -3755 3756 0
-3756 3772 0
-107 -3756 0
-92 3757 0
-3757 3773 0
-93 -3757 3758 0
-3758 3774 0
-94 -3758 3759 0
-3759 3775 0
-95 -3759 3760 0
-3760 3776 0
-96 -3760 3761 0
-3761 3777 0
-97 -3761 3762 0
-3762 3778 0
-98 -3762 3763 0
-3763 3779 0
-99 -3763 3764 0
-3764 3780 0
-100 -3764 3765 0
-3765 3781 0
-101 -3765 3766 0
-3766 3782 0
-102 -3766 3767 0
-3767 3783 0
-103 -3767 3768 0
-3768 3784 0
-104 -3768 3769 0
-3769 3785 0
-105 -3769 3770 0
-3770 3786 0
-106 -3770 3771 0
-3771 3787 0
-107 -3771 3772 0
-3772 3788 0
-108 -3772 0
-93 3773 0
-3773 3789 0
-94 -3773 3774 0
-3774 3790 0
-95 -3774 3775 0
-3775 3791 0
-96 -3775 3776 0
-3776 3792 0
-97 -3776 3777 0
-3777 3793 0
-98 -3777 3778 0
-3778 3794 0
-99 -3778 3779 0
-3779 3795 0
-100 -3779 3780 0
-3780 3796 0
-101 -3780 3781 0
-3781 3797 0
-102 -3781 3782 0
-3782 3798 0
-103 -3782 3783 0
-3783 3799 0
-104 -3783 3784 0
-3784 3800 0
-105 -3784 3785 0
-3785 3801 0
-106 -3785 3786 0
-3786 3802 0
-107 -3786 3787 0
-3787 3803 0
-108 -3787 3788 0
-3788 3804 0
-109 -3788 0
-94 3789 0
-3789 3805 0
-95 -3789 3790 0
-3790 3806 0
-96 -3790 3791 0
-3791 3807 0
-97 -3791 3792 0
-3792 3808 0
-98 -3792 3793 0
-3793 3809 0
-99 -3793 3794 0
-3794 3810 0
-100 -3794 3795 0
-3795 3811 0
-101 -3795 3796 0
-3796 3812 0
-102 -3796 3797 0
-3797 3813 0
-103 -3797 3798 0
-3798 3814 0
-104 -3798 3799 0
-3799 3815 0
-105 -3799 3800 0
-3800 3816 0
-106 -3800 3801 0
-3801 3817 0
-107 -3801 3802 0
-3802 3818 0
-108 -3802 3803 0
-3803 3819 0
-109 -3803 3804 0
-3804 3820 0
-110 -3804 0
-95 3805 0
-3805 3821 0
-96 -3805 3806 0
-3806 3822 0
-97 -3806 3807 0
-3807 3823 0
-98 -3807 3808 0
-3808 3824 0
-99 -3808 3809 0
-3809 3825 0
-100 -3809 3810 0
-3810 3826 0
-101 -3810 3811 0
-3811 3827 0
-102 -3811 3812 0
-3812 3828 0
-103 -3812 3813 0
-3813 3829 0
-104 -3813 3814 0
-3814 3830 0
-105 -3814 3815 0
-3815 3831 0
-106 -3815 3816 0
-3816 3832 0
-107 -3816 3817 0
-3817 3833 0
-108 -3817 3818 0
-3818 3834 0
-109 -3818 3819 0
-3819 3835 0
-110 -3819 3820 0
-3820 3836 0
-111 -3820 0
-96 3821 0
-3821 3837 0
-97 -3821 3822 0
-3822 3838 0
-98 -3822 3823 0
-3823 3839 0
-99 -3823 3824 0
-3824 3840 0
-100 -3824 3825 0
-3825 3841 0
-101 -3825 3826 0
-3826 3842 0
-102 -3826 3827 0
-3827 3843 0
-103 -3827 3828 0
-3828 3844 0
-104 -3828 3829 0
-3829 3845 0
-105 -3829 3830 0
-3830 3846 0
-106 -3830 3831 0
-3831 3847 0
-107 -3831 3832 0
-3832 3848 0
-108 -3832 3833 0
-3833 3849 0
-109 -3833 3834 0
-3834 3850 0
-110 -3834 3835 0
-3835 3851 0
-111 -3835 3836 0
-3836 3852 0
-112 -3836 0
-97 3837 0
-3837 3853 0
-98 -3837 3838 0
-3838 3854 0
-99 -3838 3839 0
-3839 3855 0
-100 -3839 3840 0
-3840 3856 0
-101 -3840 3841 0
-3841 3857 0
-102 -3841 3842 0
-3842 3858 0
-103 -3842 3843 0
-3843 3859 0
-104 -3843 3844 0
-3844 3860 0
-105 -3844 3845 0
-3845 3861 0
-106 -3845 3846 0
-3846 3862 0
-107 -3846 3847 0
-3847 3863 0
-108 -3847 3848 0
-3848 3864 0
-109 -3848 3849 0
-3849 3865 0
-110 -3849 3850 0
-3850 3866 0
-111 -3850 3851 0
-3851 3867 0
-112 -3851 3852 0
-3852 3868 0
-113 -3852 0
-98 3853 0
-3853 3869 0
-99 -3853 3854 0
-3854 3870 0
-100 -3854 3855 0
-3855 3871 0
-101 -3855 3856 0
-3856 3872 0
-102 -3856 3857 0
-3857 3873 0
-103 -3857 3858 0
-3858 3874 0
-104 -3858 3859 0
-3859 3875 0
-105 -3859 3860 0
-3860 3876 0
-106 -3860 3861 0
-3861 3877 0
-107 -3861 3862 0
-3862 3878 0
-108 -3862 3863 0
-3863 3879 0
-109 -3863 3864 0
-3864 3880 0
-110 -3864 3865 0
-3865 3881 0
-111 -3865 3866 0
-3866 3882 0
-112 -3866 3867 0
-3867 3883 0
-113 -3867 3868 0
-3868 3884 0
-114 -3868 0
-99 3869 0
-3869 3885 0
-100 -3869 3870 0
-3870 3886 0
-101 -3870 3871 0
-3871 3887 0
-102 -3871 3872 0
-3872 3888 0
-103 -3872 3873 0
-3873 3889 0
-104 -3873 3874 0
-3874 3890 0
-105 -3874 3875 0
-3875 3891 0
-106 -3875 3876 0
-3876 3892 0
-107 -3876 3877 0
-3877 3893 0
-108 -3877 3878 0
-3878 3894 0
-109 -3878 3879 0
-3879 3895 0
-110 -3879 3880 0
-3880 3896 0
-111 -3880 3881 0
-3881 3897 0
-112 -3881 3882 0
-3882 3898 0
-113 -3882 3883 0
-3883 3899 0
-114 -3883 3884 0
-3884 3900 0
-115 -3884 0
-100 3885 0
-3885 3901 0
-101 -3885 3886 0
-3886 3902 0
-102 -3886 3887 0
-3887 3903 0
-103 -3887 3888 0
-3888 3904 0
-104 -3888 3889 0
-3889 3905 0
-105 -3889 3890 0
-3890 3906 0
-106 -3890 3891 0
-3891 3907 0
-107 -3891 3892 0
-3892 3908 0
-108 -3892 3893 0
-3893 3909 0
-109 -3893 3894 0
-3894 3910 0
-110 -3894 3895 0
-3895 3911 0
-111 -3895 3896 0
-3896 3912 0
-112 -3896 3897 0
-3897 3913 0
-113 -3897 3898 0
-3898 3914 0
-114 -3898 3899 0
-3899 3915 0
-115 -3899 3900 0
-3900 3916 0
-116 -3900 0
-101 3901 0
-3901 3917 0
-102 -3901 3902 0
-3902 3918 0
-103 -3902 3903 0
-3903 3919 0
-104 -3903 3904 0
-3904 3920 0
-105 -3904 3905 0
-3905 3921 0
-106 -3905 3906 0
-3906 3922 0
-107 -3906 3907 0
-3907 3923 0
-108 -3907 3908 0
-3908 3924 0
-109 -3908 3909 0
-3909 3925 0
-110 -3909 3910 0
-3910 3926 0
-111 -3910 3911 0
-3911 3927 0
-112 -3911 3912 0
-3912 3928 0
-113 -3912 3913 0
-3913 3929 0
-114 -3913 3914 0
-3914 3930 0
-115 -3914 3915 0
-3915 3931 0
-116 -3915 3916 0
-3916 3932 0
-117 -3916 0
-102 3917 0
-3917 3933 0
-103 -3917 3918 0
-3918 3934 0
-104 -3918 3919 0
-3919 3935 0
-105 -3919 3920 0
-3920 3936 0
-106 -3920 3921 0
-3921 3937 0
-107 -3921 3922 0
-3922 3938 0
-108 -3922 3923 0
-3923 3939 0
-109 -3923 3924 0
-3924 3940 0
-110 -3924 3925 0
-3925 3941 0
-111 -3925 3926 0
-3926 3942 0
-112 -3926 3927 0
-3927 3943 0
-113 -3927 3928 0
-3928 3944 0
-114 -3928 3929 0
-3929 3945 0
-115 -3929 3930 0
-3930 3946 0
-116 -3930 3931 0
-3931 3947 0
-117 -3931 3932 0
-3932 3948 0
-118 -3932 0
-103 3933 0
-3933 3949 0
-104 -3933 3934 0
-3934 3950 0
-105 -3934 3935 0
-3935 3951 0
-106 -3935 3936 0
-3936 3952 0
-107 -3936 3937 0
-3937 3953 0
-108 -3937 3938 0
-3938 3954 0
-109 -3938 3939 0
-3939 3955 0
-110 -3939 3940 0
-3940 3956 0
-111 -3940 3941 0
-3941 3957 0
-112 -3941 3942 0
-3942 3958 0
-113 -3942 3943 0
-3943 3959 0
-114 -3943 3944 0
-3944 3960 0
-115 -3944 3945 0
-3945 3961 0
-116 -3945 3946 0
-3946 3962 0
-117 -3946 3947 0
-3947 3963 0
-118 -3947 3948 0
-3948 3964 0
-119 -3948 0
-104 3949 0
-3949 3965 0
-105 -3949 3950 0
-3950 3966 0
-106 -3950 3951 0
-3951 3967 0
-107 -3951 3952 0
-3952 3968 0
-108 -3952 3953 0
-3953 3969 0
-109 -3953 3954 0
-3954 3970 0
-110 -3954 3955 0
-3955 3971 0
-111 -3955 3956 0
-3956 3972 0
-112 -3956 3957 0
-3957 3973 0
-113 -3957 3958 0
-3958 3974 0
-114 -3958 3959 0
-3959 3975 0
-115 -3959 3960 0
-3960 3976 0
-116 -3960 3961 0
-3961 3977 0
-117 -3961 3962 0
-3962 3978 0
-118 -3962 3963 0
-3963 3979 0
-119 -3963 3964 0
-3964 3980 0
-120 -3964 0
-105 3965 0
-3965 3981 0
-106 -3965 3966 0
-3966 3982 0
-107 -3966 3967 0
-3967 3983 0
-108 -3967 3968 0
-3968 3984 0
-109 -3968 3969 0
-3969 3985 0
-110 -3969 3970 0
-3970 3986 0
-111 -3970 3971 0
-3971 3987 0
-112 -3971 3972 0
-3972 3988 0
-113 -3972 3973 0
-3973 3989 0
-114 -3973 3974 0
-3974 3990 0
-115 -3974 3975 0
-3975 3991 0
-116 -3975 3976 0
-3976 3992 0
-117 -3976 3977 0
-3977 3993 0
-118 -3977 3978 0
-3978 3994 0
-119 -3978 3979 0
-3979 3995 0
-120 -3979 3980 0
-3980 3996 0
-121 -3980 0
-106 3981 0
-3981 3997 0
-107 -3981 3982 0
-3982 3998 0
-108 -3982 3983 0
-3983 3999 0
-109 -3983 3984 0
-3984 4000 0
-110 -3984 3985 0
-3985 4001 0
-111 -3985 3986 0
-3986 4002 0
-112 -3986 3987 0
-3987 4003 0
-113 -3987 3988 0
-3988 4004 0
-114 -3988 3989 0
-3989 4005 0
-115 -3989 3990 0
-3990 4006 0
-116 -3990 3991 0
-3991 4007 0
-117 -3991 3992 0
-3992 4008 0
-118 -3992 3993 0
-3993 4009 0
-119 -3993 3994 0
-3994 4010 0
-120 -3994 3995 0
-3995 4011 0
-121 -3995 3996 0
-3996 4012 0
-122 -3996 0
-107 3997 0
-3997 4013 0
-108 -3997 3998 0
-3998 4014 0
-109 -3998 3999 0
-3999 4015 0
-110 -3999 4000 0
-4000 4016 0
-111 -4000 4001 0
-4001 4017 0
-112 -4001 4002 0
-4002 4018 0
-113 -4002 4003 0
-4003 4019 0
-114 -4003 4004 0
-4004 4020 0
-115 -4004 4005 0
-4005 4021 0
-116 -4005 4006 0
-4006 4022 0
-117 -4006 4007 0
-4007 4023 0
-118 -4007 4008 0
-4008 4024 0
-119 -4008 4009 0
-4009 4025 0
-120 -4009 4010 0
-4010 4026 0
-121 -4010 4011 0
-4011 4027 0
-122 -4011 4012 0
-4012 4028 0
-123 -4012 0
-108 4013 0
-4013 4029 0
-109 -4013 4014 0
-4014 4030 0
-110 -4014 4015 0
-4015 4031 0
-111 -4015 4016 0
-4016 4032 0
-112 -4016 4017 0
-4017 4033 0
-113 -4017 4018 0
-4018 4034 0
-114 -4018 4019 0
-4019 4035 0
-115 -4019 4020 0
-4020 4036 0
-116 -4020 4021 0
-4021 4037 0
-117 -4021 4022 0
-4022 4038 0
-118 -4022 4023 0
-4023 4039 0
-119 -4023 4024 0
-4024 4040 0
-120 -4024 4025 0
-4025 4041 0
-121 -4025 4026 0
-4026 4042 0
-122 -4026 4027 0
-4027 4043 0
-123 -4027 4028 0
-4028 4044 0
-124 -4028 0
-109 4029 0
-4029 4045 0
-110 -4029 4030 0
-4030 4046 0
-111 -4030 4031 0
-4031 4047 0
-112 -4031 4032 0
-4032 4048 0
-113 -4032 4033 0
-4033 4049 0
-114 -4033 4034 0
-4034 4050 0
-115 -4034 4035 0
-4035 4051 0
-116 -4035 4036 0
-4036 4052 0
-117 -4036 4037 0
-4037 4053 0
-118 -4037 4038 0
-4038 4054 0
-119 -4038 4039 0
-4039 4055 0
-120 -4039 4040 0
-4040 4056 0
-121 -4040 4041 0
-4041 4057 0
-122 -4041 4042 0
-4042 4058 0
-123 -4042 4043 0
-4043 4059 0
-124 -4043 4044 0
-4044 4060 0
-125 -4044 0
-110 4045 0
-4045 4061 0
-111 -4045 4046 0
-4046 4062 0
-112 -4046 4047 0
-4047 4063 0
-113 -4047 4048 0
-4048 4064 0
-114 -4048 4049 0
-4049 4065 0
-115 -4049 4050 0
-4050 4066 0
-116 -4050 4051 0
-4051 4067 0
-117 -4051 4052 0
-4052 4068 0
-118 -4052 4053 0
-4053 4069 0
-119 -4053 4054 0
-4054 4070 0
-120 -4054 4055 0
-4055 4071 0
-121 -4055 4056 0
-4056 4072 0
-122 -4056 4057 0
-4057 4073 0
-123 -4057 4058 0
-4058 4074 0
-124 -4058 4059 0
-4059 4075 0
-125 -4059 4060 0
-4060 4076 0
-126 -4060 0
-111 4061 0
-4061 4077 0
-112 -4061 4062 0
-4062 4078 0
-113 -4062 4063 0
-4063 4079 0
-114 -4063 4064 0
-4064 4080 0
-115 -4064 4065 0
-4065 4081 0
-116 -4065 4066 0
-4066 4082 0
-117 -4066 4067 0
-4067 4083 0
-118 -4067 4068 0
-4068 4084 0
-119 -4068 4069 0
-4069 4085 0
-120 -4069 4070 0
-4070 4086 0
-121 -4070 4071 0
-4071 4087 0
-122 -4071 4072 0
-4072 4088 0
-123 -4072 4073 0
-4073 4089 0
-124 -4073 4074 0
-4074 4090 0
-125 -4074 4075 0
-4075 4091 0
-126 -4075 4076 0
-4076 4092 0
-127 -4076 0
-112 4077 0
-4077 4093 0
-113 -4077 4078 0
-4078 4094 0
-114 -4078 4079 0
-4079 4095 0
-115 -4079 4080 0
-4080 4096 0
-116 -4080 4081 0
-4081 4097 0
-117 -4081 4082 0
-4082 4098 0
-118 -4082 4083 0
-4083 4099 0
-119 -4083 4084 0
-4084 4100 0
-120 -4084 4085 0
-4085 4101 0
-121 -4085 4086 0
-4086 4102 0
-122 -4086 4087 0
-4087 4103 0
-123 -4087 4088 0
-4088 4104 0
-124 -4088 4089 0
-4089 4105 0
-125 -4089 4090 0
-4090 4106 0
-126 -4090 4091 0
-4091 4107 0
-127 -4091 4092 0
-4092 4108 0
-128 -4092 0
-113 4093 0
-4093 4109 0
-114 -4093 4094 0
-4094 4110 0
-115 -4094 4095 0
-4095 4111 0
-116 -4095 4096 0
-4096 4112 0
-117 -4096 4097 0
-4097 4113 0
-118 -4097 4098 0
-4098 4114 0
-119 -4098 4099 0
-4099 4115 0
-120 -4099 4100 0
-4100 4116 0
-121 -4100 4101 0
-4101 4117 0
-122 -4101 4102 0
-4102 4118 0
-123 -4102 4103 0
-4103 4119 0
-124 -4103 4104 0
-4104 4120 0
-125 -4104 4105 0
-4105 4121 0
-126 -4105 4106 0
-4106 4122 0
-127 -4106 4107 0
-4107 4123 0
-128 -4107 4108 0
-4108 4124 0
-129 -4108 0
-114 4109 0
-4109 4125 0
-115 -4109 4110 0
-4110 4126 0
-116 -4110 4111 0
-4111 4127 0
-117 -4111 4112 0
-4112 4128 0
-118 -4112 4113 0
-4113 4129 0
-119 -4113 4114 0
-4114 4130 0
-120 -4114 4115 0
-4115 4131 0
-121 -4115 4116 0
-4116 4132 0
-122 -4116 4117 0
-4117 4133 0
-123 -4117 4118 0
-4118 4134 0
-124 -4118 4119 0
-4119 4135 0
-125 -4119 4120 0
-4120 4136 0
-126 -4120 4121 0
-4121 4137 0
-127 -4121 4122 0
-4122 4138 0
-128 -4122 4123 0
-4123 4139 0
-129 -4123 4124 0
-4124 4140 0
-130 -4124 0
-115 4125 0
-4125 4141 0
-116 -4125 4126 0
-4126 4142 0
-117 -4126 4127 0
-4127 4143 0
-118 -4127 4128 0
-4128 4144 0
-119 -4128 4129 0
-4129 4145 0
-120 -4129 4130 0
-4130 4146 0
-121 -4130 4131 0
-4131 4147 0
-122 -4131 4132 0
-4132 4148 0
-123 -4132 4133 0
-4133 4149 0
-124 -4133 4134 0
-4134 4150 0
-125 -4134 4135 0
-4135 4151 0
-126 -4135 4136 0
-4136 4152 0
-127 -4136 4137 0
-4137 4153 0
-128 -4137 4138 0
-4138 4154 0
-129 -4138 4139 0
-4139 4155 0
-130 -4139 4140 0
-4140 4156 0
-131 -4140 0
-116 4141 0
-4141 4157 0
-117 -4141 4142 0
-4142 4158 0
-118 -4142 4143 0
-4143 4159 0
-119 -4143 4144 0
-4144 4160 0
-120 -4144 4145 0
-4145 4161 0
-121 -4145 4146 0
-4146 4162 0
-122 -4146 4147 0
-4147 4163 0
-123 -4147 4148 0
-4148 4164 0
-124 -4148 4149 0
-4149 4165 0
-125 -4149 4150 0
-4150 4166 0
-126 -4150 4151 0
-4151 4167 0
-127 -4151 4152 0
-4152 4168 0
-128 -4152 4153 0
-4153 4169 0
-129 -4153 4154 0
-4154 4170 0
-130 -4154 4155 0
-4155 4171 0
-131 -4155 4156 0
-4156 4172 0
-132 -4156 0
-117 4157 0
-4157 4173 0
-118 -4157 4158 0
-4158 4174 0
-119 -4158 4159 0
-4159 4175 0
-120 -4159 4160 0
-4160 4176 0
-121 -4160 4161 0
-4161 4177 0
-122 -4161 4162 0
-4162 4178 0
-123 -4162 4163 0
-4163 4179 0
-124 -4163 4164 0
-4164 4180 0
-125 -4164 4165 0
-4165 4181 0
-126 -4165 4166 0
-4166 4182 0
-127 -4166 4167 0
-4167 4183 0
-128 -4167 4168 0
-4168 4184 0
-129 -4168 4169 0
-4169 4185 0
-130 -4169 4170 0
-4170 4186 0
-131 -4170 4171 0
-4171 4187 0
-132 -4171 4172 0
-4172 4188 0
-133 -4172 0
-118 4173 0
-4173 4189 0
-119 -4173 4174 0
-4174 4190 0
-120 -4174 4175 0
-4175 4191 0
-121 -4175 4176 0
-4176 4192 0
-122 -4176 4177 0
-4177 4193 0
-123 -4177 4178 0
-4178 4194 0
-124 -4178 4179 0
-4179 4195 0
-125 -4179 4180 0
-4180 4196 0
-126 -4180 4181 0
-4181 4197 0
-127 -4181 4182 0
-4182 4198 0
-128 -4182 4183 0
-4183 4199 0
-129 -4183 4184 0
-4184 4200 0
-130 -4184 4185 0
-4185 4201 0
-131 -4185 4186 0
-4186 4202 0
-132 -4186 4187 0
-4187 4203 0
-133 -4187 4188 0
-4188 4204 0
-134 -4188 0
-119 4189 0
-4189 4205 0
-120 -4189 4190 0
-4190 4206 0
-121 -4190 4191 0
-4191 4207 0
-122 -4191 4192 0
-4192 4208 0
-123 -4192 4193 0
-4193 4209 0
-124 -4193 4194 0
-4194 4210 0
-125 -4194 4195 0
-4195 4211 0
-126 -4195 4196 0
-4196 4212 0
-127 -4196 4197 0
-4197 4213 0
-128 -4197 4198 0
-4198 4214 0
-129 -4198 4199 0
-4199 4215 0
-130 -4199 4200 0
-4200 4216 0
-131 -4200 4201 0
-4201 4217 0
-132 -4201 4202 0
-4202 4218 0
-133 -4202 4203 0
-4203 4219 0
-134 -4203 4204 0
-4204 4220 0
-135 -4204 0
-120 4205 0
-4205 4221 0
-121 -4205 4206 0
-4206 4222 0
-122 -4206 4207 0
-4207 4223 0
-123 -4207 4208 0
-4208 4224 0
-124 -4208 4209 0
-4209 4225 0
-125 -4209 4210 0
-4210 4226 0
-126 -4210 4211 0
-4211 4227 0
-127 -4211 4212 0
-4212 4228 0
-128 -4212 4213 0
-4213 4229 0
-129 -4213 4214 0
-4214 4230 0
-130 -4214 4215 0
-4215 4231 0
-131 -4215 4216 0
-4216 4232 0
-132 -4216 4217 0
-4217 4233 0
-133 -4217 4218 0
-4218 4234 0
-134 -4218 4219 0
-4219 4235 0
-135 -4219 4220 0
-4220 4236 0
-136 -4220 0
-121 4221 0
-4221 4237 0
-122 -4221 4222 0
-4222 4238 0
-123 -4222 4223 0
-4223 4239 0
-124 -4223 4224 0
-4224 4240 0
-125 -4224 4225 0
-4225 4241 0
-126 -4225 4226 0
-4226 4242 0
-127 -4226 4227 0
-4227 4243 0
-128 -4227 4228 0
-4228 4244 0
-129 -4228 4229 0
-4229 4245 0
-130 -4229 4230 0
-4230 4246 0
-131 -4230 4231 0
-4231 4247 0
-132 -4231 4232 0
-4232 4248 0
-133 -4232 4233 0
-4233 4249 0
-134 -4233 4234 0
-4234 4250 0
-135 -4234 4235 0
-4235 4251 0
-136 -4235 4236 0
-4236 4252 0
-137 -4236 0
-122 4237 0
-4237 4253 0
-123 -4237 4238 0
-4238 4254 0
-124 -4238 4239 0
-4239 4255 0
-125 -4239 4240 0
-4240 4256 0
-126 -4240 4241 0
-4241 4257 0
-127 -4241 4242 0
-4242 4258 0
-128 -4242 4243 0
-4243 4259 0
-129 -4243 4244 0
-4244 4260 0
-130 -4244 4245 0
-4245 4261 0
-131 -4245 4246 0
-4246 4262 0
-132 -4246 4247 0
-4247 4263 0
-133 -4247 4248 0
-4248 4264 0
-134 -4248 4249 0
-4249 4265 0
-135 -4249 4250 0
-4250 4266 0
-136 -4250 4251 0
-4251 4267 0
-137 -4251 4252 0
-4252 4268 0
-138 -4252 0
-123 4253 0
-4253 4269 0
-124 -4253 4254 0
-4254 4270 0
-125 -4254 4255 0
-4255 4271 0
-126 -4255 4256 0
-4256 4272 0
-127 -4256 4257 0
-4257 4273 0
-128 -4257 4258 0
-4258 4274 0
-129 -4258 4259 0
-4259 4275 0
-130 -4259 4260 0
-4260 4276 0
-131 -4260 4261 0
-4261 4277 0
-132 -4261 4262 0
-4262 4278 0
-133 -4262 4263 0
-4263 4279 0
-134 -4263 4264 0
-4264 4280 0
-135 -4264 4265 0
-4265 4281 0
-136 -4265 4266 0
-4266 4282 0
-137 -4266 4267 0
-4267 4283 0
-138 -4267 4268 0
-4268 4284 0
-139 -4268 0
-124 4269 0
-4269 4285 0
-125 -4269 4270 0
-4270 4286 0
-126 -4270 4271 0
-4271 4287 0
-127 -4271 4272 0
-4272 4288 0
-128 -4272 4273 0
-4273 4289 0
-129 -4273 4274 0
-4274 4290 0
-130 -4274 4275 0
-4275 4291 0
-131 -4275 4276 0
-4276 4292 0
-132 -4276 4277 0
-4277 4293 0
-133 -4277 4278 0
-4278 4294 0
-134 -4278 4279 0
-4279 4295 0
-135 -4279 4280 0
-4280 4296 0
-136 -4280 4281 0
-4281 4297 0
-137 -4281 4282 0
-4282 4298 0
-138 -4282 4283 0
-4283 4299 0
-139 -4283 4284 0
-4284 4300 0
-140 -4284 0
-125 4285 0
-4285 4301 0
-126 -4285 4286 0
-4286 4302 0
-127 -4286 4287 0
-4287 4303 0
-128 -4287 4288 0
-4288 4304 0
-129 -4288 4289 0
-4289 4305 0
-130 -4289 4290 0
-4290 4306 0
-131 -4290 4291 0
-4291 4307 0
-132 -4291 4292 0
-4292 4308 0
-133 -4292 4293 0
-4293 4309 0
-134 -4293 4294 0
-4294 4310 0
-135 -4294 4295 0
-4295 4311 0
-136 -4295 4296 0
-4296 4312 0
-137 -4296 4297 0
-4297 4313 0
-138 -4297 4298 0
-4298 4314 0
-139 -4298 4299 0
-4299 4315 0
-140 -4299 4300 0
-4300 4316 0
-141 -4300 0
-126 4301 0
-127 -4301 4302 0
-128 -4302 4303 0
-129 -4303 4304 0
-130 -4304 4305 0
-131 -4305 4306 0
-132 -4306 4307 0
-133 -4307 4308 0
-134 -4308 4309 0
-135 -4309 4310 0
-136 -4310 4311 0
-137 -4311 4312 0
-138 -4312 4313 0
-139 -4313 4314 0
-140 -4314 4315 0
-141 -4315 4316 0
-142 -4316 0
-143 4317 0
-4317 4318 0
-144 -4317 4319 0
-4319 4320 0
-145 -4319 4321 0
-4321 4322 0
-146 -4321 4323 0
-4323 4324 0
-147 -4323 4325 0
-4325 4326 0
-148 -4325 4327 0
-4327 4328 0
-149 -4327 4329 0
-4329 4330 0
-150 -4329 4331 0
-4331 4332 0
-151 -4331 4333 0
-4333 4334 0
-152 -4333 0
-144 4318 0
-4318 4335 0
-145 -4318 4320 0
-4320 4336 0
-146 -4320 4322 0
-4322 4337 0
-147 -4322 4324 0
-4324 4338 0
-148 -4324 4326 0
-4326 4339 0
-149 -4326 4328 0
-4328 4340 0
-150 -4328 4330 0
-4330 4341 0
-151 -4330 4332 0
-4332 4342 0
-152 -4332 4334 0
-4334 4343 0
-153 -4334 0
-145 4335 0
-4335 4344 0
-146 -4335 4336 0
-4336 4345 0
-147 -4336 4337 0
-4337 4346 0
-148 -4337 4338 0
-4338 4347 0
-149 -4338 4339 0
-4339 4348 0
-150 -4339 4340 0
-4340 4349 0
-151 -4340 4341 0
-4341 4350 0
-152 -4341 4342 0
-4342 4351 0
-153 -4342 4343 0
-4343 4352 0
-154 -4343 0
-146 4344 0
-4344 4353 0
-147 -4344 4345 0
-4345 4354 0
-148 -4345 4346 0
-4346 4355 0
-149 -4346 4347 0
-4347 4356 0
-150 -4347 4348 0
-4348 4357 0
-151 -4348 4349 0
-4349 4358 0
-152 -4349 4350 0
-4350 4359 0
-153 -4350 4351 0
-4351 4360 0
-154 -4351 4352 0
-4352 4361 0
-155 -4352 0
-147 4353 0
-4353 4362 0
-148 -4353 4354 0
-4354 4363 0
-149 -4354 4355 0
-4355 4364 0
-150 -4355 4356 0
-4356 4365 0
-151 -4356 4357 0
-4357 4366 0
-152 -4357 4358 0
-4358 4367 0
-153 -4358 4359 0
-4359 4368 0
-154 -4359 4360 0
-4360 4369 0
-155 -4360 4361 0
-4361 4370 0
-156 -4361 0
-148 4362 0
-4362 4371 0
-149 -4362 4363 0
-4363 4372 0
-150 -4363 4364 0
-4364 4373 0
-151 -4364 4365 0
-4365 4374 0
-152 -4365 4366 0
-4366 4375 0
-153 -4366 4367 0
-4367 4376 0
-154 -4367 4368 0
-4368 4377 0
-155 -4368 4369 0
-4369 4378 0
-156 -4369 4370 0
-4370 4379 0
-157 -4370 0
-149 4371 0
-4371 4380 0
-150 -4371 4372 0
-4372 4381 0
-151 -4372 4373 0
-4373 4382 0
-152 -4373 4374 0
-4374 4383 0
-153 -4374 4375 0
-4375 4384 0
-154 -4375 4376 0
-4376 4385 0
-155 -4376 4377 0
-4377 4386 0
-156 -4377 4378 0
-4378 4387 0
-157 -4378 4379 0
-4379 4388 0
-158 -4379 0
-150 4380 0
-4380 4389 0
-151 -4380 4381 0
-4381 4390 0
-152 -4381 4382 0
-4382 4391 0
-153 -4382 4383 0
-4383 4392 0
-154 -4383 4384 0
-4384 4393 0
-155 -4384 4385 0
-4385 4394 0
-156 -4385 4386 0
-4386 4395 0
-157 -4386 4387 0
-4387 4396 0
-158 -4387 4388 0
-4388 4397 0
-159 -4388 0
-151 4389 0
-4389 4398 0
-152 -4389 4390 0
-4390 4399 0
-153 -4390 4391 0
-4391 4400 0
-154 -4391 4392 0
-4392 4401 0
-155 -4392 4393 0
-4393 4402 0
-156 -4393 4394 0
-4394 4403 0
-157 -4394 4395 0
-4395 4404 0
-158 -4395 4396 0
-4396 4405 0
-159 -4396 4397 0
-4397 4406 0
-160 -4397 0
-152 4398 0
-4398 4407 0
-153 -4398 4399 0
-4399 4408 0
-154 -4399 4400 0
-4400 4409 0
-155 -4400 4401 0
-4401 4410 0
-156 -4401 4402 0
-4402 4411 0
-157 -4402 4403 0
-4403 4412 0
-158 -4403 4404 0
-4404 4413 0
-159 -4404 4405 0
-4405 4414 0
-160 -4405 4406 0
-4406 4415 0
-161 -4406 0
-153 4407 0
-4407 4416 0
-154 -4407 4408 0
-4408 4417 0
-155 -4408 4409 0
-4409 4418 0
-156 -4409 4410 0
-4410 4419 0
-157 -4410 4411 0
-4411 4420 0
-158 -4411 4412 0
-4412 4421 0
-159 -4412 4413 0
-4413 4422 0
-160 -4413 4414 0
-4414 4423 0
-161 -4414 4415 0
-4415 4424 0
-162 -4415 0
-154 4416 0
-4416 4425 0
-155 -4416 4417 0
-4417 4426 0
-156 -4417 4418 0
-4418 4427 0
-157 -4418 4419 0
-4419 4428 0
-158 -4419 4420 0
-4420 4429 0
-159 -4420 4421 0
-4421 4430 0
-160 -4421 4422 0
-4422 4431 0
-161 -4422 4423 0
-4423 4432 0
-162 -4423 4424 0
-4424 4433 0
-163 -4424 0
-155 4425 0
-4425 4434 0
-156 -4425 4426 0
-4426 4435 0
-157 -4426 4427 0
-4427 4436 0
-158 -4427 4428 0
-4428 4437 0
-159 -4428 4429 0
-4429 4438 0
-160 -4429 4430 0
-4430 4439 0
-161 -4430 4431 0
-4431 4440 0
-162 -4431 4432 0
-4432 4441 0
-163 -4432 4433 0
-4433 4442 0
-164 -4433 0
-156 4434 0
-4434 4443 0
-157 -4434 4435 0
-4435 4444 0
-158 -4435 4436 0
-4436 4445 0
-159 -4436 4437 0
-4437 4446 0
-160 -4437 4438 0
-4438 4447 0
-161 -4438 4439 0
-4439 4448 0
-162 -4439 4440 0
-4440 4449 0
-163 -4440 4441 0
-4441 4450 0
-164 -4441 4442 0
-4442 4451 0
-165 -4442 0
-157 4443 0
-4443 4452 0
-158 -4443 4444 0
-4444 4453 0
-159 -4444 4445 0
-4445 4454 0
-160 -4445 4446 0
-4446 4455 0
-161 -4446 4447 0
-4447 4456 0
-162 -4447 4448 0
-4448 4457 0
-163 -4448 4449 0
-4449 4458 0
-164 -4449 4450 0
-4450 4459 0
-165 -4450 4451 0
-4451 4460 0
-166 -4451 0
-158 4452 0
-4452 4461 0
-159 -4452 4453 0
-4453 4462 0
-160 -4453 4454 0
-4454 4463 0
-161 -4454 4455 0
-4455 4464 0
-162 -4455 4456 0
-4456 4465 0
-163 -4456 4457 0
-4457 4466 0
-164 -4457 4458 0
-4458 4467 0
-165 -4458 4459 0
-4459 4468 0
-166 -4459 4460 0
-4460 4469 0
-167 -4460 0
-159 4461 0
-4461 4470 0
-160 -4461 4462 0
-4462 4471 0
-161 -4462 4463 0
-4463 4472 0
-162 -4463 4464 0
-4464 4473 0
-163 -4464 4465 0
-4465 4474 0
-164 -4465 4466 0
-4466 4475 0
-165 -4466 4467 0
-4467 4476 0
-166 -4467 4468 0
-4468 4477 0
-167 -4468 4469 0
-4469 4478 0
-168 -4469 0
-160 4470 0
-4470 4479 0
-161 -4470 4471 0
-4471 4480 0
-162 -4471 4472 0
-4472 4481 0
-163 -4472 4473 0
-4473 4482 0
-164 -4473 4474 0
-4474 4483 0
-165 -4474 4475 0
-4475 4484 0
-166 -4475 4476 0
-4476 4485 0
-167 -4476 4477 0
-4477 4486 0
-168 -4477 4478 0
-4478 4487 0
-169 -4478 0
-161 4479 0
-4479 4488 0
-162 -4479 4480 0
-4480 4489 0
-163 -4480 4481 0
-4481 4490 0
-164 -4481 4482 0
-4482 4491 0
-165 -4482 4483 0
-4483 4492 0
-166 -4483 4484 0
-4484 4493 0
-167 -4484 4485 0
-4485 4494 0
-168 -4485 4486 0
-4486 4495 0
-169 -4486 4487 0
-4487 4496 0
-170 -4487 0
-162 4488 0
-4488 4497 0
-163 -4488 4489 0
-4489 4498 0
-164 -4489 4490 0
-4490 4499 0
-165 -4490 4491 0
-4491 4500 0
-166 -4491 4492 0
-4492 4501 0
-167 -4492 4493 0
-4493 4502 0
-168 -4493 4494 0
-4494 4503 0
-169 -4494 4495 0
-4495 4504 0
-170 -4495 4496 0
-4496 4505 0
-171 -4496 0
-163 4497 0
-4497 4506 0
-164 -4497 4498 0
-4498 4507 0
-165 -4498 4499 0
-4499 4508 0
-166 -4499 4500 0
-4500 4509 0
-167 -4500 4501 0
-4501 4510 0
-168 -4501 4502 0
-4502 4511 0
-169 -4502 4503 0
-4503 4512 0
-170 -4503 4504 0
-4504 4513 0
-171 -4504 4505 0
-4505 4514 0
-172 -4505 0
-164 4506 0
-4506 4515 0
-165 -4506 4507 0
-4507 4516 0
-166 -4507 4508 0
-4508 4517 0
-167 -4508 4509 0
-4509 4518 0
-168 -4509 4510 0
-4510 4519 0
-169 -4510 4511 0
-4511 4520 0
-170 -4511 4512 0
-4512 4521 0
-171 -4512 4513 0
-4513 4522 0
-172 -4513 4514 0
-4514 4523 0
-173 -4514 0
-165 4515 0
-4515 4524 0
-166 -4515 4516 0
-4516 4525 0
-167 -4516 4517 0
-4517 4526 0
-168 -4517 4518 0
-4518 4527 0
-169 -4518 4519 0
-4519 4528 0
-170 -4519 4520 0
-4520 4529 0
-171 -4520 4521 0
-4521 4530 0
-172 -4521 4522 0
-4522 4531 0
-173 -4522 4523 0
-4523 4532 0
-174 -4523 0
-166 4524 0
-4524 4533 0
-167 -4524 4525 0
-4525 4534 0
-168 -4525 4526 0
-4526 4535 0
-169 -4526 4527 0
-4527 4536 0
-170 -4527 4528 0
-4528 4537 0
-171 -4528 4529 0
-4529 4538 0
-172 -4529 4530 0
-4530 4539 0
-173 -4530 4531 0
-4531 4540 0
-174 -4531 4532 0
-4532 4541 0
-175 -4532 0
-167 4533 0
-4533 4542 0
-168 -4533 4534 0
-4534 4543 0
-169 -4534 4535 0
-4535 4544 0
-170 -4535 4536 0
-4536 4545 0
-171 -4536 4537 0
-4537 4546 0
-172 -4537 4538 0
-4538 4547 0
-173 -4538 4539 0
-4539 4548 0
-174 -4539 4540 0
-4540 4549 0
-175 -4540 4541 0
-4541 4550 0
-176 -4541 0
-168 4542 0
-4542 4551 0
-169 -4542 4543 0
-4543 4552 0
-170 -4543 4544 0
-4544 4553 0
-171 -4544 4545 0
-4545 4554 0
-172 -4545 4546 0
-4546 4555 0
-173 -4546 4547 0
-4547 4556 0
-174 -4547 4548 0
-4548 4557 0
-175 -4548 4549 0
-4549 4558 0
-176 -4549 4550 0
-4550 4559 0
-177 -4550 0
-169 4551 0
-4551 4560 0
-170 -4551 4552 0
-4552 4561 0
-171 -4552 4553 0
-4553 4562 0
-172 -4553 4554 0
-4554 4563 0
-173 -4554 4555 0
-4555 4564 0
-174 -4555 4556 0
-4556 4565 0
-175 -4556 4557 0
-4557 4566 0
-176 -4557 4558 0
-4558 4567 0
-177 -4558 4559 0
-4559 4568 0
-178 -4559 0
-170 4560 0
-4560 4569 0
-171 -4560 4561 0
-4561 4570 0
-172 -4561 4562 0
-4562 4571 0
-173 -4562 4563 0
-4563 4572 0
-174 -4563 4564 0
-4564 4573 0
-175 -4564 4565 0
-4565 4574 0
-176 -4565 4566 0
-4566 4575 0
-177 -4566 4567 0
-4567 4576 0
-178 -4567 4568 0
-4568 4577 0
-179 -4568 0
-171 4569 0
-4569 4578 0
-172 -4569 4570 0
-4570 4579 0
-173 -4570 4571 0
-4571 4580 0
-174 -4571 4572 0
-4572 4581 0
-175 -4572 4573 0
-4573 4582 0
-176 -4573 4574 0
-4574 4583 0
-177 -4574 4575 0
-4575 4584 0
-178 -4575 4576 0
-4576 4585 0
-179 -4576 4577 0
-4577 4586 0
-180 -4577 0
-172 4578 0
-4578 4587 0
-173 -4578 4579 0
-4579 4588 0
-174 -4579 4580 0
-4580 4589 0
-175 -4580 4581 0
-4581 4590 0
-176 -4581 4582 0
-4582 4591 0
-177 -4582 4583 0
-4583 4592 0
-178 -4583 4584 0
-4584 4593 0
-179 -4584 4585 0
-4585 4594 0
-180 -4585 4586 0
-4586 4595 0
-181 -4586 0
-173 4587 0
-4587 4596 0
-174 -4587 4588 0
-4588 4597 0
-175 -4588 4589 0
-4589 4598 0
-176 -4589 4590 0
-4590 4599 0
-177 -4590 4591 0
-4591 4600 0
-178 -4591 4592 0
-4592 4601 0
-179 -4592 4593 0
-4593 4602 0
-180 -4593 4594 0
-4594 4603 0
-181 -4594 4595 0
-4595 4604 0
-182 -4595 0
-174 4596 0
-4596 4605 0
-175 -4596 4597 0
-4597 4606 0
-176 -4597 4598 0
-4598 4607 0
-177 -4598 4599 0
-4599 4608 0
-178 -4599 4600 0
-4600 4609 0
-179 -4600 4601 0
-4601 4610 0
-180 -4601 4602 0
-4602 4611 0
-181 -4602 4603 0
-4603 4612 0
-182 -4603 4604 0
-4604 4613 0
-183 -4604 0
-175 4605 0
-4605 4614 0
-176 -4605 4606 0
-4606 4615 0
-177 -4606 4607 0
-4607 4616 0
-178 -4607 4608 0
-4608 4617 0
-179 -4608 4609 0
-4609 4618 0
-180 -4609 4610 0
-4610 4619 0
-181 -4610 4611 0
-4611 4620 0
-182 -4611 4612 0
-4612 4621 0
-183 -4612 4613 0
-4613 4622 0
-184 -4613 0
-176 4614 0
-4614 4623 0
-177 -4614 4615 0
-4615 4624 0
-178 -4615 4616 0
-4616 4625 0
-179 -4616 4617 0
-4617 4626 0
-180 -4617 4618 0
-4618 4627 0
-181 -4618 4619 0
-4619 4628 0
-182 -4619 4620 0
-4620 4629 0
-183 -4620 4621 0
-4621 4630 0
-184 -4621 4622 0
-4622 4631 0
-185 -4622 0
-177 4623 0
-4623 4632 0
-178 -4623 4624 0
-4624 4633 0
-179 -4624 4625 0
-4625 4634 0
-180 -4625 4626 0
-4626 4635 0
-181 -4626 4627 0
-4627 4636 0
-182 -4627 4628 0
-4628 4637 0
-183 -4628 4629 0
-4629 4638 0
-184 -4629 4630 0
-4630 4639 0
-185 -4630 4631 0
-4631 4640 0
-186 -4631 0
-178 4632 0
-4632 4641 0
-179 -4632 4633 0
-4633 4642 0
-180 -4633 4634 0
-4634 4643 0
-181 -4634 4635 0
-4635 4644 0
-182 -4635 4636 0
-4636 4645 0
-183 -4636 4637 0
-4637 4646 0
-184 -4637 4638 0
-4638 4647 0
-185 -4638 4639 0
-4639 4648 0
-186 -4639 4640 0
-4640 4649 0
-187 -4640 0
-179 4641 0
-4641 4650 0
-180 -4641 4642 0
-4642 4651 0
-181 -4642 4643 0
-4643 4652 0
-182 -4643 4644 0
-4644 4653 0
-183 -4644 4645 0
-4645 4654 0
-184 -4645 4646 0
-4646 4655 0
-185 -4646 4647 0
-4647 4656 0
-186 -4647 4648 0
-4648 4657 0
-187 -4648 4649 0
-4649 4658 0
-188 -4649 0
-180 4650 0
-4650 4659 0
-181 -4650 4651 0
-4651 4660 0
-182 -4651 4652 0
-4652 4661 0
-183 -4652 4653 0
-4653 4662 0
-184 -4653 4654 0
-4654 4663 0
-185 -4654 4655 0
-4655 4664 0
-186 -4655 4656 0
-4656 4665 0
-187 -4656 4657 0
-4657 4666 0
-188 -4657 4658 0
-4658 4667 0
-189 -4658 0
-181 4659 0
-4659 4668 0
-182 -4659 4660 0
-4660 4669 0
-183 -4660 4661 0
-4661 4670 0
-184 -4661 4662 0
-4662 4671 0
-185 -4662 4663 0
-4663 4672 0
-186 -4663 4664 0
-4664 4673 0
-187 -4664 4665 0
-4665 4674 0
-188 -4665 4666 0
-4666 4675 0
-189 -4666 4667 0
-4667 4676 0
-190 -4667 0
-182 4668 0
-4668 4677 0
-183 -4668 4669 0
-4669 4678 0
-184 -4669 4670 0
-4670 4679 0
-185 -4670 4671 0
-4671 4680 0
-186 -4671 4672 0
-4672 4681 0
-187 -4672 4673 0
-4673 4682 0
-188 -4673 4674 0
-4674 4683 0
-189 -4674 4675 0
-4675 4684 0
-190 -4675 4676 0
-4676 4685 0
-191 -4676 0
-183 4677 0
-4677 4686 0
-184 -4677 4678 0
-4678 4687 0
-185 -4678 4679 0
-4679 4688 0
-186 -4679 4680 0
-4680 4689 0
-187 -4680 4681 0
-4681 4690 0
-188 -4681 4682 0
-4682 4691 0
-189 -4682 4683 0
-4683 4692 0
-190 -4683 4684 0
-4684 4693 0
-191 -4684 4685 0
-4685 4694 0
-192 -4685 0
-184 4686 0
-4686 4695 0
-185 -4686 4687 0
-4687 4696 0
-186 -4687 4688 0
-4688 4697 0
-187 -4688 4689 0
-4689 4698 0
-188 -4689 4690 0
-4690 4699 0
-189 -4690 4691 0
-4691 4700 0
-190 -4691 4692 0
-4692 4701 0
-191 -4692 4693 0
-4693 4702 0
-192 -4693 4694 0
-4694 4703 0
-193 -4694 0
-185 4695 0
-4695 4704 0
-186 -4695 4696 0
-4696 4705 0
-187 -4696 4697 0
-4697 4706 0
-188 -4697 4698 0
-4698 4707 0
-189 -4698 4699 0
-4699 4708 0
-190 -4699 4700 0
-4700 4709 0
-191 -4700 4701 0
-4701 4710 0
-192 -4701 4702 0
-4702 4711 0
-193 -4702 4703 0
-4703 4712 0
-194 -4703 0
-186 4704 0
-4704 4713 0
-187 -4704 4705 0
-4705 4714 0
-188 -4705 4706 0
-4706 4715 0
-189 -4706 4707 0
-4707 4716 0
-190 -4707 4708 0
-4708 4717 0
-191 -4708 4709 0
-4709 4718 0
-192 -4709 4710 0
-4710 4719 0
-193 -4710 4711 0
-4711 4720 0
-194 -4711 4712 0
-4712 4721 0
-195 -4712 0
-187 4713 0
-4713 4722 0
-188 -4713 4714 0
-4714 4723 0
-189 -4714 4715 0
-4715 4724 0
-190 -4715 4716 0
-4716 4725 0
-191 -4716 4717 0
-4717 4726 0
-192 -4717 4718 0
-4718 4727 0
-193 -4718 4719 0
-4719 4728 0
-194 -4719 4720 0
-4720 4729 0
-195 -4720 4721 0
-4721 4730 0
-196 -4721 0
-188 4722 0
-4722 4731 0
-189 -4722 4723 0
-4723 4732 0
-190 -4723 4724 0
-4724 4733 0
-191 -4724 4725 0
-4725 4734 0
-192 -4725 4726 0
-4726 4735 0
-193 -4726 4727 0
-4727 4736 0
-194 -4727 4728 0
-4728 4737 0
-195 -4728 4729 0
-4729 4738 0
-196 -4729 4730 0
-4730 4739 0
-197 -4730 0
-189 4731 0
-4731 4740 0
-190 -4731 4732 0
-4732 4741 0
-191 -4732 4733 0
-4733 4742 0
-192 -4733 4734 0
-4734 4743 0
-193 -4734 4735 0
-4735 4744 0
-194 -4735 4736 0
-4736 4745 0
-195 -4736 4737 0
-4737 4746 0
-196 -4737 4738 0
-4738 4747 0
-197 -4738 4739 0
-4739 4748 0
-198 -4739 0
-190 4740 0
-4740 4749 0
-191 -4740 4741 0
-4741 4750 0
-192 -4741 4742 0
-4742 4751 0
-193 -4742 4743 0
-4743 4752 0
-194 -4743 4744 0
-4744 4753 0
-195 -4744 4745 0
-4745 4754 0
-196 -4745 4746 0
-4746 4755 0
-197 -4746 4747 0
-4747 4756 0
-198 -4747 4748 0
-4748 4757 0
-199 -4748 0
-191 4749 0
-4749 4758 0
-192 -4749 4750 0
-4750 4759 0
-193 -4750 4751 0
-4751 4760 0
-194 -4751 4752 0
-4752 4761 0
-195 -4752 4753 0
-4753 4762 0
-196 -4753 4754 0
-4754 4763 0
-197 -4754 4755 0
-4755 4764 0
-198 -4755 4756 0
-4756 4765 0
-199 -4756 4757 0
-4757 4766 0
-200 -4757 0
-192 4758 0
-4758 4767 0
-193 -4758 4759 0
-4759 4768 0
-194 -4759 4760 0
-4760 4769 0
-195 -4760 4761 0
-4761 4770 0
-196 -4761 4762 0
-4762 4771 0
-197 -4762 4763 0
-4763 4772 0
-198 -4763 4764 0
-4764 4773 0
-199 -4764 4765 0
-4765 4774 0
-200 -4765 4766 0
-4766 4775 0
-201 -4766 0
-193 4767 0
-4767 4776 0
-194 -4767 4768 0
-4768 4777 0
-195 -4768 4769 0
-4769 4778 0
-196 -4769 4770 0
-4770 4779 0
-197 -4770 4771 0
-4771 4780 0
-198 -4771 4772 0
-4772 4781 0
-199 -4772 4773 0
-4773 4782 0
-200 -4773 4774 0
-4774 4783 0
-201 -4774 4775 0
-4775 4784 0
-202 -4775 0
-194 4776 0
-4776 4785 0
-195 -4776 4777 0
-4777 4786 0
-196 -4777 4778 0
-4778 4787 0
-197 -4778 4779 0
-4779 4788 0
-198 -4779 4780 0
-4780 4789 0
-199 -4780 4781 0
-4781 4790 0
-200 -4781 4782 0
-4782 4791 0
-201 -4782 4783 0
-4783 4792 0
-202 -4783 4784 0
-4784 4793 0
-203 -4784 0
-195 4785 0
-4785 4794 0
-196 -4785 4786 0
-4786 4795 0
-197 -4786 4787 0
-4787 4796 0
-198 -4787 4788 0
-4788 4797 0
-199 -4788 4789 0
-4789 4798 0
-200 -4789 4790 0
-4790 4799 0
-201 -4790 4791 0
-4791 4800 0
-202 -4791 4792 0
-4792 4801 0
-203 -4792 4793 0
-4793 4802 0
-204 -4793 0
-196 4794 0
-4794 4803 0
-197 -4794 4795 0
-4795 4804 0
-198 -4795 4796 0
-4796 4805 0
-199 -4796 4797 0
-4797 4806 0
-200 -4797 4798 0
-4798 4807 0
-201 -4798 4799 0
-4799 4808 0
-202 -4799 4800 0
-4800 4809 0
-203 -4800 4801 0
-4801 4810 0
-204 -4801 4802 0
-4802 4811 0
-205 -4802 0
-197 4803 0
-4803 4812 0
-198 -4803 4804 0
-4804 4813 0
-199 -4804 4805 0
-4805 4814 0
-200 -4805 4806 0
-4806 4815 0
-201 -4806 4807 0
-4807 4816 0
-202 -4807 4808 0
-4808 4817 0
-203 -4808 4809 0
-4809 4818 0
-204 -4809 4810 0
-4810 4819 0
-205 -4810 4811 0
-4811 4820 0
-206 -4811 0
-198 4812 0
-4812 4821 0
-199 -4812 4813 0
-4813 4822 0
-200 -4813 4814 0
-4814 4823 0
-201 -4814 4815 0
-4815 4824 0
-202 -4815 4816 0
-4816 4825 0
-203 -4816 4817 0
-4817 4826 0
-204 -4817 4818 0
-4818 4827 0
-205 -4818 4819 0
-4819 4828 0
-206 -4819 4820 0
-4820 4829 0
-207 -4820 0
-199 4821 0
-4821 4830 0
-200 -4821 4822 0
-4822 4831 0
-201 -4822 4823 0
-4823 4832 0
-202 -4823 4824 0
-4824 4833 0
-203 -4824 4825 0
-4825 4834 0
-204 -4825 4826 0
-4826 4835 0
-205 -4826 4827 0
-4827 4836 0
-206 -4827 4828 0
-4828 4837 0
-207 -4828 4829 0
-4829 4838 0
-208 -4829 0
-200 4830 0
-4830 4839 0
-201 -4830 4831 0
-4831 4840 0
-202 -4831 4832 0
-4832 4841 0
-203 -4832 4833 0
-4833 4842 0
-204 -4833 4834 0
-4834 4843 0
-205 -4834 4835 0
-4835 4844 0
-206 -4835 4836 0
-4836 4845 0
-207 -4836 4837 0
-4837 4846 0
-208 -4837 4838 0
-4838 4847 0
-209 -4838 0
-201 4839 0
-4839 4848 0
-202 -4839 4840 0
-4840 4849 0
-203 -4840 4841 0
-4841 4850 0
-204 -4841 4842 0
-4842 4851 0
-205 -4842 4843 0
-4843 4852 0
-206 -4843 4844 0
-4844 4853 0
-207 -4844 4845 0
-4845 4854 0
-208 -4845 4846 0
-4846 4855 0
-209 -4846 4847 0
-4847 4856 0
-210 -4847 0
-202 4848 0
-4848 4857 0
-203 -4848 4849 0
-4849 4858 0
-204 -4849 4850 0
-4850 4859 0
-205 -4850 4851 0
-4851 4860 0
-206 -4851 4852 0
-4852 4861 0
-207 -4852 4853 0
-4853 4862 0
-208 -4853 4854 0
-4854 4863 0
-209 -4854 4855 0
-4855 4864 0
-210 -4855 4856 0
-4856 4865 0
-211 -4856 0
-203 4857 0
-4857 4866 0
-204 -4857 4858 0
-4858 4867 0
-205 -4858 4859 0
-4859 4868 0
-206 -4859 4860 0
-4860 4869 0
-207 -4860 4861 0
-4861 4870 0
-208 -4861 4862 0
-4862 4871 0
-209 -4862 4863 0
-4863 4872 0
-210 -4863 4864 0
-4864 4873 0
-211 -4864 4865 0
-4865 4874 0
-212 -4865 0
-204 4866 0
-4866 4875 0
-205 -4866 4867 0
-4867 4876 0
-206 -4867 4868 0
-4868 4877 0
-207 -4868 4869 0
-4869 4878 0
-208 -4869 4870 0
-4870 4879 0
-209 -4870 4871 0
-4871 4880 0
-210 -4871 4872 0
-4872 4881 0
-211 -4872 4873 0
-4873 4882 0
-212 -4873 4874 0
-4874 4883 0
-213 -4874 0
-205 4875 0
-4875 4884 0
-206 -4875 4876 0
-4876 4885 0
-207 -4876 4877 0
-4877 4886 0
-208 -4877 4878 0
-4878 4887 0
-209 -4878 4879 0
-4879 4888 0
-210 -4879 4880 0
-4880 4889 0
-211 -4880 4881 0
-4881 4890 0
-212 -4881 4882 0
-4882 4891 0
-213 -4882 4883 0
-4883 4892 0
-214 -4883 0
-206 4884 0
-4884 4893 0
-207 -4884 4885 0
-4885 4894 0
-208 -4885 4886 0
-4886 4895 0
-209 -4886 4887 0
-4887 4896 0
-210 -4887 4888 0
-4888 4897 0
-211 -4888 4889 0
-4889 4898 0
-212 -4889 4890 0
-4890 4899 0
-213 -4890 4891 0
-4891 4900 0
-214 -4891 4892 0
-4892 4901 0
-215 -4892 0
-207 4893 0
-4893 4902 0
-208 -4893 4894 0
-4894 4903 0
-209 -4894 4895 0
-4895 4904 0
-210 -4895 4896 0
-4896 4905 0
-211 -4896 4897 0
-4897 4906 0
-212 -4897 4898 0
-4898 4907 0
-213 -4898 4899 0
-4899 4908 0
-214 -4899 4900 0
-4900 4909 0
-215 -4900 4901 0
-4901 4910 0
-216 -4901 0
-208 4902 0
-4902 4911 0
-209 -4902 4903 0
-4903 4912 0
-210 -4903 4904 0
-4904 4913 0
-211 -4904 4905 0
-4905 4914 0
-212 -4905 4906 0
-4906 4915 0
-213 -4906 4907 0
-4907 4916 0
-214 -4907 4908 0
-4908 4917 0
-215 -4908 4909 0
-4909 4918 0
-216 -4909 4910 0
-4910 4919 0
-217 -4910 0
-209 4911 0
-4911 4920 0
-210 -4911 4912 0
-4912 4921 0
-211 -4912 4913 0
-4913 4922 0
-212 -4913 4914 0
-4914 4923 0
-213 -4914 4915 0
-4915 4924 0
-214 -4915 4916 0
-4916 4925 0
-215 -4916 4917 0
-4917 4926 0
-216 -4917 4918 0
-4918 4927 0
-217 -4918 4919 0
-4919 4928 0
-218 -4919 0
-210 4920 0
-4920 4929 0
-211 -4920 4921 0
-4921 4930 0
-212 -4921 4922 0
-4922 4931 0
-213 -4922 4923 0
-4923 4932 0
-214 -4923 4924 0
-4924 4933 0
-215 -4924 4925 0
-4925 4934 0
-216 -4925 4926 0
-4926 4935 0
-217 -4926 4927 0
-4927 4936 0
-218 -4927 4928 0
-4928 4937 0
-219 -4928 0
-211 4929 0
-4929 4938 0
-212 -4929 4930 0
-4930 4939 0
-213 -4930 4931 0
-4931 4940 0
-214 -4931 4932 0
-4932 4941 0
-215 -4932 4933 0
-4933 4942 0
-216 -4933 4934 0
-4934 4943 0
-217 -4934 4935 0
-4935 4944 0
-218 -4935 4936 0
-4936 4945 0
-219 -4936 4937 0
-4937 4946 0
-220 -4937 0
-212 4938 0
-4938 4947 0
-213 -4938 4939 0
-4939 4948 0
-214 -4939 4940 0
-4940 4949 0
-215 -4940 4941 0
-4941 4950 0
-216 -4941 4942 0
-4942 4951 0
-217 -4942 4943 0
-4943 4952 0
-218 -4943 4944 0
-4944 4953 0
-219 -4944 4945 0
-4945 4954 0
-220 -4945 4946 0
-4946 4955 0
-221 -4946 0
-213 4947 0
-4947 4956 0
-214 -4947 4948 0
-4948 4957 0
-215 -4948 4949 0
-4949 4958 0
-216 -4949 4950 0
-4950 4959 0
-217 -4950 4951 0
-4951 4960 0
-218 -4951 4952 0
-4952 4961 0
-219 -4952 4953 0
-4953 4962 0
-220 -4953 4954 0
-4954 4963 0
-221 -4954 4955 0
-4955 4964 0
-222 -4955 0
-214 4956 0
-4956 4965 0
-215 -4956 4957 0
-4957 4966 0
-216 -4957 4958 0
-4958 4967 0
-217 -4958 4959 0
-4959 4968 0
-218 -4959 4960 0
-4960 4969 0
-219 -4960 4961 0
-4961 4970 0
-220 -4961 4962 0
-4962 4971 0
-221 -4962 4963 0
-4963 4972 0
-222 -4963 4964 0
-4964 4973 0
-223 -4964 0
-215 4965 0
-4965 4974 0
-216 -4965 4966 0
-4966 4975 0
-217 -4966 4967 0
-4967 4976 0
-218 -4967 4968 0
-4968 4977 0
-219 -4968 4969 0
-4969 4978 0
-220 -4969 4970 0
-4970 4979 0
-221 -4970 4971 0
-4971 4980 0
-222 -4971 4972 0
-4972 4981 0
-223 -4972 4973 0
-4973 4982 0
-224 -4973 0
-216 4974 0
-4974 4983 0
-217 -4974 4975 0
-4975 4984 0
-218 -4975 4976 0
-4976 4985 0
-219 -4976 4977 0
-4977 4986 0
-220 -4977 4978 0
-4978 4987 0
-221 -4978 4979 0
-4979 4988 0
-222 -4979 4980 0
-4980 4989 0
-223 -4980 4981 0
-4981 4990 0
-224 -4981 4982 0
-4982 4991 0
-225 -4982 0
-217 4983 0
-4983 4992 0
-218 -4983 4984 0
-4984 4993 0
-219 -4984 4985 0
-4985 4994 0
-220 -4985 4986 0
-4986 4995 0
-221 -4986 4987 0
-4987 4996 0
-222 -4987 4988 0
-4988 4997 0
-223 -4988 4989 0
-4989 4998 0
-224 -4989 4990 0
-4990 4999 0
-225 -4990 4991 0
-4991 5000 0
-226 -4991 0
-218 4992 0
-4992 5001 0
-219 -4992 4993 0
-4993 5002 0
-220 -4993 4994 0
-4994 5003 0
-221 -4994 4995 0
-4995 5004 0
-222 -4995 4996 0
-4996 5005 0
-223 -4996 4997 0
-4997 5006 0
-224 -4997 4998 0
-4998 5007 0
-225 -4998 4999 0
-4999 5008 0
-226 -4999 5000 0
-5000 5009 0
-227 -5000 0
-219 5001 0
-5001 5010 0
-220 -5001 5002 0
-5002 5011 0
-221 -5002 5003 0
-5003 5012 0
-222 -5003 5004 0
-5004 5013 0
-223 -5004 5005 0
-5005 5014 0
-224 -5005 5006 0
-5006 5015 0
-225 -5006 5007 0
-5007 5016 0
-226 -5007 5008 0
-5008 5017 0
-227 -5008 5009 0
-5009 5018 0
-228 -5009 0
-220 5010 0
-5010 5019 0
-221 -5010 5011 0
-5011 5020 0
-222 -5011 5012 0
-5012 5021 0
-223 -5012 5013 0
-5013 5022 0
-224 -5013 5014 0
-5014 5023 0
-225 -5014 5015 0
-5015 5024 0
-226 -5015 5016 0
-5016 5025 0
-227 -5016 5017 0
-5017 5026 0
-228 -5017 5018 0
-5018 5027 0
-229 -5018 0
-221 5019 0
-5019 5028 0
-222 -5019 5020 0
-5020 5029 0
-223 -5020 5021 0
-5021 5030 0
-224 -5021 5022 0
-5022 5031 0
-225 -5022 5023 0
-5023 5032 0
-226 -5023 5024 0
-5024 5033 0
-227 -5024 5025 0
-5025 5034 0
-228 -5025 5026 0
-5026 5035 0
-229 -5026 5027 0
-5027 5036 0
-230 -5027 0
-222 5028 0
-5028 5037 0
-223 -5028 5029 0
-5029 5038 0
-224 -5029 5030 0
-5030 5039 0
-225 -5030 5031 0
-5031 5040 0
-226 -5031 5032 0
-5032 5041 0
-227 -5032 5033 0
-5033 5042 0
-228 -5033 5034 0
-5034 5043 0
-229 -5034 5035 0
-5035 5044 0
-230 -5035 5036 0
-5036 5045 0
-231 -5036 0
-223 5037 0
-5037 5046 0
-224 -5037 5038 0
-5038 5047 0
-225 -5038 5039 0
-5039 5048 0
-226 -5039 5040 0
-5040 5049 0
-227 -5040 5041 0
-5041 5050 0
-228 -5041 5042 0
-5042 5051 0
-229 -5042 5043 0
-5043 5052 0
-230 -5043 5044 0
-5044 5053 0
-231 -5044 5045 0
-5045 5054 0
-232 -5045 0
-224 5046 0
-5046 5055 0
-225 -5046 5047 0
-5047 5056 0
-226 -5047 5048 0
-5048 5057 0
-227 -5048 5049 0
-5049 5058 0
-228 -5049 5050 0
-5050 5059 0
-229 -5050 5051 0
-5051 5060 0
-230 -5051 5052 0
-5052 5061 0
-231 -5052 5053 0
-5053 5062 0
-232 -5053 5054 0
-5054 5063 0
-233 -5054 0
-225 5055 0
-5055 5064 0
-226 -5055 5056 0
-5056 5065 0
-227 -5056 5057 0
-5057 5066 0
-228 -5057 5058 0
-5058 5067 0
-229 -5058 5059 0
-5059 5068 0
-230 -5059 5060 0
-5060 5069 0
-231 -5060 5061 0
-5061 5070 0
-232 -5061 5062 0
-5062 5071 0
-233 -5062 5063 0
-5063 5072 0
-234 -5063 0
-226 5064 0
-5064 5073 0
-227 -5064 5065 0
-5065 5074 0
-228 -5065 5066 0
-5066 5075 0
-229 -5066 5067 0
-5067 5076 0
-230 -5067 5068 0
-5068 5077 0
-231 -5068 5069 0
-5069 5078 0
-232 -5069 5070 0
-5070 5079 0
-233 -5070 5071 0
-5071 5080 0
-234 -5071 5072 0
-5072 5081 0
-235 -5072 0
-227 5073 0
-5073 5082 0
-228 -5073 5074 0
-5074 5083 0
-229 -5074 5075 0
-5075 5084 0
-230 -5075 5076 0
-5076 5085 0
-231 -5076 5077 0
-5077 5086 0
-232 -5077 5078 0
-5078 5087 0
-233 -5078 5079 0
-5079 5088 0
-234 -5079 5080 0
-5080 5089 0
-235 -5080 5081 0
-5081 5090 0
-236 -5081 0
-228 5082 0
-5082 5091 0
-229 -5082 5083 0
-5083 5092 0
-230 -5083 5084 0
-5084 5093 0
-231 -5084 5085 0
-5085 5094 0
-232 -5085 5086 0
-5086 5095 0
-233 -5086 5087 0
-5087 5096 0
-234 -5087 5088 0
-5088 5097 0
-235 -5088 5089 0
-5089 5098 0
-236 -5089 5090 0
-5090 5099 0
-237 -5090 0
-229 5091 0
-5091 5100 0
-230 -5091 5092 0
-5092 5101 0
-231 -5092 5093 0
-5093 5102 0
-232 -5093 5094 0
-5094 5103 0
-233 -5094 5095 0
-5095 5104 0
-234 -5095 5096 0
-5096 5105 0
-235 -5096 5097 0
-5097 5106 0
-236 -5097 5098 0
-5098 5107 0
-237 -5098 5099 0
-5099 5108 0
-238 -5099 0
-230 5100 0
-5100 5109 0
-231 -5100 5101 0
-5101 5110 0
-232 -5101 5102 0
-5102 5111 0
-233 -5102 5103 0
-5103 5112 0
-234 -5103 5104 0
-5104 5113 0
-235 -5104 5105 0
-5105 5114 0
-236 -5105 5106 0
-5106 5115 0
-237 -5106 5107 0
-5107 5116 0
-238 -5107 5108 0
-5108 5117 0
-239 -5108 0
-231 5109 0
-5109 5118 0
-232 -5109 5110 0
-5110 5119 0
-233 -5110 5111 0
-5111 5120 0
-234 -5111 5112 0
-5112 5121 0
-235 -5112 5113 0
-5113 5122 0
-236 -5113 5114 0
-5114 5123 0
-237 -5114 5115 0
-5115 5124 0
-238 -5115 5116 0
-5116 5125 0
-239 -5116 5117 0
-5117 5126 0
-240 -5117 0
-232 5118 0
-5118 5127 0
-233 -5118 5119 0
-5119 5128 0
-234 -5119 5120 0
-5120 5129 0
-235 -5120 5121 0
-5121 5130 0
-236 -5121 5122 0
-5122 5131 0
-237 -5122 5123 0
-5123 5132 0
-238 -5123 5124 0
-5124 5133 0
-239 -5124 5125 0
-5125 5134 0
-240 -5125 5126 0
-5126 5135 0
-241 -5126 0
-233 5127 0
-5127 5136 0
-234 -5127 5128 0
-5128 5137 0
-235 -5128 5129 0
-5129 5138 0
-236 -5129 5130 0
-5130 5139 0
-237 -5130 5131 0
-5131 5140 0
-238 -5131 5132 0
-5132 5141 0
-239 -5132 5133 0
-5133 5142 0
-240 -5133 5134 0
-5134 5143 0
-241 -5134 5135 0
-5135 5144 0
-242 -5135 0
-234 5136 0
-5136 5145 0
-235 -5136 5137 0
-5137 5146 0
-236 -5137 5138 0
-5138 5147 0
-237 -5138 5139 0
-5139 5148 0
-238 -5139 5140 0
-5140 5149 0
-239 -5140 5141 0
-5141 5150 0
-240 -5141 5142 0
-5142 5151 0
-241 -5142 5143 0
-5143 5152 0
-242 -5143 5144 0
-5144 5153 0
-243 -5144 0
-235 5145 0
-5145 5154 0
-236 -5145 5146 0
-5146 5155 0
-237 -5146 5147 0
-5147 5156 0
-238 -5147 5148 0
-5148 5157 0
-239 -5148 5149 0
-5149 5158 0
-240 -5149 5150 0
-5150 5159 0
-241 -5150 5151 0
-5151 5160 0
-242 -5151 5152 0
-5152 5161 0
-243 -5152 5153 0
-5153 5162 0
-244 -5153 0
-236 5154 0
-5154 5163 0
-237 -5154 5155 0
-5155 5164 0
-238 -5155 5156 0
-5156 5165 0
-239 -5156 5157 0
-5157 5166 0
-240 -5157 5158 0
-5158 5167 0
-241 -5158 5159 0
-5159 5168 0
-242 -5159 5160 0
-5160 5169 0
-243 -5160 5161 0
-5161 5170 0
-244 -5161 5162 0
-5162 5171 0
-245 -5162 0
-237 5163 0
-5163 5172 0
-238 -5163 5164 0
-5164 5173 0
-239 -5164 5165 0
-5165 5174 0
-240 -5165 5166 0
-5166 5175 0
-241 -5166 5167 0
-5167 5176 0
-242 -5167 5168 0
-5168 5177 0
-243 -5168 5169 0
-5169 5178 0
-244 -5169 5170 0
-5170 5179 0
-245 -5170 5171 0
-5171 5180 0
-246 -5171 0
-238 5172 0
-5172 5181 0
-239 -5172 5173 0
-5173 5182 0
-240 -5173 5174 0
-5174 5183 0
-241 -5174 5175 0
-5175 5184 0
-242 -5175 5176 0
-5176 5185 0
-243 -5176 5177 0
-5177 5186 0
-244 -5177 5178 0
-5178 5187 0
-245 -5178 5179 0
-5179 5188 0
-246 -5179 5180 0
-5180 5189 0
-247 -5180 0
-239 5181 0
-5181 5190 0
-240 -5181 5182 0
-5182 5191 0
-241 -5182 5183 0
-5183 5192 0
-242 -5183 5184 0
-5184 5193 0
-243 -5184 5185 0
-5185 5194 0
-244 -5185 5186 0
-5186 5195 0
-245 -5186 5187 0
-5187 5196 0
-246 -5187 5188 0
-5188 5197 0
-247 -5188 5189 0
-5189 5198 0
-248 -5189 0
-240 5190 0
-5190 5199 0
-241 -5190 5191 0
-5191 5200 0
-242 -5191 5192 0
-5192 5201 0
-243 -5192 5193 0
-5193 5202 0
-244 -5193 5194 0
-5194 5203 0
-245 -5194 5195 0
-5195 5204 0
-246 -5195 5196 0
-5196 5205 0
-247 -5196 5197 0
-5197 5206 0
-248 -5197 5198 0
-5198 5207 0
-249 -5198 0
-241 5199 0
-5199 5208 0
-242 -5199 5200 0
-5200 5209 0
-243 -5200 5201 0
-5201 5210 0
-244 -5201 5202 0
-5202 5211 0
-245 -5202 5203 0
-5203 5212 0
-246 -5203 5204 0
-5204 5213 0
-247 -5204 5205 0
-5205 5214 0
-248 -5205 5206 0
-5206 5215 0
-249 -5206 5207 0
-5207 5216 0
-250 -5207 0
-242 5208 0
-5208 5217 0
-243 -5208 5209 0
-5209 5218 0
-244 -5209 5210 0
-5210 5219 0
-245 -5210 5211 0
-5211 5220 0
-246 -5211 5212 0
-5212 5221 0
-247 -5212 5213 0
-5213 5222 0
-248 -5213 5214 0
-5214 5223 0
-249 -5214 5215 0
-5215 5224 0
-250 -5215 5216 0
-5216 5225 0
-251 -5216 0
-243 5217 0
-5217 5226 0
-244 -5217 5218 0
-5218 5227 0
-245 -5218 5219 0
-5219 5228 0
-246 -5219 5220 0
-5220 5229 0
-247 -5220 5221 0
-5221 5230 0
-248 -5221 5222 0
-5222 5231 0
-249 -5222 5223 0
-5223 5232 0
-250 -5223 5224 0
-5224 5233 0
-251 -5224 5225 0
-5225 5234 0
-252 -5225 0
-244 5226 0
-5226 5235 0
-245 -5226 5227 0
-5227 5236 0
-246 -5227 5228 0
-5228 5237 0
-247 -5228 5229 0
-5229 5238 0
-248 -5229 5230 0
-5230 5239 0
-249 -5230 5231 0
-5231 5240 0
-250 -5231 5232 0
-5232 5241 0
-251 -5232 5233 0
-5233 5242 0
-252 -5233 5234 0
-5234 5243 0
-253 -5234 0
-245 5235 0
-5235 5244 0
-246 -5235 5236 0
-5236 5245 0
-247 -5236 5237 0
-5237 5246 0
-248 -5237 5238 0
-5238 5247 0
-249 -5238 5239 0
-5239 5248 0
-250 -5239 5240 0
-5240 5249 0
-251 -5240 5241 0
-5241 5250 0
-252 -5241 5242 0
-5242 5251 0
-253 -5242 5243 0
-5243 5252 0
-254 -5243 0
-246 5244 0
-5244 5253 0
-247 -5244 5245 0
-5245 5254 0
-248 -5245 5246 0
-5246 5255 0
-249 -5246 5247 0
-5247 5256 0
-250 -5247 5248 0
-5248 5257 0
-251 -5248 5249 0
-5249 5258 0
-252 -5249 5250 0
-5250 5259 0
-253 -5250 5251 0
-5251 5260 0
-254 -5251 5252 0
-5252 5261 0
-255 -5252 0
-247 5253 0
-5253 5262 0
-248 -5253 5254 0
-5254 5263 0
-249 -5254 5255 0
-5255 5264 0
-250 -5255 5256 0
-5256 5265 0
-251 -5256 5257 0
-5257 5266 0
-252 -5257 5258 0
-5258 5267 0
-253 -5258 5259 0
-5259 5268 0
-254 -5259 5260 0
-5260 5269 0
-255 -5260 5261 0
-5261 5270 0
-256 -5261 0
-248 5262 0
-5262 5271 0
-249 -5262 5263 0
-5263 5272 0
-250 -5263 5264 0
-5264 5273 0
-251 -5264 5265 0
-5265 5274 0
-252 -5265 5266 0
-5266 5275 0
-253 -5266 5267 0
-5267 5276 0
-254 -5267 5268 0
-5268 5277 0
-255 -5268 5269 0
-5269 5278 0
-256 -5269 5270 0
-5270 5279 0
-257 -5270 0
-249 5271 0
-5271 5280 0
-250 -5271 5272 0
-5272 5281 0
-251 -5272 5273 0
-5273 5282 0
-252 -5273 5274 0
-5274 5283 0
-253 -5274 5275 0
-5275 5284 0
-254 -5275 5276 0
-5276 5285 0
-255 -5276 5277 0
-5277 5286 0
-256 -5277 5278 0
-5278 5287 0
-257 -5278 5279 0
-5279 5288 0
-258 -5279 0
-250 5280 0
-5280 5289 0
-251 -5280 5281 0
-5281 5290 0
-252 -5281 5282 0
-5282 5291 0
-253 -5282 5283 0
-5283 5292 0
-254 -5283 5284 0
-5284 5293 0
-255 -5284 5285 0
-5285 5294 0
-256 -5285 5286 0
-5286 5295 0
-257 -5286 5287 0
-5287 5296 0
-258 -5287 5288 0
-5288 5297 0
-259 -5288 0
-251 5289 0
-5289 5298 0
-252 -5289 5290 0
-5290 5299 0
-253 -5290 5291 0
-5291 5300 0
-254 -5291 5292 0
-5292 5301 0
-255 -5292 5293 0
-5293 5302 0
-256 -5293 5294 0
-5294 5303 0
-257 -5294 5295 0
-5295 5304 0
-258 -5295 5296 0
-5296 5305 0
-259 -5296 5297 0
-5297 5306 0
-260 -5297 0
-252 5298 0
-5298 5307 0
-253 -5298 5299 0
-5299 5308 0
-254 -5299 5300 0
-5300 5309 0
-255 -5300 5301 0
-5301 5310 0
-256 -5301 5302 0
-5302 5311 0
-257 -5302 5303 0
-5303 5312 0
-258 -5303 5304 0
-5304 5313 0
-259 -5304 5305 0
-5305 5314 0
-260 -5305 5306 0
-5306 5315 0
-261 -5306 0
-253 5307 0
-5307 5316 0
-254 -5307 5308 0
-5308 5317 0
-255 -5308 5309 0
-5309 5318 0
-256 -5309 5310 0
-5310 5319 0
-257 -5310 5311 0
-5311 5320 0
-258 -5311 5312 0
-5312 5321 0
-259 -5312 5313 0
-5313 5322 0
-260 -5313 5314 0
-5314 5323 0
-261 -5314 5315 0
-5315 5324 0
-262 -5315 0
-254 5316 0
-5316 5325 0
-255 -5316 5317 0
-5317 5326 0
-256 -5317 5318 0
-5318 5327 0
-257 -5318 5319 0
-5319 5328 0
-258 -5319 5320 0
-5320 5329 0
-259 -5320 5321 0
-5321 5330 0
-260 -5321 5322 0
-5322 5331 0
-261 -5322 5323 0
-5323 5332 0
-262 -5323 5324 0
-5324 5333 0
-263 -5324 0
-255 5325 0
-5325 5334 0
-256 -5325 5326 0
-5326 5335 0
-257 -5326 5327 0
-5327 5336 0
-258 -5327 5328 0
-5328 5337 0
-259 -5328 5329 0
-5329 5338 0
-260 -5329 5330 0
-5330 5339 0
-261 -5330 5331 0
-5331 5340 0
-262 -5331 5332 0
-5332 5341 0
-263 -5332 5333 0
-5333 5342 0
-264 -5333 0
-256 5334 0
-5334 5343 0
-257 -5334 5335 0
-5335 5344 0
-258 -5335 5336 0
-5336 5345 0
-259 -5336 5337 0
-5337 5346 0
-260 -5337 5338 0
-5338 5347 0
-261 -5338 5339 0
-5339 5348 0
-262 -5339 5340 0
-5340 5349 0
-263 -5340 5341 0
-5341 5350 0
-264 -5341 5342 0
-5342 5351 0
-265 -5342 0
-257 5343 0
-5343 5352 0
-258 -5343 5344 0
-5344 5353 0
-259 -5344 5345 0
-5345 5354 0
-260 -5345 5346 0
-5346 5355 0
-261 -5346 5347 0
-5347 5356 0
-262 -5347 5348 0
-5348 5357 0
-263 -5348 5349 0
-5349 5358 0
-264 -5349 5350 0
-5350 5359 0
-265 -5350 5351 0
-5351 5360 0
-266 -5351 0
-258 5352 0
-5352 5361 0
-259 -5352 5353 0
-5353 5362 0
-260 -5353 5354 0
-5354 5363 0
-261 -5354 5355 0
-5355 5364 0
-262 -5355 5356 0
-5356 5365 0
-263 -5356 5357 0
-5357 5366 0
-264 -5357 5358 0
-5358 5367 0
-265 -5358 5359 0
-5359 5368 0
-266 -5359 5360 0
-5360 5369 0
-267 -5360 0
-259 5361 0
-5361 5370 0
-260 -5361 5362 0
-5362 5371 0
-261 -5362 5363 0
-5363 5372 0
-262 -5363 5364 0
-5364 5373 0
-263 -5364 5365 0
-5365 5374 0
-264 -5365 5366 0
-5366 5375 0
-265 -5366 5367 0
-5367 5376 0
-266 -5367 5368 0
-5368 5377 0
-267 -5368 5369 0
-5369 5378 0
-268 -5369 0
-260 5370 0
-5370 5379 0
-261 -5370 5371 0
-5371 5380 0
-262 -5371 5372 0
-5372 5381 0
-263 -5372 5373 0
-5373 5382 0
-264 -5373 5374 0
-5374 5383 0
-265 -5374 5375 0
-5375 5384 0
-266 -5375 5376 0
-5376 5385 0
-267 -5376 5377 0
-5377 5386 0
-268 -5377 5378 0
-5378 5387 0
-269 -5378 0
-261 5379 0
-5379 5388 0
-262 -5379 5380 0
-5380 5389 0
-263 -5380 5381 0
-5381 5390 0
-264 -5381 5382 0
-5382 5391 0
-265 -5382 5383 0
-5383 5392 0
-266 -5383 5384 0
-5384 5393 0
-267 -5384 5385 0
-5385 5394 0
-268 -5385 5386 0
-5386 5395 0
-269 -5386 5387 0
-5387 5396 0
-270 -5387 0
-262 5388 0
-5388 5397 0
-263 -5388 5389 0
-5389 5398 0
-264 -5389 5390 0
-5390 5399 0
-265 -5390 5391 0
-5391 5400 0
-266 -5391 5392 0
-5392 5401 0
-267 -5392 5393 0
-5393 5402 0
-268 -5393 5394 0
-5394 5403 0
-269 -5394 5395 0
-5395 5404 0
-270 -5395 5396 0
-5396 5405 0
-271 -5396 0
-263 5397 0
-5397 5406 0
-264 -5397 5398 0
-5398 5407 0
-265 -5398 5399 0
-5399 5408 0
-266 -5399 5400 0
-5400 5409 0
-267 -5400 5401 0
-5401 5410 0
-268 -5401 5402 0
-5402 5411 0
-269 -5402 5403 0
-5403 5412 0
-270 -5403 5404 0
-5404 5413 0
-271 -5404 5405 0
-5405 5414 0
-272 -5405 0
-264 5406 0
-5406 5415 0
-265 -5406 5407 0
-5407 5416 0
-266 -5407 5408 0
-5408 5417 0
-267 -5408 5409 0
-5409 5418 0
-268 -5409 5410 0
-5410 5419 0
-269 -5410 5411 0
-5411 5420 0
-270 -5411 5412 0
-5412 5421 0
-271 -5412 5413 0
-5413 5422 0
-272 -5413 5414 0
-5414 5423 0
-273 -5414 0
-265 5415 0
-5415 5424 0
-266 -5415 5416 0
-5416 5425 0
-267 -5416 5417 0
-5417 5426 0
-268 -5417 5418 0
-5418 5427 0
-269 -5418 5419 0
-5419 5428 0
-270 -5419 5420 0
-5420 5429 0
-271 -5420 5421 0
-5421 5430 0
-272 -5421 5422 0
-5422 5431 0
-273 -5422 5423 0
-5423 5432 0
-274 -5423 0
-266 5424 0
-5424 5433 0
-267 -5424 5425 0
-5425 5434 0
-268 -5425 5426 0
-5426 5435 0
-269 -5426 5427 0
-5427 5436 0
-270 -5427 5428 0
-5428 5437 0
-271 -5428 5429 0
-5429 5438 0
-272 -5429 5430 0
-5430 5439 0
-273 -5430 5431 0
-5431 5440 0
-274 -5431 5432 0
-5432 5441 0
-275 -5432 0
-267 5433 0
-5433 5442 0
-268 -5433 5434 0
-5434 5443 0
-269 -5434 5435 0
-5435 5444 0
-270 -5435 5436 0
-5436 5445 0
-271 -5436 5437 0
-5437 5446 0
-272 -5437 5438 0
-5438 5447 0
-273 -5438 5439 0
-5439 5448 0
-274 -5439 5440 0
-5440 5449 0
-275 -5440 5441 0
-5441 5450 0
-276 -5441 0
-268 5442 0
-5442 5451 0
-269 -5442 5443 0
-5443 5452 0
-270 -5443 5444 0
-5444 5453 0
-271 -5444 5445 0
-5445 5454 0
-272 -5445 5446 0
-5446 5455 0
-273 -5446 5447 0
-5447 5456 0
-274 -5447 5448 0
-5448 5457 0
-275 -5448 5449 0
-5449 5458 0
-276 -5449 5450 0
-5450 5459 0
-277 -5450 0
-269 5451 0
-5451 5460 0
-270 -5451 5452 0
-5452 5461 0
-271 -5452 5453 0
-5453 5462 0
-272 -5453 5454 0
-5454 5463 0
-273 -5454 5455 0
-5455 5464 0
-274 -5455 5456 0
-5456 5465 0
-275 -5456 5457 0
-5457 5466 0
-276 -5457 5458 0
-5458 5467 0
-277 -5458 5459 0
-5459 5468 0
-278 -5459 0
-270 5460 0
-5460 5469 0
-271 -5460 5461 0
-5461 5470 0
-272 -5461 5462 0
-5462 5471 0
-273 -5462 5463 0
-5463 5472 0
-274 -5463 5464 0
-5464 5473 0
-275 -5464 5465 0
-5465 5474 0
-276 -5465 5466 0
-5466 5475 0
-277 -5466 5467 0
-5467 5476 0
-278 -5467 5468 0
-5468 5477 0
-279 -5468 0
-271 5469 0
-5469 5478 0
-272 -5469 5470 0
-5470 5479 0
-273 -5470 5471 0
-5471 5480 0
-274 -5471 5472 0
-5472 5481 0
-275 -5472 5473 0
-5473 5482 0
-276 -5473 5474 0
-5474 5483 0
-277 -5474 5475 0
-5475 5484 0
-278 -5475 5476 0
-5476 5485 0
-279 -5476 5477 0
-5477 5486 0
-280 -5477 0
-272 5478 0
-5478 5487 0
-273 -5478 5479 0
-5479 5488 0
-274 -5479 5480 0
-5480 5489 0
-275 -5480 5481 0
-5481 5490 0
-276 -5481 5482 0
-5482 5491 0
-277 -5482 5483 0
-5483 5492 0
-278 -5483 5484 0
-5484 5493 0
-279 -5484 5485 0
-5485 5494 0
-280 -5485 5486 0
-5486 5495 0
-281 -5486 0
-273 5487 0
-5487 5496 0
-274 -5487 5488 0
-5488 5497 0
-275 -5488 5489 0
-5489 5498 0
-276 -5489 5490 0
-5490 5499 0
-277 -5490 5491 0
-5491 5500 0
-278 -5491 5492 0
-5492 5501 0
-279 -5492 5493 0
-5493 5502 0
-280 -5493 5494 0
-5494 5503 0
-281 -5494 5495 0
-5495 5504 0
-282 -5495 0
-274 5496 0
-5496 5505 0
-275 -5496 5497 0
-5497 5506 0
-276 -5497 5498 0
-5498 5507 0
-277 -5498 5499 0
-5499 5508 0
-278 -5499 5500 0
-5500 5509 0
-279 -5500 5501 0
-5501 5510 0
-280 -5501 5502 0
-5502 5511 0
-281 -5502 5503 0
-5503 5512 0
-282 -5503 5504 0
-5504 5513 0
-283 -5504 0
-275 5505 0
-276 -5505 5506 0
-277 -5506 5507 0
-278 -5507 5508 0
-279 -5508 5509 0
-280 -5509 5510 0
-281 -5510 5511 0
-282 -5511 5512 0
-283 -5512 5513 0
-284 -5513 0
1 72 0
