p cnf 3191 6541
-89 -1 0
-89 2 44 45 0
-2 1 89 0
-44 1 89 0
-45 1 89 0
-90 -2 0
-90 1 3 46 0
-1 2 90 0
-3 2 90 0
-46 2 90 0
-91 -3 0
-91 2 4 47 0
-2 3 91 0
-4 3 91 0
-47 3 91 0
-92 -4 0
-92 3 5 48 0
-3 4 92 0
-5 4 92 0
-48 4 92 0
-93 -5 0
-93 4 6 49 0
-4 5 93 0
-6 5 93 0
-49 5 93 0
-94 -6 0
-94 5 7 50 0
-5 6 94 0
-7 6 94 0
-50 6 94 0
-95 -7 0
-95 6 8 51 0
-6 7 95 0
-8 7 95 0
-51 7 95 0
-96 -8 0
-96 7 9 52 0
-7 8 96 0
-9 8 96 0
-52 8 96 0
-97 -9 0
-97 8 10 53 0
-8 9 97 0
-10 9 97 0
-53 9 97 0
-98 -10 0
-98 9 11 54 0
-9 10 98 0
-11 10 98 0
-54 10 98 0
-99 -11 0
-99 10 12 55 0
-10 11 99 0
-12 11 99 0
-55 11 99 0
-100 -12 0
-100 11 13 56 0
-11 12 100 0
-13 12 100 0
-56 12 100 0
-101 -13 0
-101 12 14 57 0
-12 13 101 0
-14 13 101 0
-57 13 101 0
-102 -14 0
-102 13 15 58 0
-13 14 102 0
-15 14 102 0
-58 14 102 0
-103 -15 0
-103 14 16 59 0
-14 15 103 0
-16 15 103 0
-59 15 103 0
-104 -16 0
-104 15 17 60 0
-15 16 104 0
-17 16 104 0
-60 16 104 0
-105 -17 0
-105 16 18 61 0
-16 17 105 0
-18 17 105 0
-61 17 105 0
-106 -18 0
-106 17 19 62 0
-17 18 106 0
-19 18 106 0
-62 18 106 0
-107 -19 0
-107 18 20 63 0
-18 19 107 0
-20 19 107 0
-63 19 107 0
-108 -20 0
-108 19 21 64 0
-19 20 108 0
-21 20 108 0
-64 20 108 0
-109 -21 0
-109 20 22 65 0
-20 21 109 0
-22 21 109 0
-65 21 109 0
-110 -22 0
-110 21 23 66 0
-21 22 110 0
-23 22 110 0
-66 22 110 0
-111 -23 0
-111 22 24 67 0
-22 23 111 0
-24 23 111 0
-67 23 111 0
-112 -24 0
-112 23 25 68 0
-23 24 112 0
-25 24 112 0
-68 24 112 0
-113 -25 0
-113 24 26 69 0
-24 25 113 0
-26 25 113 0
-69 25 113 0
-114 -26 0
-114 25 27 70 0
-25 26 114 0
-27 26 114 0
-70 26 114 0
-115 -27 0
-115 26 28 71 0
-26 27 115 0
-28 27 115 0
-71 27 115 0
-116 -28 0
-116 27 29 72 0
-27 28 116 0
-29 28 116 0
-72 28 116 0
-117 -29 0
-117 28 30 73 0
-28 29 117 0
-30 29 117 0
-73 29 117 0
-118 -30 0
-118 29 31 74 0
-29 30 118 0
-31 30 118 0
-74 30 118 0
-119 -31 0
-119 30 32 75 0
-30 31 119 0
-32 31 119 0
-75 31 119 0
-120 -32 0
-120 31 33 76 0
-31 32 120 0
-33 32 120 0
-76 32 120 0
-121 -33 0
-121 32 34 77 0
-32 33 121 0
-34 33 121 0
-77 33 121 0
-122 -34 0
-122 33 35 78 0
-33 34 122 0
-35 34 122 0
-78 34 122 0
-123 -35 0
-123 34 36 79 0
-34 35 123 0
-36 35 123 0
-79 35 123 0
-124 -36 0
-124 35 37 80 0
-35 36 124 0
-37 36 124 0
-80 36 124 0
-125 -37 0
-125 36 38 81 0
-36 37 125 0
-38 37 125 0
-81 37 125 0
-126 -38 0
-126 37 39 82 0
-37 38 126 0
-39 38 126 0
-82 38 126 0
-127 -39 0
-127 38 40 83 0
-38 39 127 0
-40 39 127 0
-83 39 127 0
-128 -40 0
-128 39 41 84 0
-39 40 128 0
-41 40 128 0
-84 40 128 0
-129 -41 0
-129 40 42 85 0
-40 41 129 0
-42 41 129 0
-85 41 129 0
-130 -42 0
-130 41 43 86 0
-41 42 130 0
-43 42 130 0
-86 42 130 0
-131 -43 0
-131 42 44 87 0
-42 43 131 0
-44 43 131 0
-87 43 131 0
-132 -44 0
-132 1 43 88 0
-1 44 132 0
-43 44 132 0
-88 44 132 0
-133 -45 0
-133 1 49 85 0
-1 45 133 0
-49 45 133 0
-85 45 133 0
-134 -46 0
-134 2 50 86 0
-2 46 134 0
-50 46 134 0
-86 46 134 0
-135 -47 0
-135 3 51 87 0
-3 47 135 0
-51 47 135 0
-87 47 135 0
-136 -48 0
-136 4 52 88 0
-4 48 136 0
-52 48 136 0
-88 48 136 0
-137 -49 0
-137 5 45 53 0
-5 49 137 0
-45 49 137 0
-53 49 137 0
-138 -50 0
-138 6 46 54 0
-6 50 138 0
-46 50 138 0
-54 50 138 0
-139 -51 0
-139 7 47 55 0
-7 51 139 0
-47 51 139 0
-55 51 139 0
-140 -52 0
-140 8 48 56 0
-8 52 140 0
-48 52 140 0
-56 52 140 0
-141 -53 0
-141 9 49 57 0
-9 53 141 0
-49 53 141 0
-57 53 141 0
-142 -54 0
-142 10 50 58 0
-10 54 142 0
-50 54 142 0
-58 54 142 0
-143 -55 0
-143 11 51 59 0
-11 55 143 0
-51 55 143 0
-59 55 143 0
-144 -56 0
-144 12 52 60 0
-12 56 144 0
-52 56 144 0
-60 56 144 0
-145 -57 0
-145 13 53 61 0
-13 57 145 0
-53 57 145 0
-61 57 145 0
-146 -58 0
-146 14 54 62 0
-14 58 146 0
-54 58 146 0
-62 58 146 0
-147 -59 0
-147 15 55 63 0
-15 59 147 0
-55 59 147 0
-63 59 147 0
-148 -60 0
-148 16 56 64 0
-16 60 148 0
-56 60 148 0
-64 60 148 0
-149 -61 0
-149 17 57 65 0
-17 61 149 0
-57 61 149 0
-65 61 149 0
-150 -62 0
-150 18 58 66 0
-18 62 150 0
-58 62 150 0
-66 62 150 0
-151 -63 0
-151 19 59 67 0
-19 63 151 0
-59 63 151 0
-67 63 151 0
-152 -64 0
-152 20 60 68 0
-20 64 152 0
-60 64 152 0
-68 64 152 0
-153 -65 0
-153 21 61 69 0
-21 65 153 0
-61 65 153 0
-69 65 153 0
-154 -66 0
-154 22 62 70 0
-22 66 154 0
-62 66 154 0
-70 66 154 0
-155 -67 0
-155 23 63 71 0
-23 67 155 0
-63 67 155 0
-71 67 155 0
-156 -68 0
-156 24 64 72 0
-24 68 156 0
-64 68 156 0
-72 68 156 0
-157 -69 0
-157 25 65 73 0
-25 69 157 0
-65 69 157 0
-73 69 157 0
-158 -70 0
-158 26 66 74 0
-26 70 158 0
-66 70 158 0
-74 70 158 0
-159 -71 0
-159 27 67 75 0
-27 71 159 0
-67 71 159 0
-75 71 159 0
-160 -72 0
-160 28 68 76 0
-28 72 160 0
-68 72 160 0
-76 72 160 0
-161 -73 0
-161 29 69 77 0
-29 73 161 0
-69 73 161 0
-77 73 161 0
-162 -74 0
-162 30 70 78 0
-30 74 162 0
-70 74 162 0
-78 74 162 0
-163 -75 0
-163 31 71 79 0
-31 75 163 0
-71 75 163 0
-79 75 163 0
-164 -76 0
-164 32 72 80 0
-32 76 164 0
-72 76 164 0
-80 76 164 0
-165 -77 0
-165 33 73 81 0
-33 77 165 0
-73 77 165 0
-81 77 165 0
-166 -78 0
-166 34 74 82 0
-34 78 166 0
-74 78 166 0
-82 78 166 0
-167 -79 0
-167 35 75 83 0
-35 79 167 0
-75 79 167 0
-83 79 167 0
-168 -80 0
-168 36 76 84 0
-36 80 168 0
-76 80 168 0
-84 80 168 0
-169 -81 0
-169 37 77 85 0
-37 81 169 0
-77 81 169 0
-85 81 169 0
-170 -82 0
-170 38 78 86 0
-38 82 170 0
-78 82 170 0
-86 82 170 0
-171 -83 0
-171 39 79 87 0
-39 83 171 0
-79 83 171 0
-87 83 171 0
-172 -84 0
-172 40 80 88 0
-40 84 172 0
-80 84 172 0
-88 84 172 0
-173 -85 0
-173 41 45 81 0
-41 85 173 0
-45 85 173 0
-81 85 173 0
-174 -86 0
-174 42 46 82 0
-42 86 174 0
-46 86 174 0
-82 86 174 0
-175 -87 0
-175 43 47 83 0
-43 87 175 0
-47 87 175 0
-83 87 175 0
-176 -88 0
-176 44 48 84 0
-44 88 176 0
-48 88 176 0
-84 88 176 0
1 177 0
-177 178 0
2 -177 179 0
-179 180 0
3 -179 181 0
-181 182 0
4 -181 183 0
-183 184 0
5 -183 185 0
-185 186 0
6 -185 187 0
-187 188 0
7 -187 189 0
-189 190 0
8 -189 191 0
-191 192 0
9 -191 193 0
-193 194 0
10 -193 195 0
-195 196 0
11 -195 197 0
-197 198 0
12 -197 199 0
-199 200 0
13 -199 201 0
-201 202 0
14 -201 203 0
-203 204 0
15 -203 205 0
-205 206 0
16 -205 207 0
-207 208 0
17 -207 209 0
-209 210 0
18 -209 211 0
-211 212 0
19 -211 213 0
-213 214 0
20 -213 215 0
-215 216 0
21 -215 217 0
-217 218 0
22 -217 219 0
-219 220 0
23 -219 221 0
-221 222 0
24 -221 223 0
-223 224 0
25 -223 225 0
-225 226 0
26 -225 227 0
-227 228 0
27 -227 229 0
-229 230 0
28 -229 231 0
-231 232 0
29 -231 233 0
-233 234 0
30 -233 235 0
-235 236 0
31 -235 237 0
-237 238 0
32 -237 239 0
-239 240 0
33 -239 241 0
-241 242 0
34 -241 243 0
-243 244 0
35 -243 245 0
-245 246 0
36 -245 247 0
-247 248 0
37 -247 249 0
-249 250 0
38 -249 251 0
-251 252 0
39 -251 253 0
-253 254 0
40 -253 255 0
-255 256 0
41 -255 257 0
-257 258 0
42 -257 259 0
-259 260 0
43 -259 261 0
-261 262 0
44 -261 263 0
-263 264 0
45 -263 265 0
-265 266 0
46 -265 267 0
-267 268 0
47 -267 269 0
-269 270 0
48 -269 271 0
-271 272 0
49 -271 273 0
-273 274 0
50 -273 275 0
-275 276 0
51 -275 277 0
-277 278 0
52 -277 279 0
-279 280 0
53 -279 281 0
-281 282 0
54 -281 283 0
-283 284 0
55 -283 285 0
-285 286 0
56 -285 287 0
-287 288 0
57 -287 289 0
-289 290 0
58 -289 291 0
-291 292 0
59 -291 293 0
-293 294 0
60 -293 295 0
-295 296 0
61 -295 297 0
-297 298 0
62 -297 299 0
-299 300 0
63 -299 301 0
-301 302 0
64 -301 303 0
-303 304 0
65 -303 305 0
-305 306 0
66 -305 307 0
-307 308 0
67 -307 309 0
-309 310 0
68 -309 311 0
-311 312 0
69 -311 313 0
-313 314 0
70 -313 315 0
-315 316 0
71 -315 317 0
-317 318 0
72 -317 319 0
-319 320 0
73 -319 0
2 178 0
-178 321 0
3 -178 180 0
-180 322 0
4 -180 182 0
-182 323 0
5 -182 184 0
-184 324 0
6 -184 186 0
-186 325 0
7 -186 188 0
-188 326 0
8 -188 190 0
-190 327 0
9 -190 192 0
-192 328 0
10 -192 194 0
-194 329 0
11 -194 196 0
-196 330 0
12 -196 198 0
-198 331 0
13 -198 200 0
-200 332 0
14 -200 202 0
-202 333 0
15 -202 204 0
-204 334 0
16 -204 206 0
-206 335 0
17 -206 208 0
-208 336 0
18 -208 210 0
-210 337 0
19 -210 212 0
-212 338 0
20 -212 214 0
-214 339 0
21 -214 216 0
-216 340 0
22 -216 218 0
-218 341 0
23 -218 220 0
-220 342 0
24 -220 222 0
-222 343 0
25 -222 224 0
-224 344 0
26 -224 226 0
-226 345 0
27 -226 228 0
-228 346 0
28 -228 230 0
-230 347 0
29 -230 232 0
-232 348 0
30 -232 234 0
-234 349 0
31 -234 236 0
-236 350 0
32 -236 238 0
-238 351 0
33 -238 240 0
-240 352 0
34 -240 242 0
-242 353 0
35 -242 244 0
-244 354 0
36 -244 246 0
-246 355 0
37 -246 248 0
-248 356 0
38 -248 250 0
-250 357 0
39 -250 252 0
-252 358 0
40 -252 254 0
-254 359 0
41 -254 256 0
-256 360 0
42 -256 258 0
-258 361 0
43 -258 260 0
-260 362 0
44 -260 262 0
-262 363 0
45 -262 264 0
-264 364 0
46 -264 266 0
-266 365 0
47 -266 268 0
-268 366 0
48 -268 270 0
-270 367 0
49 -270 272 0
-272 368 0
50 -272 274 0
-274 369 0
51 -274 276 0
-276 370 0
52 -276 278 0
-278 371 0
53 -278 280 0
-280 372 0
54 -280 282 0
-282 373 0
55 -282 284 0
-284 374 0
56 -284 286 0
-286 375 0
57 -286 288 0
-288 376 0
58 -288 290 0
-290 377 0
59 -290 292 0
-292 378 0
60 -292 294 0
-294 379 0
61 -294 296 0
-296 380 0
62 -296 298 0
-298 381 0
63 -298 300 0
-300 382 0
64 -300 302 0
-302 383 0
65 -302 304 0
-304 384 0
66 -304 306 0
-306 385 0
67 -306 308 0
-308 386 0
68 -308 310 0
-310 387 0
69 -310 312 0
-312 388 0
70 -312 314 0
-314 389 0
71 -314 316 0
-316 390 0
72 -316 318 0
-318 391 0
73 -318 320 0
-320 392 0
74 -320 0
3 321 0
-321 393 0
4 -321 322 0
-322 394 0
5 -322 323 0
-323 395 0
6 -323 324 0
-324 396 0
7 -324 325 0
-325 397 0
8 -325 326 0
-326 398 0
9 -326 327 0
-327 399 0
10 -327 328 0
-328 400 0
11 -328 329 0
-329 401 0
12 -329 330 0
-330 402 0
13 -330 331 0
-331 403 0
14 -331 332 0
-332 404 0
15 -332 333 0
-333 405 0
16 -333 334 0
-334 406 0
17 -334 335 0
-335 407 0
18 -335 336 0
-336 408 0
19 -336 337 0
-337 409 0
20 -337 338 0
-338 410 0
21 -338 339 0
-339 411 0
22 -339 340 0
-340 412 0
23 -340 341 0
-341 413 0
24 -341 342 0
-342 414 0
25 -342 343 0
-343 415 0
26 -343 344 0
-344 416 0
27 -344 345 0
-345 417 0
28 -345 346 0
-346 418 0
29 -346 347 0
-347 419 0
30 -347 348 0
-348 420 0
31 -348 349 0
-349 421 0
32 -349 350 0
-350 422 0
33 -350 351 0
-351 423 0
34 -351 352 0
-352 424 0
35 -352 353 0
-353 425 0
36 -353 354 0
-354 426 0
37 -354 355 0
-355 427 0
38 -355 356 0
-356 428 0
39 -356 357 0
-357 429 0
40 -357 358 0
-358 430 0
41 -358 359 0
-359 431 0
42 -359 360 0
-360 432 0
43 -360 361 0
-361 433 0
44 -361 362 0
-362 434 0
45 -362 363 0
-363 435 0
46 -363 364 0
-364 436 0
47 -364 365 0
-365 437 0
48 -365 366 0
-366 438 0
49 -366 367 0
-367 439 0
50 -367 368 0
-368 440 0
51 -368 369 0
-369 441 0
52 -369 370 0
-370 442 0
53 -370 371 0
-371 443 0
54 -371 372 0
-372 444 0
55 -372 373 0
-373 445 0
56 -373 374 0
-374 446 0
57 -374 375 0
-375 447 0
58 -375 376 0
-376 448 0
59 -376 377 0
-377 449 0
60 -377 378 0
-378 450 0
61 -378 379 0
-379 451 0
62 -379 380 0
-380 452 0
63 -380 381 0
-381 453 0
64 -381 382 0
-382 454 0
65 -382 383 0
-383 455 0
66 -383 384 0
-384 456 0
67 -384 385 0
-385 457 0
68 -385 386 0
-386 458 0
69 -386 387 0
-387 459 0
70 -387 388 0
-388 460 0
71 -388 389 0
-389 461 0
72 -389 390 0
-390 462 0
73 -390 391 0
-391 463 0
74 -391 392 0
-392 464 0
75 -392 0
4 393 0
-393 465 0
5 -393 394 0
-394 466 0
6 -394 395 0
-395 467 0
7 -395 396 0
-396 468 0
8 -396 397 0
-397 469 0
9 -397 398 0
-398 470 0
10 -398 399 0
-399 471 0
11 -399 400 0
-400 472 0
12 -400 401 0
-401 473 0
13 -401 402 0
-402 474 0
14 -402 403 0
-403 475 0
15 -403 404 0
-404 476 0
16 -404 405 0
-405 477 0
17 -405 406 0
-406 478 0
18 -406 407 0
-407 479 0
19 -407 408 0
-408 480 0
20 -408 409 0
-409 481 0
21 -409 410 0
-410 482 0
22 -410 411 0
-411 483 0
23 -411 412 0
-412 484 0
24 -412 413 0
-413 485 0
25 -413 414 0
-414 486 0
26 -414 415 0
-415 487 0
27 -415 416 0
-416 488 0
28 -416 417 0
-417 489 0
29 -417 418 0
-418 490 0
30 -418 419 0
-419 491 0
31 -419 420 0
-420 492 0
32 -420 421 0
-421 493 0
33 -421 422 0
-422 494 0
34 -422 423 0
-423 495 0
35 -423 424 0
-424 496 0
36 -424 425 0
-425 497 0
37 -425 426 0
-426 498 0
38 -426 427 0
-427 499 0
39 -427 428 0
-428 500 0
40 -428 429 0
-429 501 0
41 -429 430 0
-430 502 0
42 -430 431 0
-431 503 0
43 -431 432 0
-432 504 0
44 -432 433 0
-433 505 0
45 -433 434 0
-434 506 0
46 -434 435 0
-435 507 0
47 -435 436 0
-436 508 0
48 -436 437 0
-437 509 0
49 -437 438 0
-438 510 0
50 -438 439 0
-439 511 0
51 -439 440 0
-440 512 0
52 -440 441 0
-441 513 0
53 -441 442 0
-442 514 0
54 -442 443 0
-443 515 0
55 -443 444 0
-444 516 0
56 -444 445 0
-445 517 0
57 -445 446 0
-446 518 0
58 -446 447 0
-447 519 0
59 -447 448 0
-448 520 0
60 -448 449 0
-449 521 0
61 -449 450 0
-450 522 0
62 -450 451 0
-451 523 0
63 -451 452 0
-452 524 0
64 -452 453 0
-453 525 0
65 -453 454 0
-454 526 0
66 -454 455 0
-455 527 0
67 -455 456 0
-456 528 0
68 -456 457 0
-457 529 0
69 -457 458 0
-458 530 0
70 -458 459 0
-459 531 0
71 -459 460 0
-460 532 0
72 -460 461 0
-461 533 0
73 -461 462 0
-462 534 0
74 -462 463 0
-463 535 0
75 -463 464 0
-464 536 0
76 -464 0
5 465 0
-465 537 0
6 -465 466 0
-466 538 0
7 -466 467 0
-467 539 0
8 -467 468 0
-468 540 0
9 -468 469 0
-469 541 0
10 -469 470 0
-470 542 0
11 -470 471 0
-471 543 0
12 -471 472 0
-472 544 0
13 -472 473 0
-473 545 0
14 -473 474 0
-474 546 0
15 -474 475 0
-475 547 0
16 -475 476 0
-476 548 0
17 -476 477 0
-477 549 0
18 -477 478 0
-478 550 0
19 -478 479 0
-479 551 0
20 -479 480 0
-480 552 0
21 -480 481 0
-481 553 0
22 -481 482 0
-482 554 0
23 -482 483 0
-483 555 0
24 -483 484 0
-484 556 0
25 -484 485 0
-485 557 0
26 -485 486 0
-486 558 0
27 -486 487 0
-487 559 0
28 -487 488 0
-488 560 0
29 -488 489 0
-489 561 0
30 -489 490 0
-490 562 0
31 -490 491 0
-491 563 0
32 -491 492 0
-492 564 0
33 -492 493 0
-493 565 0
34 -493 494 0
-494 566 0
35 -494 495 0
-495 567 0
36 -495 496 0
-496 568 0
37 -496 497 0
-497 569 0
38 -497 498 0
-498 570 0
39 -498 499 0
-499 571 0
40 -499 500 0
-500 572 0
41 -500 501 0
-501 573 0
42 -501 502 0
-502 574 0
43 -502 503 0
-503 575 0
44 -503 504 0
-504 576 0
45 -504 505 0
-505 577 0
46 -505 506 0
-506 578 0
47 -506 507 0
-507 579 0
48 -507 508 0
-508 580 0
49 -508 509 0
-509 581 0
50 -509 510 0
-510 582 0
51 -510 511 0
-511 583 0
52 -511 512 0
-512 584 0
53 -512 513 0
-513 585 0
54 -513 514 0
-514 586 0
55 -514 515 0
-515 587 0
56 -515 516 0
-516 588 0
57 -516 517 0
-517 589 0
58 -517 518 0
-518 590 0
59 -518 519 0
-519 591 0
60 -519 520 0
-520 592 0
61 -520 521 0
-521 593 0
62 -521 522 0
-522 594 0
63 -522 523 0
-523 595 0
64 -523 524 0
-524 596 0
65 -524 525 0
-525 597 0
66 -525 526 0
-526 598 0
67 -526 527 0
-527 599 0
68 -527 528 0
-528 600 0
69 -528 529 0
-529 601 0
70 -529 530 0
-530 602 0
71 -530 531 0
-531 603 0
72 -531 532 0
-532 604 0
73 -532 533 0
-533 605 0
74 -533 534 0
-534 606 0
75 -534 535 0
-535 607 0
76 -535 536 0
-536 608 0
77 -536 0
6 537 0
-537 609 0
7 -537 538 0
-538 610 0
8 -538 539 0
-539 611 0
9 -539 540 0
-540 612 0
10 -540 541 0
-541 613 0
11 -541 542 0
-542 614 0
12 -542 543 0
-543 615 0
13 -543 544 0
-544 616 0
14 -544 545 0
-545 617 0
15 -545 546 0
-546 618 0
16 -546 547 0
-547 619 0
17 -547 548 0
-548 620 0
18 -548 549 0
-549 621 0
19 -549 550 0
-550 622 0
20 -550 551 0
-551 623 0
21 -551 552 0
-552 624 0
22 -552 553 0
-553 625 0
23 -553 554 0
-554 626 0
24 -554 555 0
-555 627 0
25 -555 556 0
-556 628 0
26 -556 557 0
-557 629 0
27 -557 558 0
-558 630 0
28 -558 559 0
-559 631 0
29 -559 560 0
-560 632 0
30 -560 561 0
-561 633 0
31 -561 562 0
-562 634 0
32 -562 563 0
-563 635 0
33 -563 564 0
-564 636 0
34 -564 565 0
-565 637 0
35 -565 566 0
-566 638 0
36 -566 567 0
-567 639 0
37 -567 568 0
-568 640 0
38 -568 569 0
-569 641 0
39 -569 570 0
-570 642 0
40 -570 571 0
-571 643 0
41 -571 572 0
-572 644 0
42 -572 573 0
-573 645 0
43 -573 574 0
-574 646 0
44 -574 575 0
-575 647 0
45 -575 576 0
-576 648 0
46 -576 577 0
-577 649 0
47 -577 578 0
-578 650 0
48 -578 579 0
-579 651 0
49 -579 580 0
-580 652 0
50 -580 581 0
-581 653 0
51 -581 582 0
-582 654 0
52 -582 583 0
-583 655 0
53 -583 584 0
-584 656 0
54 -584 585 0
-585 657 0
55 -585 586 0
-586 658 0
56 -586 587 0
-587 659 0
57 -587 588 0
-588 660 0
58 -588 589 0
-589 661 0
59 -589 590 0
-590 662 0
60 -590 591 0
-591 663 0
61 -591 592 0
-592 664 0
62 -592 593 0
-593 665 0
63 -593 594 0
-594 666 0
64 -594 595 0
-595 667 0
65 -595 596 0
-596 668 0
66 -596 597 0
-597 669 0
67 -597 598 0
-598 670 0
68 -598 599 0
-599 671 0
69 -599 600 0
-600 672 0
70 -600 601 0
-601 673 0
71 -601 602 0
-602 674 0
72 -602 603 0
-603 675 0
73 -603 604 0
-604 676 0
74 -604 605 0
-605 677 0
75 -605 606 0
-606 678 0
76 -606 607 0
-607 679 0
77 -607 608 0
-608 680 0
78 -608 0
7 609 0
-609 681 0
8 -609 610 0
-610 682 0
9 -610 611 0
-611 683 0
10 -611 612 0
-612 684 0
11 -612 613 0
-613 685 0
12 -613 614 0
-614 686 0
13 -614 615 0
-615 687 0
14 -615 616 0
-616 688 0
15 -616 617 0
-617 689 0
16 -617 618 0
-618 690 0
17 -618 619 0
-619 691 0
18 -619 620 0
-620 692 0
19 -620 621 0
-621 693 0
20 -621 622 0
-622 694 0
21 -622 623 0
-623 695 0
22 -623 624 0
-624 696 0
23 -624 625 0
-625 697 0
24 -625 626 0
-626 698 0
25 -626 627 0
-627 699 0
26 -627 628 0
-628 700 0
27 -628 629 0
-629 701 0
28 -629 630 0
-630 702 0
29 -630 631 0
-631 703 0
30 -631 632 0
-632 704 0
31 -632 633 0
-633 705 0
32 -633 634 0
-634 706 0
33 -634 635 0
-635 707 0
34 -635 636 0
-636 708 0
35 -636 637 0
-637 709 0
36 -637 638 0
-638 710 0
37 -638 639 0
-639 711 0
38 -639 640 0
-640 712 0
39 -640 641 0
-641 713 0
40 -641 642 0
-642 714 0
41 -642 643 0
-643 715 0
42 -643 644 0
-644 716 0
43 -644 645 0
-645 717 0
44 -645 646 0
-646 718 0
45 -646 647 0
-647 719 0
46 -647 648 0
-648 720 0
47 -648 649 0
-649 721 0
48 -649 650 0
-650 722 0
49 -650 651 0
-651 723 0
50 -651 652 0
-652 724 0
51 -652 653 0
-653 725 0
52 -653 654 0
-654 726 0
53 -654 655 0
-655 727 0
54 -655 656 0
-656 728 0
55 -656 657 0
-657 729 0
56 -657 658 0
-658 730 0
57 -658 659 0
-659 731 0
58 -659 660 0
-660 732 0
59 -660 661 0
-661 733 0
60 -661 662 0
-662 734 0
61 -662 663 0
-663 735 0
62 -663 664 0
-664 736 0
63 -664 665 0
-665 737 0
64 -665 666 0
-666 738 0
65 -666 667 0
-667 739 0
66 -667 668 0
-668 740 0
67 -668 669 0
-669 741 0
68 -669 670 0
-670 742 0
69 -670 671 0
-671 743 0
70 -671 672 0
-672 744 0
71 -672 673 0
-673 745 0
72 -673 674 0
-674 746 0
73 -674 675 0
-675 747 0
74 -675 676 0
-676 748 0
75 -676 677 0
-677 749 0
76 -677 678 0
-678 750 0
77 -678 679 0
-679 751 0
78 -679 680 0
-680 752 0
79 -680 0
8 681 0
-681 753 0
9 -681 682 0
-682 754 0
10 -682 683 0
-683 755 0
11 -683 684 0
-684 756 0
12 -684 685 0
-685 757 0
13 -685 686 0
-686 758 0
14 -686 687 0
-687 759 0
15 -687 688 0
-688 760 0
16 -688 689 0
-689 761 0
17 -689 690 0
-690 762 0
18 -690 691 0
-691 763 0
19 -691 692 0
-692 764 0
20 -692 693 0
-693 765 0
21 -693 694 0
-694 766 0
22 -694 695 0
-695 767 0
23 -695 696 0
-696 768 0
24 -696 697 0
-697 769 0
25 -697 698 0
-698 770 0
26 -698 699 0
-699 771 0
27 -699 700 0
-700 772 0
28 -700 701 0
-701 773 0
29 -701 702 0
-702 774 0
30 -702 703 0
-703 775 0
31 -703 704 0
-704 776 0
32 -704 705 0
-705 777 0
33 -705 706 0
-706 778 0
34 -706 707 0
-707 779 0
35 -707 708 0
-708 780 0
36 -708 709 0
-709 781 0
37 -709 710 0
-710 782 0
38 -710 711 0
-711 783 0
39 -711 712 0
-712 784 0
40 -712 713 0
-713 785 0
41 -713 714 0
-714 786 0
42 -714 715 0
-715 787 0
43 -715 716 0
-716 788 0
44 -716 717 0
-717 789 0
45 -717 718 0
-718 790 0
46 -718 719 0
-719 791 0
47 -719 720 0
-720 792 0
48 -720 721 0
-721 793 0
49 -721 722 0
-722 794 0
50 -722 723 0
-723 795 0
51 -723 724 0
-724 796 0
52 -724 725 0
-725 797 0
53 -725 726 0
-726 798 0
54 -726 727 0
-727 799 0
55 -727 728 0
-728 800 0
56 -728 729 0
-729 801 0
57 -729 730 0
-730 802 0
58 -730 731 0
-731 803 0
59 -731 732 0
-732 804 0
60 -732 733 0
-733 805 0
61 -733 734 0
-734 806 0
62 -734 735 0
-735 807 0
63 -735 736 0
-736 808 0
64 -736 737 0
-737 809 0
65 -737 738 0
-738 810 0
66 -738 739 0
-739 811 0
67 -739 740 0
-740 812 0
68 -740 741 0
-741 813 0
69 -741 742 0
-742 814 0
70 -742 743 0
-743 815 0
71 -743 744 0
-744 816 0
72 -744 745 0
-745 817 0
73 -745 746 0
-746 818 0
74 -746 747 0
-747 819 0
75 -747 748 0
-748 820 0
76 -748 749 0
-749 821 0
77 -749 750 0
-750 822 0
78 -750 751 0
-751 823 0
79 -751 752 0
-752 824 0
80 -752 0
9 753 0
-753 825 0
10 -753 754 0
-754 826 0
11 -754 755 0
-755 827 0
12 -755 756 0
-756 828 0
13 -756 757 0
-757 829 0
14 -757 758 0
-758 830 0
15 -758 759 0
-759 831 0
16 -759 760 0
-760 832 0
17 -760 761 0
-761 833 0
18 -761 762 0
-762 834 0
19 -762 763 0
-763 835 0
20 -763 764 0
-764 836 0
21 -764 765 0
-765 837 0
22 -765 766 0
-766 838 0
23 -766 767 0
-767 839 0
24 -767 768 0
-768 840 0
25 -768 769 0
-769 841 0
26 -769 770 0
-770 842 0
27 -770 771 0
-771 843 0
28 -771 772 0
-772 844 0
29 -772 773 0
-773 845 0
30 -773 774 0
-774 846 0
31 -774 775 0
-775 847 0
32 -775 776 0
-776 848 0
33 -776 777 0
-777 849 0
34 -777 778 0
-778 850 0
35 -778 779 0
-779 851 0
36 -779 780 0
-780 852 0
37 -780 781 0
-781 853 0
38 -781 782 0
-782 854 0
39 -782 783 0
-783 855 0
40 -783 784 0
-784 856 0
41 -784 785 0
-785 857 0
42 -785 786 0
-786 858 0
43 -786 787 0
-787 859 0
44 -787 788 0
-788 860 0
45 -788 789 0
-789 861 0
46 -789 790 0
-790 862 0
47 -790 791 0
-791 863 0
48 -791 792 0
-792 864 0
49 -792 793 0
-793 865 0
50 -793 794 0
-794 866 0
51 -794 795 0
-795 867 0
52 -795 796 0
-796 868 0
53 -796 797 0
-797 869 0
54 -797 798 0
-798 870 0
55 -798 799 0
-799 871 0
56 -799 800 0
-800 872 0
57 -800 801 0
-801 873 0
58 -801 802 0
-802 874 0
59 -802 803 0
-803 875 0
60 -803 804 0
-804 876 0
61 -804 805 0
-805 877 0
62 -805 806 0
-806 878 0
63 -806 807 0
-807 879 0
64 -807 808 0
-808 880 0
65 -808 809 0
-809 881 0
66 -809 810 0
-810 882 0
67 -810 811 0
-811 883 0
68 -811 812 0
-812 884 0
69 -812 813 0
-813 885 0
70 -813 814 0
-814 886 0
71 -814 815 0
-815 887 0
72 -815 816 0
-816 888 0
73 -816 817 0
-817 889 0
74 -817 818 0
-818 890 0
75 -818 819 0
-819 891 0
76 -819 820 0
-820 892 0
77 -820 821 0
-821 893 0
78 -821 822 0
-822 894 0
79 -822 823 0
-823 895 0
80 -823 824 0
-824 896 0
81 -824 0
10 825 0
-825 897 0
11 -825 826 0
-826 898 0
12 -826 827 0
-827 899 0
13 -827 828 0
-828 900 0
14 -828 829 0
-829 901 0
15 -829 830 0
-830 902 0
16 -830 831 0
-831 903 0
17 -831 832 0
-832 904 0
18 -832 833 0
-833 905 0
19 -833 834 0
-834 906 0
20 -834 835 0
-835 907 0
21 -835 836 0
-836 908 0
22 -836 837 0
-837 909 0
23 -837 838 0
-838 910 0
24 -838 839 0
-839 911 0
25 -839 840 0
-840 912 0
26 -840 841 0
-841 913 0
27 -841 842 0
-842 914 0
28 -842 843 0
-843 915 0
29 -843 844 0
-844 916 0
30 -844 845 0
-845 917 0
31 -845 846 0
-846 918 0
32 -846 847 0
-847 919 0
33 -847 848 0
-848 920 0
34 -848 849 0
-849 921 0
35 -849 850 0
-850 922 0
36 -850 851 0
-851 923 0
37 -851 852 0
-852 924 0
38 -852 853 0
-853 925 0
39 -853 854 0
-854 926 0
40 -854 855 0
-855 927 0
41 -855 856 0
-856 928 0
42 -856 857 0
-857 929 0
43 -857 858 0
-858 930 0
44 -858 859 0
-859 931 0
45 -859 860 0
-860 932 0
46 -860 861 0
-861 933 0
47 -861 862 0
-862 934 0
48 -862 863 0
-863 935 0
49 -863 864 0
-864 936 0
50 -864 865 0
-865 937 0
51 -865 866 0
-866 938 0
52 -866 867 0
-867 939 0
53 -867 868 0
-868 940 0
54 -868 869 0
-869 941 0
55 -869 870 0
-870 942 0
56 -870 871 0
-871 943 0
57 -871 872 0
-872 944 0
58 -872 873 0
-873 945 0
59 -873 874 0
-874 946 0
60 -874 875 0
-875 947 0
61 -875 876 0
-876 948 0
62 -876 877 0
-877 949 0
63 -877 878 0
-878 950 0
64 -878 879 0
-879 951 0
65 -879 880 0
-880 952 0
66 -880 881 0
-881 953 0
67 -881 882 0
-882 954 0
68 -882 883 0
-883 955 0
69 -883 884 0
-884 956 0
70 -884 885 0
-885 957 0
71 -885 886 0
-886 958 0
72 -886 887 0
-887 959 0
73 -887 888 0
-888 960 0
74 -888 889 0
-889 961 0
75 -889 890 0
-890 962 0
76 -890 891 0
-891 963 0
77 -891 892 0
-892 964 0
78 -892 893 0
-893 965 0
79 -893 894 0
-894 966 0
80 -894 895 0
-895 967 0
81 -895 896 0
-896 968 0
82 -896 0
11 897 0
-897 969 0
12 -897 898 0
-898 970 0
13 -898 899 0
-899 971 0
14 -899 900 0
-900 972 0
15 -900 901 0
-901 973 0
16 -901 902 0
-902 974 0
17 -902 903 0
-903 975 0
18 -903 904 0
-904 976 0
19 -904 905 0
-905 977 0
20 -905 906 0
-906 978 0
21 -906 907 0
-907 979 0
22 -907 908 0
-908 980 0
23 -908 909 0
-909 981 0
24 -909 910 0
-910 982 0
25 -910 911 0
-911 983 0
26 -911 912 0
-912 984 0
27 -912 913 0
-913 985 0
28 -913 914 0
-914 986 0
29 -914 915 0
-915 987 0
30 -915 916 0
-916 988 0
31 -916 917 0
-917 989 0
32 -917 918 0
-918 990 0
33 -918 919 0
-919 991 0
34 -919 920 0
-920 992 0
35 -920 921 0
-921 993 0
36 -921 922 0
-922 994 0
37 -922 923 0
-923 995 0
38 -923 924 0
-924 996 0
39 -924 925 0
-925 997 0
40 -925 926 0
-926 998 0
41 -926 927 0
-927 999 0
42 -927 928 0
-928 1000 0
43 -928 929 0
-929 1001 0
44 -929 930 0
-930 1002 0
45 -930 931 0
-931 1003 0
46 -931 932 0
-932 1004 0
47 -932 933 0
-933 1005 0
48 -933 934 0
-934 1006 0
49 -934 935 0
-935 1007 0
50 -935 936 0
-936 1008 0
51 -936 937 0
-937 1009 0
52 -937 938 0
-938 1010 0
53 -938 939 0
-939 1011 0
54 -939 940 0
-940 1012 0
55 -940 941 0
-941 1013 0
56 -941 942 0
-942 1014 0
57 -942 943 0
-943 1015 0
58 -943 944 0
-944 1016 0
59 -944 945 0
-945 1017 0
60 -945 946 0
-946 1018 0
61 -946 947 0
-947 1019 0
62 -947 948 0
-948 1020 0
63 -948 949 0
-949 1021 0
64 -949 950 0
-950 1022 0
65 -950 951 0
-951 1023 0
66 -951 952 0
-952 1024 0
67 -952 953 0
-953 1025 0
68 -953 954 0
-954 1026 0
69 -954 955 0
-955 1027 0
70 -955 956 0
-956 1028 0
71 -956 957 0
-957 1029 0
72 -957 958 0
-958 1030 0
73 -958 959 0
-959 1031 0
74 -959 960 0
-960 1032 0
75 -960 961 0
-961 1033 0
76 -961 962 0
-962 1034 0
77 -962 963 0
-963 1035 0
78 -963 964 0
-964 1036 0
79 -964 965 0
-965 1037 0
80 -965 966 0
-966 1038 0
81 -966 967 0
-967 1039 0
82 -967 968 0
-968 1040 0
83 -968 0
12 969 0
-969 1041 0
13 -969 970 0
-970 1042 0
14 -970 971 0
-971 1043 0
15 -971 972 0
-972 1044 0
16 -972 973 0
-973 1045 0
17 -973 974 0
-974 1046 0
18 -974 975 0
-975 1047 0
19 -975 976 0
-976 1048 0
20 -976 977 0
-977 1049 0
21 -977 978 0
-978 1050 0
22 -978 979 0
-979 1051 0
23 -979 980 0
-980 1052 0
24 -980 981 0
-981 1053 0
25 -981 982 0
-982 1054 0
26 -982 983 0
-983 1055 0
27 -983 984 0
-984 1056 0
28 -984 985 0
-985 1057 0
29 -985 986 0
-986 1058 0
30 -986 987 0
-987 1059 0
31 -987 988 0
-988 1060 0
32 -988 989 0
-989 1061 0
33 -989 990 0
-990 1062 0
34 -990 991 0
-991 1063 0
35 -991 992 0
-992 1064 0
36 -992 993 0
-993 1065 0
37 -993 994 0
-994 1066 0
38 -994 995 0
-995 1067 0
39 -995 996 0
-996 1068 0
40 -996 997 0
-997 1069 0
41 -997 998 0
-998 1070 0
42 -998 999 0
-999 1071 0
43 -999 1000 0
-1000 1072 0
44 -1000 1001 0
-1001 1073 0
45 -1001 1002 0
-1002 1074 0
46 -1002 1003 0
-1003 1075 0
47 -1003 1004 0
-1004 1076 0
48 -1004 1005 0
-1005 1077 0
49 -1005 1006 0
-1006 1078 0
50 -1006 1007 0
-1007 1079 0
51 -1007 1008 0
-1008 1080 0
52 -1008 1009 0
-1009 1081 0
53 -1009 1010 0
-1010 1082 0
54 -1010 1011 0
-1011 1083 0
55 -1011 1012 0
-1012 1084 0
56 -1012 1013 0
-1013 1085 0
57 -1013 1014 0
-1014 1086 0
58 -1014 1015 0
-1015 1087 0
59 -1015 1016 0
-1016 1088 0
60 -1016 1017 0
-1017 1089 0
61 -1017 1018 0
-1018 1090 0
62 -1018 1019 0
-1019 1091 0
63 -1019 1020 0
-1020 1092 0
64 -1020 1021 0
-1021 1093 0
65 -1021 1022 0
-1022 1094 0
66 -1022 1023 0
-1023 1095 0
67 -1023 1024 0
-1024 1096 0
68 -1024 1025 0
-1025 1097 0
69 -1025 1026 0
-1026 1098 0
70 -1026 1027 0
-1027 1099 0
71 -1027 1028 0
-1028 1100 0
72 -1028 1029 0
-1029 1101 0
73 -1029 1030 0
-1030 1102 0
74 -1030 1031 0
-1031 1103 0
75 -1031 1032 0
-1032 1104 0
76 -1032 1033 0
-1033 1105 0
77 -1033 1034 0
-1034 1106 0
78 -1034 1035 0
-1035 1107 0
79 -1035 1036 0
-1036 1108 0
80 -1036 1037 0
-1037 1109 0
81 -1037 1038 0
-1038 1110 0
82 -1038 1039 0
-1039 1111 0
83 -1039 1040 0
-1040 1112 0
84 -1040 0
13 1041 0
-1041 1113 0
14 -1041 1042 0
-1042 1114 0
15 -1042 1043 0
-1043 1115 0
16 -1043 1044 0
-1044 1116 0
17 -1044 1045 0
-1045 1117 0
18 -1045 1046 0
-1046 1118 0
19 -1046 1047 0
-1047 1119 0
20 -1047 1048 0
-1048 1120 0
21 -1048 1049 0
-1049 1121 0
22 -1049 1050 0
-1050 1122 0
23 -1050 1051 0
-1051 1123 0
24 -1051 1052 0
-1052 1124 0
25 -1052 1053 0
-1053 1125 0
26 -1053 1054 0
-1054 1126 0
27 -1054 1055 0
-1055 1127 0
28 -1055 1056 0
-1056 1128 0
29 -1056 1057 0
-1057 1129 0
30 -1057 1058 0
-1058 1130 0
31 -1058 1059 0
-1059 1131 0
32 -1059 1060 0
-1060 1132 0
33 -1060 1061 0
-1061 1133 0
34 -1061 1062 0
-1062 1134 0
35 -1062 1063 0
-1063 1135 0
36 -1063 1064 0
-1064 1136 0
37 -1064 1065 0
-1065 1137 0
38 -1065 1066 0
-1066 1138 0
39 -1066 1067 0
-1067 1139 0
40 -1067 1068 0
-1068 1140 0
41 -1068 1069 0
-1069 1141 0
42 -1069 1070 0
-1070 1142 0
43 -1070 1071 0
-1071 1143 0
44 -1071 1072 0
-1072 1144 0
45 -1072 1073 0
-1073 1145 0
46 -1073 1074 0
-1074 1146 0
47 -1074 1075 0
-1075 1147 0
48 -1075 1076 0
-1076 1148 0
49 -1076 1077 0
-1077 1149 0
50 -1077 1078 0
-1078 1150 0
51 -1078 1079 0
-1079 1151 0
52 -1079 1080 0
-1080 1152 0
53 -1080 1081 0
-1081 1153 0
54 -1081 1082 0
-1082 1154 0
55 -1082 1083 0
-1083 1155 0
56 -1083 1084 0
-1084 1156 0
57 -1084 1085 0
-1085 1157 0
58 -1085 1086 0
-1086 1158 0
59 -1086 1087 0
-1087 1159 0
60 -1087 1088 0
-1088 1160 0
61 -1088 1089 0
-1089 1161 0
62 -1089 1090 0
-1090 1162 0
63 -1090 1091 0
-1091 1163 0
64 -1091 1092 0
-1092 1164 0
65 -1092 1093 0
-1093 1165 0
66 -1093 1094 0
-1094 1166 0
67 -1094 1095 0
-1095 1167 0
68 -1095 1096 0
-1096 1168 0
69 -1096 1097 0
-1097 1169 0
70 -1097 1098 0
-1098 1170 0
71 -1098 1099 0
-1099 1171 0
72 -1099 1100 0
-1100 1172 0
73 -1100 1101 0
-1101 1173 0
74 -1101 1102 0
-1102 1174 0
75 -1102 1103 0
-1103 1175 0
76 -1103 1104 0
-1104 1176 0
77 -1104 1105 0
-1105 1177 0
78 -1105 1106 0
-1106 1178 0
79 -1106 1107 0
-1107 1179 0
80 -1107 1108 0
-1108 1180 0
81 -1108 1109 0
-1109 1181 0
82 -1109 1110 0
-1110 1182 0
83 -1110 1111 0
-1111 1183 0
84 -1111 1112 0
-1112 1184 0
85 -1112 0
14 1113 0
-1113 1185 0
15 -1113 1114 0
-1114 1186 0
16 -1114 1115 0
-1115 1187 0
17 -1115 1116 0
-1116 1188 0
18 -1116 1117 0
-1117 1189 0
19 -1117 1118 0
-1118 1190 0
20 -1118 1119 0
-1119 1191 0
21 -1119 1120 0
-1120 1192 0
22 -1120 1121 0
-1121 1193 0
23 -1121 1122 0
-1122 1194 0
24 -1122 1123 0
-1123 1195 0
25 -1123 1124 0
-1124 1196 0
26 -1124 1125 0
-1125 1197 0
27 -1125 1126 0
-1126 1198 0
28 -1126 1127 0
-1127 1199 0
29 -1127 1128 0
-1128 1200 0
30 -1128 1129 0
-1129 1201 0
31 -1129 1130 0
-1130 1202 0
32 -1130 1131 0
-1131 1203 0
33 -1131 1132 0
-1132 1204 0
34 -1132 1133 0
-1133 1205 0
35 -1133 1134 0
-1134 1206 0
36 -1134 1135 0
-1135 1207 0
37 -1135 1136 0
-1136 1208 0
38 -1136 1137 0
-1137 1209 0
39 -1137 1138 0
-1138 1210 0
40 -1138 1139 0
-1139 1211 0
41 -1139 1140 0
-1140 1212 0
42 -1140 1141 0
-1141 1213 0
43 -1141 1142 0
-1142 1214 0
44 -1142 1143 0
-1143 1215 0
45 -1143 1144 0
-1144 1216 0
46 -1144 1145 0
-1145 1217 0
47 -1145 1146 0
-1146 1218 0
48 -1146 1147 0
-1147 1219 0
49 -1147 1148 0
-1148 1220 0
50 -1148 1149 0
-1149 1221 0
51 -1149 1150 0
-1150 1222 0
52 -1150 1151 0
-1151 1223 0
53 -1151 1152 0
-1152 1224 0
54 -1152 1153 0
-1153 1225 0
55 -1153 1154 0
-1154 1226 0
56 -1154 1155 0
-1155 1227 0
57 -1155 1156 0
-1156 1228 0
58 -1156 1157 0
-1157 1229 0
59 -1157 1158 0
-1158 1230 0
60 -1158 1159 0
-1159 1231 0
61 -1159 1160 0
-1160 1232 0
62 -1160 1161 0
-1161 1233 0
63 -1161 1162 0
-1162 1234 0
64 -1162 1163 0
-1163 1235 0
65 -1163 1164 0
-1164 1236 0
66 -1164 1165 0
-1165 1237 0
67 -1165 1166 0
-1166 1238 0
68 -1166 1167 0
-1167 1239 0
69 -1167 1168 0
-1168 1240 0
70 -1168 1169 0
-1169 1241 0
71 -1169 1170 0
-1170 1242 0
72 -1170 1171 0
-1171 1243 0
73 -1171 1172 0
-1172 1244 0
74 -1172 1173 0
-1173 1245 0
75 -1173 1174 0
-1174 1246 0
76 -1174 1175 0
-1175 1247 0
77 -1175 1176 0
-1176 1248 0
78 -1176 1177 0
-1177 1249 0
79 -1177 1178 0
-1178 1250 0
80 -1178 1179 0
-1179 1251 0
81 -1179 1180 0
-1180 1252 0
82 -1180 1181 0
-1181 1253 0
83 -1181 1182 0
-1182 1254 0
84 -1182 1183 0
-1183 1255 0
85 -1183 1184 0
-1184 1256 0
86 -1184 0
15 1185 0
-1185 1257 0
16 -1185 1186 0
-1186 1258 0
17 -1186 1187 0
-1187 1259 0
18 -1187 1188 0
-1188 1260 0
19 -1188 1189 0
-1189 1261 0
20 -1189 1190 0
-1190 1262 0
21 -1190 1191 0
-1191 1263 0
22 -1191 1192 0
-1192 1264 0
23 -1192 1193 0
-1193 1265 0
24 -1193 1194 0
-1194 1266 0
25 -1194 1195 0
-1195 1267 0
26 -1195 1196 0
-1196 1268 0
27 -1196 1197 0
-1197 1269 0
28 -1197 1198 0
-1198 1270 0
29 -1198 1199 0
-1199 1271 0
30 -1199 1200 0
-1200 1272 0
31 -1200 1201 0
-1201 1273 0
32 -1201 1202 0
-1202 1274 0
33 -1202 1203 0
-1203 1275 0
34 -1203 1204 0
-1204 1276 0
35 -1204 1205 0
-1205 1277 0
36 -1205 1206 0
-1206 1278 0
37 -1206 1207 0
-1207 1279 0
38 -1207 1208 0
-1208 1280 0
39 -1208 1209 0
-1209 1281 0
40 -1209 1210 0
-1210 1282 0
41 -1210 1211 0
-1211 1283 0
42 -1211 1212 0
-1212 1284 0
43 -1212 1213 0
-1213 1285 0
44 -1213 1214 0
-1214 1286 0
45 -1214 1215 0
-1215 1287 0
46 -1215 1216 0
-1216 1288 0
47 -1216 1217 0
-1217 1289 0
48 -1217 1218 0
-1218 1290 0
49 -1218 1219 0
-1219 1291 0
50 -1219 1220 0
-1220 1292 0
51 -1220 1221 0
-1221 1293 0
52 -1221 1222 0
-1222 1294 0
53 -1222 1223 0
-1223 1295 0
54 -1223 1224 0
-1224 1296 0
55 -1224 1225 0
-1225 1297 0
56 -1225 1226 0
-1226 1298 0
57 -1226 1227 0
-1227 1299 0
58 -1227 1228 0
-1228 1300 0
59 -1228 1229 0
-1229 1301 0
60 -1229 1230 0
-1230 1302 0
61 -1230 1231 0
-1231 1303 0
62 -1231 1232 0
-1232 1304 0
63 -1232 1233 0
-1233 1305 0
64 -1233 1234 0
-1234 1306 0
65 -1234 1235 0
-1235 1307 0
66 -1235 1236 0
-1236 1308 0
67 -1236 1237 0
-1237 1309 0
68 -1237 1238 0
-1238 1310 0
69 -1238 1239 0
-1239 1311 0
70 -1239 1240 0
-1240 1312 0
71 -1240 1241 0
-1241 1313 0
72 -1241 1242 0
-1242 1314 0
73 -1242 1243 0
-1243 1315 0
74 -1243 1244 0
-1244 1316 0
75 -1244 1245 0
-1245 1317 0
76 -1245 1246 0
-1246 1318 0
77 -1246 1247 0
-1247 1319 0
78 -1247 1248 0
-1248 1320 0
79 -1248 1249 0
-1249 1321 0
80 -1249 1250 0
-1250 1322 0
81 -1250 1251 0
-1251 1323 0
82 -1251 1252 0
-1252 1324 0
83 -1252 1253 0
-1253 1325 0
84 -1253 1254 0
-1254 1326 0
85 -1254 1255 0
-1255 1327 0
86 -1255 1256 0
-1256 1328 0
87 -1256 0
16 1257 0
17 -1257 1258 0
18 -1258 1259 0
19 -1259 1260 0
20 -1260 1261 0
21 -1261 1262 0
22 -1262 1263 0
23 -1263 1264 0
24 -1264 1265 0
25 -1265 1266 0
26 -1266 1267 0
27 -1267 1268 0
28 -1268 1269 0
29 -1269 1270 0
30 -1270 1271 0
31 -1271 1272 0
32 -1272 1273 0
33 -1273 1274 0
34 -1274 1275 0
35 -1275 1276 0
36 -1276 1277 0
37 -1277 1278 0
38 -1278 1279 0
39 -1279 1280 0
40 -1280 1281 0
41 -1281 1282 0
42 -1282 1283 0
43 -1283 1284 0
44 -1284 1285 0
45 -1285 1286 0
46 -1286 1287 0
47 -1287 1288 0
48 -1288 1289 0
49 -1289 1290 0
50 -1290 1291 0
51 -1291 1292 0
52 -1292 1293 0
53 -1293 1294 0
54 -1294 1295 0
55 -1295 1296 0
56 -1296 1297 0
57 -1297 1298 0
58 -1298 1299 0
59 -1299 1300 0
60 -1300 1301 0
61 -1301 1302 0
62 -1302 1303 0
63 -1303 1304 0
64 -1304 1305 0
65 -1305 1306 0
66 -1306 1307 0
67 -1307 1308 0
68 -1308 1309 0
69 -1309 1310 0
70 -1310 1311 0
71 -1311 1312 0
72 -1312 1313 0
73 -1313 1314 0
74 -1314 1315 0
75 -1315 1316 0
76 -1316 1317 0
77 -1317 1318 0
78 -1318 1319 0
79 -1319 1320 0
80 -1320 1321 0
81 -1321 1322 0
82 -1322 1323 0
83 -1323 1324 0
84 -1324 1325 0
85 -1325 1326 0
86 -1326 1327 0
87 -1327 1328 0
88 -1328 0
-1 1329 0
-1329 1330 0
-2 -1329 1331 0
-1331 1332 0
-3 -1331 1333 0
-1333 1334 0
-4 -1333 1335 0
-1335 1336 0
-5 -1335 1337 0
-1337 1338 0
-6 -1337 1339 0
-1339 1340 0
-7 -1339 1341 0
-1341 1342 0
-8 -1341 1343 0
-1343 1344 0
-9 -1343 1345 0
-1345 1346 0
-10 -1345 1347 0
-1347 1348 0
-11 -1347 1349 0
-1349 1350 0
-12 -1349 1351 0
-1351 1352 0
-13 -1351 1353 0
-1353 1354 0
-14 -1353 1355 0
-1355 1356 0
-15 -1355 1357 0
-1357 1358 0
-16 -1357 1359 0
-1359 1360 0
-17 -1359 0
-2 1330 0
-1330 1361 0
-3 -1330 1332 0
-1332 1362 0
-4 -1332 1334 0
-1334 1363 0
-5 -1334 1336 0
-1336 1364 0
-6 -1336 1338 0
-1338 1365 0
-7 -1338 1340 0
-1340 1366 0
-8 -1340 1342 0
-1342 1367 0
-9 -1342 1344 0
-1344 1368 0
-10 -1344 1346 0
-1346 1369 0
-11 -1346 1348 0
-1348 1370 0
-12 -1348 1350 0
-1350 1371 0
-13 -1350 1352 0
-1352 1372 0
-14 -1352 1354 0
-1354 1373 0
-15 -1354 1356 0
-1356 1374 0
-16 -1356 1358 0
-1358 1375 0
-17 -1358 1360 0
-1360 1376 0
-18 -1360 0
-3 1361 0
-1361 1377 0
-4 -1361 1362 0
-1362 1378 0
-5 -1362 1363 0
-1363 1379 0
-6 -1363 1364 0
-1364 1380 0
-7 -1364 1365 0
-1365 1381 0
-8 -1365 1366 0
-1366 1382 0
-9 -1366 1367 0
-1367 1383 0
-10 -1367 1368 0
-1368 1384 0
-11 -1368 1369 0
-1369 1385 0
-12 -1369 1370 0
-1370 1386 0
-13 -1370 1371 0
-1371 1387 0
-14 -1371 1372 0
-1372 1388 0
-15 -1372 1373 0
-1373 1389 0
-16 -1373 1374 0
-1374 1390 0
-17 -1374 1375 0
-1375 1391 0
-18 -1375 1376 0
-1376 1392 0
-19 -1376 0
-4 1377 0
-1377 1393 0
-5 -1377 1378 0
-1378 1394 0
-6 -1378 1379 0
-1379 1395 0
-7 -1379 1380 0
-1380 1396 0
-8 -1380 1381 0
-1381 1397 0
-9 -1381 1382 0
-1382 1398 0
-10 -1382 1383 0
-1383 1399 0
-11 -1383 1384 0
-1384 1400 0
-12 -1384 1385 0
-1385 1401 0
-13 -1385 1386 0
-1386 1402 0
-14 -1386 1387 0
-1387 1403 0
-15 -1387 1388 0
-1388 1404 0
-16 -1388 1389 0
-1389 1405 0
-17 -1389 1390 0
-1390 1406 0
-18 -1390 1391 0
-1391 1407 0
-19 -1391 1392 0
-1392 1408 0
-20 -1392 0
-5 1393 0
-1393 1409 0
-6 -1393 1394 0
-1394 1410 0
-7 -1394 1395 0
-1395 1411 0
-8 -1395 1396 0
-1396 1412 0
-9 -1396 1397 0
-1397 1413 0
-10 -1397 1398 0
-1398 1414 0
-11 -1398 1399 0
-1399 1415 0
-12 -1399 1400 0
-1400 1416 0
-13 -1400 1401 0
-1401 1417 0
-14 -1401 1402 0
-1402 1418 0
-15 -1402 1403 0
-1403 1419 0
-16 -1403 1404 0
-1404 1420 0
-17 -1404 1405 0
-1405 1421 0
-18 -1405 1406 0
-1406 1422 0
-19 -1406 1407 0
-1407 1423 0
-20 -1407 1408 0
-1408 1424 0
-21 -1408 0
-6 1409 0
-1409 1425 0
-7 -1409 1410 0
-1410 1426 0
-8 -1410 1411 0
-1411 1427 0
-9 -1411 1412 0
-1412 1428 0
-10 -1412 1413 0
-1413 1429 0
-11 -1413 1414 0
-1414 1430 0
-12 -1414 1415 0
-1415 1431 0
-13 -1415 1416 0
-1416 1432 0
-14 -1416 1417 0
-1417 1433 0
-15 -1417 1418 0
-1418 1434 0
-16 -1418 1419 0
-1419 1435 0
-17 -1419 1420 0
-1420 1436 0
-18 -1420 1421 0
-1421 1437 0
-19 -1421 1422 0
-1422 1438 0
-20 -1422 1423 0
-1423 1439 0
-21 -1423 1424 0
-1424 1440 0
-22 -1424 0
-7 1425 0
-1425 1441 0
-8 -1425 1426 0
-1426 1442 0
-9 -1426 1427 0
-1427 1443 0
-10 -1427 1428 0
-1428 1444 0
-11 -1428 1429 0
-1429 1445 0
-12 -1429 1430 0
-1430 1446 0
-13 -1430 1431 0
-1431 1447 0
-14 -1431 1432 0
-1432 1448 0
-15 -1432 1433 0
-1433 1449 0
-16 -1433 1434 0
-1434 1450 0
-17 -1434 1435 0
-1435 1451 0
-18 -1435 1436 0
-1436 1452 0
-19 -1436 1437 0
-1437 1453 0
-20 -1437 1438 0
-1438 1454 0
-21 -1438 1439 0
-1439 1455 0
-22 -1439 1440 0
-1440 1456 0
-23 -1440 0
-8 1441 0
-1441 1457 0
-9 -1441 1442 0
-1442 1458 0
-10 -1442 1443 0
-1443 1459 0
-11 -1443 1444 0
-1444 1460 0
-12 -1444 1445 0
-1445 1461 0
-13 -1445 1446 0
-1446 1462 0
-14 -1446 1447 0
-1447 1463 0
-15 -1447 1448 0
-1448 1464 0
-16 -1448 1449 0
-1449 1465 0
-17 -1449 1450 0
-1450 1466 0
-18 -1450 1451 0
-1451 1467 0
-19 -1451 1452 0
-1452 1468 0
-20 -1452 1453 0
-1453 1469 0
-21 -1453 1454 0
-1454 1470 0
-22 -1454 1455 0
-1455 1471 0
-23 -1455 1456 0
-1456 1472 0
-24 -1456 0
-9 1457 0
-1457 1473 0
-10 -1457 1458 0
-1458 1474 0
-11 -1458 1459 0
-1459 1475 0
-12 -1459 1460 0
-1460 1476 0
-13 -1460 1461 0
-1461 1477 0
-14 -1461 1462 0
-1462 1478 0
-15 -1462 1463 0
-1463 1479 0
-16 -1463 1464 0
-1464 1480 0
-17 -1464 1465 0
-1465 1481 0
-18 -1465 1466 0
-1466 1482 0
-19 -1466 1467 0
-1467 1483 0
-20 -1467 1468 0
-1468 1484 0
-21 -1468 1469 0
-1469 1485 0
-22 -1469 1470 0
-1470 1486 0
-23 -1470 1471 0
-1471 1487 0
-24 -1471 1472 0
-1472 1488 0
-25 -1472 0
-10 1473 0
-1473 1489 0
-11 -1473 1474 0
-1474 1490 0
-12 -1474 1475 0
-1475 1491 0
-13 -1475 1476 0
-1476 1492 0
-14 -1476 1477 0
-1477 1493 0
-15 -1477 1478 0
-1478 1494 0
-16 -1478 1479 0
-1479 1495 0
-17 -1479 1480 0
-1480 1496 0
-18 -1480 1481 0
-1481 1497 0
-19 -1481 1482 0
-1482 1498 0
-20 -1482 1483 0
-1483 1499 0
-21 -1483 1484 0
-1484 1500 0
-22 -1484 1485 0
-1485 1501 0
-23 -1485 1486 0
-1486 1502 0
-24 -1486 1487 0
-1487 1503 0
-25 -1487 1488 0
-1488 1504 0
-26 -1488 0
-11 1489 0
-1489 1505 0
-12 -1489 1490 0
-1490 1506 0
-13 -1490 1491 0
-1491 1507 0
-14 -1491 1492 0
-1492 1508 0
-15 -1492 1493 0
-1493 1509 0
-16 -1493 1494 0
-1494 1510 0
-17 -1494 1495 0
-1495 1511 0
-18 -1495 1496 0
-1496 1512 0
-19 -1496 1497 0
-1497 1513 0
-20 -1497 1498 0
-1498 1514 0
-21 -1498 1499 0
-1499 1515 0
-22 -1499 1500 0
-1500 1516 0
-23 -1500 1501 0
-1501 1517 0
-24 -1501 1502 0
-1502 1518 0
-25 -1502 1503 0
-1503 1519 0
-26 -1503 1504 0
-1504 1520 0
-27 -1504 0
-12 1505 0
-1505 1521 0
-13 -1505 1506 0
-1506 1522 0
-14 -1506 1507 0
-1507 1523 0
-15 -1507 1508 0
-1508 1524 0
-16 -1508 1509 0
-1509 1525 0
-17 -1509 1510 0
-1510 1526 0
-18 -1510 1511 0
-1511 1527 0
-19 -1511 1512 0
-1512 1528 0
-20 -1512 1513 0
-1513 1529 0
-21 -1513 1514 0
-1514 1530 0
-22 -1514 1515 0
-1515 1531 0
-23 -1515 1516 0
-1516 1532 0
-24 -1516 1517 0
-1517 1533 0
-25 -1517 1518 0
-1518 1534 0
-26 -1518 1519 0
-1519 1535 0
-27 -1519 1520 0
-1520 1536 0
-28 -1520 0
-13 1521 0
-1521 1537 0
-14 -1521 1522 0
-1522 1538 0
-15 -1522 1523 0
-1523 1539 0
-16 -1523 1524 0
-1524 1540 0
-17 -1524 1525 0
-1525 1541 0
-18 -1525 1526 0
-1526 1542 0
-19 -1526 1527 0
-1527 1543 0
-20 -1527 1528 0
-1528 1544 0
-21 -1528 1529 0
-1529 1545 0
-22 -1529 1530 0
-1530 1546 0
-23 -1530 1531 0
-1531 1547 0
-24 -1531 1532 0
-1532 1548 0
-25 -1532 1533 0
-1533 1549 0
-26 -1533 1534 0
-1534 1550 0
-27 -1534 1535 0
-1535 1551 0
-28 -1535 1536 0
-1536 1552 0
-29 -1536 0
-14 1537 0
-1537 1553 0
-15 -1537 1538 0
-1538 1554 0
-16 -1538 1539 0
-1539 1555 0
-17 -1539 1540 0
-1540 1556 0
-18 -1540 1541 0
-1541 1557 0
-19 -1541 1542 0
-1542 1558 0
-20 -1542 1543 0
-1543 1559 0
-21 -1543 1544 0
-1544 1560 0
-22 -1544 1545 0
-1545 1561 0
-23 -1545 1546 0
-1546 1562 0
-24 -1546 1547 0
-1547 1563 0
-25 -1547 1548 0
-1548 1564 0
-26 -1548 1549 0
-1549 1565 0
-27 -1549 1550 0
-1550 1566 0
-28 -1550 1551 0
-1551 1567 0
-29 -1551 1552 0
-1552 1568 0
-30 -1552 0
-15 1553 0
-1553 1569 0
-16 -1553 1554 0
-1554 1570 0
-17 -1554 1555 0
-1555 1571 0
-18 -1555 1556 0
-1556 1572 0
-19 -1556 1557 0
-1557 1573 0
-20 -1557 1558 0
-1558 1574 0
-21 -1558 1559 0
-1559 1575 0
-22 -1559 1560 0
-1560 1576 0
-23 -1560 1561 0
-1561 1577 0
-24 -1561 1562 0
-1562 1578 0
-25 -1562 1563 0
-1563 1579 0
-26 -1563 1564 0
-1564 1580 0
-27 -1564 1565 0
-1565 1581 0
-28 -1565 1566 0
-1566 1582 0
-29 -1566 1567 0
-1567 1583 0
-30 -1567 1568 0
-1568 1584 0
-31 -1568 0
-16 1569 0
-1569 1585 0
-17 -1569 1570 0
-1570 1586 0
-18 -1570 1571 0
-1571 1587 0
-19 -1571 1572 0
-1572 1588 0
-20 -1572 1573 0
-1573 1589 0
-21 -1573 1574 0
-1574 1590 0
-22 -1574 1575 0
-1575 1591 0
-23 -1575 1576 0
-1576 1592 0
-24 -1576 1577 0
-1577 1593 0
-25 -1577 1578 0
-1578 1594 0
-26 -1578 1579 0
-1579 1595 0
-27 -1579 1580 0
-1580 1596 0
-28 -1580 1581 0
-1581 1597 0
-29 -1581 1582 0
-1582 1598 0
-30 -1582 1583 0
-1583 1599 0
-31 -1583 1584 0
-1584 1600 0
-32 -1584 0
-17 1585 0
-1585 1601 0
-18 -1585 1586 0
-1586 1602 0
-19 -1586 1587 0
-1587 1603 0
-20 -1587 1588 0
-1588 1604 0
-21 -1588 1589 0
-1589 1605 0
-22 -1589 1590 0
-1590 1606 0
-23 -1590 1591 0
-1591 1607 0
-24 -1591 1592 0
-1592 1608 0
-25 -1592 1593 0
-1593 1609 0
-26 -1593 1594 0
-1594 1610 0
-27 -1594 1595 0
-1595 1611 0
-28 -1595 1596 0
-1596 1612 0
-29 -1596 1597 0
-1597 1613 0
-30 -1597 1598 0
-1598 1614 0
-31 -1598 1599 0
-1599 1615 0
-32 -1599 1600 0
-1600 1616 0
-33 -1600 0
-18 1601 0
-1601 1617 0
-19 -1601 1602 0
-1602 1618 0
-20 -1602 1603 0
-1603 1619 0
-21 -1603 1604 0
-1604 1620 0
-22 -1604 1605 0
-1605 1621 0
-23 -1605 1606 0
-1606 1622 0
-24 -1606 1607 0
-1607 1623 0
-25 -1607 1608 0
-1608 1624 0
-26 -1608 1609 0
-1609 1625 0
-27 -1609 1610 0
-1610 1626 0
-28 -1610 1611 0
-1611 1627 0
-29 -1611 1612 0
-1612 1628 0
-30 -1612 1613 0
-1613 1629 0
-31 -1613 1614 0
-1614 1630 0
-32 -1614 1615 0
-1615 1631 0
-33 -1615 1616 0
-1616 1632 0
-34 -1616 0
-19 1617 0
-1617 1633 0
-20 -1617 1618 0
-1618 1634 0
-21 -1618 1619 0
-1619 1635 0
-22 -1619 1620 0
-1620 1636 0
-23 -1620 1621 0
-1621 1637 0
-24 -1621 1622 0
-1622 1638 0
-25 -1622 1623 0
-1623 1639 0
-26 -1623 1624 0
-1624 1640 0
-27 -1624 1625 0
-1625 1641 0
-28 -1625 1626 0
-1626 1642 0
-29 -1626 1627 0
-1627 1643 0
-30 -1627 1628 0
-1628 1644 0
-31 -1628 1629 0
-1629 1645 0
-32 -1629 1630 0
-1630 1646 0
-33 -1630 1631 0
-1631 1647 0
-34 -1631 1632 0
-1632 1648 0
-35 -1632 0
-20 1633 0
-1633 1649 0
-21 -1633 1634 0
-1634 1650 0
-22 -1634 1635 0
-1635 1651 0
-23 -1635 1636 0
-1636 1652 0
-24 -1636 1637 0
-1637 1653 0
-25 -1637 1638 0
-1638 1654 0
-26 -1638 1639 0
-1639 1655 0
-27 -1639 1640 0
-1640 1656 0
-28 -1640 1641 0
-1641 1657 0
-29 -1641 1642 0
-1642 1658 0
-30 -1642 1643 0
-1643 1659 0
-31 -1643 1644 0
-1644 1660 0
-32 -1644 1645 0
-1645 1661 0
-33 -1645 1646 0
-1646 1662 0
-34 -1646 1647 0
-1647 1663 0
-35 -1647 1648 0
-1648 1664 0
-36 -1648 0
-21 1649 0
-1649 1665 0
-22 -1649 1650 0
-1650 1666 0
-23 -1650 1651 0
-1651 1667 0
-24 -1651 1652 0
-1652 1668 0
-25 -1652 1653 0
-1653 1669 0
-26 -1653 1654 0
-1654 1670 0
-27 -1654 1655 0
-1655 1671 0
-28 -1655 1656 0
-1656 1672 0
-29 -1656 1657 0
-1657 1673 0
-30 -1657 1658 0
-1658 1674 0
-31 -1658 1659 0
-1659 1675 0
-32 -1659 1660 0
-1660 1676 0
-33 -1660 1661 0
-1661 1677 0
-34 -1661 1662 0
-1662 1678 0
-35 -1662 1663 0
-1663 1679 0
-36 -1663 1664 0
-1664 1680 0
-37 -1664 0
-22 1665 0
-1665 1681 0
-23 -1665 1666 0
-1666 1682 0
-24 -1666 1667 0
-1667 1683 0
-25 -1667 1668 0
-1668 1684 0
-26 -1668 1669 0
-1669 1685 0
-27 -1669 1670 0
-1670 1686 0
-28 -1670 1671 0
-1671 1687 0
-29 -1671 1672 0
-1672 1688 0
-30 -1672 1673 0
-1673 1689 0
-31 -1673 1674 0
-1674 1690 0
-32 -1674 1675 0
-1675 1691 0
-33 -1675 1676 0
-1676 1692 0
-34 -1676 1677 0
-1677 1693 0
-35 -1677 1678 0
-1678 1694 0
-36 -1678 1679 0
-1679 1695 0
-37 -1679 1680 0
-1680 1696 0
-38 -1680 0
-23 1681 0
-1681 1697 0
-24 -1681 1682 0
-1682 1698 0
-25 -1682 1683 0
-1683 1699 0
-26 -1683 1684 0
-1684 1700 0
-27 -1684 1685 0
-1685 1701 0
-28 -1685 1686 0
-1686 1702 0
-29 -1686 1687 0
-1687 1703 0
-30 -1687 1688 0
-1688 1704 0
-31 -1688 1689 0
-1689 1705 0
-32 -1689 1690 0
-1690 1706 0
-33 -1690 1691 0
-1691 1707 0
-34 -1691 1692 0
-1692 1708 0
-35 -1692 1693 0
-1693 1709 0
-36 -1693 1694 0
-1694 1710 0
-37 -1694 1695 0
-1695 1711 0
-38 -1695 1696 0
-1696 1712 0
-39 -1696 0
-24 1697 0
-1697 1713 0
-25 -1697 1698 0
-1698 1714 0
-26 -1698 1699 0
-1699 1715 0
-27 -1699 1700 0
-1700 1716 0
-28 -1700 1701 0
-1701 1717 0
-29 -1701 1702 0
-1702 1718 0
-30 -1702 1703 0
-1703 1719 0
-31 -1703 1704 0
-1704 1720 0
-32 -1704 1705 0
-1705 1721 0
-33 -1705 1706 0
-1706 1722 0
-34 -1706 1707 0
-1707 1723 0
-35 -1707 1708 0
-1708 1724 0
-36 -1708 1709 0
-1709 1725 0
-37 -1709 1710 0
-1710 1726 0
-38 -1710 1711 0
-1711 1727 0
-39 -1711 1712 0
-1712 1728 0
-40 -1712 0
-25 1713 0
-1713 1729 0
-26 -1713 1714 0
-1714 1730 0
-27 -1714 1715 0
-1715 1731 0
-28 -1715 1716 0
-1716 1732 0
-29 -1716 1717 0
-1717 1733 0
-30 -1717 1718 0
-1718 1734 0
-31 -1718 1719 0
-1719 1735 0
-32 -1719 1720 0
-1720 1736 0
-33 -1720 1721 0
-1721 1737 0
-34 -1721 1722 0
-1722 1738 0
-35 -1722 1723 0
-1723 1739 0
-36 -1723 1724 0
-1724 1740 0
-37 -1724 1725 0
-1725 1741 0
-38 -1725 1726 0
-1726 1742 0
-39 -1726 1727 0
-1727 1743 0
-40 -1727 1728 0
-1728 1744 0
-41 -1728 0
-26 1729 0
-1729 1745 0
-27 -1729 1730 0
-1730 1746 0
-28 -1730 1731 0
-1731 1747 0
-29 -1731 1732 0
-1732 1748 0
-30 -1732 1733 0
-1733 1749 0
-31 -1733 1734 0
-1734 1750 0
-32 -1734 1735 0
-1735 1751 0
-33 -1735 1736 0
-1736 1752 0
-34 -1736 1737 0
-1737 1753 0
-35 -1737 1738 0
-1738 1754 0
-36 -1738 1739 0
-1739 1755 0
-37 -1739 1740 0
-1740 1756 0
-38 -1740 1741 0
-1741 1757 0
-39 -1741 1742 0
-1742 1758 0
-40 -1742 1743 0
-1743 1759 0
-41 -1743 1744 0
-1744 1760 0
-42 -1744 0
-27 1745 0
-1745 1761 0
-28 -1745 1746 0
-1746 1762 0
-29 -1746 1747 0
-1747 1763 0
-30 -1747 1748 0
-1748 1764 0
-31 -1748 1749 0
-1749 1765 0
-32 -1749 1750 0
-1750 1766 0
-33 -1750 1751 0
-1751 1767 0
-34 -1751 1752 0
-1752 1768 0
-35 -1752 1753 0
-1753 1769 0
-36 -1753 1754 0
-1754 1770 0
-37 -1754 1755 0
-1755 1771 0
-38 -1755 1756 0
-1756 1772 0
-39 -1756 1757 0
-1757 1773 0
-40 -1757 1758 0
-1758 1774 0
-41 -1758 1759 0
-1759 1775 0
-42 -1759 1760 0
-1760 1776 0
-43 -1760 0
-28 1761 0
-1761 1777 0
-29 -1761 1762 0
-1762 1778 0
-30 -1762 1763 0
-1763 1779 0
-31 -1763 1764 0
-1764 1780 0
-32 -1764 1765 0
-1765 1781 0
-33 -1765 1766 0
-1766 1782 0
-34 -1766 1767 0
-1767 1783 0
-35 -1767 1768 0
-1768 1784 0
-36 -1768 1769 0
-1769 1785 0
-37 -1769 1770 0
-1770 1786 0
-38 -1770 1771 0
-1771 1787 0
-39 -1771 1772 0
-1772 1788 0
-40 -1772 1773 0
-1773 1789 0
-41 -1773 1774 0
-1774 1790 0
-42 -1774 1775 0
-1775 1791 0
-43 -1775 1776 0
-1776 1792 0
-44 -1776 0
-29 1777 0
-1777 1793 0
-30 -1777 1778 0
-1778 1794 0
-31 -1778 1779 0
-1779 1795 0
-32 -1779 1780 0
-1780 1796 0
-33 -1780 1781 0
-1781 1797 0
-34 -1781 1782 0
-1782 1798 0
-35 -1782 1783 0
-1783 1799 0
-36 -1783 1784 0
-1784 1800 0
-37 -1784 1785 0
-1785 1801 0
-38 -1785 1786 0
-1786 1802 0
-39 -1786 1787 0
-1787 1803 0
-40 -1787 1788 0
-1788 1804 0
-41 -1788 1789 0
-1789 1805 0
-42 -1789 1790 0
-1790 1806 0
-43 -1790 1791 0
-1791 1807 0
-44 -1791 1792 0
-1792 1808 0
-45 -1792 0
-30 1793 0
-1793 1809 0
-31 -1793 1794 0
-1794 1810 0
-32 -1794 1795 0
-1795 1811 0
-33 -1795 1796 0
-1796 1812 0
-34 -1796 1797 0
-1797 1813 0
-35 -1797 1798 0
-1798 1814 0
-36 -1798 1799 0
-1799 1815 0
-37 -1799 1800 0
-1800 1816 0
-38 -1800 1801 0
-1801 1817 0
-39 -1801 1802 0
-1802 1818 0
-40 -1802 1803 0
-1803 1819 0
-41 -1803 1804 0
-1804 1820 0
-42 -1804 1805 0
-1805 1821 0
-43 -1805 1806 0
-1806 1822 0
-44 -1806 1807 0
-1807 1823 0
-45 -1807 1808 0
-1808 1824 0
-46 -1808 0
-31 1809 0
-1809 1825 0
-32 -1809 1810 0
-1810 1826 0
-33 -1810 1811 0
-1811 1827 0
-34 -1811 1812 0
-1812 1828 0
-35 -1812 1813 0
-1813 1829 0
-36 -1813 1814 0
-1814 1830 0
-37 -1814 1815 0
-1815 1831 0
-38 -1815 1816 0
-1816 1832 0
-39 -1816 1817 0
-1817 1833 0
-40 -1817 1818 0
-1818 1834 0
-41 -1818 1819 0
-1819 1835 0
-42 -1819 1820 0
-1820 1836 0
-43 -1820 1821 0
-1821 1837 0
-44 -1821 1822 0
-1822 1838 0
-45 -1822 1823 0
-1823 1839 0
-46 -1823 1824 0
-1824 1840 0
-47 -1824 0
-32 1825 0
-1825 1841 0
-33 -1825 1826 0
-1826 1842 0
-34 -1826 1827 0
-1827 1843 0
-35 -1827 1828 0
-1828 1844 0
-36 -1828 1829 0
-1829 1845 0
-37 -1829 1830 0
-1830 1846 0
-38 -1830 1831 0
-1831 1847 0
-39 -1831 1832 0
-1832 1848 0
-40 -1832 1833 0
-1833 1849 0
-41 -1833 1834 0
-1834 1850 0
-42 -1834 1835 0
-1835 1851 0
-43 -1835 1836 0
-1836 1852 0
-44 -1836 1837 0
-1837 1853 0
-45 -1837 1838 0
-1838 1854 0
-46 -1838 1839 0
-1839 1855 0
-47 -1839 1840 0
-1840 1856 0
-48 -1840 0
-33 1841 0
-1841 1857 0
-34 -1841 1842 0
-1842 1858 0
-35 -1842 1843 0
-1843 1859 0
-36 -1843 1844 0
-1844 1860 0
-37 -1844 1845 0
-1845 1861 0
-38 -1845 1846 0
-1846 1862 0
-39 -1846 1847 0
-1847 1863 0
-40 -1847 1848 0
-1848 1864 0
-41 -1848 1849 0
-1849 1865 0
-42 -1849 1850 0
-1850 1866 0
-43 -1850 1851 0
-1851 1867 0
-44 -1851 1852 0
-1852 1868 0
-45 -1852 1853 0
-1853 1869 0
-46 -1853 1854 0
-1854 1870 0
-47 -1854 1855 0
-1855 1871 0
-48 -1855 1856 0
-1856 1872 0
-49 -1856 0
-34 1857 0
-1857 1873 0
-35 -1857 1858 0
-1858 1874 0
-36 -1858 1859 0
-1859 1875 0
-37 -1859 1860 0
-1860 1876 0
-38 -1860 1861 0
-1861 1877 0
-39 -1861 1862 0
-1862 1878 0
-40 -1862 1863 0
-1863 1879 0
-41 -1863 1864 0
-1864 1880 0
-42 -1864 1865 0
-1865 1881 0
-43 -1865 1866 0
-1866 1882 0
-44 -1866 1867 0
-1867 1883 0
-45 -1867 1868 0
-1868 1884 0
-46 -1868 1869 0
-1869 1885 0
-47 -1869 1870 0
-1870 1886 0
-48 -1870 1871 0
-1871 1887 0
-49 -1871 1872 0
-1872 1888 0
-50 -1872 0
-35 1873 0
-1873 1889 0
-36 -1873 1874 0
-1874 1890 0
-37 -1874 1875 0
-1875 1891 0
-38 -1875 1876 0
-1876 1892 0
-39 -1876 1877 0
-1877 1893 0
-40 -1877 1878 0
-1878 1894 0
-41 -1878 1879 0
-1879 1895 0
-42 -1879 1880 0
-1880 1896 0
-43 -1880 1881 0
-1881 1897 0
-44 -1881 1882 0
-1882 1898 0
-45 -1882 1883 0
-1883 1899 0
-46 -1883 1884 0
-1884 1900 0
-47 -1884 1885 0
-1885 1901 0
-48 -1885 1886 0
-1886 1902 0
-49 -1886 1887 0
-1887 1903 0
-50 -1887 1888 0
-1888 1904 0
-51 -1888 0
-36 1889 0
-1889 1905 0
-37 -1889 1890 0
-1890 1906 0
-38 -1890 1891 0
-1891 1907 0
-39 -1891 1892 0
-1892 1908 0
-40 -1892 1893 0
-1893 1909 0
-41 -1893 1894 0
-1894 1910 0
-42 -1894 1895 0
-1895 1911 0
-43 -1895 1896 0
-1896 1912 0
-44 -1896 1897 0
-1897 1913 0
-45 -1897 1898 0
-1898 1914 0
-46 -1898 1899 0
-1899 1915 0
-47 -1899 1900 0
-1900 1916 0
-48 -1900 1901 0
-1901 1917 0
-49 -1901 1902 0
-1902 1918 0
-50 -1902 1903 0
-1903 1919 0
-51 -1903 1904 0
-1904 1920 0
-52 -1904 0
-37 1905 0
-1905 1921 0
-38 -1905 1906 0
-1906 1922 0
-39 -1906 1907 0
-1907 1923 0
-40 -1907 1908 0
-1908 1924 0
-41 -1908 1909 0
-1909 1925 0
-42 -1909 1910 0
-1910 1926 0
-43 -1910 1911 0
-1911 1927 0
-44 -1911 1912 0
-1912 1928 0
-45 -1912 1913 0
-1913 1929 0
-46 -1913 1914 0
-1914 1930 0
-47 -1914 1915 0
-1915 1931 0
-48 -1915 1916 0
-1916 1932 0
-49 -1916 1917 0
-1917 1933 0
-50 -1917 1918 0
-1918 1934 0
-51 -1918 1919 0
-1919 1935 0
-52 -1919 1920 0
-1920 1936 0
-53 -1920 0
-38 1921 0
-1921 1937 0
-39 -1921 1922 0
-1922 1938 0
-40 -1922 1923 0
-1923 1939 0
-41 -1923 1924 0
-1924 1940 0
-42 -1924 1925 0
-1925 1941 0
-43 -1925 1926 0
-1926 1942 0
-44 -1926 1927 0
-1927 1943 0
-45 -1927 1928 0
-1928 1944 0
-46 -1928 1929 0
-1929 1945 0
-47 -1929 1930 0
-1930 1946 0
-48 -1930 1931 0
-1931 1947 0
-49 -1931 1932 0
-1932 1948 0
-50 -1932 1933 0
-1933 1949 0
-51 -1933 1934 0
-1934 1950 0
-52 -1934 1935 0
-1935 1951 0
-53 -1935 1936 0
-1936 1952 0
-54 -1936 0
-39 1937 0
-1937 1953 0
-40 -1937 1938 0
-1938 1954 0
-41 -1938 1939 0
-1939 1955 0
-42 -1939 1940 0
-1940 1956 0
-43 -1940 1941 0
-1941 1957 0
-44 -1941 1942 0
-1942 1958 0
-45 -1942 1943 0
-1943 1959 0
-46 -1943 1944 0
-1944 1960 0
-47 -1944 1945 0
-1945 1961 0
-48 -1945 1946 0
-1946 1962 0
-49 -1946 1947 0
-1947 1963 0
-50 -1947 1948 0
-1948 1964 0
-51 -1948 1949 0
-1949 1965 0
-52 -1949 1950 0
-1950 1966 0
-53 -1950 1951 0
-1951 1967 0
-54 -1951 1952 0
-1952 1968 0
-55 -1952 0
-40 1953 0
-1953 1969 0
-41 -1953 1954 0
-1954 1970 0
-42 -1954 1955 0
-1955 1971 0
-43 -1955 1956 0
-1956 1972 0
-44 -1956 1957 0
-1957 1973 0
-45 -1957 1958 0
-1958 1974 0
-46 -1958 1959 0
-1959 1975 0
-47 -1959 1960 0
-1960 1976 0
-48 -1960 1961 0
-1961 1977 0
-49 -1961 1962 0
-1962 1978 0
-50 -1962 1963 0
-1963 1979 0
-51 -1963 1964 0
-1964 1980 0
-52 -1964 1965 0
-1965 1981 0
-53 -1965 1966 0
-1966 1982 0
-54 -1966 1967 0
-1967 1983 0
-55 -1967 1968 0
-1968 1984 0
-56 -1968 0
-41 1969 0
-1969 1985 0
-42 -1969 1970 0
-1970 1986 0
-43 -1970 1971 0
-1971 1987 0
-44 -1971 1972 0
-1972 1988 0
-45 -1972 1973 0
-1973 1989 0
-46 -1973 1974 0
-1974 1990 0
-47 -1974 1975 0
-1975 1991 0
-48 -1975 1976 0
-1976 1992 0
-49 -1976 1977 0
-1977 1993 0
-50 -1977 1978 0
-1978 1994 0
-51 -1978 1979 0
-1979 1995 0
-52 -1979 1980 0
-1980 1996 0
-53 -1980 1981 0
-1981 1997 0
-54 -1981 1982 0
-1982 1998 0
-55 -1982 1983 0
-1983 1999 0
-56 -1983 1984 0
-1984 2000 0
-57 -1984 0
-42 1985 0
-1985 2001 0
-43 -1985 1986 0
-1986 2002 0
-44 -1986 1987 0
-1987 2003 0
-45 -1987 1988 0
-1988 2004 0
-46 -1988 1989 0
-1989 2005 0
-47 -1989 1990 0
-1990 2006 0
-48 -1990 1991 0
-1991 2007 0
-49 -1991 1992 0
-1992 2008 0
-50 -1992 1993 0
-1993 2009 0
-51 -1993 1994 0
-1994 2010 0
-52 -1994 1995 0
-1995 2011 0
-53 -1995 1996 0
-1996 2012 0
-54 -1996 1997 0
-1997 2013 0
-55 -1997 1998 0
-1998 2014 0
-56 -1998 1999 0
-1999 2015 0
-57 -1999 2000 0
-2000 2016 0
-58 -2000 0
-43 2001 0
-2001 2017 0
-44 -2001 2002 0
-2002 2018 0
-45 -2002 2003 0
-2003 2019 0
-46 -2003 2004 0
-2004 2020 0
-47 -2004 2005 0
-2005 2021 0
-48 -2005 2006 0
-2006 2022 0
-49 -2006 2007 0
-2007 2023 0
-50 -2007 2008 0
-2008 2024 0
-51 -2008 2009 0
-2009 2025 0
-52 -2009 2010 0
-2010 2026 0
-53 -2010 2011 0
-2011 2027 0
-54 -2011 2012 0
-2012 2028 0
-55 -2012 2013 0
-2013 2029 0
-56 -2013 2014 0
-2014 2030 0
-57 -2014 2015 0
-2015 2031 0
-58 -2015 2016 0
-2016 2032 0
-59 -2016 0
-44 2017 0
-2017 2033 0
-45 -2017 2018 0
-2018 2034 0
-46 -2018 2019 0
-2019 2035 0
-47 -2019 2020 0
-2020 2036 0
-48 -2020 2021 0
-2021 2037 0
-49 -2021 2022 0
-2022 2038 0
-50 -2022 2023 0
-2023 2039 0
-51 -2023 2024 0
-2024 2040 0
-52 -2024 2025 0
-2025 2041 0
-53 -2025 2026 0
-2026 2042 0
-54 -2026 2027 0
-2027 2043 0
-55 -2027 2028 0
-2028 2044 0
-56 -2028 2029 0
-2029 2045 0
-57 -2029 2030 0
-2030 2046 0
-58 -2030 2031 0
-2031 2047 0
-59 -2031 2032 0
-2032 2048 0
-60 -2032 0
-45 2033 0
-2033 2049 0
-46 -2033 2034 0
-2034 2050 0
-47 -2034 2035 0
-2035 2051 0
-48 -2035 2036 0
-2036 2052 0
-49 -2036 2037 0
-2037 2053 0
-50 -2037 2038 0
-2038 2054 0
-51 -2038 2039 0
-2039 2055 0
-52 -2039 2040 0
-2040 2056 0
-53 -2040 2041 0
-2041 2057 0
-54 -2041 2042 0
-2042 2058 0
-55 -2042 2043 0
-2043 2059 0
-56 -2043 2044 0
-2044 2060 0
-57 -2044 2045 0
-2045 2061 0
-58 -2045 2046 0
-2046 2062 0
-59 -2046 2047 0
-2047 2063 0
-60 -2047 2048 0
-2048 2064 0
-61 -2048 0
-46 2049 0
-2049 2065 0
-47 -2049 2050 0
-2050 2066 0
-48 -2050 2051 0
-2051 2067 0
-49 -2051 2052 0
-2052 2068 0
-50 -2052 2053 0
-2053 2069 0
-51 -2053 2054 0
-2054 2070 0
-52 -2054 2055 0
-2055 2071 0
-53 -2055 2056 0
-2056 2072 0
-54 -2056 2057 0
-2057 2073 0
-55 -2057 2058 0
-2058 2074 0
-56 -2058 2059 0
-2059 2075 0
-57 -2059 2060 0
-2060 2076 0
-58 -2060 2061 0
-2061 2077 0
-59 -2061 2062 0
-2062 2078 0
-60 -2062 2063 0
-2063 2079 0
-61 -2063 2064 0
-2064 2080 0
-62 -2064 0
-47 2065 0
-2065 2081 0
-48 -2065 2066 0
-2066 2082 0
-49 -2066 2067 0
-2067 2083 0
-50 -2067 2068 0
-2068 2084 0
-51 -2068 2069 0
-2069 2085 0
-52 -2069 2070 0
-2070 2086 0
-53 -2070 2071 0
-2071 2087 0
-54 -2071 2072 0
-2072 2088 0
-55 -2072 2073 0
-2073 2089 0
-56 -2073 2074 0
-2074 2090 0
-57 -2074 2075 0
-2075 2091 0
-58 -2075 2076 0
-2076 2092 0
-59 -2076 2077 0
-2077 2093 0
-60 -2077 2078 0
-2078 2094 0
-61 -2078 2079 0
-2079 2095 0
-62 -2079 2080 0
-2080 2096 0
-63 -2080 0
-48 2081 0
-2081 2097 0
-49 -2081 2082 0
-2082 2098 0
-50 -2082 2083 0
-2083 2099 0
-51 -2083 2084 0
-2084 2100 0
-52 -2084 2085 0
-2085 2101 0
-53 -2085 2086 0
-2086 2102 0
-54 -2086 2087 0
-2087 2103 0
-55 -2087 2088 0
-2088 2104 0
-56 -2088 2089 0
-2089 2105 0
-57 -2089 2090 0
-2090 2106 0
-58 -2090 2091 0
-2091 2107 0
-59 -2091 2092 0
-2092 2108 0
-60 -2092 2093 0
-2093 2109 0
-61 -2093 2094 0
-2094 2110 0
-62 -2094 2095 0
-2095 2111 0
-63 -2095 2096 0
-2096 2112 0
-64 -2096 0
-49 2097 0
-2097 2113 0
-50 -2097 2098 0
-2098 2114 0
-51 -2098 2099 0
-2099 2115 0
-52 -2099 2100 0
-2100 2116 0
-53 -2100 2101 0
-2101 2117 0
-54 -2101 2102 0
-2102 2118 0
-55 -2102 2103 0
-2103 2119 0
-56 -2103 2104 0
-2104 2120 0
-57 -2104 2105 0
-2105 2121 0
-58 -2105 2106 0
-2106 2122 0
-59 -2106 2107 0
-2107 2123 0
-60 -2107 2108 0
-2108 2124 0
-61 -2108 2109 0
-2109 2125 0
-62 -2109 2110 0
-2110 2126 0
-63 -2110 2111 0
-2111 2127 0
-64 -2111 2112 0
-2112 2128 0
-65 -2112 0
-50 2113 0
-2113 2129 0
-51 -2113 2114 0
-2114 2130 0
-52 -2114 2115 0
-2115 2131 0
-53 -2115 2116 0
-2116 2132 0
-54 -2116 2117 0
-2117 2133 0
-55 -2117 2118 0
-2118 2134 0
-56 -2118 2119 0
-2119 2135 0
-57 -2119 2120 0
-2120 2136 0
-58 -2120 2121 0
-2121 2137 0
-59 -2121 2122 0
-2122 2138 0
-60 -2122 2123 0
-2123 2139 0
-61 -2123 2124 0
-2124 2140 0
-62 -2124 2125 0
-2125 2141 0
-63 -2125 2126 0
-2126 2142 0
-64 -2126 2127 0
-2127 2143 0
-65 -2127 2128 0
-2128 2144 0
-66 -2128 0
-51 2129 0
-2129 2145 0
-52 -2129 2130 0
-2130 2146 0
-53 -2130 2131 0
-2131 2147 0
-54 -2131 2132 0
-2132 2148 0
-55 -2132 2133 0
-2133 2149 0
-56 -2133 2134 0
-2134 2150 0
-57 -2134 2135 0
-2135 2151 0
-58 -2135 2136 0
-2136 2152 0
-59 -2136 2137 0
-2137 2153 0
-60 -2137 2138 0
-2138 2154 0
-61 -2138 2139 0
-2139 2155 0
-62 -2139 2140 0
-2140 2156 0
-63 -2140 2141 0
-2141 2157 0
-64 -2141 2142 0
-2142 2158 0
-65 -2142 2143 0
-2143 2159 0
-66 -2143 2144 0
-2144 2160 0
-67 -2144 0
-52 2145 0
-2145 2161 0
-53 -2145 2146 0
-2146 2162 0
-54 -2146 2147 0
-2147 2163 0
-55 -2147 2148 0
-2148 2164 0
-56 -2148 2149 0
-2149 2165 0
-57 -2149 2150 0
-2150 2166 0
-58 -2150 2151 0
-2151 2167 0
-59 -2151 2152 0
-2152 2168 0
-60 -2152 2153 0
-2153 2169 0
-61 -2153 2154 0
-2154 2170 0
-62 -2154 2155 0
-2155 2171 0
-63 -2155 2156 0
-2156 2172 0
-64 -2156 2157 0
-2157 2173 0
-65 -2157 2158 0
-2158 2174 0
-66 -2158 2159 0
-2159 2175 0
-67 -2159 2160 0
-2160 2176 0
-68 -2160 0
-53 2161 0
-2161 2177 0
-54 -2161 2162 0
-2162 2178 0
-55 -2162 2163 0
-2163 2179 0
-56 -2163 2164 0
-2164 2180 0
-57 -2164 2165 0
-2165 2181 0
-58 -2165 2166 0
-2166 2182 0
-59 -2166 2167 0
-2167 2183 0
-60 -2167 2168 0
-2168 2184 0
-61 -2168 2169 0
-2169 2185 0
-62 -2169 2170 0
-2170 2186 0
-63 -2170 2171 0
-2171 2187 0
-64 -2171 2172 0
-2172 2188 0
-65 -2172 2173 0
-2173 2189 0
-66 -2173 2174 0
-2174 2190 0
-67 -2174 2175 0
-2175 2191 0
-68 -2175 2176 0
-2176 2192 0
-69 -2176 0
-54 2177 0
-2177 2193 0
-55 -2177 2178 0
-2178 2194 0
-56 -2178 2179 0
-2179 2195 0
-57 -2179 2180 0
-2180 2196 0
-58 -2180 2181 0
-2181 2197 0
-59 -2181 2182 0
-2182 2198 0
-60 -2182 2183 0
-2183 2199 0
-61 -2183 2184 0
-2184 2200 0
-62 -2184 2185 0
-2185 2201 0
-63 -2185 2186 0
-2186 2202 0
-64 -2186 2187 0
-2187 2203 0
-65 -2187 2188 0
-2188 2204 0
-66 -2188 2189 0
-2189 2205 0
-67 -2189 2190 0
-2190 2206 0
-68 -2190 2191 0
-2191 2207 0
-69 -2191 2192 0
-2192 2208 0
-70 -2192 0
-55 2193 0
-2193 2209 0
-56 -2193 2194 0
-2194 2210 0
-57 -2194 2195 0
-2195 2211 0
-58 -2195 2196 0
-2196 2212 0
-59 -2196 2197 0
-2197 2213 0
-60 -2197 2198 0
-2198 2214 0
-61 -2198 2199 0
-2199 2215 0
-62 -2199 2200 0
-2200 2216 0
-63 -2200 2201 0
-2201 2217 0
-64 -2201 2202 0
-2202 2218 0
-65 -2202 2203 0
-2203 2219 0
-66 -2203 2204 0
-2204 2220 0
-67 -2204 2205 0
-2205 2221 0
-68 -2205 2206 0
-2206 2222 0
-69 -2206 2207 0
-2207 2223 0
-70 -2207 2208 0
-2208 2224 0
-71 -2208 0
-56 2209 0
-2209 2225 0
-57 -2209 2210 0
-2210 2226 0
-58 -2210 2211 0
-2211 2227 0
-59 -2211 2212 0
-2212 2228 0
-60 -2212 2213 0
-2213 2229 0
-61 -2213 2214 0
-2214 2230 0
-62 -2214 2215 0
-2215 2231 0
-63 -2215 2216 0
-2216 2232 0
-64 -2216 2217 0
-2217 2233 0
-65 -2217 2218 0
-2218 2234 0
-66 -2218 2219 0
-2219 2235 0
-67 -2219 2220 0
-2220 2236 0
-68 -2220 2221 0
-2221 2237 0
-69 -2221 2222 0
-2222 2238 0
-70 -2222 2223 0
-2223 2239 0
-71 -2223 2224 0
-2224 2240 0
-72 -2224 0
-57 2225 0
-2225 2241 0
-58 -2225 2226 0
-2226 2242 0
-59 -2226 2227 0
-2227 2243 0
-60 -2227 2228 0
-2228 2244 0
-61 -2228 2229 0
-2229 2245 0
-62 -2229 2230 0
-2230 2246 0
-63 -2230 2231 0
-2231 2247 0
-64 -2231 2232 0
-2232 2248 0
-65 -2232 2233 0
-2233 2249 0
-66 -2233 2234 0
-2234 2250 0
-67 -2234 2235 0
-2235 2251 0
-68 -2235 2236 0
-2236 2252 0
-69 -2236 2237 0
-2237 2253 0
-70 -2237 2238 0
-2238 2254 0
-71 -2238 2239 0
-2239 2255 0
-72 -2239 2240 0
-2240 2256 0
-73 -2240 0
-58 2241 0
-2241 2257 0
-59 -2241 2242 0
-2242 2258 0
-60 -2242 2243 0
-2243 2259 0
-61 -2243 2244 0
-2244 2260 0
-62 -2244 2245 0
-2245 2261 0
-63 -2245 2246 0
-2246 2262 0
-64 -2246 2247 0
-2247 2263 0
-65 -2247 2248 0
-2248 2264 0
-66 -2248 2249 0
-2249 2265 0
-67 -2249 2250 0
-2250 2266 0
-68 -2250 2251 0
-2251 2267 0
-69 -2251 2252 0
-2252 2268 0
-70 -2252 2253 0
-2253 2269 0
-71 -2253 2254 0
-2254 2270 0
-72 -2254 2255 0
-2255 2271 0
-73 -2255 2256 0
-2256 2272 0
-74 -2256 0
-59 2257 0
-2257 2273 0
-60 -2257 2258 0
-2258 2274 0
-61 -2258 2259 0
-2259 2275 0
-62 -2259 2260 0
-2260 2276 0
-63 -2260 2261 0
-2261 2277 0
-64 -2261 2262 0
-2262 2278 0
-65 -2262 2263 0
-2263 2279 0
-66 -2263 2264 0
-2264 2280 0
-67 -2264 2265 0
-2265 2281 0
-68 -2265 2266 0
-2266 2282 0
-69 -2266 2267 0
-2267 2283 0
-70 -2267 2268 0
-2268 2284 0
-71 -2268 2269 0
-2269 2285 0
-72 -2269 2270 0
-2270 2286 0
-73 -2270 2271 0
-2271 2287 0
-74 -2271 2272 0
-2272 2288 0
-75 -2272 0
-60 2273 0
-2273 2289 0
-61 -2273 2274 0
-2274 2290 0
-62 -2274 2275 0
-2275 2291 0
-63 -2275 2276 0
-2276 2292 0
-64 -2276 2277 0
-2277 2293 0
-65 -2277 2278 0
-2278 2294 0
-66 -2278 2279 0
-2279 2295 0
-67 -2279 2280 0
-2280 2296 0
-68 -2280 2281 0
-2281 2297 0
-69 -2281 2282 0
-2282 2298 0
-70 -2282 2283 0
-2283 2299 0
-71 -2283 2284 0
-2284 2300 0
-72 -2284 2285 0
-2285 2301 0
-73 -2285 2286 0
-2286 2302 0
-74 -2286 2287 0
-2287 2303 0
-75 -2287 2288 0
-2288 2304 0
-76 -2288 0
-61 2289 0
-2289 2305 0
-62 -2289 2290 0
-2290 2306 0
-63 -2290 2291 0
-2291 2307 0
-64 -2291 2292 0
-2292 2308 0
-65 -2292 2293 0
-2293 2309 0
-66 -2293 2294 0
-2294 2310 0
-67 -2294 2295 0
-2295 2311 0
-68 -2295 2296 0
-2296 2312 0
-69 -2296 2297 0
-2297 2313 0
-70 -2297 2298 0
-2298 2314 0
-71 -2298 2299 0
-2299 2315 0
-72 -2299 2300 0
-2300 2316 0
-73 -2300 2301 0
-2301 2317 0
-74 -2301 2302 0
-2302 2318 0
-75 -2302 2303 0
-2303 2319 0
-76 -2303 2304 0
-2304 2320 0
-77 -2304 0
-62 2305 0
-2305 2321 0
-63 -2305 2306 0
-2306 2322 0
-64 -2306 2307 0
-2307 2323 0
-65 -2307 2308 0
-2308 2324 0
-66 -2308 2309 0
-2309 2325 0
-67 -2309 2310 0
-2310 2326 0
-68 -2310 2311 0
-2311 2327 0
-69 -2311 2312 0
-2312 2328 0
-70 -2312 2313 0
-2313 2329 0
-71 -2313 2314 0
-2314 2330 0
-72 -2314 2315 0
-2315 2331 0
-73 -2315 2316 0
-2316 2332 0
-74 -2316 2317 0
-2317 2333 0
-75 -2317 2318 0
-2318 2334 0
-76 -2318 2319 0
-2319 2335 0
-77 -2319 2320 0
-2320 2336 0
-78 -2320 0
-63 2321 0
-2321 2337 0
-64 -2321 2322 0
-2322 2338 0
-65 -2322 2323 0
-2323 2339 0
-66 -2323 2324 0
-2324 2340 0
-67 -2324 2325 0
-2325 2341 0
-68 -2325 2326 0
-2326 2342 0
-69 -2326 2327 0
-2327 2343 0
-70 -2327 2328 0
-2328 2344 0
-71 -2328 2329 0
-2329 2345 0
-72 -2329 2330 0
-2330 2346 0
-73 -2330 2331 0
-2331 2347 0
-74 -2331 2332 0
-2332 2348 0
-75 -2332 2333 0
-2333 2349 0
-76 -2333 2334 0
-2334 2350 0
-77 -2334 2335 0
-2335 2351 0
-78 -2335 2336 0
-2336 2352 0
-79 -2336 0
-64 2337 0
-2337 2353 0
-65 -2337 2338 0
-2338 2354 0
-66 -2338 2339 0
-2339 2355 0
-67 -2339 2340 0
-2340 2356 0
-68 -2340 2341 0
-2341 2357 0
-69 -2341 2342 0
-2342 2358 0
-70 -2342 2343 0
-2343 2359 0
-71 -2343 2344 0
-2344 2360 0
-72 -2344 2345 0
-2345 2361 0
-73 -2345 2346 0
-2346 2362 0
-74 -2346 2347 0
-2347 2363 0
-75 -2347 2348 0
-2348 2364 0
-76 -2348 2349 0
-2349 2365 0
-77 -2349 2350 0
-2350 2366 0
-78 -2350 2351 0
-2351 2367 0
-79 -2351 2352 0
-2352 2368 0
-80 -2352 0
-65 2353 0
-2353 2369 0
-66 -2353 2354 0
-2354 2370 0
-67 -2354 2355 0
-2355 2371 0
-68 -2355 2356 0
-2356 2372 0
-69 -2356 2357 0
-2357 2373 0
-70 -2357 2358 0
-2358 2374 0
-71 -2358 2359 0
-2359 2375 0
-72 -2359 2360 0
-2360 2376 0
-73 -2360 2361 0
-2361 2377 0
-74 -2361 2362 0
-2362 2378 0
-75 -2362 2363 0
-2363 2379 0
-76 -2363 2364 0
-2364 2380 0
-77 -2364 2365 0
-2365 2381 0
-78 -2365 2366 0
-2366 2382 0
-79 -2366 2367 0
-2367 2383 0
-80 -2367 2368 0
-2368 2384 0
-81 -2368 0
-66 2369 0
-2369 2385 0
-67 -2369 2370 0
-2370 2386 0
-68 -2370 2371 0
-2371 2387 0
-69 -2371 2372 0
-2372 2388 0
-70 -2372 2373 0
-2373 2389 0
-71 -2373 2374 0
-2374 2390 0
-72 -2374 2375 0
-2375 2391 0
-73 -2375 2376 0
-2376 2392 0
-74 -2376 2377 0
-2377 2393 0
-75 -2377 2378 0
-2378 2394 0
-76 -2378 2379 0
-2379 2395 0
-77 -2379 2380 0
-2380 2396 0
-78 -2380 2381 0
-2381 2397 0
-79 -2381 2382 0
-2382 2398 0
-80 -2382 2383 0
-2383 2399 0
-81 -2383 2384 0
-2384 2400 0
-82 -2384 0
-67 2385 0
-2385 2401 0
-68 -2385 2386 0
-2386 2402 0
-69 -2386 2387 0
-2387 2403 0
-70 -2387 2388 0
-2388 2404 0
-71 -2388 2389 0
-2389 2405 0
-72 -2389 2390 0
-2390 2406 0
-73 -2390 2391 0
-2391 2407 0
-74 -2391 2392 0
-2392 2408 0
-75 -2392 2393 0
-2393 2409 0
-76 -2393 2394 0
-2394 2410 0
-77 -2394 2395 0
-2395 2411 0
-78 -2395 2396 0
-2396 2412 0
-79 -2396 2397 0
-2397 2413 0
-80 -2397 2398 0
-2398 2414 0
-81 -2398 2399 0
-2399 2415 0
-82 -2399 2400 0
-2400 2416 0
-83 -2400 0
-68 2401 0
-2401 2417 0
-69 -2401 2402 0
-2402 2418 0
-70 -2402 2403 0
-2403 2419 0
-71 -2403 2404 0
-2404 2420 0
-72 -2404 2405 0
-2405 2421 0
-73 -2405 2406 0
-2406 2422 0
-74 -2406 2407 0
-2407 2423 0
-75 -2407 2408 0
-2408 2424 0
-76 -2408 2409 0
-2409 2425 0
-77 -2409 2410 0
-2410 2426 0
-78 -2410 2411 0
-2411 2427 0
-79 -2411 2412 0
-2412 2428 0
-80 -2412 2413 0
-2413 2429 0
-81 -2413 2414 0
-2414 2430 0
-82 -2414 2415 0
-2415 2431 0
-83 -2415 2416 0
-2416 2432 0
-84 -2416 0
-69 2417 0
-2417 2433 0
-70 -2417 2418 0
-2418 2434 0
-71 -2418 2419 0
-2419 2435 0
-72 -2419 2420 0
-2420 2436 0
-73 -2420 2421 0
-2421 2437 0
-74 -2421 2422 0
-2422 2438 0
-75 -2422 2423 0
-2423 2439 0
-76 -2423 2424 0
-2424 2440 0
-77 -2424 2425 0
-2425 2441 0
-78 -2425 2426 0
-2426 2442 0
-79 -2426 2427 0
-2427 2443 0
-80 -2427 2428 0
-2428 2444 0
-81 -2428 2429 0
-2429 2445 0
-82 -2429 2430 0
-2430 2446 0
-83 -2430 2431 0
-2431 2447 0
-84 -2431 2432 0
-2432 2448 0
-85 -2432 0
-70 2433 0
-2433 2449 0
-71 -2433 2434 0
-2434 2450 0
-72 -2434 2435 0
-2435 2451 0
-73 -2435 2436 0
-2436 2452 0
-74 -2436 2437 0
-2437 2453 0
-75 -2437 2438 0
-2438 2454 0
-76 -2438 2439 0
-2439 2455 0
-77 -2439 2440 0
-2440 2456 0
-78 -2440 2441 0
-2441 2457 0
-79 -2441 2442 0
-2442 2458 0
-80 -2442 2443 0
-2443 2459 0
-81 -2443 2444 0
-2444 2460 0
-82 -2444 2445 0
-2445 2461 0
-83 -2445 2446 0
-2446 2462 0
-84 -2446 2447 0
-2447 2463 0
-85 -2447 2448 0
-2448 2464 0
-86 -2448 0
-71 2449 0
-2449 2465 0
-72 -2449 2450 0
-2450 2466 0
-73 -2450 2451 0
-2451 2467 0
-74 -2451 2452 0
-2452 2468 0
-75 -2452 2453 0
-2453 2469 0
-76 -2453 2454 0
-2454 2470 0
-77 -2454 2455 0
-2455 2471 0
-78 -2455 2456 0
-2456 2472 0
-79 -2456 2457 0
-2457 2473 0
-80 -2457 2458 0
-2458 2474 0
-81 -2458 2459 0
-2459 2475 0
-82 -2459 2460 0
-2460 2476 0
-83 -2460 2461 0
-2461 2477 0
-84 -2461 2462 0
-2462 2478 0
-85 -2462 2463 0
-2463 2479 0
-86 -2463 2464 0
-2464 2480 0
-87 -2464 0
-72 2465 0
-73 -2465 2466 0
-74 -2466 2467 0
-75 -2467 2468 0
-76 -2468 2469 0
-77 -2469 2470 0
-78 -2470 2471 0
-79 -2471 2472 0
-80 -2472 2473 0
-81 -2473 2474 0
-82 -2474 2475 0
-83 -2475 2476 0
-84 -2476 2477 0
-85 -2477 2478 0
-86 -2478 2479 0
-87 -2479 2480 0
-88 -2480 0
-89 2481 0
-2481 2482 0
-90 -2481 2483 0
-2483 2484 0
-91 -2483 2485 0
-2485 2486 0
-92 -2485 2487 0
-2487 2488 0
-93 -2487 2489 0
-2489 2490 0
-94 -2489 2491 0
-2491 2492 0
-95 -2491 2493 0
-2493 2494 0
-96 -2493 2495 0
-2495 2496 0
-97 -2495 2497 0
-2497 2498 0
-98 -2497 0
-90 2482 0
-2482 2499 0
-91 -2482 2484 0
-2484 2500 0
-92 -2484 2486 0
-2486 2501 0
-93 -2486 2488 0
-2488 2502 0
-94 -2488 2490 0
-2490 2503 0
-95 -2490 2492 0
-2492 2504 0
-96 -2492 2494 0
-2494 2505 0
-97 -2494 2496 0
-2496 2506 0
-98 -2496 2498 0
-2498 2507 0
-99 -2498 0
-91 2499 0
-2499 2508 0
-92 -2499 2500 0
-2500 2509 0
-93 -2500 2501 0
-2501 2510 0
-94 -2501 2502 0
-2502 2511 0
-95 -2502 2503 0
-2503 2512 0
-96 -2503 2504 0
-2504 2513 0
-97 -2504 2505 0
-2505 2514 0
-98 -2505 2506 0
-2506 2515 0
-99 -2506 2507 0
-2507 2516 0
-100 -2507 0
-92 2508 0
-2508 2517 0
-93 -2508 2509 0
-2509 2518 0
-94 -2509 2510 0
-2510 2519 0
-95 -2510 2511 0
-2511 2520 0
-96 -2511 2512 0
-2512 2521 0
-97 -2512 2513 0
-2513 2522 0
-98 -2513 2514 0
-2514 2523 0
-99 -2514 2515 0
-2515 2524 0
-100 -2515 2516 0
-2516 2525 0
-101 -2516 0
-93 2517 0
-2517 2526 0
-94 -2517 2518 0
-2518 2527 0
-95 -2518 2519 0
-2519 2528 0
-96 -2519 2520 0
-2520 2529 0
-97 -2520 2521 0
-2521 2530 0
-98 -2521 2522 0
-2522 2531 0
-99 -2522 2523 0
-2523 2532 0
-100 -2523 2524 0
-2524 2533 0
-101 -2524 2525 0
-2525 2534 0
-102 -2525 0
-94 2526 0
-2526 2535 0
-95 -2526 2527 0
-2527 2536 0
-96 -2527 2528 0
-2528 2537 0
-97 -2528 2529 0
-2529 2538 0
-98 -2529 2530 0
-2530 2539 0
-99 -2530 2531 0
-2531 2540 0
-100 -2531 2532 0
-2532 2541 0
-101 -2532 2533 0
-2533 2542 0
-102 -2533 2534 0
-2534 2543 0
-103 -2534 0
-95 2535 0
-2535 2544 0
-96 -2535 2536 0
-2536 2545 0
-97 -2536 2537 0
-2537 2546 0
-98 -2537 2538 0
-2538 2547 0
-99 -2538 2539 0
-2539 2548 0
-100 -2539 2540 0
-2540 2549 0
-101 -2540 2541 0
-2541 2550 0
-102 -2541 2542 0
-2542 2551 0
-103 -2542 2543 0
-2543 2552 0
-104 -2543 0
-96 2544 0
-2544 2553 0
-97 -2544 2545 0
-2545 2554 0
-98 -2545 2546 0
-2546 2555 0
-99 -2546 2547 0
-2547 2556 0
-100 -2547 2548 0
-2548 2557 0
-101 -2548 2549 0
-2549 2558 0
-102 -2549 2550 0
-2550 2559 0
-103 -2550 2551 0
-2551 2560 0
-104 -2551 2552 0
-2552 2561 0
-105 -2552 0
-97 2553 0
-2553 2562 0
-98 -2553 2554 0
-2554 2563 0
-99 -2554 2555 0
-2555 2564 0
-100 -2555 2556 0
-2556 2565 0
-101 -2556 2557 0
-2557 2566 0
-102 -2557 2558 0
-2558 2567 0
-103 -2558 2559 0
-2559 2568 0
-104 -2559 2560 0
-2560 2569 0
-105 -2560 2561 0
-2561 2570 0
-106 -2561 0
-98 2562 0
-2562 2571 0
-99 -2562 2563 0
-2563 2572 0
-100 -2563 2564 0
-2564 2573 0
-101 -2564 2565 0
-2565 2574 0
-102 -2565 2566 0
-2566 2575 0
-103 -2566 2567 0
-2567 2576 0
-104 -2567 2568 0
-2568 2577 0
-105 -2568 2569 0
-2569 2578 0
-106 -2569 2570 0
-2570 2579 0
-107 -2570 0
-99 2571 0
-2571 2580 0
-100 -2571 2572 0
-2572 2581 0
-101 -2572 2573 0
-2573 2582 0
-102 -2573 2574 0
-2574 2583 0
-103 -2574 2575 0
-2575 2584 0
-104 -2575 2576 0
-2576 2585 0
-105 -2576 2577 0
-2577 2586 0
-106 -2577 2578 0
-2578 2587 0
-107 -2578 2579 0
-2579 2588 0
-108 -2579 0
-100 2580 0
-2580 2589 0
-101 -2580 2581 0
-2581 2590 0
-102 -2581 2582 0
-2582 2591 0
-103 -2582 2583 0
-2583 2592 0
-104 -2583 2584 0
-2584 2593 0
-105 -2584 2585 0
-2585 2594 0
-106 -2585 2586 0
-2586 2595 0
-107 -2586 2587 0
-2587 2596 0
-108 -2587 2588 0
-2588 2597 0
-109 -2588 0
-101 2589 0
-2589 2598 0
-102 -2589 2590 0
-2590 2599 0
-103 -2590 2591 0
-2591 2600 0
-104 -2591 2592 0
-2592 2601 0
-105 -2592 2593 0
-2593 2602 0
-106 -2593 2594 0
-2594 2603 0
-107 -2594 2595 0
-2595 2604 0
-108 -2595 2596 0
-2596 2605 0
-109 -2596 2597 0
-2597 2606 0
-110 -2597 0
-102 2598 0
-2598 2607 0
-103 -2598 2599 0
-2599 2608 0
-104 -2599 2600 0
-2600 2609 0
-105 -2600 2601 0
-2601 2610 0
-106 -2601 2602 0
-2602 2611 0
-107 -2602 2603 0
-2603 2612 0
-108 -2603 2604 0
-2604 2613 0
-109 -2604 2605 0
-2605 2614 0
-110 -2605 2606 0
-2606 2615 0
-111 -2606 0
-103 2607 0
-2607 2616 0
-104 -2607 2608 0
-2608 2617 0
-105 -2608 2609 0
-2609 2618 0
-106 -2609 2610 0
-2610 2619 0
-107 -2610 2611 0
-2611 2620 0
-108 -2611 2612 0
-2612 2621 0
-109 -2612 2613 0
-2613 2622 0
-110 -2613 2614 0
-2614 2623 0
-111 -2614 2615 0
-2615 2624 0
-112 -2615 0
-104 2616 0
-2616 2625 0
-105 -2616 2617 0
-2617 2626 0
-106 -2617 2618 0
-2618 2627 0
-107 -2618 2619 0
-2619 2628 0
-108 -2619 2620 0
-2620 2629 0
-109 -2620 2621 0
-2621 2630 0
-110 -2621 2622 0
-2622 2631 0
-111 -2622 2623 0
-2623 2632 0
-112 -2623 2624 0
-2624 2633 0
-113 -2624 0
-105 2625 0
-2625 2634 0
-106 -2625 2626 0
-2626 2635 0
-107 -2626 2627 0
-2627 2636 0
-108 -2627 2628 0
-2628 2637 0
-109 -2628 2629 0
-2629 2638 0
-110 -2629 2630 0
-2630 2639 0
-111 -2630 2631 0
-2631 2640 0
-112 -2631 2632 0
-2632 2641 0
-113 -2632 2633 0
-2633 2642 0
-114 -2633 0
-106 2634 0
-2634 2643 0
-107 -2634 2635 0
-2635 2644 0
-108 -2635 2636 0
-2636 2645 0
-109 -2636 2637 0
-2637 2646 0
-110 -2637 2638 0
-2638 2647 0
-111 -2638 2639 0
-2639 2648 0
-112 -2639 2640 0
-2640 2649 0
-113 -2640 2641 0
-2641 2650 0
-114 -2641 2642 0
-2642 2651 0
-115 -2642 0
-107 2643 0
-2643 2652 0
-108 -2643 2644 0
-2644 2653 0
-109 -2644 2645 0
-2645 2654 0
-110 -2645 2646 0
-2646 2655 0
-111 -2646 2647 0
-2647 2656 0
-112 -2647 2648 0
-2648 2657 0
-113 -2648 2649 0
-2649 2658 0
-114 -2649 2650 0
-2650 2659 0
-115 -2650 2651 0
-2651 2660 0
-116 -2651 0
-108 2652 0
-2652 2661 0
-109 -2652 2653 0
-2653 2662 0
-110 -2653 2654 0
-2654 2663 0
-111 -2654 2655 0
-2655 2664 0
-112 -2655 2656 0
-2656 2665 0
-113 -2656 2657 0
-2657 2666 0
-114 -2657 2658 0
-2658 2667 0
-115 -2658 2659 0
-2659 2668 0
-116 -2659 2660 0
-2660 2669 0
-117 -2660 0
-109 2661 0
-2661 2670 0
-110 -2661 2662 0
-2662 2671 0
-111 -2662 2663 0
-2663 2672 0
-112 -2663 2664 0
-2664 2673 0
-113 -2664 2665 0
-2665 2674 0
-114 -2665 2666 0
-2666 2675 0
-115 -2666 2667 0
-2667 2676 0
-116 -2667 2668 0
-2668 2677 0
-117 -2668 2669 0
-2669 2678 0
-118 -2669 0
-110 2670 0
-2670 2679 0
-111 -2670 2671 0
-2671 2680 0
-112 -2671 2672 0
-2672 2681 0
-113 -2672 2673 0
-2673 2682 0
-114 -2673 2674 0
-2674 2683 0
-115 -2674 2675 0
-2675 2684 0
-116 -2675 2676 0
-2676 2685 0
-117 -2676 2677 0
-2677 2686 0
-118 -2677 2678 0
-2678 2687 0
-119 -2678 0
-111 2679 0
-2679 2688 0
-112 -2679 2680 0
-2680 2689 0
-113 -2680 2681 0
-2681 2690 0
-114 -2681 2682 0
-2682 2691 0
-115 -2682 2683 0
-2683 2692 0
-116 -2683 2684 0
-2684 2693 0
-117 -2684 2685 0
-2685 2694 0
-118 -2685 2686 0
-2686 2695 0
-119 -2686 2687 0
-2687 2696 0
-120 -2687 0
-112 2688 0
-2688 2697 0
-113 -2688 2689 0
-2689 2698 0
-114 -2689 2690 0
-2690 2699 0
-115 -2690 2691 0
-2691 2700 0
-116 -2691 2692 0
-2692 2701 0
-117 -2692 2693 0
-2693 2702 0
-118 -2693 2694 0
-2694 2703 0
-119 -2694 2695 0
-2695 2704 0
-120 -2695 2696 0
-2696 2705 0
-121 -2696 0
-113 2697 0
-2697 2706 0
-114 -2697 2698 0
-2698 2707 0
-115 -2698 2699 0
-2699 2708 0
-116 -2699 2700 0
-2700 2709 0
-117 -2700 2701 0
-2701 2710 0
-118 -2701 2702 0
-2702 2711 0
-119 -2702 2703 0
-2703 2712 0
-120 -2703 2704 0
-2704 2713 0
-121 -2704 2705 0
-2705 2714 0
-122 -2705 0
-114 2706 0
-2706 2715 0
-115 -2706 2707 0
-2707 2716 0
-116 -2707 2708 0
-2708 2717 0
-117 -2708 2709 0
-2709 2718 0
-118 -2709 2710 0
-2710 2719 0
-119 -2710 2711 0
-2711 2720 0
-120 -2711 2712 0
-2712 2721 0
-121 -2712 2713 0
-2713 2722 0
-122 -2713 2714 0
-2714 2723 0
-123 -2714 0
-115 2715 0
-2715 2724 0
-116 -2715 2716 0
-2716 2725 0
-117 -2716 2717 0
-2717 2726 0
-118 -2717 2718 0
-2718 2727 0
-119 -2718 2719 0
-2719 2728 0
-120 -2719 2720 0
-2720 2729 0
-121 -2720 2721 0
-2721 2730 0
-122 -2721 2722 0
-2722 2731 0
-123 -2722 2723 0
-2723 2732 0
-124 -2723 0
-116 2724 0
-2724 2733 0
-117 -2724 2725 0
-2725 2734 0
-118 -2725 2726 0
-2726 2735 0
-119 -2726 2727 0
-2727 2736 0
-120 -2727 2728 0
-2728 2737 0
-121 -2728 2729 0
-2729 2738 0
-122 -2729 2730 0
-2730 2739 0
-123 -2730 2731 0
-2731 2740 0
-124 -2731 2732 0
-2732 2741 0
-125 -2732 0
-117 2733 0
-2733 2742 0
-118 -2733 2734 0
-2734 2743 0
-119 -2734 2735 0
-2735 2744 0
-120 -2735 2736 0
-2736 2745 0
-121 -2736 2737 0
-2737 2746 0
-122 -2737 2738 0
-2738 2747 0
-123 -2738 2739 0
-2739 2748 0
-124 -2739 2740 0
-2740 2749 0
-125 -2740 2741 0
-2741 2750 0
-126 -2741 0
-118 2742 0
-2742 2751 0
-119 -2742 2743 0
-2743 2752 0
-120 -2743 2744 0
-2744 2753 0
-121 -2744 2745 0
-2745 2754 0
-122 -2745 2746 0
-2746 2755 0
-123 -2746 2747 0
-2747 2756 0
-124 -2747 2748 0
-2748 2757 0
-125 -2748 2749 0
-2749 2758 0
-126 -2749 2750 0
-2750 2759 0
-127 -2750 0
-119 2751 0
-2751 2760 0
-120 -2751 2752 0
-2752 2761 0
-121 -2752 2753 0
-2753 2762 0
-122 -2753 2754 0
-2754 2763 0
-123 -2754 2755 0
-2755 2764 0
-124 -2755 2756 0
-2756 2765 0
-125 -2756 2757 0
-2757 2766 0
-126 -2757 2758 0
-2758 2767 0
-127 -2758 2759 0
-2759 2768 0
-128 -2759 0
-120 2760 0
-2760 2769 0
-121 -2760 2761 0
-2761 2770 0
-122 -2761 2762 0
-2762 2771 0
-123 -2762 2763 0
-2763 2772 0
-124 -2763 2764 0
-2764 2773 0
-125 -2764 2765 0
-2765 2774 0
-126 -2765 2766 0
-2766 2775 0
-127 -2766 2767 0
-2767 2776 0
-128 -2767 2768 0
-2768 2777 0
-129 -2768 0
-121 2769 0
-2769 2778 0
-122 -2769 2770 0
-2770 2779 0
-123 -2770 2771 0
-2771 2780 0
-124 -2771 2772 0
-2772 2781 0
-125 -2772 2773 0
-2773 2782 0
-126 -2773 2774 0
-2774 2783 0
-127 -2774 2775 0
-2775 2784 0
-128 -2775 2776 0
-2776 2785 0
-129 -2776 2777 0
-2777 2786 0
-130 -2777 0
-122 2778 0
-2778 2787 0
-123 -2778 2779 0
-2779 2788 0
-124 -2779 2780 0
-2780 2789 0
-125 -2780 2781 0
-2781 2790 0
-126 -2781 2782 0
-2782 2791 0
-127 -2782 2783 0
-2783 2792 0
-128 -2783 2784 0
-2784 2793 0
-129 -2784 2785 0
-2785 2794 0
-130 -2785 2786 0
-2786 2795 0
-131 -2786 0
-123 2787 0
-2787 2796 0
-124 -2787 2788 0
-2788 2797 0
-125 -2788 2789 0
-2789 2798 0
-126 -2789 2790 0
-2790 2799 0
-127 -2790 2791 0
-2791 2800 0
-128 -2791 2792 0
-2792 2801 0
-129 -2792 2793 0
-2793 2802 0
-130 -2793 2794 0
-2794 2803 0
-131 -2794 2795 0
-2795 2804 0
-132 -2795 0
-124 2796 0
-2796 2805 0
-125 -2796 2797 0
-2797 2806 0
-126 -2797 2798 0
-2798 2807 0
-127 -2798 2799 0
-2799 2808 0
-128 -2799 2800 0
-2800 2809 0
-129 -2800 2801 0
-2801 2810 0
-130 -2801 2802 0
-2802 2811 0
-131 -2802 2803 0
-2803 2812 0
-132 -2803 2804 0
-2804 2813 0
-133 -2804 0
-125 2805 0
-2805 2814 0
-126 -2805 2806 0
-2806 2815 0
-127 -2806 2807 0
-2807 2816 0
-128 -2807 2808 0
-2808 2817 0
-129 -2808 2809 0
-2809 2818 0
-130 -2809 2810 0
-2810 2819 0
-131 -2810 2811 0
-2811 2820 0
-132 -2811 2812 0
-2812 2821 0
-133 -2812 2813 0
-2813 2822 0
-134 -2813 0
-126 2814 0
-2814 2823 0
-127 -2814 2815 0
-2815 2824 0
-128 -2815 2816 0
-2816 2825 0
-129 -2816 2817 0
-2817 2826 0
-130 -2817 2818 0
-2818 2827 0
-131 -2818 2819 0
-2819 2828 0
-132 -2819 2820 0
-2820 2829 0
-133 -2820 2821 0
-2821 2830 0
-134 -2821 2822 0
-2822 2831 0
-135 -2822 0
-127 2823 0
-2823 2832 0
-128 -2823 2824 0
-2824 2833 0
-129 -2824 2825 0
-2825 2834 0
-130 -2825 2826 0
-2826 2835 0
-131 -2826 2827 0
-2827 2836 0
-132 -2827 2828 0
-2828 2837 0
-133 -2828 2829 0
-2829 2838 0
-134 -2829 2830 0
-2830 2839 0
-135 -2830 2831 0
-2831 2840 0
-136 -2831 0
-128 2832 0
-2832 2841 0
-129 -2832 2833 0
-2833 2842 0
-130 -2833 2834 0
-2834 2843 0
-131 -2834 2835 0
-2835 2844 0
-132 -2835 2836 0
-2836 2845 0
-133 -2836 2837 0
-2837 2846 0
-134 -2837 2838 0
-2838 2847 0
-135 -2838 2839 0
-2839 2848 0
-136 -2839 2840 0
-2840 2849 0
-137 -2840 0
-129 2841 0
-2841 2850 0
-130 -2841 2842 0
-2842 2851 0
-131 -2842 2843 0
-2843 2852 0
-132 -2843 2844 0
-2844 2853 0
-133 -2844 2845 0
-2845 2854 0
-134 -2845 2846 0
-2846 2855 0
-135 -2846 2847 0
-2847 2856 0
-136 -2847 2848 0
-2848 2857 0
-137 -2848 2849 0
-2849 2858 0
-138 -2849 0
-130 2850 0
-2850 2859 0
-131 -2850 2851 0
-2851 2860 0
-132 -2851 2852 0
-2852 2861 0
-133 -2852 2853 0
-2853 2862 0
-134 -2853 2854 0
-2854 2863 0
-135 -2854 2855 0
-2855 2864 0
-136 -2855 2856 0
-2856 2865 0
-137 -2856 2857 0
-2857 2866 0
-138 -2857 2858 0
-2858 2867 0
-139 -2858 0
-131 2859 0
-2859 2868 0
-132 -2859 2860 0
-2860 2869 0
-133 -2860 2861 0
-2861 2870 0
-134 -2861 2862 0
-2862 2871 0
-135 -2862 2863 0
-2863 2872 0
-136 -2863 2864 0
-2864 2873 0
-137 -2864 2865 0
-2865 2874 0
-138 -2865 2866 0
-2866 2875 0
-139 -2866 2867 0
-2867 2876 0
-140 -2867 0
-132 2868 0
-2868 2877 0
-133 -2868 2869 0
-2869 2878 0
-134 -2869 2870 0
-2870 2879 0
-135 -2870 2871 0
-2871 2880 0
-136 -2871 2872 0
-2872 2881 0
-137 -2872 2873 0
-2873 2882 0
-138 -2873 2874 0
-2874 2883 0
-139 -2874 2875 0
-2875 2884 0
-140 -2875 2876 0
-2876 2885 0
-141 -2876 0
-133 2877 0
-2877 2886 0
-134 -2877 2878 0
-2878 2887 0
-135 -2878 2879 0
-2879 2888 0
-136 -2879 2880 0
-2880 2889 0
-137 -2880 2881 0
-2881 2890 0
-138 -2881 2882 0
-2882 2891 0
-139 -2882 2883 0
-2883 2892 0
-140 -2883 2884 0
-2884 2893 0
-141 -2884 2885 0
-2885 2894 0
-142 -2885 0
-134 2886 0
-2886 2895 0
-135 -2886 2887 0
-2887 2896 0
-136 -2887 2888 0
-2888 2897 0
-137 -2888 2889 0
-2889 2898 0
-138 -2889 2890 0
-2890 2899 0
-139 -2890 2891 0
-2891 2900 0
-140 -2891 2892 0
-2892 2901 0
-141 -2892 2893 0
-2893 2902 0
-142 -2893 2894 0
-2894 2903 0
-143 -2894 0
-135 2895 0
-2895 2904 0
-136 -2895 2896 0
-2896 2905 0
-137 -2896 2897 0
-2897 2906 0
-138 -2897 2898 0
-2898 2907 0
-139 -2898 2899 0
-2899 2908 0
-140 -2899 2900 0
-2900 2909 0
-141 -2900 2901 0
-2901 2910 0
-142 -2901 2902 0
-2902 2911 0
-143 -2902 2903 0
-2903 2912 0
-144 -2903 0
-136 2904 0
-2904 2913 0
-137 -2904 2905 0
-2905 2914 0
-138 -2905 2906 0
-2906 2915 0
-139 -2906 2907 0
-2907 2916 0
-140 -2907 2908 0
-2908 2917 0
-141 -2908 2909 0
-2909 2918 0
-142 -2909 2910 0
-2910 2919 0
-143 -2910 2911 0
-2911 2920 0
-144 -2911 2912 0
-2912 2921 0
-145 -2912 0
-137 2913 0
-2913 2922 0
-138 -2913 2914 0
-2914 2923 0
-139 -2914 2915 0
-2915 2924 0
-140 -2915 2916 0
-2916 2925 0
-141 -2916 2917 0
-2917 2926 0
-142 -2917 2918 0
-2918 2927 0
-143 -2918 2919 0
-2919 2928 0
-144 -2919 2920 0
-2920 2929 0
-145 -2920 2921 0
-2921 2930 0
-146 -2921 0
-138 2922 0
-2922 2931 0
-139 -2922 2923 0
-2923 2932 0
-140 -2923 2924 0
-2924 2933 0
-141 -2924 2925 0
-2925 2934 0
-142 -2925 2926 0
-2926 2935 0
-143 -2926 2927 0
-2927 2936 0
-144 -2927 2928 0
-2928 2937 0
-145 -2928 2929 0
-2929 2938 0
-146 -2929 2930 0
-2930 2939 0
-147 -2930 0
-139 2931 0
-2931 2940 0
-140 -2931 2932 0
-2932 2941 0
-141 -2932 2933 0
-2933 2942 0
-142 -2933 2934 0
-2934 2943 0
-143 -2934 2935 0
-2935 2944 0
-144 -2935 2936 0
-2936 2945 0
-145 -2936 2937 0
-2937 2946 0
-146 -2937 2938 0
-2938 2947 0
-147 -2938 2939 0
-2939 2948 0
-148 -2939 0
-140 2940 0
-2940 2949 0
-141 -2940 2941 0
-2941 2950 0
-142 -2941 2942 0
-2942 2951 0
-143 -2942 2943 0
-2943 2952 0
-144 -2943 2944 0
-2944 2953 0
-145 -2944 2945 0
-2945 2954 0
-146 -2945 2946 0
-2946 2955 0
-147 -2946 2947 0
-2947 2956 0
-148 -2947 2948 0
-2948 2957 0
-149 -2948 0
-141 2949 0
-2949 2958 0
-142 -2949 2950 0
-2950 2959 0
-143 -2950 2951 0
-2951 2960 0
-144 -2951 2952 0
-2952 2961 0
-145 -2952 2953 0
-2953 2962 0
-146 -2953 2954 0
-2954 2963 0
-147 -2954 2955 0
-2955 2964 0
-148 -2955 2956 0
-2956 2965 0
-149 -2956 2957 0
-2957 2966 0
-150 -2957 0
-142 2958 0
-2958 2967 0
-143 -2958 2959 0
-2959 2968 0
-144 -2959 2960 0
-2960 2969 0
-145 -2960 2961 0
-2961 2970 0
-146 -2961 2962 0
-2962 2971 0
-147 -2962 2963 0
-2963 2972 0
-148 -2963 2964 0
-2964 2973 0
-149 -2964 2965 0
-2965 2974 0
-150 -2965 2966 0
-2966 2975 0
-151 -2966 0
-143 2967 0
-2967 2976 0
-144 -2967 2968 0
-2968 2977 0
-145 -2968 2969 0
-2969 2978 0
-146 -2969 2970 0
-2970 2979 0
-147 -2970 2971 0
-2971 2980 0
-148 -2971 2972 0
-2972 2981 0
-149 -2972 2973 0
-2973 2982 0
-150 -2973 2974 0
-2974 2983 0
-151 -2974 2975 0
-2975 2984 0
-152 -2975 0
-144 2976 0
-2976 2985 0
-145 -2976 2977 0
-2977 2986 0
-146 -2977 2978 0
-2978 2987 0
-147 -2978 2979 0
-2979 2988 0
-148 -2979 2980 0
-2980 2989 0
-149 -2980 2981 0
-2981 2990 0
-150 -2981 2982 0
-2982 2991 0
-151 -2982 2983 0
-2983 2992 0
-152 -2983 2984 0
-2984 2993 0
-153 -2984 0
-145 2985 0
-2985 2994 0
-146 -2985 2986 0
-2986 2995 0
-147 -2986 2987 0
-2987 2996 0
-148 -2987 2988 0
-2988 2997 0
-149 -2988 2989 0
-2989 2998 0
-150 -2989 2990 0
-2990 2999 0
-151 -2990 2991 0
-2991 3000 0
-152 -2991 2992 0
-2992 3001 0
-153 -2992 2993 0
-2993 3002 0
-154 -2993 0
-146 2994 0
-2994 3003 0
-147 -2994 2995 0
-2995 3004 0
-148 -2995 2996 0
-2996 3005 0
-149 -2996 2997 0
-2997 3006 0
-150 -2997 2998 0
-2998 3007 0
-151 -2998 2999 0
-2999 3008 0
-152 -2999 3000 0
-3000 3009 0
-153 -3000 3001 0
-3001 3010 0
-154 -3001 3002 0
-3002 3011 0
-155 -3002 0
-147 3003 0
-3003 3012 0
-148 -3003 3004 0
-3004 3013 0
-149 -3004 3005 0
-3005 3014 0
-150 -3005 3006 0
-3006 3015 0
-151 -3006 3007 0
-3007 3016 0
-152 -3007 3008 0
-3008 3017 0
-153 -3008 3009 0
-3009 3018 0
-154 -3009 3010 0
-3010 3019 0
-155 -3010 3011 0
-3011 3020 0
-156 -3011 0
-148 3012 0
-3012 3021 0
-149 -3012 3013 0
-3013 3022 0
-150 -3013 3014 0
-3014 3023 0
-151 -3014 3015 0
-3015 3024 0
-152 -3015 3016 0
-3016 3025 0
-153 -3016 3017 0
-3017 3026 0
-154 -3017 3018 0
-3018 3027 0
-155 -3018 3019 0
-3019 3028 0
-156 -3019 3020 0
-3020 3029 0
-157 -3020 0
-149 3021 0
-3021 3030 0
-150 -3021 3022 0
-3022 3031 0
-151 -3022 3023 0
-3023 3032 0
-152 -3023 3024 0
-3024 3033 0
-153 -3024 3025 0
-3025 3034 0
-154 -3025 3026 0
-3026 3035 0
-155 -3026 3027 0
-3027 3036 0
-156 -3027 3028 0
-3028 3037 0
-157 -3028 3029 0
-3029 3038 0
-158 -3029 0
-150 3030 0
-3030 3039 0
-151 -3030 3031 0
-3031 3040 0
-152 -3031 3032 0
-3032 3041 0
-153 -3032 3033 0
-3033 3042 0
-154 -3033 3034 0
-3034 3043 0
-155 -3034 3035 0
-3035 3044 0
-156 -3035 3036 0
-3036 3045 0
-157 -3036 3037 0
-3037 3046 0
-158 -3037 3038 0
-3038 3047 0
-159 -3038 0
-151 3039 0
-3039 3048 0
-152 -3039 3040 0
-3040 3049 0
-153 -3040 3041 0
-3041 3050 0
-154 -3041 3042 0
-3042 3051 0
-155 -3042 3043 0
-3043 3052 0
-156 -3043 3044 0
-3044 3053 0
-157 -3044 3045 0
-3045 3054 0
-158 -3045 3046 0
-3046 3055 0
-159 -3046 3047 0
-3047 3056 0
-160 -3047 0
-152 3048 0
-3048 3057 0
-153 -3048 3049 0
-3049 3058 0
-154 -3049 3050 0
-3050 3059 0
-155 -3050 3051 0
-3051 3060 0
-156 -3051 3052 0
-3052 3061 0
-157 -3052 3053 0
-3053 3062 0
-158 -3053 3054 0
-3054 3063 0
-159 -3054 3055 0
-3055 3064 0
-160 -3055 3056 0
-3056 3065 0
-161 -3056 0
-153 3057 0
-3057 3066 0
-154 -3057 3058 0
-3058 3067 0
-155 -3058 3059 0
-3059 3068 0
-156 -3059 3060 0
-3060 3069 0
-157 -3060 3061 0
-3061 3070 0
-158 -3061 3062 0
-3062 3071 0
-159 -3062 3063 0
-3063 3072 0
-160 -3063 3064 0
-3064 3073 0
-161 -3064 3065 0
-3065 3074 0
-162 -3065 0
-154 3066 0
-3066 3075 0
-155 -3066 3067 0
-3067 3076 0
-156 -3067 3068 0
-3068 3077 0
-157 -3068 3069 0
-3069 3078 0
-158 -3069 3070 0
-3070 3079 0
-159 -3070 3071 0
-3071 3080 0
-160 -3071 3072 0
-3072 3081 0
-161 -3072 3073 0
-3073 3082 0
-162 -3073 3074 0
-3074 3083 0
-163 -3074 0
-155 3075 0
-3075 3084 0
-156 -3075 3076 0
-3076 3085 0
-157 -3076 3077 0
-3077 3086 0
-158 -3077 3078 0
-3078 3087 0
-159 -3078 3079 0
-3079 3088 0
-160 -3079 3080 0
-3080 3089 0
-161 -3080 3081 0
-3081 3090 0
-162 -3081 3082 0
-3082 3091 0
-163 -3082 3083 0
-3083 3092 0
-164 -3083 0
-156 3084 0
-3084 3093 0
-157 -3084 3085 0
-3085 3094 0
-158 -3085 3086 0
-3086 3095 0
-159 -3086 3087 0
-3087 3096 0
-160 -3087 3088 0
-3088 3097 0
-161 -3088 3089 0
-3089 3098 0
-162 -3089 3090 0
-3090 3099 0
-163 -3090 3091 0
-3091 3100 0
-164 -3091 3092 0
-3092 3101 0
-165 -3092 0
-157 3093 0
-3093 3102 0
-158 -3093 3094 0
-3094 3103 0
-159 -3094 3095 0
-3095 3104 0
-160 -3095 3096 0
-3096 3105 0
-161 -3096 3097 0
-3097 3106 0
-162 -3097 3098 0
-3098 3107 0
-163 -3098 3099 0
-3099 3108 0
-164 -3099 3100 0
-3100 3109 0
-165 -3100 3101 0
-3101 3110 0
-166 -3101 0
-158 3102 0
-3102 3111 0
-159 -3102 3103 0
-3103 3112 0
-160 -3103 3104 0
-3104 3113 0
-161 -3104 3105 0
-3105 3114 0
-162 -3105 3106 0
-3106 3115 0
-163 -3106 3107 0
-3107 3116 0
-164 -3107 3108 0
-3108 3117 0
-165 -3108 3109 0
-3109 3118 0
-166 -3109 3110 0
-3110 3119 0
-167 -3110 0
-159 3111 0
-3111 3120 0
-160 -3111 3112 0
-3112 3121 0
-161 -3112 3113 0
-3113 3122 0
-162 -3113 3114 0
-3114 3123 0
-163 -3114 3115 0
-3115 3124 0
-164 -3115 3116 0
-3116 3125 0
-165 -3116 3117 0
-3117 3126 0
-166 -3117 3118 0
-3118 3127 0
-167 -3118 3119 0
-3119 3128 0
-168 -3119 0
-160 3120 0
-3120 3129 0
-161 -3120 3121 0
-3121 3130 0
-162 -3121 3122 0
-3122 3131 0
-163 -3122 3123 0
-3123 3132 0
-164 -3123 3124 0
-3124 3133 0
-165 -3124 3125 0
-3125 3134 0
-166 -3125 3126 0
-3126 3135 0
-167 -3126 3127 0
-3127 3136 0
-168 -3127 3128 0
-3128 3137 0
-169 -3128 0
-161 3129 0
-3129 3138 0
-162 -3129 3130 0
-3130 3139 0
-163 -3130 3131 0
-3131 3140 0
-164 -3131 3132 0
-3132 3141 0
-165 -3132 3133 0
-3133 3142 0
-166 -3133 3134 0
-3134 3143 0
-167 -3134 3135 0
-3135 3144 0
-168 -3135 3136 0
-3136 3145 0
-169 -3136 3137 0
-3137 3146 0
-170 -3137 0
-162 3138 0
-3138 3147 0
-163 -3138 3139 0
-3139 3148 0
-164 -3139 3140 0
-3140 3149 0
-165 -3140 3141 0
-3141 3150 0
-166 -3141 3142 0
-3142 3151 0
-167 -3142 3143 0
-3143 3152 0
-168 -3143 3144 0
-3144 3153 0
-169 -3144 3145 0
-3145 3154 0
-170 -3145 3146 0
-3146 3155 0
-171 -3146 0
-163 3147 0
-3147 3156 0
-164 -3147 3148 0
-3148 3157 0
-165 -3148 3149 0
-3149 3158 0
-166 -3149 3150 0
-3150 3159 0
-167 -3150 3151 0
-3151 3160 0
-168 -3151 3152 0
-3152 3161 0
-169 -3152 3153 0
-3153 3162 0
-170 -3153 3154 0
-3154 3163 0
-171 -3154 3155 0
-3155 3164 0
-172 -3155 0
-164 3156 0
-3156 3165 0
-165 -3156 3157 0
-3157 3166 0
-166 -3157 3158 0
-3158 3167 0
-167 -3158 3159 0
-3159 3168 0
-168 -3159 3160 0
-3160 3169 0
-169 -3160 3161 0
-3161 3170 0
-170 -3161 3162 0
-3162 3171 0
-171 -3162 3163 0
-3163 3172 0
-172 -3163 3164 0
-3164 3173 0
-173 -3164 0
-165 3165 0
-3165 3174 0
-166 -3165 3166 0
-3166 3175 0
-167 -3166 3167 0
-3167 3176 0
-168 -3167 3168 0
-3168 3177 0
-169 -3168 3169 0
-3169 3178 0
-170 -3169 3170 0
-3170 3179 0
-171 -3170 3171 0
-3171 3180 0
-172 -3171 3172 0
-3172 3181 0
-173 -3172 3173 0
-3173 3182 0
-174 -3173 0
-166 3174 0
-3174 3183 0
-167 -3174 3175 0
-3175 3184 0
-168 -3175 3176 0
-3176 3185 0
-169 -3176 3177 0
-3177 3186 0
-170 -3177 3178 0
-3178 3187 0
-171 -3178 3179 0
-3179 3188 0
-172 -3179 3180 0
-3180 3189 0
-173 -3180 3181 0
-3181 3190 0
-174 -3181 3182 0
-3182 3191 0
-175 -3182 0
-167 3183 0
-168 -3183 3184 0
-169 -3184 3185 0
-170 -3185 3186 0
-171 -3186 3187 0
-172 -3187 3188 0
-173 -3188 3189 0
-174 -3189 3190 0
-175 -3190 3191 0
-176 -3191 0
1 45 0
