p cnf 1223 2477
-1 41 0
-2 41 0
-20 41 0
-21 41 0
-41 1 2 20 21 0
-2 42 0
-1 42 0
-3 42 0
-22 42 0
-42 2 1 3 22 0
-3 43 0
-2 43 0
-4 43 0
-23 43 0
-43 3 2 4 23 0
-4 44 0
-3 44 0
-5 44 0
-24 44 0
-44 4 3 5 24 0
-5 45 0
-4 45 0
-6 45 0
-25 45 0
-45 5 4 6 25 0
-6 46 0
-5 46 0
-7 46 0
-26 46 0
-46 6 5 7 26 0
-7 47 0
-6 47 0
-8 47 0
-27 47 0
-47 7 6 8 27 0
-8 48 0
-7 48 0
-9 48 0
-28 48 0
-48 8 7 9 28 0
-9 49 0
-8 49 0
-10 49 0
-29 49 0
-49 9 8 10 29 0
-10 50 0
-9 50 0
-11 50 0
-30 50 0
-50 10 9 11 30 0
-11 51 0
-10 51 0
-12 51 0
-31 51 0
-51 11 10 12 31 0
-12 52 0
-11 52 0
-13 52 0
-32 52 0
-52 12 11 13 32 0
-13 53 0
-12 53 0
-14 53 0
-33 53 0
-53 13 12 14 33 0
-14 54 0
-13 54 0
-15 54 0
-34 54 0
-54 14 13 15 34 0
-15 55 0
-14 55 0
-16 55 0
-35 55 0
-55 15 14 16 35 0
-16 56 0
-15 56 0
-17 56 0
-36 56 0
-56 16 15 17 36 0
-17 57 0
-16 57 0
-18 57 0
-37 57 0
-57 17 16 18 37 0
-18 58 0
-17 58 0
-19 58 0
-38 58 0
-58 18 17 19 38 0
-19 59 0
-18 59 0
-20 59 0
-39 59 0
-59 19 18 20 39 0
-20 60 0
-1 60 0
-19 60 0
-40 60 0
-60 20 1 19 40 0
-21 61 0
-1 61 0
-25 61 0
-37 61 0
-61 21 1 25 37 0
-22 62 0
-2 62 0
-26 62 0
-38 62 0
-62 22 2 26 38 0
-23 63 0
-3 63 0
-27 63 0
-39 63 0
-63 23 3 27 39 0
-24 64 0
-4 64 0
-28 64 0
-40 64 0
-64 24 4 28 40 0
-25 65 0
-5 65 0
-21 65 0
-29 65 0
-65 25 5 21 29 0
-26 66 0
-6 66 0
-22 66 0
-30 66 0
-66 26 6 22 30 0
-27 67 0
-7 67 0
-23 67 0
-31 67 0
-67 27 7 23 31 0
-28 68 0
-8 68 0
-24 68 0
-32 68 0
-68 28 8 24 32 0
-29 69 0
-9 69 0
-25 69 0
-33 69 0
-69 29 9 25 33 0
-30 70 0
-10 70 0
-26 70 0
-34 70 0
-70 30 10 26 34 0
-31 71 0
-11 71 0
-27 71 0
-35 71 0
-71 31 11 27 35 0
-32 72 0
-12 72 0
-28 72 0
-36 72 0
-72 32 12 28 36 0
-33 73 0
-13 73 0
-29 73 0
-37 73 0
-73 33 13 29 37 0
-34 74 0
-14 74 0
-30 74 0
-38 74 0
-74 34 14 30 38 0
-35 75 0
-15 75 0
-31 75 0
-39 75 0
-75 35 15 31 39 0
-36 76 0
-16 76 0
-32 76 0
-40 76 0
-76 36 16 32 40 0
-37 77 0
-17 77 0
-21 77 0
-33 77 0
-77 37 17 21 33 0
-38 78 0
-18 78 0
-22 78 0
-34 78 0
-78 38 18 22 34 0
-39 79 0
-19 79 0
-23 79 0
-35 79 0
-79 39 19 23 35 0
-40 80 0
-20 80 0
-24 80 0
-36 80 0
-80 40 20 24 36 0
1 81 0
-81 82 0
2 -81 83 0
-83 84 0
3 -83 85 0
-85 86 0
4 -85 87 0
-87 88 0
5 -87 89 0
-89 90 0
6 -89 91 0
-91 92 0
7 -91 93 0
-93 94 0
8 -93 95 0
-95 96 0
9 -95 97 0
-97 98 0
10 -97 99 0
-99 100 0
11 -99 101 0
-101 102 0
12 -101 103 0
-103 104 0
13 -103 105 0
-105 106 0
14 -105 107 0
-107 108 0
15 -107 109 0
-109 110 0
16 -109 111 0
-111 112 0
17 -111 113 0
-113 114 0
18 -113 115 0
-115 116 0
19 -115 117 0
-117 118 0
20 -117 119 0
-119 120 0
21 -119 121 0
-121 122 0
22 -121 123 0
-123 124 0
23 -123 125 0
-125 126 0
24 -125 127 0
-127 128 0
25 -127 0
2 82 0
-82 129 0
3 -82 84 0
-84 130 0
4 -84 86 0
-86 131 0
5 -86 88 0
-88 132 0
6 -88 90 0
-90 133 0
7 -90 92 0
-92 134 0
8 -92 94 0
-94 135 0
9 -94 96 0
-96 136 0
10 -96 98 0
-98 137 0
11 -98 100 0
-100 138 0
12 -100 102 0
-102 139 0
13 -102 104 0
-104 140 0
14 -104 106 0
-106 141 0
15 -106 108 0
-108 142 0
16 -108 110 0
-110 143 0
17 -110 112 0
-112 144 0
18 -112 114 0
-114 145 0
19 -114 116 0
-116 146 0
20 -116 118 0
-118 147 0
21 -118 120 0
-120 148 0
22 -120 122 0
-122 149 0
23 -122 124 0
-124 150 0
24 -124 126 0
-126 151 0
25 -126 128 0
-128 152 0
26 -128 0
3 129 0
-129 153 0
4 -129 130 0
-130 154 0
5 -130 131 0
-131 155 0
6 -131 132 0
-132 156 0
7 -132 133 0
-133 157 0
8 -133 134 0
-134 158 0
9 -134 135 0
-135 159 0
10 -135 136 0
-136 160 0
11 -136 137 0
-137 161 0
12 -137 138 0
-138 162 0
13 -138 139 0
-139 163 0
14 -139 140 0
-140 164 0
15 -140 141 0
-141 165 0
16 -141 142 0
-142 166 0
17 -142 143 0
-143 167 0
18 -143 144 0
-144 168 0
19 -144 145 0
-145 169 0
20 -145 146 0
-146 170 0
21 -146 147 0
-147 171 0
22 -147 148 0
-148 172 0
23 -148 149 0
-149 173 0
24 -149 150 0
-150 174 0
25 -150 151 0
-151 175 0
26 -151 152 0
-152 176 0
27 -152 0
4 153 0
-153 177 0
5 -153 154 0
-154 178 0
6 -154 155 0
-155 179 0
7 -155 156 0
-156 180 0
8 -156 157 0
-157 181 0
9 -157 158 0
-158 182 0
10 -158 159 0
-159 183 0
11 -159 160 0
-160 184 0
12 -160 161 0
-161 185 0
13 -161 162 0
-162 186 0
14 -162 163 0
-163 187 0
15 -163 164 0
-164 188 0
16 -164 165 0
-165 189 0
17 -165 166 0
-166 190 0
18 -166 167 0
-167 191 0
19 -167 168 0
-168 192 0
20 -168 169 0
-169 193 0
21 -169 170 0
-170 194 0
22 -170 171 0
-171 195 0
23 -171 172 0
-172 196 0
24 -172 173 0
-173 197 0
25 -173 174 0
-174 198 0
26 -174 175 0
-175 199 0
27 -175 176 0
-176 200 0
28 -176 0
5 177 0
-177 201 0
6 -177 178 0
-178 202 0
7 -178 179 0
-179 203 0
8 -179 180 0
-180 204 0
9 -180 181 0
-181 205 0
10 -181 182 0
-182 206 0
11 -182 183 0
-183 207 0
12 -183 184 0
-184 208 0
13 -184 185 0
-185 209 0
14 -185 186 0
-186 210 0
15 -186 187 0
-187 211 0
16 -187 188 0
-188 212 0
17 -188 189 0
-189 213 0
18 -189 190 0
-190 214 0
19 -190 191 0
-191 215 0
20 -191 192 0
-192 216 0
21 -192 193 0
-193 217 0
22 -193 194 0
-194 218 0
23 -194 195 0
-195 219 0
24 -195 196 0
-196 220 0
25 -196 197 0
-197 221 0
26 -197 198 0
-198 222 0
27 -198 199 0
-199 223 0
28 -199 200 0
-200 224 0
29 -200 0
6 201 0
-201 225 0
7 -201 202 0
-202 226 0
8 -202 203 0
-203 227 0
9 -203 204 0
-204 228 0
10 -204 205 0
-205 229 0
11 -205 206 0
-206 230 0
12 -206 207 0
-207 231 0
13 -207 208 0
-208 232 0
14 -208 209 0
-209 233 0
15 -209 210 0
-210 234 0
16 -210 211 0
-211 235 0
17 -211 212 0
-212 236 0
18 -212 213 0
-213 237 0
19 -213 214 0
-214 238 0
20 -214 215 0
-215 239 0
21 -215 216 0
-216 240 0
22 -216 217 0
-217 241 0
23 -217 218 0
-218 242 0
24 -218 219 0
-219 243 0
25 -219 220 0
-220 244 0
26 -220 221 0
-221 245 0
27 -221 222 0
-222 246 0
28 -222 223 0
-223 247 0
29 -223 224 0
-224 248 0
30 -224 0
7 225 0
-225 249 0
8 -225 226 0
-226 250 0
9 -226 227 0
-227 251 0
10 -227 228 0
-228 252 0
11 -228 229 0
-229 253 0
12 -229 230 0
-230 254 0
13 -230 231 0
-231 255 0
14 -231 232 0
-232 256 0
15 -232 233 0
-233 257 0
16 -233 234 0
-234 258 0
17 -234 235 0
-235 259 0
18 -235 236 0
-236 260 0
19 -236 237 0
-237 261 0
20 -237 238 0
-238 262 0
21 -238 239 0
-239 263 0
22 -239 240 0
-240 264 0
23 -240 241 0
-241 265 0
24 -241 242 0
-242 266 0
25 -242 243 0
-243 267 0
26 -243 244 0
-244 268 0
27 -244 245 0
-245 269 0
28 -245 246 0
-246 270 0
29 -246 247 0
-247 271 0
30 -247 248 0
-248 272 0
31 -248 0
8 249 0
-249 273 0
9 -249 250 0
-250 274 0
10 -250 251 0
-251 275 0
11 -251 252 0
-252 276 0
12 -252 253 0
-253 277 0
13 -253 254 0
-254 278 0
14 -254 255 0
-255 279 0
15 -255 256 0
-256 280 0
16 -256 257 0
-257 281 0
17 -257 258 0
-258 282 0
18 -258 259 0
-259 283 0
19 -259 260 0
-260 284 0
20 -260 261 0
-261 285 0
21 -261 262 0
-262 286 0
22 -262 263 0
-263 287 0
23 -263 264 0
-264 288 0
24 -264 265 0
-265 289 0
25 -265 266 0
-266 290 0
26 -266 267 0
-267 291 0
27 -267 268 0
-268 292 0
28 -268 269 0
-269 293 0
29 -269 270 0
-270 294 0
30 -270 271 0
-271 295 0
31 -271 272 0
-272 296 0
32 -272 0
9 273 0
-273 297 0
10 -273 274 0
-274 298 0
11 -274 275 0
-275 299 0
12 -275 276 0
-276 300 0
13 -276 277 0
-277 301 0
14 -277 278 0
-278 302 0
15 -278 279 0
-279 303 0
16 -279 280 0
-280 304 0
17 -280 281 0
-281 305 0
18 -281 282 0
-282 306 0
19 -282 283 0
-283 307 0
20 -283 284 0
-284 308 0
21 -284 285 0
-285 309 0
22 -285 286 0
-286 310 0
23 -286 287 0
-287 311 0
24 -287 288 0
-288 312 0
25 -288 289 0
-289 313 0
26 -289 290 0
-290 314 0
27 -290 291 0
-291 315 0
28 -291 292 0
-292 316 0
29 -292 293 0
-293 317 0
30 -293 294 0
-294 318 0
31 -294 295 0
-295 319 0
32 -295 296 0
-296 320 0
33 -296 0
10 297 0
-297 321 0
11 -297 298 0
-298 322 0
12 -298 299 0
-299 323 0
13 -299 300 0
-300 324 0
14 -300 301 0
-301 325 0
15 -301 302 0
-302 326 0
16 -302 303 0
-303 327 0
17 -303 304 0
-304 328 0
18 -304 305 0
-305 329 0
19 -305 306 0
-306 330 0
20 -306 307 0
-307 331 0
21 -307 308 0
-308 332 0
22 -308 309 0
-309 333 0
23 -309 310 0
-310 334 0
24 -310 311 0
-311 335 0
25 -311 312 0
-312 336 0
26 -312 313 0
-313 337 0
27 -313 314 0
-314 338 0
28 -314 315 0
-315 339 0
29 -315 316 0
-316 340 0
30 -316 317 0
-317 341 0
31 -317 318 0
-318 342 0
32 -318 319 0
-319 343 0
33 -319 320 0
-320 344 0
34 -320 0
11 321 0
-321 345 0
12 -321 322 0
-322 346 0
13 -322 323 0
-323 347 0
14 -323 324 0
-324 348 0
15 -324 325 0
-325 349 0
16 -325 326 0
-326 350 0
17 -326 327 0
-327 351 0
18 -327 328 0
-328 352 0
19 -328 329 0
-329 353 0
20 -329 330 0
-330 354 0
21 -330 331 0
-331 355 0
22 -331 332 0
-332 356 0
23 -332 333 0
-333 357 0
24 -333 334 0
-334 358 0
25 -334 335 0
-335 359 0
26 -335 336 0
-336 360 0
27 -336 337 0
-337 361 0
28 -337 338 0
-338 362 0
29 -338 339 0
-339 363 0
30 -339 340 0
-340 364 0
31 -340 341 0
-341 365 0
32 -341 342 0
-342 366 0
33 -342 343 0
-343 367 0
34 -343 344 0
-344 368 0
35 -344 0
12 345 0
-345 369 0
13 -345 346 0
-346 370 0
14 -346 347 0
-347 371 0
15 -347 348 0
-348 372 0
16 -348 349 0
-349 373 0
17 -349 350 0
-350 374 0
18 -350 351 0
-351 375 0
19 -351 352 0
-352 376 0
20 -352 353 0
-353 377 0
21 -353 354 0
-354 378 0
22 -354 355 0
-355 379 0
23 -355 356 0
-356 380 0
24 -356 357 0
-357 381 0
25 -357 358 0
-358 382 0
26 -358 359 0
-359 383 0
27 -359 360 0
-360 384 0
28 -360 361 0
-361 385 0
29 -361 362 0
-362 386 0
30 -362 363 0
-363 387 0
31 -363 364 0
-364 388 0
32 -364 365 0
-365 389 0
33 -365 366 0
-366 390 0
34 -366 367 0
-367 391 0
35 -367 368 0
-368 392 0
36 -368 0
13 369 0
-369 393 0
14 -369 370 0
-370 394 0
15 -370 371 0
-371 395 0
16 -371 372 0
-372 396 0
17 -372 373 0
-373 397 0
18 -373 374 0
-374 398 0
19 -374 375 0
-375 399 0
20 -375 376 0
-376 400 0
21 -376 377 0
-377 401 0
22 -377 378 0
-378 402 0
23 -378 379 0
-379 403 0
24 -379 380 0
-380 404 0
25 -380 381 0
-381 405 0
26 -381 382 0
-382 406 0
27 -382 383 0
-383 407 0
28 -383 384 0
-384 408 0
29 -384 385 0
-385 409 0
30 -385 386 0
-386 410 0
31 -386 387 0
-387 411 0
32 -387 388 0
-388 412 0
33 -388 389 0
-389 413 0
34 -389 390 0
-390 414 0
35 -390 391 0
-391 415 0
36 -391 392 0
-392 416 0
37 -392 0
14 393 0
-393 417 0
15 -393 394 0
-394 418 0
16 -394 395 0
-395 419 0
17 -395 396 0
-396 420 0
18 -396 397 0
-397 421 0
19 -397 398 0
-398 422 0
20 -398 399 0
-399 423 0
21 -399 400 0
-400 424 0
22 -400 401 0
-401 425 0
23 -401 402 0
-402 426 0
24 -402 403 0
-403 427 0
25 -403 404 0
-404 428 0
26 -404 405 0
-405 429 0
27 -405 406 0
-406 430 0
28 -406 407 0
-407 431 0
29 -407 408 0
-408 432 0
30 -408 409 0
-409 433 0
31 -409 410 0
-410 434 0
32 -410 411 0
-411 435 0
33 -411 412 0
-412 436 0
34 -412 413 0
-413 437 0
35 -413 414 0
-414 438 0
36 -414 415 0
-415 439 0
37 -415 416 0
-416 440 0
38 -416 0
15 417 0
-417 441 0
16 -417 418 0
-418 442 0
17 -418 419 0
-419 443 0
18 -419 420 0
-420 444 0
19 -420 421 0
-421 445 0
20 -421 422 0
-422 446 0
21 -422 423 0
-423 447 0
22 -423 424 0
-424 448 0
23 -424 425 0
-425 449 0
24 -425 426 0
-426 450 0
25 -426 427 0
-427 451 0
26 -427 428 0
-428 452 0
27 -428 429 0
-429 453 0
28 -429 430 0
-430 454 0
29 -430 431 0
-431 455 0
30 -431 432 0
-432 456 0
31 -432 433 0
-433 457 0
32 -433 434 0
-434 458 0
33 -434 435 0
-435 459 0
34 -435 436 0
-436 460 0
35 -436 437 0
-437 461 0
36 -437 438 0
-438 462 0
37 -438 439 0
-439 463 0
38 -439 440 0
-440 464 0
39 -440 0
16 441 0
17 -441 442 0
18 -442 443 0
19 -443 444 0
20 -444 445 0
21 -445 446 0
22 -446 447 0
23 -447 448 0
24 -448 449 0
25 -449 450 0
26 -450 451 0
27 -451 452 0
28 -452 453 0
29 -453 454 0
30 -454 455 0
31 -455 456 0
32 -456 457 0
33 -457 458 0
34 -458 459 0
35 -459 460 0
36 -460 461 0
37 -461 462 0
38 -462 463 0
39 -463 464 0
40 -464 0
-1 465 0
-465 466 0
-2 -465 467 0
-467 468 0
-3 -467 469 0
-469 470 0
-4 -469 471 0
-471 472 0
-5 -471 473 0
-473 474 0
-6 -473 475 0
-475 476 0
-7 -475 477 0
-477 478 0
-8 -477 479 0
-479 480 0
-9 -479 481 0
-481 482 0
-10 -481 483 0
-483 484 0
-11 -483 485 0
-485 486 0
-12 -485 487 0
-487 488 0
-13 -487 489 0
-489 490 0
-14 -489 491 0
-491 492 0
-15 -491 493 0
-493 494 0
-16 -493 495 0
-495 496 0
-17 -495 0
-2 466 0
-466 497 0
-3 -466 468 0
-468 498 0
-4 -468 470 0
-470 499 0
-5 -470 472 0
-472 500 0
-6 -472 474 0
-474 501 0
-7 -474 476 0
-476 502 0
-8 -476 478 0
-478 503 0
-9 -478 480 0
-480 504 0
-10 -480 482 0
-482 505 0
-11 -482 484 0
-484 506 0
-12 -484 486 0
-486 507 0
-13 -486 488 0
-488 508 0
-14 -488 490 0
-490 509 0
-15 -490 492 0
-492 510 0
-16 -492 494 0
-494 511 0
-17 -494 496 0
-496 512 0
-18 -496 0
-3 497 0
-497 513 0
-4 -497 498 0
-498 514 0
-5 -498 499 0
-499 515 0
-6 -499 500 0
-500 516 0
-7 -500 501 0
-501 517 0
-8 -501 502 0
-502 518 0
-9 -502 503 0
-503 519 0
-10 -503 504 0
-504 520 0
-11 -504 505 0
-505 521 0
-12 -505 506 0
-506 522 0
-13 -506 507 0
-507 523 0
-14 -507 508 0
-508 524 0
-15 -508 509 0
-509 525 0
-16 -509 510 0
-510 526 0
-17 -510 511 0
-511 527 0
-18 -511 512 0
-512 528 0
-19 -512 0
-4 513 0
-513 529 0
-5 -513 514 0
-514 530 0
-6 -514 515 0
-515 531 0
-7 -515 516 0
-516 532 0
-8 -516 517 0
-517 533 0
-9 -517 518 0
-518 534 0
-10 -518 519 0
-519 535 0
-11 -519 520 0
-520 536 0
-12 -520 521 0
-521 537 0
-13 -521 522 0
-522 538 0
-14 -522 523 0
-523 539 0
-15 -523 524 0
-524 540 0
-16 -524 525 0
-525 541 0
-17 -525 526 0
-526 542 0
-18 -526 527 0
-527 543 0
-19 -527 528 0
-528 544 0
-20 -528 0
-5 529 0
-529 545 0
-6 -529 530 0
-530 546 0
-7 -530 531 0
-531 547 0
-8 -531 532 0
-532 548 0
-9 -532 533 0
-533 549 0
-10 -533 534 0
-534 550 0
-11 -534 535 0
-535 551 0
-12 -535 536 0
-536 552 0
-13 -536 537 0
-537 553 0
-14 -537 538 0
-538 554 0
-15 -538 539 0
-539 555 0
-16 -539 540 0
-540 556 0
-17 -540 541 0
-541 557 0
-18 -541 542 0
-542 558 0
-19 -542 543 0
-543 559 0
-20 -543 544 0
-544 560 0
-21 -544 0
-6 545 0
-545 561 0
-7 -545 546 0
-546 562 0
-8 -546 547 0
-547 563 0
-9 -547 548 0
-548 564 0
-10 -548 549 0
-549 565 0
-11 -549 550 0
-550 566 0
-12 -550 551 0
-551 567 0
-13 -551 552 0
-552 568 0
-14 -552 553 0
-553 569 0
-15 -553 554 0
-554 570 0
-16 -554 555 0
-555 571 0
-17 -555 556 0
-556 572 0
-18 -556 557 0
-557 573 0
-19 -557 558 0
-558 574 0
-20 -558 559 0
-559 575 0
-21 -559 560 0
-560 576 0
-22 -560 0
-7 561 0
-561 577 0
-8 -561 562 0
-562 578 0
-9 -562 563 0
-563 579 0
-10 -563 564 0
-564 580 0
-11 -564 565 0
-565 581 0
-12 -565 566 0
-566 582 0
-13 -566 567 0
-567 583 0
-14 -567 568 0
-568 584 0
-15 -568 569 0
-569 585 0
-16 -569 570 0
-570 586 0
-17 -570 571 0
-571 587 0
-18 -571 572 0
-572 588 0
-19 -572 573 0
-573 589 0
-20 -573 574 0
-574 590 0
-21 -574 575 0
-575 591 0
-22 -575 576 0
-576 592 0
-23 -576 0
-8 577 0
-577 593 0
-9 -577 578 0
-578 594 0
-10 -578 579 0
-579 595 0
-11 -579 580 0
-580 596 0
-12 -580 581 0
-581 597 0
-13 -581 582 0
-582 598 0
-14 -582 583 0
-583 599 0
-15 -583 584 0
-584 600 0
-16 -584 585 0
-585 601 0
-17 -585 586 0
-586 602 0
-18 -586 587 0
-587 603 0
-19 -587 588 0
-588 604 0
-20 -588 589 0
-589 605 0
-21 -589 590 0
-590 606 0
-22 -590 591 0
-591 607 0
-23 -591 592 0
-592 608 0
-24 -592 0
-9 593 0
-593 609 0
-10 -593 594 0
-594 610 0
-11 -594 595 0
-595 611 0
-12 -595 596 0
-596 612 0
-13 -596 597 0
-597 613 0
-14 -597 598 0
-598 614 0
-15 -598 599 0
-599 615 0
-16 -599 600 0
-600 616 0
-17 -600 601 0
-601 617 0
-18 -601 602 0
-602 618 0
-19 -602 603 0
-603 619 0
-20 -603 604 0
-604 620 0
-21 -604 605 0
-605 621 0
-22 -605 606 0
-606 622 0
-23 -606 607 0
-607 623 0
-24 -607 608 0
-608 624 0
-25 -608 0
-10 609 0
-609 625 0
-11 -609 610 0
-610 626 0
-12 -610 611 0
-611 627 0
-13 -611 612 0
-612 628 0
-14 -612 613 0
-613 629 0
-15 -613 614 0
-614 630 0
-16 -614 615 0
-615 631 0
-17 -615 616 0
-616 632 0
-18 -616 617 0
-617 633 0
-19 -617 618 0
-618 634 0
-20 -618 619 0
-619 635 0
-21 -619 620 0
-620 636 0
-22 -620 621 0
-621 637 0
-23 -621 622 0
-622 638 0
-24 -622 623 0
-623 639 0
-25 -623 624 0
-624 640 0
-26 -624 0
-11 625 0
-625 641 0
-12 -625 626 0
-626 642 0
-13 -626 627 0
-627 643 0
-14 -627 628 0
-628 644 0
-15 -628 629 0
-629 645 0
-16 -629 630 0
-630 646 0
-17 -630 631 0
-631 647 0
-18 -631 632 0
-632 648 0
-19 -632 633 0
-633 649 0
-20 -633 634 0
-634 650 0
-21 -634 635 0
-635 651 0
-22 -635 636 0
-636 652 0
-23 -636 637 0
-637 653 0
-24 -637 638 0
-638 654 0
-25 -638 639 0
-639 655 0
-26 -639 640 0
-640 656 0
-27 -640 0
-12 641 0
-641 657 0
-13 -641 642 0
-642 658 0
-14 -642 643 0
-643 659 0
-15 -643 644 0
-644 660 0
-16 -644 645 0
-645 661 0
-17 -645 646 0
-646 662 0
-18 -646 647 0
-647 663 0
-19 -647 648 0
-648 664 0
-20 -648 649 0
-649 665 0
-21 -649 650 0
-650 666 0
-22 -650 651 0
-651 667 0
-23 -651 652 0
-652 668 0
-24 -652 653 0
-653 669 0
-25 -653 654 0
-654 670 0
-26 -654 655 0
-655 671 0
-27 -655 656 0
-656 672 0
-28 -656 0
-13 657 0
-657 673 0
-14 -657 658 0
-658 674 0
-15 -658 659 0
-659 675 0
-16 -659 660 0
-660 676 0
-17 -660 661 0
-661 677 0
-18 -661 662 0
-662 678 0
-19 -662 663 0
-663 679 0
-20 -663 664 0
-664 680 0
-21 -664 665 0
-665 681 0
-22 -665 666 0
-666 682 0
-23 -666 667 0
-667 683 0
-24 -667 668 0
-668 684 0
-25 -668 669 0
-669 685 0
-26 -669 670 0
-670 686 0
-27 -670 671 0
-671 687 0
-28 -671 672 0
-672 688 0
-29 -672 0
-14 673 0
-673 689 0
-15 -673 674 0
-674 690 0
-16 -674 675 0
-675 691 0
-17 -675 676 0
-676 692 0
-18 -676 677 0
-677 693 0
-19 -677 678 0
-678 694 0
-20 -678 679 0
-679 695 0
-21 -679 680 0
-680 696 0
-22 -680 681 0
-681 697 0
-23 -681 682 0
-682 698 0
-24 -682 683 0
-683 699 0
-25 -683 684 0
-684 700 0
-26 -684 685 0
-685 701 0
-27 -685 686 0
-686 702 0
-28 -686 687 0
-687 703 0
-29 -687 688 0
-688 704 0
-30 -688 0
-15 689 0
-689 705 0
-16 -689 690 0
-690 706 0
-17 -690 691 0
-691 707 0
-18 -691 692 0
-692 708 0
-19 -692 693 0
-693 709 0
-20 -693 694 0
-694 710 0
-21 -694 695 0
-695 711 0
-22 -695 696 0
-696 712 0
-23 -696 697 0
-697 713 0
-24 -697 698 0
-698 714 0
-25 -698 699 0
-699 715 0
-26 -699 700 0
-700 716 0
-27 -700 701 0
-701 717 0
-28 -701 702 0
-702 718 0
-29 -702 703 0
-703 719 0
-30 -703 704 0
-704 720 0
-31 -704 0
-16 705 0
-705 721 0
-17 -705 706 0
-706 722 0
-18 -706 707 0
-707 723 0
-19 -707 708 0
-708 724 0
-20 -708 709 0
-709 725 0
-21 -709 710 0
-710 726 0
-22 -710 711 0
-711 727 0
-23 -711 712 0
-712 728 0
-24 -712 713 0
-713 729 0
-25 -713 714 0
-714 730 0
-26 -714 715 0
-715 731 0
-27 -715 716 0
-716 732 0
-28 -716 717 0
-717 733 0
-29 -717 718 0
-718 734 0
-30 -718 719 0
-719 735 0
-31 -719 720 0
-720 736 0
-32 -720 0
-17 721 0
-721 737 0
-18 -721 722 0
-722 738 0
-19 -722 723 0
-723 739 0
-20 -723 724 0
-724 740 0
-21 -724 725 0
-725 741 0
-22 -725 726 0
-726 742 0
-23 -726 727 0
-727 743 0
-24 -727 728 0
-728 744 0
-25 -728 729 0
-729 745 0
-26 -729 730 0
-730 746 0
-27 -730 731 0
-731 747 0
-28 -731 732 0
-732 748 0
-29 -732 733 0
-733 749 0
-30 -733 734 0
-734 750 0
-31 -734 735 0
-735 751 0
-32 -735 736 0
-736 752 0
-33 -736 0
-18 737 0
-737 753 0
-19 -737 738 0
-738 754 0
-20 -738 739 0
-739 755 0
-21 -739 740 0
-740 756 0
-22 -740 741 0
-741 757 0
-23 -741 742 0
-742 758 0
-24 -742 743 0
-743 759 0
-25 -743 744 0
-744 760 0
-26 -744 745 0
-745 761 0
-27 -745 746 0
-746 762 0
-28 -746 747 0
-747 763 0
-29 -747 748 0
-748 764 0
-30 -748 749 0
-749 765 0
-31 -749 750 0
-750 766 0
-32 -750 751 0
-751 767 0
-33 -751 752 0
-752 768 0
-34 -752 0
-19 753 0
-753 769 0
-20 -753 754 0
-754 770 0
-21 -754 755 0
-755 771 0
-22 -755 756 0
-756 772 0
-23 -756 757 0
-757 773 0
-24 -757 758 0
-758 774 0
-25 -758 759 0
-759 775 0
-26 -759 760 0
-760 776 0
-27 -760 761 0
-761 777 0
-28 -761 762 0
-762 778 0
-29 -762 763 0
-763 779 0
-30 -763 764 0
-764 780 0
-31 -764 765 0
-765 781 0
-32 -765 766 0
-766 782 0
-33 -766 767 0
-767 783 0
-34 -767 768 0
-768 784 0
-35 -768 0
-20 769 0
-769 785 0
-21 -769 770 0
-770 786 0
-22 -770 771 0
-771 787 0
-23 -771 772 0
-772 788 0
-24 -772 773 0
-773 789 0
-25 -773 774 0
-774 790 0
-26 -774 775 0
-775 791 0
-27 -775 776 0
-776 792 0
-28 -776 777 0
-777 793 0
-29 -777 778 0
-778 794 0
-30 -778 779 0
-779 795 0
-31 -779 780 0
-780 796 0
-32 -780 781 0
-781 797 0
-33 -781 782 0
-782 798 0
-34 -782 783 0
-783 799 0
-35 -783 784 0
-784 800 0
-36 -784 0
-21 785 0
-785 801 0
-22 -785 786 0
-786 802 0
-23 -786 787 0
-787 803 0
-24 -787 788 0
-788 804 0
-25 -788 789 0
-789 805 0
-26 -789 790 0
-790 806 0
-27 -790 791 0
-791 807 0
-28 -791 792 0
-792 808 0
-29 -792 793 0
-793 809 0
-30 -793 794 0
-794 810 0
-31 -794 795 0
-795 811 0
-32 -795 796 0
-796 812 0
-33 -796 797 0
-797 813 0
-34 -797 798 0
-798 814 0
-35 -798 799 0
-799 815 0
-36 -799 800 0
-800 816 0
-37 -800 0
-22 801 0
-801 817 0
-23 -801 802 0
-802 818 0
-24 -802 803 0
-803 819 0
-25 -803 804 0
-804 820 0
-26 -804 805 0
-805 821 0
-27 -805 806 0
-806 822 0
-28 -806 807 0
-807 823 0
-29 -807 808 0
-808 824 0
-30 -808 809 0
-809 825 0
-31 -809 810 0
-810 826 0
-32 -810 811 0
-811 827 0
-33 -811 812 0
-812 828 0
-34 -812 813 0
-813 829 0
-35 -813 814 0
-814 830 0
-36 -814 815 0
-815 831 0
-37 -815 816 0
-816 832 0
-38 -816 0
-23 817 0
-817 833 0
-24 -817 818 0
-818 834 0
-25 -818 819 0
-819 835 0
-26 -819 820 0
-820 836 0
-27 -820 821 0
-821 837 0
-28 -821 822 0
-822 838 0
-29 -822 823 0
-823 839 0
-30 -823 824 0
-824 840 0
-31 -824 825 0
-825 841 0
-32 -825 826 0
-826 842 0
-33 -826 827 0
-827 843 0
-34 -827 828 0
-828 844 0
-35 -828 829 0
-829 845 0
-36 -829 830 0
-830 846 0
-37 -830 831 0
-831 847 0
-38 -831 832 0
-832 848 0
-39 -832 0
-24 833 0
-25 -833 834 0
-26 -834 835 0
-27 -835 836 0
-28 -836 837 0
-29 -837 838 0
-30 -838 839 0
-31 -839 840 0
-32 -840 841 0
-33 -841 842 0
-34 -842 843 0
-35 -843 844 0
-36 -844 845 0
-37 -845 846 0
-38 -846 847 0
-39 -847 848 0
-40 -848 0
-41 849 0
-849 850 0
-42 -849 851 0
-851 852 0
-43 -851 853 0
-853 854 0
-44 -853 855 0
-855 856 0
-45 -855 857 0
-857 858 0
-46 -857 859 0
-859 860 0
-47 -859 861 0
-861 862 0
-48 -861 863 0
-863 864 0
-49 -863 865 0
-865 866 0
-50 -865 867 0
-867 868 0
-51 -867 869 0
-869 870 0
-52 -869 871 0
-871 872 0
-53 -871 873 0
-873 874 0
-54 -873 875 0
-875 876 0
-55 -875 877 0
-877 878 0
-56 -877 879 0
-879 880 0
-57 -879 881 0
-881 882 0
-58 -881 883 0
-883 884 0
-59 -883 885 0
-885 886 0
-60 -885 887 0
-887 888 0
-61 -887 889 0
-889 890 0
-62 -889 891 0
-891 892 0
-63 -891 893 0
-893 894 0
-64 -893 895 0
-895 896 0
-65 -895 897 0
-897 898 0
-66 -897 0
-42 850 0
-850 899 0
-43 -850 852 0
-852 900 0
-44 -852 854 0
-854 901 0
-45 -854 856 0
-856 902 0
-46 -856 858 0
-858 903 0
-47 -858 860 0
-860 904 0
-48 -860 862 0
-862 905 0
-49 -862 864 0
-864 906 0
-50 -864 866 0
-866 907 0
-51 -866 868 0
-868 908 0
-52 -868 870 0
-870 909 0
-53 -870 872 0
-872 910 0
-54 -872 874 0
-874 911 0
-55 -874 876 0
-876 912 0
-56 -876 878 0
-878 913 0
-57 -878 880 0
-880 914 0
-58 -880 882 0
-882 915 0
-59 -882 884 0
-884 916 0
-60 -884 886 0
-886 917 0
-61 -886 888 0
-888 918 0
-62 -888 890 0
-890 919 0
-63 -890 892 0
-892 920 0
-64 -892 894 0
-894 921 0
-65 -894 896 0
-896 922 0
-66 -896 898 0
-898 923 0
-67 -898 0
-43 899 0
-899 924 0
-44 -899 900 0
-900 925 0
-45 -900 901 0
-901 926 0
-46 -901 902 0
-902 927 0
-47 -902 903 0
-903 928 0
-48 -903 904 0
-904 929 0
-49 -904 905 0
-905 930 0
-50 -905 906 0
-906 931 0
-51 -906 907 0
-907 932 0
-52 -907 908 0
-908 933 0
-53 -908 909 0
-909 934 0
-54 -909 910 0
-910 935 0
-55 -910 911 0
-911 936 0
-56 -911 912 0
-912 937 0
-57 -912 913 0
-913 938 0
-58 -913 914 0
-914 939 0
-59 -914 915 0
-915 940 0
-60 -915 916 0
-916 941 0
-61 -916 917 0
-917 942 0
-62 -917 918 0
-918 943 0
-63 -918 919 0
-919 944 0
-64 -919 920 0
-920 945 0
-65 -920 921 0
-921 946 0
-66 -921 922 0
-922 947 0
-67 -922 923 0
-923 948 0
-68 -923 0
-44 924 0
-924 949 0
-45 -924 925 0
-925 950 0
-46 -925 926 0
-926 951 0
-47 -926 927 0
-927 952 0
-48 -927 928 0
-928 953 0
-49 -928 929 0
-929 954 0
-50 -929 930 0
-930 955 0
-51 -930 931 0
-931 956 0
-52 -931 932 0
-932 957 0
-53 -932 933 0
-933 958 0
-54 -933 934 0
-934 959 0
-55 -934 935 0
-935 960 0
-56 -935 936 0
-936 961 0
-57 -936 937 0
-937 962 0
-58 -937 938 0
-938 963 0
-59 -938 939 0
-939 964 0
-60 -939 940 0
-940 965 0
-61 -940 941 0
-941 966 0
-62 -941 942 0
-942 967 0
-63 -942 943 0
-943 968 0
-64 -943 944 0
-944 969 0
-65 -944 945 0
-945 970 0
-66 -945 946 0
-946 971 0
-67 -946 947 0
-947 972 0
-68 -947 948 0
-948 973 0
-69 -948 0
-45 949 0
-949 974 0
-46 -949 950 0
-950 975 0
-47 -950 951 0
-951 976 0
-48 -951 952 0
-952 977 0
-49 -952 953 0
-953 978 0
-50 -953 954 0
-954 979 0
-51 -954 955 0
-955 980 0
-52 -955 956 0
-956 981 0
-53 -956 957 0
-957 982 0
-54 -957 958 0
-958 983 0
-55 -958 959 0
-959 984 0
-56 -959 960 0
-960 985 0
-57 -960 961 0
-961 986 0
-58 -961 962 0
-962 987 0
-59 -962 963 0
-963 988 0
-60 -963 964 0
-964 989 0
-61 -964 965 0
-965 990 0
-62 -965 966 0
-966 991 0
-63 -966 967 0
-967 992 0
-64 -967 968 0
-968 993 0
-65 -968 969 0
-969 994 0
-66 -969 970 0
-970 995 0
-67 -970 971 0
-971 996 0
-68 -971 972 0
-972 997 0
-69 -972 973 0
-973 998 0
-70 -973 0
-46 974 0
-974 999 0
-47 -974 975 0
-975 1000 0
-48 -975 976 0
-976 1001 0
-49 -976 977 0
-977 1002 0
-50 -977 978 0
-978 1003 0
-51 -978 979 0
-979 1004 0
-52 -979 980 0
-980 1005 0
-53 -980 981 0
-981 1006 0
-54 -981 982 0
-982 1007 0
-55 -982 983 0
-983 1008 0
-56 -983 984 0
-984 1009 0
-57 -984 985 0
-985 1010 0
-58 -985 986 0
-986 1011 0
-59 -986 987 0
-987 1012 0
-60 -987 988 0
-988 1013 0
-61 -988 989 0
-989 1014 0
-62 -989 990 0
-990 1015 0
-63 -990 991 0
-991 1016 0
-64 -991 992 0
-992 1017 0
-65 -992 993 0
-993 1018 0
-66 -993 994 0
-994 1019 0
-67 -994 995 0
-995 1020 0
-68 -995 996 0
-996 1021 0
-69 -996 997 0
-997 1022 0
-70 -997 998 0
-998 1023 0
-71 -998 0
-47 999 0
-999 1024 0
-48 -999 1000 0
-1000 1025 0
-49 -1000 1001 0
-1001 1026 0
-50 -1001 1002 0
-1002 1027 0
-51 -1002 1003 0
-1003 1028 0
-52 -1003 1004 0
-1004 1029 0
-53 -1004 1005 0
-1005 1030 0
-54 -1005 1006 0
-1006 1031 0
-55 -1006 1007 0
-1007 1032 0
-56 -1007 1008 0
-1008 1033 0
-57 -1008 1009 0
-1009 1034 0
-58 -1009 1010 0
-1010 1035 0
-59 -1010 1011 0
-1011 1036 0
-60 -1011 1012 0
-1012 1037 0
-61 -1012 1013 0
-1013 1038 0
-62 -1013 1014 0
-1014 1039 0
-63 -1014 1015 0
-1015 1040 0
-64 -1015 1016 0
-1016 1041 0
-65 -1016 1017 0
-1017 1042 0
-66 -1017 1018 0
-1018 1043 0
-67 -1018 1019 0
-1019 1044 0
-68 -1019 1020 0
-1020 1045 0
-69 -1020 1021 0
-1021 1046 0
-70 -1021 1022 0
-1022 1047 0
-71 -1022 1023 0
-1023 1048 0
-72 -1023 0
-48 1024 0
-1024 1049 0
-49 -1024 1025 0
-1025 1050 0
-50 -1025 1026 0
-1026 1051 0
-51 -1026 1027 0
-1027 1052 0
-52 -1027 1028 0
-1028 1053 0
-53 -1028 1029 0
-1029 1054 0
-54 -1029 1030 0
-1030 1055 0
-55 -1030 1031 0
-1031 1056 0
-56 -1031 1032 0
-1032 1057 0
-57 -1032 1033 0
-1033 1058 0
-58 -1033 1034 0
-1034 1059 0
-59 -1034 1035 0
-1035 1060 0
-60 -1035 1036 0
-1036 1061 0
-61 -1036 1037 0
-1037 1062 0
-62 -1037 1038 0
-1038 1063 0
-63 -1038 1039 0
-1039 1064 0
-64 -1039 1040 0
-1040 1065 0
-65 -1040 1041 0
-1041 1066 0
-66 -1041 1042 0
-1042 1067 0
-67 -1042 1043 0
-1043 1068 0
-68 -1043 1044 0
-1044 1069 0
-69 -1044 1045 0
-1045 1070 0
-70 -1045 1046 0
-1046 1071 0
-71 -1046 1047 0
-1047 1072 0
-72 -1047 1048 0
-1048 1073 0
-73 -1048 0
-49 1049 0
-1049 1074 0
-50 -1049 1050 0
-1050 1075 0
-51 -1050 1051 0
-1051 1076 0
-52 -1051 1052 0
-1052 1077 0
-53 -1052 1053 0
-1053 1078 0
-54 -1053 1054 0
-1054 1079 0
-55 -1054 1055 0
-1055 1080 0
-56 -1055 1056 0
-1056 1081 0
-57 -1056 1057 0
-1057 1082 0
-58 -1057 1058 0
-1058 1083 0
-59 -1058 1059 0
-1059 1084 0
-60 -1059 1060 0
-1060 1085 0
-61 -1060 1061 0
-1061 1086 0
-62 -1061 1062 0
-1062 1087 0
-63 -1062 1063 0
-1063 1088 0
-64 -1063 1064 0
-1064 1089 0
-65 -1064 1065 0
-1065 1090 0
-66 -1065 1066 0
-1066 1091 0
-67 -1066 1067 0
-1067 1092 0
-68 -1067 1068 0
-1068 1093 0
-69 -1068 1069 0
-1069 1094 0
-70 -1069 1070 0
-1070 1095 0
-71 -1070 1071 0
-1071 1096 0
-72 -1071 1072 0
-1072 1097 0
-73 -1072 1073 0
-1073 1098 0
-74 -1073 0
-50 1074 0
-1074 1099 0
-51 -1074 1075 0
-1075 1100 0
-52 -1075 1076 0
-1076 1101 0
-53 -1076 1077 0
-1077 1102 0
-54 -1077 1078 0
-1078 1103 0
-55 -1078 1079 0
-1079 1104 0
-56 -1079 1080 0
-1080 1105 0
-57 -1080 1081 0
-1081 1106 0
-58 -1081 1082 0
-1082 1107 0
-59 -1082 1083 0
-1083 1108 0
-60 -1083 1084 0
-1084 1109 0
-61 -1084 1085 0
-1085 1110 0
-62 -1085 1086 0
-1086 1111 0
-63 -1086 1087 0
-1087 1112 0
-64 -1087 1088 0
-1088 1113 0
-65 -1088 1089 0
-1089 1114 0
-66 -1089 1090 0
-1090 1115 0
-67 -1090 1091 0
-1091 1116 0
-68 -1091 1092 0
-1092 1117 0
-69 -1092 1093 0
-1093 1118 0
-70 -1093 1094 0
-1094 1119 0
-71 -1094 1095 0
-1095 1120 0
-72 -1095 1096 0
-1096 1121 0
-73 -1096 1097 0
-1097 1122 0
-74 -1097 1098 0
-1098 1123 0
-75 -1098 0
-51 1099 0
-1099 1124 0
-52 -1099 1100 0
-1100 1125 0
-53 -1100 1101 0
-1101 1126 0
-54 -1101 1102 0
-1102 1127 0
-55 -1102 1103 0
-1103 1128 0
-56 -1103 1104 0
-1104 1129 0
-57 -1104 1105 0
-1105 1130 0
-58 -1105 1106 0
-1106 1131 0
-59 -1106 1107 0
-1107 1132 0
-60 -1107 1108 0
-1108 1133 0
-61 -1108 1109 0
-1109 1134 0
-62 -1109 1110 0
-1110 1135 0
-63 -1110 1111 0
-1111 1136 0
-64 -1111 1112 0
-1112 1137 0
-65 -1112 1113 0
-1113 1138 0
-66 -1113 1114 0
-1114 1139 0
-67 -1114 1115 0
-1115 1140 0
-68 -1115 1116 0
-1116 1141 0
-69 -1116 1117 0
-1117 1142 0
-70 -1117 1118 0
-1118 1143 0
-71 -1118 1119 0
-1119 1144 0
-72 -1119 1120 0
-1120 1145 0
-73 -1120 1121 0
-1121 1146 0
-74 -1121 1122 0
-1122 1147 0
-75 -1122 1123 0
-1123 1148 0
-76 -1123 0
-52 1124 0
-1124 1149 0
-53 -1124 1125 0
-1125 1150 0
-54 -1125 1126 0
-1126 1151 0
-55 -1126 1127 0
-1127 1152 0
-56 -1127 1128 0
-1128 1153 0
-57 -1128 1129 0
-1129 1154 0
-58 -1129 1130 0
-1130 1155 0
-59 -1130 1131 0
-1131 1156 0
-60 -1131 1132 0
-1132 1157 0
-61 -1132 1133 0
-1133 1158 0
-62 -1133 1134 0
-1134 1159 0
-63 -1134 1135 0
-1135 1160 0
-64 -1135 1136 0
-1136 1161 0
-65 -1136 1137 0
-1137 1162 0
-66 -1137 1138 0
-1138 1163 0
-67 -1138 1139 0
-1139 1164 0
-68 -1139 1140 0
-1140 1165 0
-69 -1140 1141 0
-1141 1166 0
-70 -1141 1142 0
-1142 1167 0
-71 -1142 1143 0
-1143 1168 0
-72 -1143 1144 0
-1144 1169 0
-73 -1144 1145 0
-1145 1170 0
-74 -1145 1146 0
-1146 1171 0
-75 -1146 1147 0
-1147 1172 0
-76 -1147 1148 0
-1148 1173 0
-77 -1148 0
-53 1149 0
-1149 1174 0
-54 -1149 1150 0
-1150 1175 0
-55 -1150 1151 0
-1151 1176 0
-56 -1151 1152 0
-1152 1177 0
-57 -1152 1153 0
-1153 1178 0
-58 -1153 1154 0
-1154 1179 0
-59 -1154 1155 0
-1155 1180 0
-60 -1155 1156 0
-1156 1181 0
-61 -1156 1157 0
-1157 1182 0
-62 -1157 1158 0
-1158 1183 0
-63 -1158 1159 0
-1159 1184 0
-64 -1159 1160 0
-1160 1185 0
-65 -1160 1161 0
-1161 1186 0
-66 -1161 1162 0
-1162 1187 0
-67 -1162 1163 0
-1163 1188 0
-68 -1163 1164 0
-1164 1189 0
-69 -1164 1165 0
-1165 1190 0
-70 -1165 1166 0
-1166 1191 0
-71 -1166 1167 0
-1167 1192 0
-72 -1167 1168 0
-1168 1193 0
-73 -1168 1169 0
-1169 1194 0
-74 -1169 1170 0
-1170 1195 0
-75 -1170 1171 0
-1171 1196 0
-76 -1171 1172 0
-1172 1197 0
-77 -1172 1173 0
-1173 1198 0
-78 -1173 0
-54 1174 0
-1174 1199 0
-55 -1174 1175 0
-1175 1200 0
-56 -1175 1176 0
-1176 1201 0
-57 -1176 1177 0
-1177 1202 0
-58 -1177 1178 0
-1178 1203 0
-59 -1178 1179 0
-1179 1204 0
-60 -1179 1180 0
-1180 1205 0
-61 -1180 1181 0
-1181 1206 0
-62 -1181 1182 0
-1182 1207 0
-63 -1182 1183 0
-1183 1208 0
-64 -1183 1184 0
-1184 1209 0
-65 -1184 1185 0
-1185 1210 0
-66 -1185 1186 0
-1186 1211 0
-67 -1186 1187 0
-1187 1212 0
-68 -1187 1188 0
-1188 1213 0
-69 -1188 1189 0
-1189 1214 0
-70 -1189 1190 0
-1190 1215 0
-71 -1190 1191 0
-1191 1216 0
-72 -1191 1192 0
-1192 1217 0
-73 -1192 1193 0
-1193 1218 0
-74 -1193 1194 0
-1194 1219 0
-75 -1194 1195 0
-1195 1220 0
-76 -1195 1196 0
-1196 1221 0
-77 -1196 1197 0
-1197 1222 0
-78 -1197 1198 0
-1198 1223 0
-79 -1198 0
-55 1199 0
-56 -1199 1200 0
-57 -1200 1201 0
-58 -1201 1202 0
-59 -1202 1203 0
-60 -1203 1204 0
-61 -1204 1205 0
-62 -1205 1206 0
-63 -1206 1207 0
-64 -1207 1208 0
-65 -1208 1209 0
-66 -1209 1210 0
-67 -1210 1211 0
-68 -1211 1212 0
-69 -1212 1213 0
-70 -1213 1214 0
-71 -1214 1215 0
-72 -1215 1216 0
-73 -1216 1217 0
-74 -1217 1218 0
-75 -1218 1219 0
-76 -1219 1220 0
-77 -1220 1221 0
-78 -1221 1222 0
-79 -1222 1223 0
-80 -1223 0
1 21 0
