p cnf 2167 4397
-1 57 0
-2 57 0
-28 57 0
-29 57 0
-57 1 2 28 29 0
-2 58 0
-1 58 0
-3 58 0
-30 58 0
-58 2 1 3 30 0
-3 59 0
-2 59 0
-4 59 0
-31 59 0
-59 3 2 4 31 0
-4 60 0
-3 60 0
-5 60 0
-32 60 0
-60 4 3 5 32 0
-5 61 0
-4 61 0
-6 61 0
-33 61 0
-61 5 4 6 33 0
-6 62 0
-5 62 0
-7 62 0
-34 62 0
-62 6 5 7 34 0
-7 63 0
-6 63 0
-8 63 0
-35 63 0
-63 7 6 8 35 0
-8 64 0
-7 64 0
-9 64 0
-36 64 0
-64 8 7 9 36 0
-9 65 0
-8 65 0
-10 65 0
-37 65 0
-65 9 8 10 37 0
-10 66 0
-9 66 0
-11 66 0
-38 66 0
-66 10 9 11 38 0
-11 67 0
-10 67 0
-12 67 0
-39 67 0
-67 11 10 12 39 0
-12 68 0
-11 68 0
-13 68 0
-40 68 0
-68 12 11 13 40 0
-13 69 0
-12 69 0
-14 69 0
-41 69 0
-69 13 12 14 41 0
-14 70 0
-13 70 0
-15 70 0
-42 70 0
-70 14 13 15 42 0
-15 71 0
-14 71 0
-16 71 0
-43 71 0
-71 15 14 16 43 0
-16 72 0
-15 72 0
-17 72 0
-44 72 0
-72 16 15 17 44 0
-17 73 0
-16 73 0
-18 73 0
-45 73 0
-73 17 16 18 45 0
-18 74 0
-17 74 0
-19 74 0
-46 74 0
-74 18 17 19 46 0
-19 75 0
-18 75 0
-20 75 0
-47 75 0
-75 19 18 20 47 0
-20 76 0
-19 76 0
-21 76 0
-48 76 0
-76 20 19 21 48 0
-21 77 0
-20 77 0
-22 77 0
-49 77 0
-77 21 20 22 49 0
-22 78 0
-21 78 0
-23 78 0
-50 78 0
-78 22 21 23 50 0
-23 79 0
-22 79 0
-24 79 0
-51 79 0
-79 23 22 24 51 0
-24 80 0
-23 80 0
-25 80 0
-52 80 0
-80 24 23 25 52 0
-25 81 0
-24 81 0
-26 81 0
-53 81 0
-81 25 24 26 53 0
-26 82 0
-25 82 0
-27 82 0
-54 82 0
-82 26 25 27 54 0
-27 83 0
-26 83 0
-28 83 0
-55 83 0
-83 27 26 28 55 0
-28 84 0
-1 84 0
-27 84 0
-56 84 0
-84 28 1 27 56 0
-29 85 0
-1 85 0
-33 85 0
-53 85 0
-85 29 1 33 53 0
-30 86 0
-2 86 0
-34 86 0
-54 86 0
-86 30 2 34 54 0
-31 87 0
-3 87 0
-35 87 0
-55 87 0
-87 31 3 35 55 0
-32 88 0
-4 88 0
-36 88 0
-56 88 0
-88 32 4 36 56 0
-33 89 0
-5 89 0
-29 89 0
-37 89 0
-89 33 5 29 37 0
-34 90 0
-6 90 0
-30 90 0
-38 90 0
-90 34 6 30 38 0
-35 91 0
-7 91 0
-31 91 0
-39 91 0
-91 35 7 31 39 0
-36 92 0
-8 92 0
-32 92 0
-40 92 0
-92 36 8 32 40 0
-37 93 0
-9 93 0
-33 93 0
-41 93 0
-93 37 9 33 41 0
-38 94 0
-10 94 0
-34 94 0
-42 94 0
-94 38 10 34 42 0
-39 95 0
-11 95 0
-35 95 0
-43 95 0
-95 39 11 35 43 0
-40 96 0
-12 96 0
-36 96 0
-44 96 0
-96 40 12 36 44 0
-41 97 0
-13 97 0
-37 97 0
-45 97 0
-97 41 13 37 45 0
-42 98 0
-14 98 0
-38 98 0
-46 98 0
-98 42 14 38 46 0
-43 99 0
-15 99 0
-39 99 0
-47 99 0
-99 43 15 39 47 0
-44 100 0
-16 100 0
-40 100 0
-48 100 0
-100 44 16 40 48 0
-45 101 0
-17 101 0
-41 101 0
-49 101 0
-101 45 17 41 49 0
-46 102 0
-18 102 0
-42 102 0
-50 102 0
-102 46 18 42 50 0
-47 103 0
-19 103 0
-43 103 0
-51 103 0
-103 47 19 43 51 0
-48 104 0
-20 104 0
-44 104 0
-52 104 0
-104 48 20 44 52 0
-49 105 0
-21 105 0
-45 105 0
-53 105 0
-105 49 21 45 53 0
-50 106 0
-22 106 0
-46 106 0
-54 106 0
-106 50 22 46 54 0
-51 107 0
-23 107 0
-47 107 0
-55 107 0
-107 51 23 47 55 0
-52 108 0
-24 108 0
-48 108 0
-56 108 0
-108 52 24 48 56 0
-53 109 0
-25 109 0
-29 109 0
-49 109 0
-109 53 25 29 49 0
-54 110 0
-26 110 0
-30 110 0
-50 110 0
-110 54 26 30 50 0
-55 111 0
-27 111 0
-31 111 0
-51 111 0
-111 55 27 31 51 0
-56 112 0
-28 112 0
-32 112 0
-52 112 0
-112 56 28 32 52 0
1 113 0
-113 114 0
2 -113 115 0
-115 116 0
3 -115 117 0
-117 118 0
4 -117 119 0
-119 120 0
5 -119 121 0
-121 122 0
6 -121 123 0
-123 124 0
7 -123 125 0
-125 126 0
8 -125 127 0
-127 128 0
9 -127 129 0
-129 130 0
10 -129 131 0
-131 132 0
11 -131 133 0
-133 134 0
12 -133 135 0
-135 136 0
13 -135 137 0
-137 138 0
14 -137 139 0
-139 140 0
15 -139 141 0
-141 142 0
16 -141 143 0
-143 144 0
17 -143 145 0
-145 146 0
18 -145 147 0
-147 148 0
19 -147 149 0
-149 150 0
20 -149 151 0
-151 152 0
21 -151 153 0
-153 154 0
22 -153 155 0
-155 156 0
23 -155 157 0
-157 158 0
24 -157 159 0
-159 160 0
25 -159 161 0
-161 162 0
26 -161 163 0
-163 164 0
27 -163 165 0
-165 166 0
28 -165 167 0
-167 168 0
29 -167 169 0
-169 170 0
30 -169 171 0
-171 172 0
31 -171 173 0
-173 174 0
32 -173 175 0
-175 176 0
33 -175 177 0
-177 178 0
34 -177 179 0
-179 180 0
35 -179 181 0
-181 182 0
36 -181 183 0
-183 184 0
37 -183 185 0
-185 186 0
38 -185 187 0
-187 188 0
39 -187 189 0
-189 190 0
40 -189 191 0
-191 192 0
41 -191 0
2 114 0
-114 193 0
3 -114 116 0
-116 194 0
4 -116 118 0
-118 195 0
5 -118 120 0
-120 196 0
6 -120 122 0
-122 197 0
7 -122 124 0
-124 198 0
8 -124 126 0
-126 199 0
9 -126 128 0
-128 200 0
10 -128 130 0
-130 201 0
11 -130 132 0
-132 202 0
12 -132 134 0
-134 203 0
13 -134 136 0
-136 204 0
14 -136 138 0
-138 205 0
15 -138 140 0
-140 206 0
16 -140 142 0
-142 207 0
17 -142 144 0
-144 208 0
18 -144 146 0
-146 209 0
19 -146 148 0
-148 210 0
20 -148 150 0
-150 211 0
21 -150 152 0
-152 212 0
22 -152 154 0
-154 213 0
23 -154 156 0
-156 214 0
24 -156 158 0
-158 215 0
25 -158 160 0
-160 216 0
26 -160 162 0
-162 217 0
27 -162 164 0
-164 218 0
28 -164 166 0
-166 219 0
29 -166 168 0
-168 220 0
30 -168 170 0
-170 221 0
31 -170 172 0
-172 222 0
32 -172 174 0
-174 223 0
33 -174 176 0
-176 224 0
34 -176 178 0
-178 225 0
35 -178 180 0
-180 226 0
36 -180 182 0
-182 227 0
37 -182 184 0
-184 228 0
38 -184 186 0
-186 229 0
39 -186 188 0
-188 230 0
40 -188 190 0
-190 231 0
41 -190 192 0
-192 232 0
42 -192 0
3 193 0
-193 233 0
4 -193 194 0
-194 234 0
5 -194 195 0
-195 235 0
6 -195 196 0
-196 236 0
7 -196 197 0
-197 237 0
8 -197 198 0
-198 238 0
9 -198 199 0
-199 239 0
10 -199 200 0
-200 240 0
11 -200 201 0
-201 241 0
12 -201 202 0
-202 242 0
13 -202 203 0
-203 243 0
14 -203 204 0
-204 244 0
15 -204 205 0
-205 245 0
16 -205 206 0
-206 246 0
17 -206 207 0
-207 247 0
18 -207 208 0
-208 248 0
19 -208 209 0
-209 249 0
20 -209 210 0
-210 250 0
21 -210 211 0
-211 251 0
22 -211 212 0
-212 252 0
23 -212 213 0
-213 253 0
24 -213 214 0
-214 254 0
25 -214 215 0
-215 255 0
26 -215 216 0
-216 256 0
27 -216 217 0
-217 257 0
28 -217 218 0
-218 258 0
29 -218 219 0
-219 259 0
30 -219 220 0
-220 260 0
31 -220 221 0
-221 261 0
32 -221 222 0
-222 262 0
33 -222 223 0
-223 263 0
34 -223 224 0
-224 264 0
35 -224 225 0
-225 265 0
36 -225 226 0
-226 266 0
37 -226 227 0
-227 267 0
38 -227 228 0
-228 268 0
39 -228 229 0
-229 269 0
40 -229 230 0
-230 270 0
41 -230 231 0
-231 271 0
42 -231 232 0
-232 272 0
43 -232 0
4 233 0
-233 273 0
5 -233 234 0
-234 274 0
6 -234 235 0
-235 275 0
7 -235 236 0
-236 276 0
8 -236 237 0
-237 277 0
9 -237 238 0
-238 278 0
10 -238 239 0
-239 279 0
11 -239 240 0
-240 280 0
12 -240 241 0
-241 281 0
13 -241 242 0
-242 282 0
14 -242 243 0
-243 283 0
15 -243 244 0
-244 284 0
16 -244 245 0
-245 285 0
17 -245 246 0
-246 286 0
18 -246 247 0
-247 287 0
19 -247 248 0
-248 288 0
20 -248 249 0
-249 289 0
21 -249 250 0
-250 290 0
22 -250 251 0
-251 291 0
23 -251 252 0
-252 292 0
24 -252 253 0
-253 293 0
25 -253 254 0
-254 294 0
26 -254 255 0
-255 295 0
27 -255 256 0
-256 296 0
28 -256 257 0
-257 297 0
29 -257 258 0
-258 298 0
30 -258 259 0
-259 299 0
31 -259 260 0
-260 300 0
32 -260 261 0
-261 301 0
33 -261 262 0
-262 302 0
34 -262 263 0
-263 303 0
35 -263 264 0
-264 304 0
36 -264 265 0
-265 305 0
37 -265 266 0
-266 306 0
38 -266 267 0
-267 307 0
39 -267 268 0
-268 308 0
40 -268 269 0
-269 309 0
41 -269 270 0
-270 310 0
42 -270 271 0
-271 311 0
43 -271 272 0
-272 312 0
44 -272 0
5 273 0
-273 313 0
6 -273 274 0
-274 314 0
7 -274 275 0
-275 315 0
8 -275 276 0
-276 316 0
9 -276 277 0
-277 317 0
10 -277 278 0
-278 318 0
11 -278 279 0
-279 319 0
12 -279 280 0
-280 320 0
13 -280 281 0
-281 321 0
14 -281 282 0
-282 322 0
15 -282 283 0
-283 323 0
16 -283 284 0
-284 324 0
17 -284 285 0
-285 325 0
18 -285 286 0
-286 326 0
19 -286 287 0
-287 327 0
20 -287 288 0
-288 328 0
21 -288 289 0
-289 329 0
22 -289 290 0
-290 330 0
23 -290 291 0
-291 331 0
24 -291 292 0
-292 332 0
25 -292 293 0
-293 333 0
26 -293 294 0
-294 334 0
27 -294 295 0
-295 335 0
28 -295 296 0
-296 336 0
29 -296 297 0
-297 337 0
30 -297 298 0
-298 338 0
31 -298 299 0
-299 339 0
32 -299 300 0
-300 340 0
33 -300 301 0
-301 341 0
34 -301 302 0
-302 342 0
35 -302 303 0
-303 343 0
36 -303 304 0
-304 344 0
37 -304 305 0
-305 345 0
38 -305 306 0
-306 346 0
39 -306 307 0
-307 347 0
40 -307 308 0
-308 348 0
41 -308 309 0
-309 349 0
42 -309 310 0
-310 350 0
43 -310 311 0
-311 351 0
44 -311 312 0
-312 352 0
45 -312 0
6 313 0
-313 353 0
7 -313 314 0
-314 354 0
8 -314 315 0
-315 355 0
9 -315 316 0
-316 356 0
10 -316 317 0
-317 357 0
11 -317 318 0
-318 358 0
12 -318 319 0
-319 359 0
13 -319 320 0
-320 360 0
14 -320 321 0
-321 361 0
15 -321 322 0
-322 362 0
16 -322 323 0
-323 363 0
17 -323 324 0
-324 364 0
18 -324 325 0
-325 365 0
19 -325 326 0
-326 366 0
20 -326 327 0
-327 367 0
21 -327 328 0
-328 368 0
22 -328 329 0
-329 369 0
23 -329 330 0
-330 370 0
24 -330 331 0
-331 371 0
25 -331 332 0
-332 372 0
26 -332 333 0
-333 373 0
27 -333 334 0
-334 374 0
28 -334 335 0
-335 375 0
29 -335 336 0
-336 376 0
30 -336 337 0
-337 377 0
31 -337 338 0
-338 378 0
32 -338 339 0
-339 379 0
33 -339 340 0
-340 380 0
34 -340 341 0
-341 381 0
35 -341 342 0
-342 382 0
36 -342 343 0
-343 383 0
37 -343 344 0
-344 384 0
38 -344 345 0
-345 385 0
39 -345 346 0
-346 386 0
40 -346 347 0
-347 387 0
41 -347 348 0
-348 388 0
42 -348 349 0
-349 389 0
43 -349 350 0
-350 390 0
44 -350 351 0
-351 391 0
45 -351 352 0
-352 392 0
46 -352 0
7 353 0
-353 393 0
8 -353 354 0
-354 394 0
9 -354 355 0
-355 395 0
10 -355 356 0
-356 396 0
11 -356 357 0
-357 397 0
12 -357 358 0
-358 398 0
13 -358 359 0
-359 399 0
14 -359 360 0
-360 400 0
15 -360 361 0
-361 401 0
16 -361 362 0
-362 402 0
17 -362 363 0
-363 403 0
18 -363 364 0
-364 404 0
19 -364 365 0
-365 405 0
20 -365 366 0
-366 406 0
21 -366 367 0
-367 407 0
22 -367 368 0
-368 408 0
23 -368 369 0
-369 409 0
24 -369 370 0
-370 410 0
25 -370 371 0
-371 411 0
26 -371 372 0
-372 412 0
27 -372 373 0
-373 413 0
28 -373 374 0
-374 414 0
29 -374 375 0
-375 415 0
30 -375 376 0
-376 416 0
31 -376 377 0
-377 417 0
32 -377 378 0
-378 418 0
33 -378 379 0
-379 419 0
34 -379 380 0
-380 420 0
35 -380 381 0
-381 421 0
36 -381 382 0
-382 422 0
37 -382 383 0
-383 423 0
38 -383 384 0
-384 424 0
39 -384 385 0
-385 425 0
40 -385 386 0
-386 426 0
41 -386 387 0
-387 427 0
42 -387 388 0
-388 428 0
43 -388 389 0
-389 429 0
44 -389 390 0
-390 430 0
45 -390 391 0
-391 431 0
46 -391 392 0
-392 432 0
47 -392 0
8 393 0
-393 433 0
9 -393 394 0
-394 434 0
10 -394 395 0
-395 435 0
11 -395 396 0
-396 436 0
12 -396 397 0
-397 437 0
13 -397 398 0
-398 438 0
14 -398 399 0
-399 439 0
15 -399 400 0
-400 440 0
16 -400 401 0
-401 441 0
17 -401 402 0
-402 442 0
18 -402 403 0
-403 443 0
19 -403 404 0
-404 444 0
20 -404 405 0
-405 445 0
21 -405 406 0
-406 446 0
22 -406 407 0
-407 447 0
23 -407 408 0
-408 448 0
24 -408 409 0
-409 449 0
25 -409 410 0
-410 450 0
26 -410 411 0
-411 451 0
27 -411 412 0
-412 452 0
28 -412 413 0
-413 453 0
29 -413 414 0
-414 454 0
30 -414 415 0
-415 455 0
31 -415 416 0
-416 456 0
32 -416 417 0
-417 457 0
33 -417 418 0
-418 458 0
34 -418 419 0
-419 459 0
35 -419 420 0
-420 460 0
36 -420 421 0
-421 461 0
37 -421 422 0
-422 462 0
38 -422 423 0
-423 463 0
39 -423 424 0
-424 464 0
40 -424 425 0
-425 465 0
41 -425 426 0
-426 466 0
42 -426 427 0
-427 467 0
43 -427 428 0
-428 468 0
44 -428 429 0
-429 469 0
45 -429 430 0
-430 470 0
46 -430 431 0
-431 471 0
47 -431 432 0
-432 472 0
48 -432 0
9 433 0
-433 473 0
10 -433 434 0
-434 474 0
11 -434 435 0
-435 475 0
12 -435 436 0
-436 476 0
13 -436 437 0
-437 477 0
14 -437 438 0
-438 478 0
15 -438 439 0
-439 479 0
16 -439 440 0
-440 480 0
17 -440 441 0
-441 481 0
18 -441 442 0
-442 482 0
19 -442 443 0
-443 483 0
20 -443 444 0
-444 484 0
21 -444 445 0
-445 485 0
22 -445 446 0
-446 486 0
23 -446 447 0
-447 487 0
24 -447 448 0
-448 488 0
25 -448 449 0
-449 489 0
26 -449 450 0
-450 490 0
27 -450 451 0
-451 491 0
28 -451 452 0
-452 492 0
29 -452 453 0
-453 493 0
30 -453 454 0
-454 494 0
31 -454 455 0
-455 495 0
32 -455 456 0
-456 496 0
33 -456 457 0
-457 497 0
34 -457 458 0
-458 498 0
35 -458 459 0
-459 499 0
36 -459 460 0
-460 500 0
37 -460 461 0
-461 501 0
38 -461 462 0
-462 502 0
39 -462 463 0
-463 503 0
40 -463 464 0
-464 504 0
41 -464 465 0
-465 505 0
42 -465 466 0
-466 506 0
43 -466 467 0
-467 507 0
44 -467 468 0
-468 508 0
45 -468 469 0
-469 509 0
46 -469 470 0
-470 510 0
47 -470 471 0
-471 511 0
48 -471 472 0
-472 512 0
49 -472 0
10 473 0
-473 513 0
11 -473 474 0
-474 514 0
12 -474 475 0
-475 515 0
13 -475 476 0
-476 516 0
14 -476 477 0
-477 517 0
15 -477 478 0
-478 518 0
16 -478 479 0
-479 519 0
17 -479 480 0
-480 520 0
18 -480 481 0
-481 521 0
19 -481 482 0
-482 522 0
20 -482 483 0
-483 523 0
21 -483 484 0
-484 524 0
22 -484 485 0
-485 525 0
23 -485 486 0
-486 526 0
24 -486 487 0
-487 527 0
25 -487 488 0
-488 528 0
26 -488 489 0
-489 529 0
27 -489 490 0
-490 530 0
28 -490 491 0
-491 531 0
29 -491 492 0
-492 532 0
30 -492 493 0
-493 533 0
31 -493 494 0
-494 534 0
32 -494 495 0
-495 535 0
33 -495 496 0
-496 536 0
34 -496 497 0
-497 537 0
35 -497 498 0
-498 538 0
36 -498 499 0
-499 539 0
37 -499 500 0
-500 540 0
38 -500 501 0
-501 541 0
39 -501 502 0
-502 542 0
40 -502 503 0
-503 543 0
41 -503 504 0
-504 544 0
42 -504 505 0
-505 545 0
43 -505 506 0
-506 546 0
44 -506 507 0
-507 547 0
45 -507 508 0
-508 548 0
46 -508 509 0
-509 549 0
47 -509 510 0
-510 550 0
48 -510 511 0
-511 551 0
49 -511 512 0
-512 552 0
50 -512 0
11 513 0
-513 553 0
12 -513 514 0
-514 554 0
13 -514 515 0
-515 555 0
14 -515 516 0
-516 556 0
15 -516 517 0
-517 557 0
16 -517 518 0
-518 558 0
17 -518 519 0
-519 559 0
18 -519 520 0
-520 560 0
19 -520 521 0
-521 561 0
20 -521 522 0
-522 562 0
21 -522 523 0
-523 563 0
22 -523 524 0
-524 564 0
23 -524 525 0
-525 565 0
24 -525 526 0
-526 566 0
25 -526 527 0
-527 567 0
26 -527 528 0
-528 568 0
27 -528 529 0
-529 569 0
28 -529 530 0
-530 570 0
29 -530 531 0
-531 571 0
30 -531 532 0
-532 572 0
31 -532 533 0
-533 573 0
32 -533 534 0
-534 574 0
33 -534 535 0
-535 575 0
34 -535 536 0
-536 576 0
35 -536 537 0
-537 577 0
36 -537 538 0
-538 578 0
37 -538 539 0
-539 579 0
38 -539 540 0
-540 580 0
39 -540 541 0
-541 581 0
40 -541 542 0
-542 582 0
41 -542 543 0
-543 583 0
42 -543 544 0
-544 584 0
43 -544 545 0
-545 585 0
44 -545 546 0
-546 586 0
45 -546 547 0
-547 587 0
46 -547 548 0
-548 588 0
47 -548 549 0
-549 589 0
48 -549 550 0
-550 590 0
49 -550 551 0
-551 591 0
50 -551 552 0
-552 592 0
51 -552 0
12 553 0
-553 593 0
13 -553 554 0
-554 594 0
14 -554 555 0
-555 595 0
15 -555 556 0
-556 596 0
16 -556 557 0
-557 597 0
17 -557 558 0
-558 598 0
18 -558 559 0
-559 599 0
19 -559 560 0
-560 600 0
20 -560 561 0
-561 601 0
21 -561 562 0
-562 602 0
22 -562 563 0
-563 603 0
23 -563 564 0
-564 604 0
24 -564 565 0
-565 605 0
25 -565 566 0
-566 606 0
26 -566 567 0
-567 607 0
27 -567 568 0
-568 608 0
28 -568 569 0
-569 609 0
29 -569 570 0
-570 610 0
30 -570 571 0
-571 611 0
31 -571 572 0
-572 612 0
32 -572 573 0
-573 613 0
33 -573 574 0
-574 614 0
34 -574 575 0
-575 615 0
35 -575 576 0
-576 616 0
36 -576 577 0
-577 617 0
37 -577 578 0
-578 618 0
38 -578 579 0
-579 619 0
39 -579 580 0
-580 620 0
40 -580 581 0
-581 621 0
41 -581 582 0
-582 622 0
42 -582 583 0
-583 623 0
43 -583 584 0
-584 624 0
44 -584 585 0
-585 625 0
45 -585 586 0
-586 626 0
46 -586 587 0
-587 627 0
47 -587 588 0
-588 628 0
48 -588 589 0
-589 629 0
49 -589 590 0
-590 630 0
50 -590 591 0
-591 631 0
51 -591 592 0
-592 632 0
52 -592 0
13 593 0
-593 633 0
14 -593 594 0
-594 634 0
15 -594 595 0
-595 635 0
16 -595 596 0
-596 636 0
17 -596 597 0
-597 637 0
18 -597 598 0
-598 638 0
19 -598 599 0
-599 639 0
20 -599 600 0
-600 640 0
21 -600 601 0
-601 641 0
22 -601 602 0
-602 642 0
23 -602 603 0
-603 643 0
24 -603 604 0
-604 644 0
25 -604 605 0
-605 645 0
26 -605 606 0
-606 646 0
27 -606 607 0
-607 647 0
28 -607 608 0
-608 648 0
29 -608 609 0
-609 649 0
30 -609 610 0
-610 650 0
31 -610 611 0
-611 651 0
32 -611 612 0
-612 652 0
33 -612 613 0
-613 653 0
34 -613 614 0
-614 654 0
35 -614 615 0
-615 655 0
36 -615 616 0
-616 656 0
37 -616 617 0
-617 657 0
38 -617 618 0
-618 658 0
39 -618 619 0
-619 659 0
40 -619 620 0
-620 660 0
41 -620 621 0
-621 661 0
42 -621 622 0
-622 662 0
43 -622 623 0
-623 663 0
44 -623 624 0
-624 664 0
45 -624 625 0
-625 665 0
46 -625 626 0
-626 666 0
47 -626 627 0
-627 667 0
48 -627 628 0
-628 668 0
49 -628 629 0
-629 669 0
50 -629 630 0
-630 670 0
51 -630 631 0
-631 671 0
52 -631 632 0
-632 672 0
53 -632 0
14 633 0
-633 673 0
15 -633 634 0
-634 674 0
16 -634 635 0
-635 675 0
17 -635 636 0
-636 676 0
18 -636 637 0
-637 677 0
19 -637 638 0
-638 678 0
20 -638 639 0
-639 679 0
21 -639 640 0
-640 680 0
22 -640 641 0
-641 681 0
23 -641 642 0
-642 682 0
24 -642 643 0
-643 683 0
25 -643 644 0
-644 684 0
26 -644 645 0
-645 685 0
27 -645 646 0
-646 686 0
28 -646 647 0
-647 687 0
29 -647 648 0
-648 688 0
30 -648 649 0
-649 689 0
31 -649 650 0
-650 690 0
32 -650 651 0
-651 691 0
33 -651 652 0
-652 692 0
34 -652 653 0
-653 693 0
35 -653 654 0
-654 694 0
36 -654 655 0
-655 695 0
37 -655 656 0
-656 696 0
38 -656 657 0
-657 697 0
39 -657 658 0
-658 698 0
40 -658 659 0
-659 699 0
41 -659 660 0
-660 700 0
42 -660 661 0
-661 701 0
43 -661 662 0
-662 702 0
44 -662 663 0
-663 703 0
45 -663 664 0
-664 704 0
46 -664 665 0
-665 705 0
47 -665 666 0
-666 706 0
48 -666 667 0
-667 707 0
49 -667 668 0
-668 708 0
50 -668 669 0
-669 709 0
51 -669 670 0
-670 710 0
52 -670 671 0
-671 711 0
53 -671 672 0
-672 712 0
54 -672 0
15 673 0
-673 713 0
16 -673 674 0
-674 714 0
17 -674 675 0
-675 715 0
18 -675 676 0
-676 716 0
19 -676 677 0
-677 717 0
20 -677 678 0
-678 718 0
21 -678 679 0
-679 719 0
22 -679 680 0
-680 720 0
23 -680 681 0
-681 721 0
24 -681 682 0
-682 722 0
25 -682 683 0
-683 723 0
26 -683 684 0
-684 724 0
27 -684 685 0
-685 725 0
28 -685 686 0
-686 726 0
29 -686 687 0
-687 727 0
30 -687 688 0
-688 728 0
31 -688 689 0
-689 729 0
32 -689 690 0
-690 730 0
33 -690 691 0
-691 731 0
34 -691 692 0
-692 732 0
35 -692 693 0
-693 733 0
36 -693 694 0
-694 734 0
37 -694 695 0
-695 735 0
38 -695 696 0
-696 736 0
39 -696 697 0
-697 737 0
40 -697 698 0
-698 738 0
41 -698 699 0
-699 739 0
42 -699 700 0
-700 740 0
43 -700 701 0
-701 741 0
44 -701 702 0
-702 742 0
45 -702 703 0
-703 743 0
46 -703 704 0
-704 744 0
47 -704 705 0
-705 745 0
48 -705 706 0
-706 746 0
49 -706 707 0
-707 747 0
50 -707 708 0
-708 748 0
51 -708 709 0
-709 749 0
52 -709 710 0
-710 750 0
53 -710 711 0
-711 751 0
54 -711 712 0
-712 752 0
55 -712 0
16 713 0
17 -713 714 0
18 -714 715 0
19 -715 716 0
20 -716 717 0
21 -717 718 0
22 -718 719 0
23 -719 720 0
24 -720 721 0
25 -721 722 0
26 -722 723 0
27 -723 724 0
28 -724 725 0
29 -725 726 0
30 -726 727 0
31 -727 728 0
32 -728 729 0
33 -729 730 0
34 -730 731 0
35 -731 732 0
36 -732 733 0
37 -733 734 0
38 -734 735 0
39 -735 736 0
40 -736 737 0
41 -737 738 0
42 -738 739 0
43 -739 740 0
44 -740 741 0
45 -741 742 0
46 -742 743 0
47 -743 744 0
48 -744 745 0
49 -745 746 0
50 -746 747 0
51 -747 748 0
52 -748 749 0
53 -749 750 0
54 -750 751 0
55 -751 752 0
56 -752 0
-1 753 0
-753 754 0
-2 -753 755 0
-755 756 0
-3 -755 757 0
-757 758 0
-4 -757 759 0
-759 760 0
-5 -759 761 0
-761 762 0
-6 -761 763 0
-763 764 0
-7 -763 765 0
-765 766 0
-8 -765 767 0
-767 768 0
-9 -767 769 0
-769 770 0
-10 -769 771 0
-771 772 0
-11 -771 773 0
-773 774 0
-12 -773 775 0
-775 776 0
-13 -775 777 0
-777 778 0
-14 -777 779 0
-779 780 0
-15 -779 781 0
-781 782 0
-16 -781 783 0
-783 784 0
-17 -783 0
-2 754 0
-754 785 0
-3 -754 756 0
-756 786 0
-4 -756 758 0
-758 787 0
-5 -758 760 0
-760 788 0
-6 -760 762 0
-762 789 0
-7 -762 764 0
-764 790 0
-8 -764 766 0
-766 791 0
-9 -766 768 0
-768 792 0
-10 -768 770 0
-770 793 0
-11 -770 772 0
-772 794 0
-12 -772 774 0
-774 795 0
-13 -774 776 0
-776 796 0
-14 -776 778 0
-778 797 0
-15 -778 780 0
-780 798 0
-16 -780 782 0
-782 799 0
-17 -782 784 0
-784 800 0
-18 -784 0
-3 785 0
-785 801 0
-4 -785 786 0
-786 802 0
-5 -786 787 0
-787 803 0
-6 -787 788 0
-788 804 0
-7 -788 789 0
-789 805 0
-8 -789 790 0
-790 806 0
-9 -790 791 0
-791 807 0
-10 -791 792 0
-792 808 0
-11 -792 793 0
-793 809 0
-12 -793 794 0
-794 810 0
-13 -794 795 0
-795 811 0
-14 -795 796 0
-796 812 0
-15 -796 797 0
-797 813 0
-16 -797 798 0
-798 814 0
-17 -798 799 0
-799 815 0
-18 -799 800 0
-800 816 0
-19 -800 0
-4 801 0
-801 817 0
-5 -801 802 0
-802 818 0
-6 -802 803 0
-803 819 0
-7 -803 804 0
-804 820 0
-8 -804 805 0
-805 821 0
-9 -805 806 0
-806 822 0
-10 -806 807 0
-807 823 0
-11 -807 808 0
-808 824 0
-12 -808 809 0
-809 825 0
-13 -809 810 0
-810 826 0
-14 -810 811 0
-811 827 0
-15 -811 812 0
-812 828 0
-16 -812 813 0
-813 829 0
-17 -813 814 0
-814 830 0
-18 -814 815 0
-815 831 0
-19 -815 816 0
-816 832 0
-20 -816 0
-5 817 0
-817 833 0
-6 -817 818 0
-818 834 0
-7 -818 819 0
-819 835 0
-8 -819 820 0
-820 836 0
-9 -820 821 0
-821 837 0
-10 -821 822 0
-822 838 0
-11 -822 823 0
-823 839 0
-12 -823 824 0
-824 840 0
-13 -824 825 0
-825 841 0
-14 -825 826 0
-826 842 0
-15 -826 827 0
-827 843 0
-16 -827 828 0
-828 844 0
-17 -828 829 0
-829 845 0
-18 -829 830 0
-830 846 0
-19 -830 831 0
-831 847 0
-20 -831 832 0
-832 848 0
-21 -832 0
-6 833 0
-833 849 0
-7 -833 834 0
-834 850 0
-8 -834 835 0
-835 851 0
-9 -835 836 0
-836 852 0
-10 -836 837 0
-837 853 0
-11 -837 838 0
-838 854 0
-12 -838 839 0
-839 855 0
-13 -839 840 0
-840 856 0
-14 -840 841 0
-841 857 0
-15 -841 842 0
-842 858 0
-16 -842 843 0
-843 859 0
-17 -843 844 0
-844 860 0
-18 -844 845 0
-845 861 0
-19 -845 846 0
-846 862 0
-20 -846 847 0
-847 863 0
-21 -847 848 0
-848 864 0
-22 -848 0
-7 849 0
-849 865 0
-8 -849 850 0
-850 866 0
-9 -850 851 0
-851 867 0
-10 -851 852 0
-852 868 0
-11 -852 853 0
-853 869 0
-12 -853 854 0
-854 870 0
-13 -854 855 0
-855 871 0
-14 -855 856 0
-856 872 0
-15 -856 857 0
-857 873 0
-16 -857 858 0
-858 874 0
-17 -858 859 0
-859 875 0
-18 -859 860 0
-860 876 0
-19 -860 861 0
-861 877 0
-20 -861 862 0
-862 878 0
-21 -862 863 0
-863 879 0
-22 -863 864 0
-864 880 0
-23 -864 0
-8 865 0
-865 881 0
-9 -865 866 0
-866 882 0
-10 -866 867 0
-867 883 0
-11 -867 868 0
-868 884 0
-12 -868 869 0
-869 885 0
-13 -869 870 0
-870 886 0
-14 -870 871 0
-871 887 0
-15 -871 872 0
-872 888 0
-16 -872 873 0
-873 889 0
-17 -873 874 0
-874 890 0
-18 -874 875 0
-875 891 0
-19 -875 876 0
-876 892 0
-20 -876 877 0
-877 893 0
-21 -877 878 0
-878 894 0
-22 -878 879 0
-879 895 0
-23 -879 880 0
-880 896 0
-24 -880 0
-9 881 0
-881 897 0
-10 -881 882 0
-882 898 0
-11 -882 883 0
-883 899 0
-12 -883 884 0
-884 900 0
-13 -884 885 0
-885 901 0
-14 -885 886 0
-886 902 0
-15 -886 887 0
-887 903 0
-16 -887 888 0
-888 904 0
-17 -888 889 0
-889 905 0
-18 -889 890 0
-890 906 0
-19 -890 891 0
-891 907 0
-20 -891 892 0
-892 908 0
-21 -892 893 0
-893 909 0
-22 -893 894 0
-894 910 0
-23 -894 895 0
-895 911 0
-24 -895 896 0
-896 912 0
-25 -896 0
-10 897 0
-897 913 0
-11 -897 898 0
-898 914 0
-12 -898 899 0
-899 915 0
-13 -899 900 0
-900 916 0
-14 -900 901 0
-901 917 0
-15 -901 902 0
-902 918 0
-16 -902 903 0
-903 919 0
-17 -903 904 0
-904 920 0
-18 -904 905 0
-905 921 0
-19 -905 906 0
-906 922 0
-20 -906 907 0
-907 923 0
-21 -907 908 0
-908 924 0
-22 -908 909 0
-909 925 0
-23 -909 910 0
-910 926 0
-24 -910 911 0
-911 927 0
-25 -911 912 0
-912 928 0
-26 -912 0
-11 913 0
-913 929 0
-12 -913 914 0
-914 930 0
-13 -914 915 0
-915 931 0
-14 -915 916 0
-916 932 0
-15 -916 917 0
-917 933 0
-16 -917 918 0
-918 934 0
-17 -918 919 0
-919 935 0
-18 -919 920 0
-920 936 0
-19 -920 921 0
-921 937 0
-20 -921 922 0
-922 938 0
-21 -922 923 0
-923 939 0
-22 -923 924 0
-924 940 0
-23 -924 925 0
-925 941 0
-24 -925 926 0
-926 942 0
-25 -926 927 0
-927 943 0
-26 -927 928 0
-928 944 0
-27 -928 0
-12 929 0
-929 945 0
-13 -929 930 0
-930 946 0
-14 -930 931 0
-931 947 0
-15 -931 932 0
-932 948 0
-16 -932 933 0
-933 949 0
-17 -933 934 0
-934 950 0
-18 -934 935 0
-935 951 0
-19 -935 936 0
-936 952 0
-20 -936 937 0
-937 953 0
-21 -937 938 0
-938 954 0
-22 -938 939 0
-939 955 0
-23 -939 940 0
-940 956 0
-24 -940 941 0
-941 957 0
-25 -941 942 0
-942 958 0
-26 -942 943 0
-943 959 0
-27 -943 944 0
-944 960 0
-28 -944 0
-13 945 0
-945 961 0
-14 -945 946 0
-946 962 0
-15 -946 947 0
-947 963 0
-16 -947 948 0
-948 964 0
-17 -948 949 0
-949 965 0
-18 -949 950 0
-950 966 0
-19 -950 951 0
-951 967 0
-20 -951 952 0
-952 968 0
-21 -952 953 0
-953 969 0
-22 -953 954 0
-954 970 0
-23 -954 955 0
-955 971 0
-24 -955 956 0
-956 972 0
-25 -956 957 0
-957 973 0
-26 -957 958 0
-958 974 0
-27 -958 959 0
-959 975 0
-28 -959 960 0
-960 976 0
-29 -960 0
-14 961 0
-961 977 0
-15 -961 962 0
-962 978 0
-16 -962 963 0
-963 979 0
-17 -963 964 0
-964 980 0
-18 -964 965 0
-965 981 0
-19 -965 966 0
-966 982 0
-20 -966 967 0
-967 983 0
-21 -967 968 0
-968 984 0
-22 -968 969 0
-969 985 0
-23 -969 970 0
-970 986 0
-24 -970 971 0
-971 987 0
-25 -971 972 0
-972 988 0
-26 -972 973 0
-973 989 0
-27 -973 974 0
-974 990 0
-28 -974 975 0
-975 991 0
-29 -975 976 0
-976 992 0
-30 -976 0
-15 977 0
-977 993 0
-16 -977 978 0
-978 994 0
-17 -978 979 0
-979 995 0
-18 -979 980 0
-980 996 0
-19 -980 981 0
-981 997 0
-20 -981 982 0
-982 998 0
-21 -982 983 0
-983 999 0
-22 -983 984 0
-984 1000 0
-23 -984 985 0
-985 1001 0
-24 -985 986 0
-986 1002 0
-25 -986 987 0
-987 1003 0
-26 -987 988 0
-988 1004 0
-27 -988 989 0
-989 1005 0
-28 -989 990 0
-990 1006 0
-29 -990 991 0
-991 1007 0
-30 -991 992 0
-992 1008 0
-31 -992 0
-16 993 0
-993 1009 0
-17 -993 994 0
-994 1010 0
-18 -994 995 0
-995 1011 0
-19 -995 996 0
-996 1012 0
-20 -996 997 0
-997 1013 0
-21 -997 998 0
-998 1014 0
-22 -998 999 0
-999 1015 0
-23 -999 1000 0
-1000 1016 0
-24 -1000 1001 0
-1001 1017 0
-25 -1001 1002 0
-1002 1018 0
-26 -1002 1003 0
-1003 1019 0
-27 -1003 1004 0
-1004 1020 0
-28 -1004 1005 0
-1005 1021 0
-29 -1005 1006 0
-1006 1022 0
-30 -1006 1007 0
-1007 1023 0
-31 -1007 1008 0
-1008 1024 0
-32 -1008 0
-17 1009 0
-1009 1025 0
-18 -1009 1010 0
-1010 1026 0
-19 -1010 1011 0
-1011 1027 0
-20 -1011 1012 0
-1012 1028 0
-21 -1012 1013 0
-1013 1029 0
-22 -1013 1014 0
-1014 1030 0
-23 -1014 1015 0
-1015 1031 0
-24 -1015 1016 0
-1016 1032 0
-25 -1016 1017 0
-1017 1033 0
-26 -1017 1018 0
-1018 1034 0
-27 -1018 1019 0
-1019 1035 0
-28 -1019 1020 0
-1020 1036 0
-29 -1020 1021 0
-1021 1037 0
-30 -1021 1022 0
-1022 1038 0
-31 -1022 1023 0
-1023 1039 0
-32 -1023 1024 0
-1024 1040 0
-33 -1024 0
-18 1025 0
-1025 1041 0
-19 -1025 1026 0
-1026 1042 0
-20 -1026 1027 0
-1027 1043 0
-21 -1027 1028 0
-1028 1044 0
-22 -1028 1029 0
-1029 1045 0
-23 -1029 1030 0
-1030 1046 0
-24 -1030 1031 0
-1031 1047 0
-25 -1031 1032 0
-1032 1048 0
-26 -1032 1033 0
-1033 1049 0
-27 -1033 1034 0
-1034 1050 0
-28 -1034 1035 0
-1035 1051 0
-29 -1035 1036 0
-1036 1052 0
-30 -1036 1037 0
-1037 1053 0
-31 -1037 1038 0
-1038 1054 0
-32 -1038 1039 0
-1039 1055 0
-33 -1039 1040 0
-1040 1056 0
-34 -1040 0
-19 1041 0
-1041 1057 0
-20 -1041 1042 0
-1042 1058 0
-21 -1042 1043 0
-1043 1059 0
-22 -1043 1044 0
-1044 1060 0
-23 -1044 1045 0
-1045 1061 0
-24 -1045 1046 0
-1046 1062 0
-25 -1046 1047 0
-1047 1063 0
-26 -1047 1048 0
-1048 1064 0
-27 -1048 1049 0
-1049 1065 0
-28 -1049 1050 0
-1050 1066 0
-29 -1050 1051 0
-1051 1067 0
-30 -1051 1052 0
-1052 1068 0
-31 -1052 1053 0
-1053 1069 0
-32 -1053 1054 0
-1054 1070 0
-33 -1054 1055 0
-1055 1071 0
-34 -1055 1056 0
-1056 1072 0
-35 -1056 0
-20 1057 0
-1057 1073 0
-21 -1057 1058 0
-1058 1074 0
-22 -1058 1059 0
-1059 1075 0
-23 -1059 1060 0
-1060 1076 0
-24 -1060 1061 0
-1061 1077 0
-25 -1061 1062 0
-1062 1078 0
-26 -1062 1063 0
-1063 1079 0
-27 -1063 1064 0
-1064 1080 0
-28 -1064 1065 0
-1065 1081 0
-29 -1065 1066 0
-1066 1082 0
-30 -1066 1067 0
-1067 1083 0
-31 -1067 1068 0
-1068 1084 0
-32 -1068 1069 0
-1069 1085 0
-33 -1069 1070 0
-1070 1086 0
-34 -1070 1071 0
-1071 1087 0
-35 -1071 1072 0
-1072 1088 0
-36 -1072 0
-21 1073 0
-1073 1089 0
-22 -1073 1074 0
-1074 1090 0
-23 -1074 1075 0
-1075 1091 0
-24 -1075 1076 0
-1076 1092 0
-25 -1076 1077 0
-1077 1093 0
-26 -1077 1078 0
-1078 1094 0
-27 -1078 1079 0
-1079 1095 0
-28 -1079 1080 0
-1080 1096 0
-29 -1080 1081 0
-1081 1097 0
-30 -1081 1082 0
-1082 1098 0
-31 -1082 1083 0
-1083 1099 0
-32 -1083 1084 0
-1084 1100 0
-33 -1084 1085 0
-1085 1101 0
-34 -1085 1086 0
-1086 1102 0
-35 -1086 1087 0
-1087 1103 0
-36 -1087 1088 0
-1088 1104 0
-37 -1088 0
-22 1089 0
-1089 1105 0
-23 -1089 1090 0
-1090 1106 0
-24 -1090 1091 0
-1091 1107 0
-25 -1091 1092 0
-1092 1108 0
-26 -1092 1093 0
-1093 1109 0
-27 -1093 1094 0
-1094 1110 0
-28 -1094 1095 0
-1095 1111 0
-29 -1095 1096 0
-1096 1112 0
-30 -1096 1097 0
-1097 1113 0
-31 -1097 1098 0
-1098 1114 0
-32 -1098 1099 0
-1099 1115 0
-33 -1099 1100 0
-1100 1116 0
-34 -1100 1101 0
-1101 1117 0
-35 -1101 1102 0
-1102 1118 0
-36 -1102 1103 0
-1103 1119 0
-37 -1103 1104 0
-1104 1120 0
-38 -1104 0
-23 1105 0
-1105 1121 0
-24 -1105 1106 0
-1106 1122 0
-25 -1106 1107 0
-1107 1123 0
-26 -1107 1108 0
-1108 1124 0
-27 -1108 1109 0
-1109 1125 0
-28 -1109 1110 0
-1110 1126 0
-29 -1110 1111 0
-1111 1127 0
-30 -1111 1112 0
-1112 1128 0
-31 -1112 1113 0
-1113 1129 0
-32 -1113 1114 0
-1114 1130 0
-33 -1114 1115 0
-1115 1131 0
-34 -1115 1116 0
-1116 1132 0
-35 -1116 1117 0
-1117 1133 0
-36 -1117 1118 0
-1118 1134 0
-37 -1118 1119 0
-1119 1135 0
-38 -1119 1120 0
-1120 1136 0
-39 -1120 0
-24 1121 0
-1121 1137 0
-25 -1121 1122 0
-1122 1138 0
-26 -1122 1123 0
-1123 1139 0
-27 -1123 1124 0
-1124 1140 0
-28 -1124 1125 0
-1125 1141 0
-29 -1125 1126 0
-1126 1142 0
-30 -1126 1127 0
-1127 1143 0
-31 -1127 1128 0
-1128 1144 0
-32 -1128 1129 0
-1129 1145 0
-33 -1129 1130 0
-1130 1146 0
-34 -1130 1131 0
-1131 1147 0
-35 -1131 1132 0
-1132 1148 0
-36 -1132 1133 0
-1133 1149 0
-37 -1133 1134 0
-1134 1150 0
-38 -1134 1135 0
-1135 1151 0
-39 -1135 1136 0
-1136 1152 0
-40 -1136 0
-25 1137 0
-1137 1153 0
-26 -1137 1138 0
-1138 1154 0
-27 -1138 1139 0
-1139 1155 0
-28 -1139 1140 0
-1140 1156 0
-29 -1140 1141 0
-1141 1157 0
-30 -1141 1142 0
-1142 1158 0
-31 -1142 1143 0
-1143 1159 0
-32 -1143 1144 0
-1144 1160 0
-33 -1144 1145 0
-1145 1161 0
-34 -1145 1146 0
-1146 1162 0
-35 -1146 1147 0
-1147 1163 0
-36 -1147 1148 0
-1148 1164 0
-37 -1148 1149 0
-1149 1165 0
-38 -1149 1150 0
-1150 1166 0
-39 -1150 1151 0
-1151 1167 0
-40 -1151 1152 0
-1152 1168 0
-41 -1152 0
-26 1153 0
-1153 1169 0
-27 -1153 1154 0
-1154 1170 0
-28 -1154 1155 0
-1155 1171 0
-29 -1155 1156 0
-1156 1172 0
-30 -1156 1157 0
-1157 1173 0
-31 -1157 1158 0
-1158 1174 0
-32 -1158 1159 0
-1159 1175 0
-33 -1159 1160 0
-1160 1176 0
-34 -1160 1161 0
-1161 1177 0
-35 -1161 1162 0
-1162 1178 0
-36 -1162 1163 0
-1163 1179 0
-37 -1163 1164 0
-1164 1180 0
-38 -1164 1165 0
-1165 1181 0
-39 -1165 1166 0
-1166 1182 0
-40 -1166 1167 0
-1167 1183 0
-41 -1167 1168 0
-1168 1184 0
-42 -1168 0
-27 1169 0
-1169 1185 0
-28 -1169 1170 0
-1170 1186 0
-29 -1170 1171 0
-1171 1187 0
-30 -1171 1172 0
-1172 1188 0
-31 -1172 1173 0
-1173 1189 0
-32 -1173 1174 0
-1174 1190 0
-33 -1174 1175 0
-1175 1191 0
-34 -1175 1176 0
-1176 1192 0
-35 -1176 1177 0
-1177 1193 0
-36 -1177 1178 0
-1178 1194 0
-37 -1178 1179 0
-1179 1195 0
-38 -1179 1180 0
-1180 1196 0
-39 -1180 1181 0
-1181 1197 0
-40 -1181 1182 0
-1182 1198 0
-41 -1182 1183 0
-1183 1199 0
-42 -1183 1184 0
-1184 1200 0
-43 -1184 0
-28 1185 0
-1185 1201 0
-29 -1185 1186 0
-1186 1202 0
-30 -1186 1187 0
-1187 1203 0
-31 -1187 1188 0
-1188 1204 0
-32 -1188 1189 0
-1189 1205 0
-33 -1189 1190 0
-1190 1206 0
-34 -1190 1191 0
-1191 1207 0
-35 -1191 1192 0
-1192 1208 0
-36 -1192 1193 0
-1193 1209 0
-37 -1193 1194 0
-1194 1210 0
-38 -1194 1195 0
-1195 1211 0
-39 -1195 1196 0
-1196 1212 0
-40 -1196 1197 0
-1197 1213 0
-41 -1197 1198 0
-1198 1214 0
-42 -1198 1199 0
-1199 1215 0
-43 -1199 1200 0
-1200 1216 0
-44 -1200 0
-29 1201 0
-1201 1217 0
-30 -1201 1202 0
-1202 1218 0
-31 -1202 1203 0
-1203 1219 0
-32 -1203 1204 0
-1204 1220 0
-33 -1204 1205 0
-1205 1221 0
-34 -1205 1206 0
-1206 1222 0
-35 -1206 1207 0
-1207 1223 0
-36 -1207 1208 0
-1208 1224 0
-37 -1208 1209 0
-1209 1225 0
-38 -1209 1210 0
-1210 1226 0
-39 -1210 1211 0
-1211 1227 0
-40 -1211 1212 0
-1212 1228 0
-41 -1212 1213 0
-1213 1229 0
-42 -1213 1214 0
-1214 1230 0
-43 -1214 1215 0
-1215 1231 0
-44 -1215 1216 0
-1216 1232 0
-45 -1216 0
-30 1217 0
-1217 1233 0
-31 -1217 1218 0
-1218 1234 0
-32 -1218 1219 0
-1219 1235 0
-33 -1219 1220 0
-1220 1236 0
-34 -1220 1221 0
-1221 1237 0
-35 -1221 1222 0
-1222 1238 0
-36 -1222 1223 0
-1223 1239 0
-37 -1223 1224 0
-1224 1240 0
-38 -1224 1225 0
-1225 1241 0
-39 -1225 1226 0
-1226 1242 0
-40 -1226 1227 0
-1227 1243 0
-41 -1227 1228 0
-1228 1244 0
-42 -1228 1229 0
-1229 1245 0
-43 -1229 1230 0
-1230 1246 0
-44 -1230 1231 0
-1231 1247 0
-45 -1231 1232 0
-1232 1248 0
-46 -1232 0
-31 1233 0
-1233 1249 0
-32 -1233 1234 0
-1234 1250 0
-33 -1234 1235 0
-1235 1251 0
-34 -1235 1236 0
-1236 1252 0
-35 -1236 1237 0
-1237 1253 0
-36 -1237 1238 0
-1238 1254 0
-37 -1238 1239 0
-1239 1255 0
-38 -1239 1240 0
-1240 1256 0
-39 -1240 1241 0
-1241 1257 0
-40 -1241 1242 0
-1242 1258 0
-41 -1242 1243 0
-1243 1259 0
-42 -1243 1244 0
-1244 1260 0
-43 -1244 1245 0
-1245 1261 0
-44 -1245 1246 0
-1246 1262 0
-45 -1246 1247 0
-1247 1263 0
-46 -1247 1248 0
-1248 1264 0
-47 -1248 0
-32 1249 0
-1249 1265 0
-33 -1249 1250 0
-1250 1266 0
-34 -1250 1251 0
-1251 1267 0
-35 -1251 1252 0
-1252 1268 0
-36 -1252 1253 0
-1253 1269 0
-37 -1253 1254 0
-1254 1270 0
-38 -1254 1255 0
-1255 1271 0
-39 -1255 1256 0
-1256 1272 0
-40 -1256 1257 0
-1257 1273 0
-41 -1257 1258 0
-1258 1274 0
-42 -1258 1259 0
-1259 1275 0
-43 -1259 1260 0
-1260 1276 0
-44 -1260 1261 0
-1261 1277 0
-45 -1261 1262 0
-1262 1278 0
-46 -1262 1263 0
-1263 1279 0
-47 -1263 1264 0
-1264 1280 0
-48 -1264 0
-33 1265 0
-1265 1281 0
-34 -1265 1266 0
-1266 1282 0
-35 -1266 1267 0
-1267 1283 0
-36 -1267 1268 0
-1268 1284 0
-37 -1268 1269 0
-1269 1285 0
-38 -1269 1270 0
-1270 1286 0
-39 -1270 1271 0
-1271 1287 0
-40 -1271 1272 0
-1272 1288 0
-41 -1272 1273 0
-1273 1289 0
-42 -1273 1274 0
-1274 1290 0
-43 -1274 1275 0
-1275 1291 0
-44 -1275 1276 0
-1276 1292 0
-45 -1276 1277 0
-1277 1293 0
-46 -1277 1278 0
-1278 1294 0
-47 -1278 1279 0
-1279 1295 0
-48 -1279 1280 0
-1280 1296 0
-49 -1280 0
-34 1281 0
-1281 1297 0
-35 -1281 1282 0
-1282 1298 0
-36 -1282 1283 0
-1283 1299 0
-37 -1283 1284 0
-1284 1300 0
-38 -1284 1285 0
-1285 1301 0
-39 -1285 1286 0
-1286 1302 0
-40 -1286 1287 0
-1287 1303 0
-41 -1287 1288 0
-1288 1304 0
-42 -1288 1289 0
-1289 1305 0
-43 -1289 1290 0
-1290 1306 0
-44 -1290 1291 0
-1291 1307 0
-45 -1291 1292 0
-1292 1308 0
-46 -1292 1293 0
-1293 1309 0
-47 -1293 1294 0
-1294 1310 0
-48 -1294 1295 0
-1295 1311 0
-49 -1295 1296 0
-1296 1312 0
-50 -1296 0
-35 1297 0
-1297 1313 0
-36 -1297 1298 0
-1298 1314 0
-37 -1298 1299 0
-1299 1315 0
-38 -1299 1300 0
-1300 1316 0
-39 -1300 1301 0
-1301 1317 0
-40 -1301 1302 0
-1302 1318 0
-41 -1302 1303 0
-1303 1319 0
-42 -1303 1304 0
-1304 1320 0
-43 -1304 1305 0
-1305 1321 0
-44 -1305 1306 0
-1306 1322 0
-45 -1306 1307 0
-1307 1323 0
-46 -1307 1308 0
-1308 1324 0
-47 -1308 1309 0
-1309 1325 0
-48 -1309 1310 0
-1310 1326 0
-49 -1310 1311 0
-1311 1327 0
-50 -1311 1312 0
-1312 1328 0
-51 -1312 0
-36 1313 0
-1313 1329 0
-37 -1313 1314 0
-1314 1330 0
-38 -1314 1315 0
-1315 1331 0
-39 -1315 1316 0
-1316 1332 0
-40 -1316 1317 0
-1317 1333 0
-41 -1317 1318 0
-1318 1334 0
-42 -1318 1319 0
-1319 1335 0
-43 -1319 1320 0
-1320 1336 0
-44 -1320 1321 0
-1321 1337 0
-45 -1321 1322 0
-1322 1338 0
-46 -1322 1323 0
-1323 1339 0
-47 -1323 1324 0
-1324 1340 0
-48 -1324 1325 0
-1325 1341 0
-49 -1325 1326 0
-1326 1342 0
-50 -1326 1327 0
-1327 1343 0
-51 -1327 1328 0
-1328 1344 0
-52 -1328 0
-37 1329 0
-1329 1345 0
-38 -1329 1330 0
-1330 1346 0
-39 -1330 1331 0
-1331 1347 0
-40 -1331 1332 0
-1332 1348 0
-41 -1332 1333 0
-1333 1349 0
-42 -1333 1334 0
-1334 1350 0
-43 -1334 1335 0
-1335 1351 0
-44 -1335 1336 0
-1336 1352 0
-45 -1336 1337 0
-1337 1353 0
-46 -1337 1338 0
-1338 1354 0
-47 -1338 1339 0
-1339 1355 0
-48 -1339 1340 0
-1340 1356 0
-49 -1340 1341 0
-1341 1357 0
-50 -1341 1342 0
-1342 1358 0
-51 -1342 1343 0
-1343 1359 0
-52 -1343 1344 0
-1344 1360 0
-53 -1344 0
-38 1345 0
-1345 1361 0
-39 -1345 1346 0
-1346 1362 0
-40 -1346 1347 0
-1347 1363 0
-41 -1347 1348 0
-1348 1364 0
-42 -1348 1349 0
-1349 1365 0
-43 -1349 1350 0
-1350 1366 0
-44 -1350 1351 0
-1351 1367 0
-45 -1351 1352 0
-1352 1368 0
-46 -1352 1353 0
-1353 1369 0
-47 -1353 1354 0
-1354 1370 0
-48 -1354 1355 0
-1355 1371 0
-49 -1355 1356 0
-1356 1372 0
-50 -1356 1357 0
-1357 1373 0
-51 -1357 1358 0
-1358 1374 0
-52 -1358 1359 0
-1359 1375 0
-53 -1359 1360 0
-1360 1376 0
-54 -1360 0
-39 1361 0
-1361 1377 0
-40 -1361 1362 0
-1362 1378 0
-41 -1362 1363 0
-1363 1379 0
-42 -1363 1364 0
-1364 1380 0
-43 -1364 1365 0
-1365 1381 0
-44 -1365 1366 0
-1366 1382 0
-45 -1366 1367 0
-1367 1383 0
-46 -1367 1368 0
-1368 1384 0
-47 -1368 1369 0
-1369 1385 0
-48 -1369 1370 0
-1370 1386 0
-49 -1370 1371 0
-1371 1387 0
-50 -1371 1372 0
-1372 1388 0
-51 -1372 1373 0
-1373 1389 0
-52 -1373 1374 0
-1374 1390 0
-53 -1374 1375 0
-1375 1391 0
-54 -1375 1376 0
-1376 1392 0
-55 -1376 0
-40 1377 0
-41 -1377 1378 0
-42 -1378 1379 0
-43 -1379 1380 0
-44 -1380 1381 0
-45 -1381 1382 0
-46 -1382 1383 0
-47 -1383 1384 0
-48 -1384 1385 0
-49 -1385 1386 0
-50 -1386 1387 0
-51 -1387 1388 0
-52 -1388 1389 0
-53 -1389 1390 0
-54 -1390 1391 0
-55 -1391 1392 0
-56 -1392 0
-57 1393 0
-1393 1394 0
-58 -1393 1395 0
-1395 1396 0
-59 -1395 1397 0
-1397 1398 0
-60 -1397 1399 0
-1399 1400 0
-61 -1399 1401 0
-1401 1402 0
-62 -1401 1403 0
-1403 1404 0
-63 -1403 1405 0
-1405 1406 0
-64 -1405 1407 0
-1407 1408 0
-65 -1407 1409 0
-1409 1410 0
-66 -1409 1411 0
-1411 1412 0
-67 -1411 1413 0
-1413 1414 0
-68 -1413 1415 0
-1415 1416 0
-69 -1415 1417 0
-1417 1418 0
-70 -1417 1419 0
-1419 1420 0
-71 -1419 1421 0
-1421 1422 0
-72 -1421 1423 0
-1423 1424 0
-73 -1423 1425 0
-1425 1426 0
-74 -1425 1427 0
-1427 1428 0
-75 -1427 1429 0
-1429 1430 0
-76 -1429 1431 0
-1431 1432 0
-77 -1431 1433 0
-1433 1434 0
-78 -1433 1435 0
-1435 1436 0
-79 -1435 1437 0
-1437 1438 0
-80 -1437 1439 0
-1439 1440 0
-81 -1439 1441 0
-1441 1442 0
-82 -1441 0
-58 1394 0
-1394 1443 0
-59 -1394 1396 0
-1396 1444 0
-60 -1396 1398 0
-1398 1445 0
-61 -1398 1400 0
-1400 1446 0
-62 -1400 1402 0
-1402 1447 0
-63 -1402 1404 0
-1404 1448 0
-64 -1404 1406 0
-1406 1449 0
-65 -1406 1408 0
-1408 1450 0
-66 -1408 1410 0
-1410 1451 0
-67 -1410 1412 0
-1412 1452 0
-68 -1412 1414 0
-1414 1453 0
-69 -1414 1416 0
-1416 1454 0
-70 -1416 1418 0
-1418 1455 0
-71 -1418 1420 0
-1420 1456 0
-72 -1420 1422 0
-1422 1457 0
-73 -1422 1424 0
-1424 1458 0
-74 -1424 1426 0
-1426 1459 0
-75 -1426 1428 0
-1428 1460 0
-76 -1428 1430 0
-1430 1461 0
-77 -1430 1432 0
-1432 1462 0
-78 -1432 1434 0
-1434 1463 0
-79 -1434 1436 0
-1436 1464 0
-80 -1436 1438 0
-1438 1465 0
-81 -1438 1440 0
-1440 1466 0
-82 -1440 1442 0
-1442 1467 0
-83 -1442 0
-59 1443 0
-1443 1468 0
-60 -1443 1444 0
-1444 1469 0
-61 -1444 1445 0
-1445 1470 0
-62 -1445 1446 0
-1446 1471 0
-63 -1446 1447 0
-1447 1472 0
-64 -1447 1448 0
-1448 1473 0
-65 -1448 1449 0
-1449 1474 0
-66 -1449 1450 0
-1450 1475 0
-67 -1450 1451 0
-1451 1476 0
-68 -1451 1452 0
-1452 1477 0
-69 -1452 1453 0
-1453 1478 0
-70 -1453 1454 0
-1454 1479 0
-71 -1454 1455 0
-1455 1480 0
-72 -1455 1456 0
-1456 1481 0
-73 -1456 1457 0
-1457 1482 0
-74 -1457 1458 0
-1458 1483 0
-75 -1458 1459 0
-1459 1484 0
-76 -1459 1460 0
-1460 1485 0
-77 -1460 1461 0
-1461 1486 0
-78 -1461 1462 0
-1462 1487 0
-79 -1462 1463 0
-1463 1488 0
-80 -1463 1464 0
-1464 1489 0
-81 -1464 1465 0
-1465 1490 0
-82 -1465 1466 0
-1466 1491 0
-83 -1466 1467 0
-1467 1492 0
-84 -1467 0
-60 1468 0
-1468 1493 0
-61 -1468 1469 0
-1469 1494 0
-62 -1469 1470 0
-1470 1495 0
-63 -1470 1471 0
-1471 1496 0
-64 -1471 1472 0
-1472 1497 0
-65 -1472 1473 0
-1473 1498 0
-66 -1473 1474 0
-1474 1499 0
-67 -1474 1475 0
-1475 1500 0
-68 -1475 1476 0
-1476 1501 0
-69 -1476 1477 0
-1477 1502 0
-70 -1477 1478 0
-1478 1503 0
-71 -1478 1479 0
-1479 1504 0
-72 -1479 1480 0
-1480 1505 0
-73 -1480 1481 0
-1481 1506 0
-74 -1481 1482 0
-1482 1507 0
-75 -1482 1483 0
-1483 1508 0
-76 -1483 1484 0
-1484 1509 0
-77 -1484 1485 0
-1485 1510 0
-78 -1485 1486 0
-1486 1511 0
-79 -1486 1487 0
-1487 1512 0
-80 -1487 1488 0
-1488 1513 0
-81 -1488 1489 0
-1489 1514 0
-82 -1489 1490 0
-1490 1515 0
-83 -1490 1491 0
-1491 1516 0
-84 -1491 1492 0
-1492 1517 0
-85 -1492 0
-61 1493 0
-1493 1518 0
-62 -1493 1494 0
-1494 1519 0
-63 -1494 1495 0
-1495 1520 0
-64 -1495 1496 0
-1496 1521 0
-65 -1496 1497 0
-1497 1522 0
-66 -1497 1498 0
-1498 1523 0
-67 -1498 1499 0
-1499 1524 0
-68 -1499 1500 0
-1500 1525 0
-69 -1500 1501 0
-1501 1526 0
-70 -1501 1502 0
-1502 1527 0
-71 -1502 1503 0
-1503 1528 0
-72 -1503 1504 0
-1504 1529 0
-73 -1504 1505 0
-1505 1530 0
-74 -1505 1506 0
-1506 1531 0
-75 -1506 1507 0
-1507 1532 0
-76 -1507 1508 0
-1508 1533 0
-77 -1508 1509 0
-1509 1534 0
-78 -1509 1510 0
-1510 1535 0
-79 -1510 1511 0
-1511 1536 0
-80 -1511 1512 0
-1512 1537 0
-81 -1512 1513 0
-1513 1538 0
-82 -1513 1514 0
-1514 1539 0
-83 -1514 1515 0
-1515 1540 0
-84 -1515 1516 0
-1516 1541 0
-85 -1516 1517 0
-1517 1542 0
-86 -1517 0
-62 1518 0
-1518 1543 0
-63 -1518 1519 0
-1519 1544 0
-64 -1519 1520 0
-1520 1545 0
-65 -1520 1521 0
-1521 1546 0
-66 -1521 1522 0
-1522 1547 0
-67 -1522 1523 0
-1523 1548 0
-68 -1523 1524 0
-1524 1549 0
-69 -1524 1525 0
-1525 1550 0
-70 -1525 1526 0
-1526 1551 0
-71 -1526 1527 0
-1527 1552 0
-72 -1527 1528 0
-1528 1553 0
-73 -1528 1529 0
-1529 1554 0
-74 -1529 1530 0
-1530 1555 0
-75 -1530 1531 0
-1531 1556 0
-76 -1531 1532 0
-1532 1557 0
-77 -1532 1533 0
-1533 1558 0
-78 -1533 1534 0
-1534 1559 0
-79 -1534 1535 0
-1535 1560 0
-80 -1535 1536 0
-1536 1561 0
-81 -1536 1537 0
-1537 1562 0
-82 -1537 1538 0
-1538 1563 0
-83 -1538 1539 0
-1539 1564 0
-84 -1539 1540 0
-1540 1565 0
-85 -1540 1541 0
-1541 1566 0
-86 -1541 1542 0
-1542 1567 0
-87 -1542 0
-63 1543 0
-1543 1568 0
-64 -1543 1544 0
-1544 1569 0
-65 -1544 1545 0
-1545 1570 0
-66 -1545 1546 0
-1546 1571 0
-67 -1546 1547 0
-1547 1572 0
-68 -1547 1548 0
-1548 1573 0
-69 -1548 1549 0
-1549 1574 0
-70 -1549 1550 0
-1550 1575 0
-71 -1550 1551 0
-1551 1576 0
-72 -1551 1552 0
-1552 1577 0
-73 -1552 1553 0
-1553 1578 0
-74 -1553 1554 0
-1554 1579 0
-75 -1554 1555 0
-1555 1580 0
-76 -1555 1556 0
-1556 1581 0
-77 -1556 1557 0
-1557 1582 0
-78 -1557 1558 0
-1558 1583 0
-79 -1558 1559 0
-1559 1584 0
-80 -1559 1560 0
-1560 1585 0
-81 -1560 1561 0
-1561 1586 0
-82 -1561 1562 0
-1562 1587 0
-83 -1562 1563 0
-1563 1588 0
-84 -1563 1564 0
-1564 1589 0
-85 -1564 1565 0
-1565 1590 0
-86 -1565 1566 0
-1566 1591 0
-87 -1566 1567 0
-1567 1592 0
-88 -1567 0
-64 1568 0
-1568 1593 0
-65 -1568 1569 0
-1569 1594 0
-66 -1569 1570 0
-1570 1595 0
-67 -1570 1571 0
-1571 1596 0
-68 -1571 1572 0
-1572 1597 0
-69 -1572 1573 0
-1573 1598 0
-70 -1573 1574 0
-1574 1599 0
-71 -1574 1575 0
-1575 1600 0
-72 -1575 1576 0
-1576 1601 0
-73 -1576 1577 0
-1577 1602 0
-74 -1577 1578 0
-1578 1603 0
-75 -1578 1579 0
-1579 1604 0
-76 -1579 1580 0
-1580 1605 0
-77 -1580 1581 0
-1581 1606 0
-78 -1581 1582 0
-1582 1607 0
-79 -1582 1583 0
-1583 1608 0
-80 -1583 1584 0
-1584 1609 0
-81 -1584 1585 0
-1585 1610 0
-82 -1585 1586 0
-1586 1611 0
-83 -1586 1587 0
-1587 1612 0
-84 -1587 1588 0
-1588 1613 0
-85 -1588 1589 0
-1589 1614 0
-86 -1589 1590 0
-1590 1615 0
-87 -1590 1591 0
-1591 1616 0
-88 -1591 1592 0
-1592 1617 0
-89 -1592 0
-65 1593 0
-1593 1618 0
-66 -1593 1594 0
-1594 1619 0
-67 -1594 1595 0
-1595 1620 0
-68 -1595 1596 0
-1596 1621 0
-69 -1596 1597 0
-1597 1622 0
-70 -1597 1598 0
-1598 1623 0
-71 -1598 1599 0
-1599 1624 0
-72 -1599 1600 0
-1600 1625 0
-73 -1600 1601 0
-1601 1626 0
-74 -1601 1602 0
-1602 1627 0
-75 -1602 1603 0
-1603 1628 0
-76 -1603 1604 0
-1604 1629 0
-77 -1604 1605 0
-1605 1630 0
-78 -1605 1606 0
-1606 1631 0
-79 -1606 1607 0
-1607 1632 0
-80 -1607 1608 0
-1608 1633 0
-81 -1608 1609 0
-1609 1634 0
-82 -1609 1610 0
-1610 1635 0
-83 -1610 1611 0
-1611 1636 0
-84 -1611 1612 0
-1612 1637 0
-85 -1612 1613 0
-1613 1638 0
-86 -1613 1614 0
-1614 1639 0
-87 -1614 1615 0
-1615 1640 0
-88 -1615 1616 0
-1616 1641 0
-89 -1616 1617 0
-1617 1642 0
-90 -1617 0
-66 1618 0
-1618 1643 0
-67 -1618 1619 0
-1619 1644 0
-68 -1619 1620 0
-1620 1645 0
-69 -1620 1621 0
-1621 1646 0
-70 -1621 1622 0
-1622 1647 0
-71 -1622 1623 0
-1623 1648 0
-72 -1623 1624 0
-1624 1649 0
-73 -1624 1625 0
-1625 1650 0
-74 -1625 1626 0
-1626 1651 0
-75 -1626 1627 0
-1627 1652 0
-76 -1627 1628 0
-1628 1653 0
-77 -1628 1629 0
-1629 1654 0
-78 -1629 1630 0
-1630 1655 0
-79 -1630 1631 0
-1631 1656 0
-80 -1631 1632 0
-1632 1657 0
-81 -1632 1633 0
-1633 1658 0
-82 -1633 1634 0
-1634 1659 0
-83 -1634 1635 0
-1635 1660 0
-84 -1635 1636 0
-1636 1661 0
-85 -1636 1637 0
-1637 1662 0
-86 -1637 1638 0
-1638 1663 0
-87 -1638 1639 0
-1639 1664 0
-88 -1639 1640 0
-1640 1665 0
-89 -1640 1641 0
-1641 1666 0
-90 -1641 1642 0
-1642 1667 0
-91 -1642 0
-67 1643 0
-1643 1668 0
-68 -1643 1644 0
-1644 1669 0
-69 -1644 1645 0
-1645 1670 0
-70 -1645 1646 0
-1646 1671 0
-71 -1646 1647 0
-1647 1672 0
-72 -1647 1648 0
-1648 1673 0
-73 -1648 1649 0
-1649 1674 0
-74 -1649 1650 0
-1650 1675 0
-75 -1650 1651 0
-1651 1676 0
-76 -1651 1652 0
-1652 1677 0
-77 -1652 1653 0
-1653 1678 0
-78 -1653 1654 0
-1654 1679 0
-79 -1654 1655 0
-1655 1680 0
-80 -1655 1656 0
-1656 1681 0
-81 -1656 1657 0
-1657 1682 0
-82 -1657 1658 0
-1658 1683 0
-83 -1658 1659 0
-1659 1684 0
-84 -1659 1660 0
-1660 1685 0
-85 -1660 1661 0
-1661 1686 0
-86 -1661 1662 0
-1662 1687 0
-87 -1662 1663 0
-1663 1688 0
-88 -1663 1664 0
-1664 1689 0
-89 -1664 1665 0
-1665 1690 0
-90 -1665 1666 0
-1666 1691 0
-91 -1666 1667 0
-1667 1692 0
-92 -1667 0
-68 1668 0
-1668 1693 0
-69 -1668 1669 0
-1669 1694 0
-70 -1669 1670 0
-1670 1695 0
-71 -1670 1671 0
-1671 1696 0
-72 -1671 1672 0
-1672 1697 0
-73 -1672 1673 0
-1673 1698 0
-74 -1673 1674 0
-1674 1699 0
-75 -1674 1675 0
-1675 1700 0
-76 -1675 1676 0
-1676 1701 0
-77 -1676 1677 0
-1677 1702 0
-78 -1677 1678 0
-1678 1703 0
-79 -1678 1679 0
-1679 1704 0
-80 -1679 1680 0
-1680 1705 0
-81 -1680 1681 0
-1681 1706 0
-82 -1681 1682 0
-1682 1707 0
-83 -1682 1683 0
-1683 1708 0
-84 -1683 1684 0
-1684 1709 0
-85 -1684 1685 0
-1685 1710 0
-86 -1685 1686 0
-1686 1711 0
-87 -1686 1687 0
-1687 1712 0
-88 -1687 1688 0
-1688 1713 0
-89 -1688 1689 0
-1689 1714 0
-90 -1689 1690 0
-1690 1715 0
-91 -1690 1691 0
-1691 1716 0
-92 -1691 1692 0
-1692 1717 0
-93 -1692 0
-69 1693 0
-1693 1718 0
-70 -1693 1694 0
-1694 1719 0
-71 -1694 1695 0
-1695 1720 0
-72 -1695 1696 0
-1696 1721 0
-73 -1696 1697 0
-1697 1722 0
-74 -1697 1698 0
-1698 1723 0
-75 -1698 1699 0
-1699 1724 0
-76 -1699 1700 0
-1700 1725 0
-77 -1700 1701 0
-1701 1726 0
-78 -1701 1702 0
-1702 1727 0
-79 -1702 1703 0
-1703 1728 0
-80 -1703 1704 0
-1704 1729 0
-81 -1704 1705 0
-1705 1730 0
-82 -1705 1706 0
-1706 1731 0
-83 -1706 1707 0
-1707 1732 0
-84 -1707 1708 0
-1708 1733 0
-85 -1708 1709 0
-1709 1734 0
-86 -1709 1710 0
-1710 1735 0
-87 -1710 1711 0
-1711 1736 0
-88 -1711 1712 0
-1712 1737 0
-89 -1712 1713 0
-1713 1738 0
-90 -1713 1714 0
-1714 1739 0
-91 -1714 1715 0
-1715 1740 0
-92 -1715 1716 0
-1716 1741 0
-93 -1716 1717 0
-1717 1742 0
-94 -1717 0
-70 1718 0
-1718 1743 0
-71 -1718 1719 0
-1719 1744 0
-72 -1719 1720 0
-1720 1745 0
-73 -1720 1721 0
-1721 1746 0
-74 -1721 1722 0
-1722 1747 0
-75 -1722 1723 0
-1723 1748 0
-76 -1723 1724 0
-1724 1749 0
-77 -1724 1725 0
-1725 1750 0
-78 -1725 1726 0
-1726 1751 0
-79 -1726 1727 0
-1727 1752 0
-80 -1727 1728 0
-1728 1753 0
-81 -1728 1729 0
-1729 1754 0
-82 -1729 1730 0
-1730 1755 0
-83 -1730 1731 0
-1731 1756 0
-84 -1731 1732 0
-1732 1757 0
-85 -1732 1733 0
-1733 1758 0
-86 -1733 1734 0
-1734 1759 0
-87 -1734 1735 0
-1735 1760 0
-88 -1735 1736 0
-1736 1761 0
-89 -1736 1737 0
-1737 1762 0
-90 -1737 1738 0
-1738 1763 0
-91 -1738 1739 0
-1739 1764 0
-92 -1739 1740 0
-1740 1765 0
-93 -1740 1741 0
-1741 1766 0
-94 -1741 1742 0
-1742 1767 0
-95 -1742 0
-71 1743 0
-1743 1768 0
-72 -1743 1744 0
-1744 1769 0
-73 -1744 1745 0
-1745 1770 0
-74 -1745 1746 0
-1746 1771 0
-75 -1746 1747 0
-1747 1772 0
-76 -1747 1748 0
-1748 1773 0
-77 -1748 1749 0
-1749 1774 0
-78 -1749 1750 0
-1750 1775 0
-79 -1750 1751 0
-1751 1776 0
-80 -1751 1752 0
-1752 1777 0
-81 -1752 1753 0
-1753 1778 0
-82 -1753 1754 0
-1754 1779 0
-83 -1754 1755 0
-1755 1780 0
-84 -1755 1756 0
-1756 1781 0
-85 -1756 1757 0
-1757 1782 0
-86 -1757 1758 0
-1758 1783 0
-87 -1758 1759 0
-1759 1784 0
-88 -1759 1760 0
-1760 1785 0
-89 -1760 1761 0
-1761 1786 0
-90 -1761 1762 0
-1762 1787 0
-91 -1762 1763 0
-1763 1788 0
-92 -1763 1764 0
-1764 1789 0
-93 -1764 1765 0
-1765 1790 0
-94 -1765 1766 0
-1766 1791 0
-95 -1766 1767 0
-1767 1792 0
-96 -1767 0
-72 1768 0
-1768 1793 0
-73 -1768 1769 0
-1769 1794 0
-74 -1769 1770 0
-1770 1795 0
-75 -1770 1771 0
-1771 1796 0
-76 -1771 1772 0
-1772 1797 0
-77 -1772 1773 0
-1773 1798 0
-78 -1773 1774 0
-1774 1799 0
-79 -1774 1775 0
-1775 1800 0
-80 -1775 1776 0
-1776 1801 0
-81 -1776 1777 0
-1777 1802 0
-82 -1777 1778 0
-1778 1803 0
-83 -1778 1779 0
-1779 1804 0
-84 -1779 1780 0
-1780 1805 0
-85 -1780 1781 0
-1781 1806 0
-86 -1781 1782 0
-1782 1807 0
-87 -1782 1783 0
-1783 1808 0
-88 -1783 1784 0
-1784 1809 0
-89 -1784 1785 0
-1785 1810 0
-90 -1785 1786 0
-1786 1811 0
-91 -1786 1787 0
-1787 1812 0
-92 -1787 1788 0
-1788 1813 0
-93 -1788 1789 0
-1789 1814 0
-94 -1789 1790 0
-1790 1815 0
-95 -1790 1791 0
-1791 1816 0
-96 -1791 1792 0
-1792 1817 0
-97 -1792 0
-73 1793 0
-1793 1818 0
-74 -1793 1794 0
-1794 1819 0
-75 -1794 1795 0
-1795 1820 0
-76 -1795 1796 0
-1796 1821 0
-77 -1796 1797 0
-1797 1822 0
-78 -1797 1798 0
-1798 1823 0
-79 -1798 1799 0
-1799 1824 0
-80 -1799 1800 0
-1800 1825 0
-81 -1800 1801 0
-1801 1826 0
-82 -1801 1802 0
-1802 1827 0
-83 -1802 1803 0
-1803 1828 0
-84 -1803 1804 0
-1804 1829 0
-85 -1804 1805 0
-1805 1830 0
-86 -1805 1806 0
-1806 1831 0
-87 -1806 1807 0
-1807 1832 0
-88 -1807 1808 0
-1808 1833 0
-89 -1808 1809 0
-1809 1834 0
-90 -1809 1810 0
-1810 1835 0
-91 -1810 1811 0
-1811 1836 0
-92 -1811 1812 0
-1812 1837 0
-93 -1812 1813 0
-1813 1838 0
-94 -1813 1814 0
-1814 1839 0
-95 -1814 1815 0
-1815 1840 0
-96 -1815 1816 0
-1816 1841 0
-97 -1816 1817 0
-1817 1842 0
-98 -1817 0
-74 1818 0
-1818 1843 0
-75 -1818 1819 0
-1819 1844 0
-76 -1819 1820 0
-1820 1845 0
-77 -1820 1821 0
-1821 1846 0
-78 -1821 1822 0
-1822 1847 0
-79 -1822 1823 0
-1823 1848 0
-80 -1823 1824 0
-1824 1849 0
-81 -1824 1825 0
-1825 1850 0
-82 -1825 1826 0
-1826 1851 0
-83 -1826 1827 0
-1827 1852 0
-84 -1827 1828 0
-1828 1853 0
-85 -1828 1829 0
-1829 1854 0
-86 -1829 1830 0
-1830 1855 0
-87 -1830 1831 0
-1831 1856 0
-88 -1831 1832 0
-1832 1857 0
-89 -1832 1833 0
-1833 1858 0
-90 -1833 1834 0
-1834 1859 0
-91 -1834 1835 0
-1835 1860 0
-92 -1835 1836 0
-1836 1861 0
-93 -1836 1837 0
-1837 1862 0
-94 -1837 1838 0
-1838 1863 0
-95 -1838 1839 0
-1839 1864 0
-96 -1839 1840 0
-1840 1865 0
-97 -1840 1841 0
-1841 1866 0
-98 -1841 1842 0
-1842 1867 0
-99 -1842 0
-75 1843 0
-1843 1868 0
-76 -1843 1844 0
-1844 1869 0
-77 -1844 1845 0
-1845 1870 0
-78 -1845 1846 0
-1846 1871 0
-79 -1846 1847 0
-1847 1872 0
-80 -1847 1848 0
-1848 1873 0
-81 -1848 1849 0
-1849 1874 0
-82 -1849 1850 0
-1850 1875 0
-83 -1850 1851 0
-1851 1876 0
-84 -1851 1852 0
-1852 1877 0
-85 -1852 1853 0
-1853 1878 0
-86 -1853 1854 0
-1854 1879 0
-87 -1854 1855 0
-1855 1880 0
-88 -1855 1856 0
-1856 1881 0
-89 -1856 1857 0
-1857 1882 0
-90 -1857 1858 0
-1858 1883 0
-91 -1858 1859 0
-1859 1884 0
-92 -1859 1860 0
-1860 1885 0
-93 -1860 1861 0
-1861 1886 0
-94 -1861 1862 0
-1862 1887 0
-95 -1862 1863 0
-1863 1888 0
-96 -1863 1864 0
-1864 1889 0
-97 -1864 1865 0
-1865 1890 0
-98 -1865 1866 0
-1866 1891 0
-99 -1866 1867 0
-1867 1892 0
-100 -1867 0
-76 1868 0
-1868 1893 0
-77 -1868 1869 0
-1869 1894 0
-78 -1869 1870 0
-1870 1895 0
-79 -1870 1871 0
-1871 1896 0
-80 -1871 1872 0
-1872 1897 0
-81 -1872 1873 0
-1873 1898 0
-82 -1873 1874 0
-1874 1899 0
-83 -1874 1875 0
-1875 1900 0
-84 -1875 1876 0
-1876 1901 0
-85 -1876 1877 0
-1877 1902 0
-86 -1877 1878 0
-1878 1903 0
-87 -1878 1879 0
-1879 1904 0
-88 -1879 1880 0
-1880 1905 0
-89 -1880 1881 0
-1881 1906 0
-90 -1881 1882 0
-1882 1907 0
-91 -1882 1883 0
-1883 1908 0
-92 -1883 1884 0
-1884 1909 0
-93 -1884 1885 0
-1885 1910 0
-94 -1885 1886 0
-1886 1911 0
-95 -1886 1887 0
-1887 1912 0
-96 -1887 1888 0
-1888 1913 0
-97 -1888 1889 0
-1889 1914 0
-98 -1889 1890 0
-1890 1915 0
-99 -1890 1891 0
-1891 1916 0
-100 -1891 1892 0
-1892 1917 0
-101 -1892 0
-77 1893 0
-1893 1918 0
-78 -1893 1894 0
-1894 1919 0
-79 -1894 1895 0
-1895 1920 0
-80 -1895 1896 0
-1896 1921 0
-81 -1896 1897 0
-1897 1922 0
-82 -1897 1898 0
-1898 1923 0
-83 -1898 1899 0
-1899 1924 0
-84 -1899 1900 0
-1900 1925 0
-85 -1900 1901 0
-1901 1926 0
-86 -1901 1902 0
-1902 1927 0
-87 -1902 1903 0
-1903 1928 0
-88 -1903 1904 0
-1904 1929 0
-89 -1904 1905 0
-1905 1930 0
-90 -1905 1906 0
-1906 1931 0
-91 -1906 1907 0
-1907 1932 0
-92 -1907 1908 0
-1908 1933 0
-93 -1908 1909 0
-1909 1934 0
-94 -1909 1910 0
-1910 1935 0
-95 -1910 1911 0
-1911 1936 0
-96 -1911 1912 0
-1912 1937 0
-97 -1912 1913 0
-1913 1938 0
-98 -1913 1914 0
-1914 1939 0
-99 -1914 1915 0
-1915 1940 0
-100 -1915 1916 0
-1916 1941 0
-101 -1916 1917 0
-1917 1942 0
-102 -1917 0
-78 1918 0
-1918 1943 0
-79 -1918 1919 0
-1919 1944 0
-80 -1919 1920 0
-1920 1945 0
-81 -1920 1921 0
-1921 1946 0
-82 -1921 1922 0
-1922 1947 0
-83 -1922 1923 0
-1923 1948 0
-84 -1923 1924 0
-1924 1949 0
-85 -1924 1925 0
-1925 1950 0
-86 -1925 1926 0
-1926 1951 0
-87 -1926 1927 0
-1927 1952 0
-88 -1927 1928 0
-1928 1953 0
-89 -1928 1929 0
-1929 1954 0
-90 -1929 1930 0
-1930 1955 0
-91 -1930 1931 0
-1931 1956 0
-92 -1931 1932 0
-1932 1957 0
-93 -1932 1933 0
-1933 1958 0
-94 -1933 1934 0
-1934 1959 0
-95 -1934 1935 0
-1935 1960 0
-96 -1935 1936 0
-1936 1961 0
-97 -1936 1937 0
-1937 1962 0
-98 -1937 1938 0
-1938 1963 0
-99 -1938 1939 0
-1939 1964 0
-100 -1939 1940 0
-1940 1965 0
-101 -1940 1941 0
-1941 1966 0
-102 -1941 1942 0
-1942 1967 0
-103 -1942 0
-79 1943 0
-1943 1968 0
-80 -1943 1944 0
-1944 1969 0
-81 -1944 1945 0
-1945 1970 0
-82 -1945 1946 0
-1946 1971 0
-83 -1946 1947 0
-1947 1972 0
-84 -1947 1948 0
-1948 1973 0
-85 -1948 1949 0
-1949 1974 0
-86 -1949 1950 0
-1950 1975 0
-87 -1950 1951 0
-1951 1976 0
-88 -1951 1952 0
-1952 1977 0
-89 -1952 1953 0
-1953 1978 0
-90 -1953 1954 0
-1954 1979 0
-91 -1954 1955 0
-1955 1980 0
-92 -1955 1956 0
-1956 1981 0
-93 -1956 1957 0
-1957 1982 0
-94 -1957 1958 0
-1958 1983 0
-95 -1958 1959 0
-1959 1984 0
-96 -1959 1960 0
-1960 1985 0
-97 -1960 1961 0
-1961 1986 0
-98 -1961 1962 0
-1962 1987 0
-99 -1962 1963 0
-1963 1988 0
-100 -1963 1964 0
-1964 1989 0
-101 -1964 1965 0
-1965 1990 0
-102 -1965 1966 0
-1966 1991 0
-103 -1966 1967 0
-1967 1992 0
-104 -1967 0
-80 1968 0
-1968 1993 0
-81 -1968 1969 0
-1969 1994 0
-82 -1969 1970 0
-1970 1995 0
-83 -1970 1971 0
-1971 1996 0
-84 -1971 1972 0
-1972 1997 0
-85 -1972 1973 0
-1973 1998 0
-86 -1973 1974 0
-1974 1999 0
-87 -1974 1975 0
-1975 2000 0
-88 -1975 1976 0
-1976 2001 0
-89 -1976 1977 0
-1977 2002 0
-90 -1977 1978 0
-1978 2003 0
-91 -1978 1979 0
-1979 2004 0
-92 -1979 1980 0
-1980 2005 0
-93 -1980 1981 0
-1981 2006 0
-94 -1981 1982 0
-1982 2007 0
-95 -1982 1983 0
-1983 2008 0
-96 -1983 1984 0
-1984 2009 0
-97 -1984 1985 0
-1985 2010 0
-98 -1985 1986 0
-1986 2011 0
-99 -1986 1987 0
-1987 2012 0
-100 -1987 1988 0
-1988 2013 0
-101 -1988 1989 0
-1989 2014 0
-102 -1989 1990 0
-1990 2015 0
-103 -1990 1991 0
-1991 2016 0
-104 -1991 1992 0
-1992 2017 0
-105 -1992 0
-81 1993 0
-1993 2018 0
-82 -1993 1994 0
-1994 2019 0
-83 -1994 1995 0
-1995 2020 0
-84 -1995 1996 0
-1996 2021 0
-85 -1996 1997 0
-1997 2022 0
-86 -1997 1998 0
-1998 2023 0
-87 -1998 1999 0
-1999 2024 0
-88 -1999 2000 0
-2000 2025 0
-89 -2000 2001 0
-2001 2026 0
-90 -2001 2002 0
-2002 2027 0
-91 -2002 2003 0
-2003 2028 0
-92 -2003 2004 0
-2004 2029 0
-93 -2004 2005 0
-2005 2030 0
-94 -2005 2006 0
-2006 2031 0
-95 -2006 2007 0
-2007 2032 0
-96 -2007 2008 0
-2008 2033 0
-97 -2008 2009 0
-2009 2034 0
-98 -2009 2010 0
-2010 2035 0
-99 -2010 2011 0
-2011 2036 0
-100 -2011 2012 0
-2012 2037 0
-101 -2012 2013 0
-2013 2038 0
-102 -2013 2014 0
-2014 2039 0
-103 -2014 2015 0
-2015 2040 0
-104 -2015 2016 0
-2016 2041 0
-105 -2016 2017 0
-2017 2042 0
-106 -2017 0
-82 2018 0
-2018 2043 0
-83 -2018 2019 0
-2019 2044 0
-84 -2019 2020 0
-2020 2045 0
-85 -2020 2021 0
-2021 2046 0
-86 -2021 2022 0
-2022 2047 0
-87 -2022 2023 0
-2023 2048 0
-88 -2023 2024 0
-2024 2049 0
-89 -2024 2025 0
-2025 2050 0
-90 -2025 2026 0
-2026 2051 0
-91 -2026 2027 0
-2027 2052 0
-92 -2027 2028 0
-2028 2053 0
-93 -2028 2029 0
-2029 2054 0
-94 -2029 2030 0
-2030 2055 0
-95 -2030 2031 0
-2031 2056 0
-96 -2031 2032 0
-2032 2057 0
-97 -2032 2033 0
-2033 2058 0
-98 -2033 2034 0
-2034 2059 0
-99 -2034 2035 0
-2035 2060 0
-100 -2035 2036 0
-2036 2061 0
-101 -2036 2037 0
-2037 2062 0
-102 -2037 2038 0
-2038 2063 0
-103 -2038 2039 0
-2039 2064 0
-104 -2039 2040 0
-2040 2065 0
-105 -2040 2041 0
-2041 2066 0
-106 -2041 2042 0
-2042 2067 0
-107 -2042 0
-83 2043 0
-2043 2068 0
-84 -2043 2044 0
-2044 2069 0
-85 -2044 2045 0
-2045 2070 0
-86 -2045 2046 0
-2046 2071 0
-87 -2046 2047 0
-2047 2072 0
-88 -2047 2048 0
-2048 2073 0
-89 -2048 2049 0
-2049 2074 0
-90 -2049 2050 0
-2050 2075 0
-91 -2050 2051 0
-2051 2076 0
-92 -2051 2052 0
-2052 2077 0
-93 -2052 2053 0
-2053 2078 0
-94 -2053 2054 0
-2054 2079 0
-95 -2054 2055 0
-2055 2080 0
-96 -2055 2056 0
-2056 2081 0
-97 -2056 2057 0
-2057 2082 0
-98 -2057 2058 0
-2058 2083 0
-99 -2058 2059 0
-2059 2084 0
-100 -2059 2060 0
-2060 2085 0
-101 -2060 2061 0
-2061 2086 0
-102 -2061 2062 0
-2062 2087 0
-103 -2062 2063 0
-2063 2088 0
-104 -2063 2064 0
-2064 2089 0
-105 -2064 2065 0
-2065 2090 0
-106 -2065 2066 0
-2066 2091 0
-107 -2066 2067 0
-2067 2092 0
-108 -2067 0
-84 2068 0
-2068 2093 0
-85 -2068 2069 0
-2069 2094 0
-86 -2069 2070 0
-2070 2095 0
-87 -2070 2071 0
-2071 2096 0
-88 -2071 2072 0
-2072 2097 0
-89 -2072 2073 0
-2073 2098 0
-90 -2073 2074 0
-2074 2099 0
-91 -2074 2075 0
-2075 2100 0
-92 -2075 2076 0
-2076 2101 0
-93 -2076 2077 0
-2077 2102 0
-94 -2077 2078 0
-2078 2103 0
-95 -2078 2079 0
-2079 2104 0
-96 -2079 2080 0
-2080 2105 0
-97 -2080 2081 0
-2081 2106 0
-98 -2081 2082 0
-2082 2107 0
-99 -2082 2083 0
-2083 2108 0
-100 -2083 2084 0
-2084 2109 0
-101 -2084 2085 0
-2085 2110 0
-102 -2085 2086 0
-2086 2111 0
-103 -2086 2087 0
-2087 2112 0
-104 -2087 2088 0
-2088 2113 0
-105 -2088 2089 0
-2089 2114 0
-106 -2089 2090 0
-2090 2115 0
-107 -2090 2091 0
-2091 2116 0
-108 -2091 2092 0
-2092 2117 0
-109 -2092 0
-85 2093 0
-2093 2118 0
-86 -2093 2094 0
-2094 2119 0
-87 -2094 2095 0
-2095 2120 0
-88 -2095 2096 0
-2096 2121 0
-89 -2096 2097 0
-2097 2122 0
-90 -2097 2098 0
-2098 2123 0
-91 -2098 2099 0
-2099 2124 0
-92 -2099 2100 0
-2100 2125 0
-93 -2100 2101 0
-2101 2126 0
-94 -2101 2102 0
-2102 2127 0
-95 -2102 2103 0
-2103 2128 0
-96 -2103 2104 0
-2104 2129 0
-97 -2104 2105 0
-2105 2130 0
-98 -2105 2106 0
-2106 2131 0
-99 -2106 2107 0
-2107 2132 0
-100 -2107 2108 0
-2108 2133 0
-101 -2108 2109 0
-2109 2134 0
-102 -2109 2110 0
-2110 2135 0
-103 -2110 2111 0
-2111 2136 0
-104 -2111 2112 0
-2112 2137 0
-105 -2112 2113 0
-2113 2138 0
-106 -2113 2114 0
-2114 2139 0
-107 -2114 2115 0
-2115 2140 0
-108 -2115 2116 0
-2116 2141 0
-109 -2116 2117 0
-2117 2142 0
-110 -2117 0
-86 2118 0
-2118 2143 0
-87 -2118 2119 0
-2119 2144 0
-88 -2119 2120 0
-2120 2145 0
-89 -2120 2121 0
-2121 2146 0
-90 -2121 2122 0
-2122 2147 0
-91 -2122 2123 0
-2123 2148 0
-92 -2123 2124 0
-2124 2149 0
-93 -2124 2125 0
-2125 2150 0
-94 -2125 2126 0
-2126 2151 0
-95 -2126 2127 0
-2127 2152 0
-96 -2127 2128 0
-2128 2153 0
-97 -2128 2129 0
-2129 2154 0
-98 -2129 2130 0
-2130 2155 0
-99 -2130 2131 0
-2131 2156 0
-100 -2131 2132 0
-2132 2157 0
-101 -2132 2133 0
-2133 2158 0
-102 -2133 2134 0
-2134 2159 0
-103 -2134 2135 0
-2135 2160 0
-104 -2135 2136 0
-2136 2161 0
-105 -2136 2137 0
-2137 2162 0
-106 -2137 2138 0
-2138 2163 0
-107 -2138 2139 0
-2139 2164 0
-108 -2139 2140 0
-2140 2165 0
-109 -2140 2141 0
-2141 2166 0
-110 -2141 2142 0
-2142 2167 0
-111 -2142 0
-87 2143 0
-88 -2143 2144 0
-89 -2144 2145 0
-90 -2145 2146 0
-91 -2146 2147 0
-92 -2147 2148 0
-93 -2148 2149 0
-94 -2149 2150 0
-95 -2150 2151 0
-96 -2151 2152 0
-97 -2152 2153 0
-98 -2153 2154 0
-99 -2154 2155 0
-100 -2155 2156 0
-101 -2156 2157 0
-102 -2157 2158 0
-103 -2158 2159 0
-104 -2159 2160 0
-105 -2160 2161 0
-106 -2161 2162 0
-107 -2162 2163 0
-108 -2163 2164 0
-109 -2164 2165 0
-110 -2165 2166 0
-111 -2166 2167 0
-112 -2167 0
1 29 0
