p cnf 3621 7421
-99 -1 0
-99 2 49 50 0
-2 1 99 0
-49 1 99 0
-50 1 99 0
-100 -2 0
-100 1 3 51 0
-1 2 100 0
-3 2 100 0
-51 2 100 0
-101 -3 0
-101 2 4 52 0
-2 3 101 0
-4 3 101 0
-52 3 101 0
-102 -4 0
-102 3 5 53 0
-3 4 102 0
-5 4 102 0
-53 4 102 0
-103 -5 0
-103 4 6 54 0
-4 5 103 0
-6 5 103 0
-54 5 103 0
-104 -6 0
-104 5 7 55 0
-5 6 104 0
-7 6 104 0
-55 6 104 0
-105 -7 0
-105 6 8 56 0
-6 7 105 0
-8 7 105 0
-56 7 105 0
-106 -8 0
-106 7 9 57 0
-7 8 106 0
-9 8 106 0
-57 8 106 0
-107 -9 0
-107 8 10 58 0
-8 9 107 0
-10 9 107 0
-58 9 107 0
-108 -10 0
-108 9 11 59 0
-9 10 108 0
-11 10 108 0
-59 10 108 0
-109 -11 0
-109 10 12 60 0
-10 11 109 0
-12 11 109 0
-60 11 109 0
-110 -12 0
-110 11 13 61 0
-11 12 110 0
-13 12 110 0
-61 12 110 0
-111 -13 0
-111 12 14 62 0
-12 13 111 0
-14 13 111 0
-62 13 111 0
-112 -14 0
-112 13 15 63 0
-13 14 112 0
-15 14 112 0
-63 14 112 0
-113 -15 0
-113 14 16 64 0
-14 15 113 0
-16 15 113 0
-64 15 113 0
-114 -16 0
-114 15 17 65 0
-15 16 114 0
-17 16 114 0
-65 16 114 0
-115 -17 0
-115 16 18 66 0
-16 17 115 0
-18 17 115 0
-66 17 115 0
-116 -18 0
-116 17 19 67 0
-17 18 116 0
-19 18 116 0
-67 18 116 0
-117 -19 0
-117 18 20 68 0
-18 19 117 0
-20 19 117 0
-68 19 117 0
-118 -20 0
-118 19 21 69 0
-19 20 118 0
-21 20 118 0
-69 20 118 0
-119 -21 0
-119 20 22 70 0
-20 21 119 0
-22 21 119 0
-70 21 119 0
-120 -22 0
-120 21 23 71 0
-21 22 120 0
-23 22 120 0
-71 22 120 0
-121 -23 0
-121 22 24 72 0
-22 23 121 0
-24 23 121 0
-72 23 121 0
-122 -24 0
-122 23 25 73 0
-23 24 122 0
-25 24 122 0
-73 24 122 0
-123 -25 0
-123 24 26 74 0
-24 25 123 0
-26 25 123 0
-74 25 123 0
-124 -26 0
-124 25 27 75 0
-25 26 124 0
-27 26 124 0
-75 26 124 0
-125 -27 0
-125 26 28 76 0
-26 27 125 0
-28 27 125 0
-76 27 125 0
-126 -28 0
-126 27 29 77 0
-27 28 126 0
-29 28 126 0
-77 28 126 0
-127 -29 0
-127 28 30 78 0
-28 29 127 0
-30 29 127 0
-78 29 127 0
-128 -30 0
-128 29 31 79 0
-29 30 128 0
-31 30 128 0
-79 30 128 0
-129 -31 0
-129 30 32 80 0
-30 31 129 0
-32 31 129 0
-80 31 129 0
-130 -32 0
-130 31 33 81 0
-31 32 130 0
-33 32 130 0
-81 32 130 0
-131 -33 0
-131 32 34 82 0
-32 33 131 0
-34 33 131 0
-82 33 131 0
-132 -34 0
-132 33 35 83 0
-33 34 132 0
-35 34 132 0
-83 34 132 0
-133 -35 0
-133 34 36 84 0
-34 35 133 0
-36 35 133 0
-84 35 133 0
-134 -36 0
-134 35 37 85 0
-35 36 134 0
-37 36 134 0
-85 36 134 0
-135 -37 0
-135 36 38 86 0
-36 37 135 0
-38 37 135 0
-86 37 135 0
-136 -38 0
-136 37 39 87 0
-37 38 136 0
-39 38 136 0
-87 38 136 0
-137 -39 0
-137 38 40 88 0
-38 39 137 0
-40 39 137 0
-88 39 137 0
-138 -40 0
-138 39 41 89 0
-39 40 138 0
-41 40 138 0
-89 40 138 0
-139 -41 0
-139 40 42 90 0
-40 41 139 0
-42 41 139 0
-90 41 139 0
-140 -42 0
-140 41 43 91 0
-41 42 140 0
-43 42 140 0
-91 42 140 0
-141 -43 0
-141 42 44 92 0
-42 43 141 0
-44 43 141 0
-92 43 141 0
-142 -44 0
-142 43 45 93 0
-43 44 142 0
-45 44 142 0
-93 44 142 0
-143 -45 0
-143 44 46 94 0
-44 45 143 0
-46 45 143 0
-94 45 143 0
-144 -46 0
-144 45 47 95 0
-45 46 144 0
-47 46 144 0
-95 46 144 0
-145 -47 0
-145 46 48 96 0
-46 47 145 0
-48 47 145 0
-96 47 145 0
-146 -48 0
-146 47 49 97 0
-47 48 146 0
-49 48 146 0
-97 48 146 0
-147 -49 0
-147 1 48 98 0
-1 49 147 0
-48 49 147 0
-98 49 147 0
-148 -50 0
-148 1 54 95 0
-1 50 148 0
-54 50 148 0
-95 50 148 0
-149 -51 0
-149 2 55 96 0
-2 51 149 0
-55 51 149 0
-96 51 149 0
-150 -52 0
-150 3 56 97 0
-3 52 150 0
-56 52 150 0
-97 52 150 0
-151 -53 0
-151 4 57 98 0
-4 53 151 0
-57 53 151 0
-98 53 151 0
-152 -54 0
-152 5 50 58 0
-5 54 152 0
-50 54 152 0
-58 54 152 0
-153 -55 0
-153 6 51 59 0
-6 55 153 0
-51 55 153 0
-59 55 153 0
-154 -56 0
-154 7 52 60 0
-7 56 154 0
-52 56 154 0
-60 56 154 0
-155 -57 0
-155 8 53 61 0
-8 57 155 0
-53 57 155 0
-61 57 155 0
-156 -58 0
-156 9 54 62 0
-9 58 156 0
-54 58 156 0
-62 58 156 0
-157 -59 0
-157 10 55 63 0
-10 59 157 0
-55 59 157 0
-63 59 157 0
-158 -60 0
-158 11 56 64 0
-11 60 158 0
-56 60 158 0
-64 60 158 0
-159 -61 0
-159 12 57 65 0
-12 61 159 0
-57 61 159 0
-65 61 159 0
-160 -62 0
-160 13 58 66 0
-13 62 160 0
-58 62 160 0
-66 62 160 0
-161 -63 0
-161 14 59 67 0
-14 63 161 0
-59 63 161 0
-67 63 161 0
-162 -64 0
-162 15 60 68 0
-15 64 162 0
-60 64 162 0
-68 64 162 0
-163 -65 0
-163 16 61 69 0
-16 65 163 0
-61 65 163 0
-69 65 163 0
-164 -66 0
-164 17 62 70 0
-17 66 164 0
-62 66 164 0
-70 66 164 0
-165 -67 0
-165 18 63 71 0
-18 67 165 0
-63 67 165 0
-71 67 165 0
-166 -68 0
-166 19 64 72 0
-19 68 166 0
-64 68 166 0
-72 68 166 0
-167 -69 0
-167 20 65 73 0
-20 69 167 0
-65 69 167 0
-73 69 167 0
-168 -70 0
-168 21 66 74 0
-21 70 168 0
-66 70 168 0
-74 70 168 0
-169 -71 0
-169 22 67 75 0
-22 71 169 0
-67 71 169 0
-75 71 169 0
-170 -72 0
-170 23 68 76 0
-23 72 170 0
-68 72 170 0
-76 72 170 0
-171 -73 0
-171 24 69 77 0
-24 73 171 0
-69 73 171 0
-77 73 171 0
-172 -74 0
-172 25 70 78 0
-25 74 172 0
-70 74 172 0
-78 74 172 0
-173 -75 0
-173 26 71 79 0
-26 75 173 0
-71 75 173 0
-79 75 173 0
-174 -76 0
-174 27 72 80 0
-27 76 174 0
-72 76 174 0
-80 76 174 0
-175 -77 0
-175 28 73 81 0
-28 77 175 0
-73 77 175 0
-81 77 175 0
-176 -78 0
-176 29 74 82 0
-29 78 176 0
-74 78 176 0
-82 78 176 0
-177 -79 0
-177 30 75 83 0
-30 79 177 0
-75 79 177 0
-83 79 177 0
-178 -80 0
-178 31 76 84 0
-31 80 178 0
-76 80 178 0
-84 80 178 0
-179 -81 0
-179 32 77 85 0
-32 81 179 0
-77 81 179 0
-85 81 179 0
-180 -82 0
-180 33 78 86 0
-33 82 180 0
-78 82 180 0
-86 82 180 0
-181 -83 0
-181 34 79 87 0
-34 83 181 0
-79 83 181 0
-87 83 181 0
-182 -84 0
-182 35 80 88 0
-35 84 182 0
-80 84 182 0
-88 84 182 0
-183 -85 0
-183 36 81 89 0
-36 85 183 0
-81 85 183 0
-89 85 183 0
-184 -86 0
-184 37 82 90 0
-37 86 184 0
-82 86 184 0
-90 86 184 0
-185 -87 0
-185 38 83 91 0
-38 87 185 0
-83 87 185 0
-91 87 185 0
-186 -88 0
-186 39 84 92 0
-39 88 186 0
-84 88 186 0
-92 88 186 0
-187 -89 0
-187 40 85 93 0
-40 89 187 0
-85 89 187 0
-93 89 187 0
-188 -90 0
-188 41 86 94 0
-41 90 188 0
-86 90 188 0
-94 90 188 0
-189 -91 0
-189 42 87 95 0
-42 91 189 0
-87 91 189 0
-95 91 189 0
-190 -92 0
-190 43 88 96 0
-43 92 190 0
-88 92 190 0
-96 92 190 0
-191 -93 0
-191 44 89 97 0
-44 93 191 0
-89 93 191 0
-97 93 191 0
-192 -94 0
-192 45 90 98 0
-45 94 192 0
-90 94 192 0
-98 94 192 0
-193 -95 0
-193 46 50 91 0
-46 95 193 0
-50 95 193 0
-91 95 193 0
-194 -96 0
-194 47 51 92 0
-47 96 194 0
-51 96 194 0
-92 96 194 0
-195 -97 0
-195 48 52 93 0
-48 97 195 0
-52 97 195 0
-93 97 195 0
-196 -98 0
-196 49 53 94 0
-49 98 196 0
-53 98 196 0
-94 98 196 0
1 197 0
-197 198 0
2 -197 199 0
-199 200 0
3 -199 201 0
-201 202 0
4 -201 203 0
-203 204 0
5 -203 205 0
-205 206 0
6 -205 207 0
-207 208 0
7 -207 209 0
-209 210 0
8 -209 211 0
-211 212 0
9 -211 213 0
-213 214 0
10 -213 215 0
-215 216 0
11 -215 217 0
-217 218 0
12 -217 219 0
-219 220 0
13 -219 221 0
-221 222 0
14 -221 223 0
-223 224 0
15 -223 225 0
-225 226 0
16 -225 227 0
-227 228 0
17 -227 229 0
-229 230 0
18 -229 231 0
-231 232 0
19 -231 233 0
-233 234 0
20 -233 235 0
-235 236 0
21 -235 237 0
-237 238 0
22 -237 239 0
-239 240 0
23 -239 241 0
-241 242 0
24 -241 243 0
-243 244 0
25 -243 245 0
-245 246 0
26 -245 247 0
-247 248 0
27 -247 249 0
-249 250 0
28 -249 251 0
-251 252 0
29 -251 253 0
-253 254 0
30 -253 255 0
-255 256 0
31 -255 257 0
-257 258 0
32 -257 259 0
-259 260 0
33 -259 261 0
-261 262 0
34 -261 263 0
-263 264 0
35 -263 265 0
-265 266 0
36 -265 267 0
-267 268 0
37 -267 269 0
-269 270 0
38 -269 271 0
-271 272 0
39 -271 273 0
-273 274 0
40 -273 275 0
-275 276 0
41 -275 277 0
-277 278 0
42 -277 279 0
-279 280 0
43 -279 281 0
-281 282 0
44 -281 283 0
-283 284 0
45 -283 285 0
-285 286 0
46 -285 287 0
-287 288 0
47 -287 289 0
-289 290 0
48 -289 291 0
-291 292 0
49 -291 293 0
-293 294 0
50 -293 295 0
-295 296 0
51 -295 297 0
-297 298 0
52 -297 299 0
-299 300 0
53 -299 301 0
-301 302 0
54 -301 303 0
-303 304 0
55 -303 305 0
-305 306 0
56 -305 307 0
-307 308 0
57 -307 309 0
-309 310 0
58 -309 311 0
-311 312 0
59 -311 313 0
-313 314 0
60 -313 315 0
-315 316 0
61 -315 317 0
-317 318 0
62 -317 319 0
-319 320 0
63 -319 321 0
-321 322 0
64 -321 323 0
-323 324 0
65 -323 325 0
-325 326 0
66 -325 327 0
-327 328 0
67 -327 329 0
-329 330 0
68 -329 331 0
-331 332 0
69 -331 333 0
-333 334 0
70 -333 335 0
-335 336 0
71 -335 337 0
-337 338 0
72 -337 339 0
-339 340 0
73 -339 341 0
-341 342 0
74 -341 343 0
-343 344 0
75 -343 345 0
-345 346 0
76 -345 347 0
-347 348 0
77 -347 349 0
-349 350 0
78 -349 351 0
-351 352 0
79 -351 353 0
-353 354 0
80 -353 355 0
-355 356 0
81 -355 357 0
-357 358 0
82 -357 359 0
-359 360 0
83 -359 0
2 198 0
-198 361 0
3 -198 200 0
-200 362 0
4 -200 202 0
-202 363 0
5 -202 204 0
-204 364 0
6 -204 206 0
-206 365 0
7 -206 208 0
-208 366 0
8 -208 210 0
-210 367 0
9 -210 212 0
-212 368 0
10 -212 214 0
-214 369 0
11 -214 216 0
-216 370 0
12 -216 218 0
-218 371 0
13 -218 220 0
-220 372 0
14 -220 222 0
-222 373 0
15 -222 224 0
-224 374 0
16 -224 226 0
-226 375 0
17 -226 228 0
-228 376 0
18 -228 230 0
-230 377 0
19 -230 232 0
-232 378 0
20 -232 234 0
-234 379 0
21 -234 236 0
-236 380 0
22 -236 238 0
-238 381 0
23 -238 240 0
-240 382 0
24 -240 242 0
-242 383 0
25 -242 244 0
-244 384 0
26 -244 246 0
-246 385 0
27 -246 248 0
-248 386 0
28 -248 250 0
-250 387 0
29 -250 252 0
-252 388 0
30 -252 254 0
-254 389 0
31 -254 256 0
-256 390 0
32 -256 258 0
-258 391 0
33 -258 260 0
-260 392 0
34 -260 262 0
-262 393 0
35 -262 264 0
-264 394 0
36 -264 266 0
-266 395 0
37 -266 268 0
-268 396 0
38 -268 270 0
-270 397 0
39 -270 272 0
-272 398 0
40 -272 274 0
-274 399 0
41 -274 276 0
-276 400 0
42 -276 278 0
-278 401 0
43 -278 280 0
-280 402 0
44 -280 282 0
-282 403 0
45 -282 284 0
-284 404 0
46 -284 286 0
-286 405 0
47 -286 288 0
-288 406 0
48 -288 290 0
-290 407 0
49 -290 292 0
-292 408 0
50 -292 294 0
-294 409 0
51 -294 296 0
-296 410 0
52 -296 298 0
-298 411 0
53 -298 300 0
-300 412 0
54 -300 302 0
-302 413 0
55 -302 304 0
-304 414 0
56 -304 306 0
-306 415 0
57 -306 308 0
-308 416 0
58 -308 310 0
-310 417 0
59 -310 312 0
-312 418 0
60 -312 314 0
-314 419 0
61 -314 316 0
-316 420 0
62 -316 318 0
-318 421 0
63 -318 320 0
-320 422 0
64 -320 322 0
-322 423 0
65 -322 324 0
-324 424 0
66 -324 326 0
-326 425 0
67 -326 328 0
-328 426 0
68 -328 330 0
-330 427 0
69 -330 332 0
-332 428 0
70 -332 334 0
-334 429 0
71 -334 336 0
-336 430 0
72 -336 338 0
-338 431 0
73 -338 340 0
-340 432 0
74 -340 342 0
-342 433 0
75 -342 344 0
-344 434 0
76 -344 346 0
-346 435 0
77 -346 348 0
-348 436 0
78 -348 350 0
-350 437 0
79 -350 352 0
-352 438 0
80 -352 354 0
-354 439 0
81 -354 356 0
-356 440 0
82 -356 358 0
-358 441 0
83 -358 360 0
-360 442 0
84 -360 0
3 361 0
-361 443 0
4 -361 362 0
-362 444 0
5 -362 363 0
-363 445 0
6 -363 364 0
-364 446 0
7 -364 365 0
-365 447 0
8 -365 366 0
-366 448 0
9 -366 367 0
-367 449 0
10 -367 368 0
-368 450 0
11 -368 369 0
-369 451 0
12 -369 370 0
-370 452 0
13 -370 371 0
-371 453 0
14 -371 372 0
-372 454 0
15 -372 373 0
-373 455 0
16 -373 374 0
-374 456 0
17 -374 375 0
-375 457 0
18 -375 376 0
-376 458 0
19 -376 377 0
-377 459 0
20 -377 378 0
-378 460 0
21 -378 379 0
-379 461 0
22 -379 380 0
-380 462 0
23 -380 381 0
-381 463 0
24 -381 382 0
-382 464 0
25 -382 383 0
-383 465 0
26 -383 384 0
-384 466 0
27 -384 385 0
-385 467 0
28 -385 386 0
-386 468 0
29 -386 387 0
-387 469 0
30 -387 388 0
-388 470 0
31 -388 389 0
-389 471 0
32 -389 390 0
-390 472 0
33 -390 391 0
-391 473 0
34 -391 392 0
-392 474 0
35 -392 393 0
-393 475 0
36 -393 394 0
-394 476 0
37 -394 395 0
-395 477 0
38 -395 396 0
-396 478 0
39 -396 397 0
-397 479 0
40 -397 398 0
-398 480 0
41 -398 399 0
-399 481 0
42 -399 400 0
-400 482 0
43 -400 401 0
-401 483 0
44 -401 402 0
-402 484 0
45 -402 403 0
-403 485 0
46 -403 404 0
-404 486 0
47 -404 405 0
-405 487 0
48 -405 406 0
-406 488 0
49 -406 407 0
-407 489 0
50 -407 408 0
-408 490 0
51 -408 409 0
-409 491 0
52 -409 410 0
-410 492 0
53 -410 411 0
-411 493 0
54 -411 412 0
-412 494 0
55 -412 413 0
-413 495 0
56 -413 414 0
-414 496 0
57 -414 415 0
-415 497 0
58 -415 416 0
-416 498 0
59 -416 417 0
-417 499 0
60 -417 418 0
-418 500 0
61 -418 419 0
-419 501 0
62 -419 420 0
-420 502 0
63 -420 421 0
-421 503 0
64 -421 422 0
-422 504 0
65 -422 423 0
-423 505 0
66 -423 424 0
-424 506 0
67 -424 425 0
-425 507 0
68 -425 426 0
-426 508 0
69 -426 427 0
-427 509 0
70 -427 428 0
-428 510 0
71 -428 429 0
-429 511 0
72 -429 430 0
-430 512 0
73 -430 431 0
-431 513 0
74 -431 432 0
-432 514 0
75 -432 433 0
-433 515 0
76 -433 434 0
-434 516 0
77 -434 435 0
-435 517 0
78 -435 436 0
-436 518 0
79 -436 437 0
-437 519 0
80 -437 438 0
-438 520 0
81 -438 439 0
-439 521 0
82 -439 440 0
-440 522 0
83 -440 441 0
-441 523 0
84 -441 442 0
-442 524 0
85 -442 0
4 443 0
-443 525 0
5 -443 444 0
-444 526 0
6 -444 445 0
-445 527 0
7 -445 446 0
-446 528 0
8 -446 447 0
-447 529 0
9 -447 448 0
-448 530 0
10 -448 449 0
-449 531 0
11 -449 450 0
-450 532 0
12 -450 451 0
-451 533 0
13 -451 452 0
-452 534 0
14 -452 453 0
-453 535 0
15 -453 454 0
-454 536 0
16 -454 455 0
-455 537 0
17 -455 456 0
-456 538 0
18 -456 457 0
-457 539 0
19 -457 458 0
-458 540 0
20 -458 459 0
-459 541 0
21 -459 460 0
-460 542 0
22 -460 461 0
-461 543 0
23 -461 462 0
-462 544 0
24 -462 463 0
-463 545 0
25 -463 464 0
-464 546 0
26 -464 465 0
-465 547 0
27 -465 466 0
-466 548 0
28 -466 467 0
-467 549 0
29 -467 468 0
-468 550 0
30 -468 469 0
-469 551 0
31 -469 470 0
-470 552 0
32 -470 471 0
-471 553 0
33 -471 472 0
-472 554 0
34 -472 473 0
-473 555 0
35 -473 474 0
-474 556 0
36 -474 475 0
-475 557 0
37 -475 476 0
-476 558 0
38 -476 477 0
-477 559 0
39 -477 478 0
-478 560 0
40 -478 479 0
-479 561 0
41 -479 480 0
-480 562 0
42 -480 481 0
-481 563 0
43 -481 482 0
-482 564 0
44 -482 483 0
-483 565 0
45 -483 484 0
-484 566 0
46 -484 485 0
-485 567 0
47 -485 486 0
-486 568 0
48 -486 487 0
-487 569 0
49 -487 488 0
-488 570 0
50 -488 489 0
-489 571 0
51 -489 490 0
-490 572 0
52 -490 491 0
-491 573 0
53 -491 492 0
-492 574 0
54 -492 493 0
-493 575 0
55 -493 494 0
-494 576 0
56 -494 495 0
-495 577 0
57 -495 496 0
-496 578 0
58 -496 497 0
-497 579 0
59 -497 498 0
-498 580 0
60 -498 499 0
-499 581 0
61 -499 500 0
-500 582 0
62 -500 501 0
-501 583 0
63 -501 502 0
-502 584 0
64 -502 503 0
-503 585 0
65 -503 504 0
-504 586 0
66 -504 505 0
-505 587 0
67 -505 506 0
-506 588 0
68 -506 507 0
-507 589 0
69 -507 508 0
-508 590 0
70 -508 509 0
-509 591 0
71 -509 510 0
-510 592 0
72 -510 511 0
-511 593 0
73 -511 512 0
-512 594 0
74 -512 513 0
-513 595 0
75 -513 514 0
-514 596 0
76 -514 515 0
-515 597 0
77 -515 516 0
-516 598 0
78 -516 517 0
-517 599 0
79 -517 518 0
-518 600 0
80 -518 519 0
-519 601 0
81 -519 520 0
-520 602 0
82 -520 521 0
-521 603 0
83 -521 522 0
-522 604 0
84 -522 523 0
-523 605 0
85 -523 524 0
-524 606 0
86 -524 0
5 525 0
-525 607 0
6 -525 526 0
-526 608 0
7 -526 527 0
-527 609 0
8 -527 528 0
-528 610 0
9 -528 529 0
-529 611 0
10 -529 530 0
-530 612 0
11 -530 531 0
-531 613 0
12 -531 532 0
-532 614 0
13 -532 533 0
-533 615 0
14 -533 534 0
-534 616 0
15 -534 535 0
-535 617 0
16 -535 536 0
-536 618 0
17 -536 537 0
-537 619 0
18 -537 538 0
-538 620 0
19 -538 539 0
-539 621 0
20 -539 540 0
-540 622 0
21 -540 541 0
-541 623 0
22 -541 542 0
-542 624 0
23 -542 543 0
-543 625 0
24 -543 544 0
-544 626 0
25 -544 545 0
-545 627 0
26 -545 546 0
-546 628 0
27 -546 547 0
-547 629 0
28 -547 548 0
-548 630 0
29 -548 549 0
-549 631 0
30 -549 550 0
-550 632 0
31 -550 551 0
-551 633 0
32 -551 552 0
-552 634 0
33 -552 553 0
-553 635 0
34 -553 554 0
-554 636 0
35 -554 555 0
-555 637 0
36 -555 556 0
-556 638 0
37 -556 557 0
-557 639 0
38 -557 558 0
-558 640 0
39 -558 559 0
-559 641 0
40 -559 560 0
-560 642 0
41 -560 561 0
-561 643 0
42 -561 562 0
-562 644 0
43 -562 563 0
-563 645 0
44 -563 564 0
-564 646 0
45 -564 565 0
-565 647 0
46 -565 566 0
-566 648 0
47 -566 567 0
-567 649 0
48 -567 568 0
-568 650 0
49 -568 569 0
-569 651 0
50 -569 570 0
-570 652 0
51 -570 571 0
-571 653 0
52 -571 572 0
-572 654 0
53 -572 573 0
-573 655 0
54 -573 574 0
-574 656 0
55 -574 575 0
-575 657 0
56 -575 576 0
-576 658 0
57 -576 577 0
-577 659 0
58 -577 578 0
-578 660 0
59 -578 579 0
-579 661 0
60 -579 580 0
-580 662 0
61 -580 581 0
-581 663 0
62 -581 582 0
-582 664 0
63 -582 583 0
-583 665 0
64 -583 584 0
-584 666 0
65 -584 585 0
-585 667 0
66 -585 586 0
-586 668 0
67 -586 587 0
-587 669 0
68 -587 588 0
-588 670 0
69 -588 589 0
-589 671 0
70 -589 590 0
-590 672 0
71 -590 591 0
-591 673 0
72 -591 592 0
-592 674 0
73 -592 593 0
-593 675 0
74 -593 594 0
-594 676 0
75 -594 595 0
-595 677 0
76 -595 596 0
-596 678 0
77 -596 597 0
-597 679 0
78 -597 598 0
-598 680 0
79 -598 599 0
-599 681 0
80 -599 600 0
-600 682 0
81 -600 601 0
-601 683 0
82 -601 602 0
-602 684 0
83 -602 603 0
-603 685 0
84 -603 604 0
-604 686 0
85 -604 605 0
-605 687 0
86 -605 606 0
-606 688 0
87 -606 0
6 607 0
-607 689 0
7 -607 608 0
-608 690 0
8 -608 609 0
-609 691 0
9 -609 610 0
-610 692 0
10 -610 611 0
-611 693 0
11 -611 612 0
-612 694 0
12 -612 613 0
-613 695 0
13 -613 614 0
-614 696 0
14 -614 615 0
-615 697 0
15 -615 616 0
-616 698 0
16 -616 617 0
-617 699 0
17 -617 618 0
-618 700 0
18 -618 619 0
-619 701 0
19 -619 620 0
-620 702 0
20 -620 621 0
-621 703 0
21 -621 622 0
-622 704 0
22 -622 623 0
-623 705 0
23 -623 624 0
-624 706 0
24 -624 625 0
-625 707 0
25 -625 626 0
-626 708 0
26 -626 627 0
-627 709 0
27 -627 628 0
-628 710 0
28 -628 629 0
-629 711 0
29 -629 630 0
-630 712 0
30 -630 631 0
-631 713 0
31 -631 632 0
-632 714 0
32 -632 633 0
-633 715 0
33 -633 634 0
-634 716 0
34 -634 635 0
-635 717 0
35 -635 636 0
-636 718 0
36 -636 637 0
-637 719 0
37 -637 638 0
-638 720 0
38 -638 639 0
-639 721 0
39 -639 640 0
-640 722 0
40 -640 641 0
-641 723 0
41 -641 642 0
-642 724 0
42 -642 643 0
-643 725 0
43 -643 644 0
-644 726 0
44 -644 645 0
-645 727 0
45 -645 646 0
-646 728 0
46 -646 647 0
-647 729 0
47 -647 648 0
-648 730 0
48 -648 649 0
-649 731 0
49 -649 650 0
-650 732 0
50 -650 651 0
-651 733 0
51 -651 652 0
-652 734 0
52 -652 653 0
-653 735 0
53 -653 654 0
-654 736 0
54 -654 655 0
-655 737 0
55 -655 656 0
-656 738 0
56 -656 657 0
-657 739 0
57 -657 658 0
-658 740 0
58 -658 659 0
-659 741 0
59 -659 660 0
-660 742 0
60 -660 661 0
-661 743 0
61 -661 662 0
-662 744 0
62 -662 663 0
-663 745 0
63 -663 664 0
-664 746 0
64 -664 665 0
-665 747 0
65 -665 666 0
-666 748 0
66 -666 667 0
-667 749 0
67 -667 668 0
-668 750 0
68 -668 669 0
-669 751 0
69 -669 670 0
-670 752 0
70 -670 671 0
-671 753 0
71 -671 672 0
-672 754 0
72 -672 673 0
-673 755 0
73 -673 674 0
-674 756 0
74 -674 675 0
-675 757 0
75 -675 676 0
-676 758 0
76 -676 677 0
-677 759 0
77 -677 678 0
-678 760 0
78 -678 679 0
-679 761 0
79 -679 680 0
-680 762 0
80 -680 681 0
-681 763 0
81 -681 682 0
-682 764 0
82 -682 683 0
-683 765 0
83 -683 684 0
-684 766 0
84 -684 685 0
-685 767 0
85 -685 686 0
-686 768 0
86 -686 687 0
-687 769 0
87 -687 688 0
-688 770 0
88 -688 0
7 689 0
-689 771 0
8 -689 690 0
-690 772 0
9 -690 691 0
-691 773 0
10 -691 692 0
-692 774 0
11 -692 693 0
-693 775 0
12 -693 694 0
-694 776 0
13 -694 695 0
-695 777 0
14 -695 696 0
-696 778 0
15 -696 697 0
-697 779 0
16 -697 698 0
-698 780 0
17 -698 699 0
-699 781 0
18 -699 700 0
-700 782 0
19 -700 701 0
-701 783 0
20 -701 702 0
-702 784 0
21 -702 703 0
-703 785 0
22 -703 704 0
-704 786 0
23 -704 705 0
-705 787 0
24 -705 706 0
-706 788 0
25 -706 707 0
-707 789 0
26 -707 708 0
-708 790 0
27 -708 709 0
-709 791 0
28 -709 710 0
-710 792 0
29 -710 711 0
-711 793 0
30 -711 712 0
-712 794 0
31 -712 713 0
-713 795 0
32 -713 714 0
-714 796 0
33 -714 715 0
-715 797 0
34 -715 716 0
-716 798 0
35 -716 717 0
-717 799 0
36 -717 718 0
-718 800 0
37 -718 719 0
-719 801 0
38 -719 720 0
-720 802 0
39 -720 721 0
-721 803 0
40 -721 722 0
-722 804 0
41 -722 723 0
-723 805 0
42 -723 724 0
-724 806 0
43 -724 725 0
-725 807 0
44 -725 726 0
-726 808 0
45 -726 727 0
-727 809 0
46 -727 728 0
-728 810 0
47 -728 729 0
-729 811 0
48 -729 730 0
-730 812 0
49 -730 731 0
-731 813 0
50 -731 732 0
-732 814 0
51 -732 733 0
-733 815 0
52 -733 734 0
-734 816 0
53 -734 735 0
-735 817 0
54 -735 736 0
-736 818 0
55 -736 737 0
-737 819 0
56 -737 738 0
-738 820 0
57 -738 739 0
-739 821 0
58 -739 740 0
-740 822 0
59 -740 741 0
-741 823 0
60 -741 742 0
-742 824 0
61 -742 743 0
-743 825 0
62 -743 744 0
-744 826 0
63 -744 745 0
-745 827 0
64 -745 746 0
-746 828 0
65 -746 747 0
-747 829 0
66 -747 748 0
-748 830 0
67 -748 749 0
-749 831 0
68 -749 750 0
-750 832 0
69 -750 751 0
-751 833 0
70 -751 752 0
-752 834 0
71 -752 753 0
-753 835 0
72 -753 754 0
-754 836 0
73 -754 755 0
-755 837 0
74 -755 756 0
-756 838 0
75 -756 757 0
-757 839 0
76 -757 758 0
-758 840 0
77 -758 759 0
-759 841 0
78 -759 760 0
-760 842 0
79 -760 761 0
-761 843 0
80 -761 762 0
-762 844 0
81 -762 763 0
-763 845 0
82 -763 764 0
-764 846 0
83 -764 765 0
-765 847 0
84 -765 766 0
-766 848 0
85 -766 767 0
-767 849 0
86 -767 768 0
-768 850 0
87 -768 769 0
-769 851 0
88 -769 770 0
-770 852 0
89 -770 0
8 771 0
-771 853 0
9 -771 772 0
-772 854 0
10 -772 773 0
-773 855 0
11 -773 774 0
-774 856 0
12 -774 775 0
-775 857 0
13 -775 776 0
-776 858 0
14 -776 777 0
-777 859 0
15 -777 778 0
-778 860 0
16 -778 779 0
-779 861 0
17 -779 780 0
-780 862 0
18 -780 781 0
-781 863 0
19 -781 782 0
-782 864 0
20 -782 783 0
-783 865 0
21 -783 784 0
-784 866 0
22 -784 785 0
-785 867 0
23 -785 786 0
-786 868 0
24 -786 787 0
-787 869 0
25 -787 788 0
-788 870 0
26 -788 789 0
-789 871 0
27 -789 790 0
-790 872 0
28 -790 791 0
-791 873 0
29 -791 792 0
-792 874 0
30 -792 793 0
-793 875 0
31 -793 794 0
-794 876 0
32 -794 795 0
-795 877 0
33 -795 796 0
-796 878 0
34 -796 797 0
-797 879 0
35 -797 798 0
-798 880 0
36 -798 799 0
-799 881 0
37 -799 800 0
-800 882 0
38 -800 801 0
-801 883 0
39 -801 802 0
-802 884 0
40 -802 803 0
-803 885 0
41 -803 804 0
-804 886 0
42 -804 805 0
-805 887 0
43 -805 806 0
-806 888 0
44 -806 807 0
-807 889 0
45 -807 808 0
-808 890 0
46 -808 809 0
-809 891 0
47 -809 810 0
-810 892 0
48 -810 811 0
-811 893 0
49 -811 812 0
-812 894 0
50 -812 813 0
-813 895 0
51 -813 814 0
-814 896 0
52 -814 815 0
-815 897 0
53 -815 816 0
-816 898 0
54 -816 817 0
-817 899 0
55 -817 818 0
-818 900 0
56 -818 819 0
-819 901 0
57 -819 820 0
-820 902 0
58 -820 821 0
-821 903 0
59 -821 822 0
-822 904 0
60 -822 823 0
-823 905 0
61 -823 824 0
-824 906 0
62 -824 825 0
-825 907 0
63 -825 826 0
-826 908 0
64 -826 827 0
-827 909 0
65 -827 828 0
-828 910 0
66 -828 829 0
-829 911 0
67 -829 830 0
-830 912 0
68 -830 831 0
-831 913 0
69 -831 832 0
-832 914 0
70 -832 833 0
-833 915 0
71 -833 834 0
-834 916 0
72 -834 835 0
-835 917 0
73 -835 836 0
-836 918 0
74 -836 837 0
-837 919 0
75 -837 838 0
-838 920 0
76 -838 839 0
-839 921 0
77 -839 840 0
-840 922 0
78 -840 841 0
-841 923 0
79 -841 842 0
-842 924 0
80 -842 843 0
-843 925 0
81 -843 844 0
-844 926 0
82 -844 845 0
-845 927 0
83 -845 846 0
-846 928 0
84 -846 847 0
-847 929 0
85 -847 848 0
-848 930 0
86 -848 849 0
-849 931 0
87 -849 850 0
-850 932 0
88 -850 851 0
-851 933 0
89 -851 852 0
-852 934 0
90 -852 0
9 853 0
-853 935 0
10 -853 854 0
-854 936 0
11 -854 855 0
-855 937 0
12 -855 856 0
-856 938 0
13 -856 857 0
-857 939 0
14 -857 858 0
-858 940 0
15 -858 859 0
-859 941 0
16 -859 860 0
-860 942 0
17 -860 861 0
-861 943 0
18 -861 862 0
-862 944 0
19 -862 863 0
-863 945 0
20 -863 864 0
-864 946 0
21 -864 865 0
-865 947 0
22 -865 866 0
-866 948 0
23 -866 867 0
-867 949 0
24 -867 868 0
-868 950 0
25 -868 869 0
-869 951 0
26 -869 870 0
-870 952 0
27 -870 871 0
-871 953 0
28 -871 872 0
-872 954 0
29 -872 873 0
-873 955 0
30 -873 874 0
-874 956 0
31 -874 875 0
-875 957 0
32 -875 876 0
-876 958 0
33 -876 877 0
-877 959 0
34 -877 878 0
-878 960 0
35 -878 879 0
-879 961 0
36 -879 880 0
-880 962 0
37 -880 881 0
-881 963 0
38 -881 882 0
-882 964 0
39 -882 883 0
-883 965 0
40 -883 884 0
-884 966 0
41 -884 885 0
-885 967 0
42 -885 886 0
-886 968 0
43 -886 887 0
-887 969 0
44 -887 888 0
-888 970 0
45 -888 889 0
-889 971 0
46 -889 890 0
-890 972 0
47 -890 891 0
-891 973 0
48 -891 892 0
-892 974 0
49 -892 893 0
-893 975 0
50 -893 894 0
-894 976 0
51 -894 895 0
-895 977 0
52 -895 896 0
-896 978 0
53 -896 897 0
-897 979 0
54 -897 898 0
-898 980 0
55 -898 899 0
-899 981 0
56 -899 900 0
-900 982 0
57 -900 901 0
-901 983 0
58 -901 902 0
-902 984 0
59 -902 903 0
-903 985 0
60 -903 904 0
-904 986 0
61 -904 905 0
-905 987 0
62 -905 906 0
-906 988 0
63 -906 907 0
-907 989 0
64 -907 908 0
-908 990 0
65 -908 909 0
-909 991 0
66 -909 910 0
-910 992 0
67 -910 911 0
-911 993 0
68 -911 912 0
-912 994 0
69 -912 913 0
-913 995 0
70 -913 914 0
-914 996 0
71 -914 915 0
-915 997 0
72 -915 916 0
-916 998 0
73 -916 917 0
-917 999 0
74 -917 918 0
-918 1000 0
75 -918 919 0
-919 1001 0
76 -919 920 0
-920 1002 0
77 -920 921 0
-921 1003 0
78 -921 922 0
-922 1004 0
79 -922 923 0
-923 1005 0
80 -923 924 0
-924 1006 0
81 -924 925 0
-925 1007 0
82 -925 926 0
-926 1008 0
83 -926 927 0
-927 1009 0
84 -927 928 0
-928 1010 0
85 -928 929 0
-929 1011 0
86 -929 930 0
-930 1012 0
87 -930 931 0
-931 1013 0
88 -931 932 0
-932 1014 0
89 -932 933 0
-933 1015 0
90 -933 934 0
-934 1016 0
91 -934 0
10 935 0
-935 1017 0
11 -935 936 0
-936 1018 0
12 -936 937 0
-937 1019 0
13 -937 938 0
-938 1020 0
14 -938 939 0
-939 1021 0
15 -939 940 0
-940 1022 0
16 -940 941 0
-941 1023 0
17 -941 942 0
-942 1024 0
18 -942 943 0
-943 1025 0
19 -943 944 0
-944 1026 0
20 -944 945 0
-945 1027 0
21 -945 946 0
-946 1028 0
22 -946 947 0
-947 1029 0
23 -947 948 0
-948 1030 0
24 -948 949 0
-949 1031 0
25 -949 950 0
-950 1032 0
26 -950 951 0
-951 1033 0
27 -951 952 0
-952 1034 0
28 -952 953 0
-953 1035 0
29 -953 954 0
-954 1036 0
30 -954 955 0
-955 1037 0
31 -955 956 0
-956 1038 0
32 -956 957 0
-957 1039 0
33 -957 958 0
-958 1040 0
34 -958 959 0
-959 1041 0
35 -959 960 0
-960 1042 0
36 -960 961 0
-961 1043 0
37 -961 962 0
-962 1044 0
38 -962 963 0
-963 1045 0
39 -963 964 0
-964 1046 0
40 -964 965 0
-965 1047 0
41 -965 966 0
-966 1048 0
42 -966 967 0
-967 1049 0
43 -967 968 0
-968 1050 0
44 -968 969 0
-969 1051 0
45 -969 970 0
-970 1052 0
46 -970 971 0
-971 1053 0
47 -971 972 0
-972 1054 0
48 -972 973 0
-973 1055 0
49 -973 974 0
-974 1056 0
50 -974 975 0
-975 1057 0
51 -975 976 0
-976 1058 0
52 -976 977 0
-977 1059 0
53 -977 978 0
-978 1060 0
54 -978 979 0
-979 1061 0
55 -979 980 0
-980 1062 0
56 -980 981 0
-981 1063 0
57 -981 982 0
-982 1064 0
58 -982 983 0
-983 1065 0
59 -983 984 0
-984 1066 0
60 -984 985 0
-985 1067 0
61 -985 986 0
-986 1068 0
62 -986 987 0
-987 1069 0
63 -987 988 0
-988 1070 0
64 -988 989 0
-989 1071 0
65 -989 990 0
-990 1072 0
66 -990 991 0
-991 1073 0
67 -991 992 0
-992 1074 0
68 -992 993 0
-993 1075 0
69 -993 994 0
-994 1076 0
70 -994 995 0
-995 1077 0
71 -995 996 0
-996 1078 0
72 -996 997 0
-997 1079 0
73 -997 998 0
-998 1080 0
74 -998 999 0
-999 1081 0
75 -999 1000 0
-1000 1082 0
76 -1000 1001 0
-1001 1083 0
77 -1001 1002 0
-1002 1084 0
78 -1002 1003 0
-1003 1085 0
79 -1003 1004 0
-1004 1086 0
80 -1004 1005 0
-1005 1087 0
81 -1005 1006 0
-1006 1088 0
82 -1006 1007 0
-1007 1089 0
83 -1007 1008 0
-1008 1090 0
84 -1008 1009 0
-1009 1091 0
85 -1009 1010 0
-1010 1092 0
86 -1010 1011 0
-1011 1093 0
87 -1011 1012 0
-1012 1094 0
88 -1012 1013 0
-1013 1095 0
89 -1013 1014 0
-1014 1096 0
90 -1014 1015 0
-1015 1097 0
91 -1015 1016 0
-1016 1098 0
92 -1016 0
11 1017 0
-1017 1099 0
12 -1017 1018 0
-1018 1100 0
13 -1018 1019 0
-1019 1101 0
14 -1019 1020 0
-1020 1102 0
15 -1020 1021 0
-1021 1103 0
16 -1021 1022 0
-1022 1104 0
17 -1022 1023 0
-1023 1105 0
18 -1023 1024 0
-1024 1106 0
19 -1024 1025 0
-1025 1107 0
20 -1025 1026 0
-1026 1108 0
21 -1026 1027 0
-1027 1109 0
22 -1027 1028 0
-1028 1110 0
23 -1028 1029 0
-1029 1111 0
24 -1029 1030 0
-1030 1112 0
25 -1030 1031 0
-1031 1113 0
26 -1031 1032 0
-1032 1114 0
27 -1032 1033 0
-1033 1115 0
28 -1033 1034 0
-1034 1116 0
29 -1034 1035 0
-1035 1117 0
30 -1035 1036 0
-1036 1118 0
31 -1036 1037 0
-1037 1119 0
32 -1037 1038 0
-1038 1120 0
33 -1038 1039 0
-1039 1121 0
34 -1039 1040 0
-1040 1122 0
35 -1040 1041 0
-1041 1123 0
36 -1041 1042 0
-1042 1124 0
37 -1042 1043 0
-1043 1125 0
38 -1043 1044 0
-1044 1126 0
39 -1044 1045 0
-1045 1127 0
40 -1045 1046 0
-1046 1128 0
41 -1046 1047 0
-1047 1129 0
42 -1047 1048 0
-1048 1130 0
43 -1048 1049 0
-1049 1131 0
44 -1049 1050 0
-1050 1132 0
45 -1050 1051 0
-1051 1133 0
46 -1051 1052 0
-1052 1134 0
47 -1052 1053 0
-1053 1135 0
48 -1053 1054 0
-1054 1136 0
49 -1054 1055 0
-1055 1137 0
50 -1055 1056 0
-1056 1138 0
51 -1056 1057 0
-1057 1139 0
52 -1057 1058 0
-1058 1140 0
53 -1058 1059 0
-1059 1141 0
54 -1059 1060 0
-1060 1142 0
55 -1060 1061 0
-1061 1143 0
56 -1061 1062 0
-1062 1144 0
57 -1062 1063 0
-1063 1145 0
58 -1063 1064 0
-1064 1146 0
59 -1064 1065 0
-1065 1147 0
60 -1065 1066 0
-1066 1148 0
61 -1066 1067 0
-1067 1149 0
62 -1067 1068 0
-1068 1150 0
63 -1068 1069 0
-1069 1151 0
64 -1069 1070 0
-1070 1152 0
65 -1070 1071 0
-1071 1153 0
66 -1071 1072 0
-1072 1154 0
67 -1072 1073 0
-1073 1155 0
68 -1073 1074 0
-1074 1156 0
69 -1074 1075 0
-1075 1157 0
70 -1075 1076 0
-1076 1158 0
71 -1076 1077 0
-1077 1159 0
72 -1077 1078 0
-1078 1160 0
73 -1078 1079 0
-1079 1161 0
74 -1079 1080 0
-1080 1162 0
75 -1080 1081 0
-1081 1163 0
76 -1081 1082 0
-1082 1164 0
77 -1082 1083 0
-1083 1165 0
78 -1083 1084 0
-1084 1166 0
79 -1084 1085 0
-1085 1167 0
80 -1085 1086 0
-1086 1168 0
81 -1086 1087 0
-1087 1169 0
82 -1087 1088 0
-1088 1170 0
83 -1088 1089 0
-1089 1171 0
84 -1089 1090 0
-1090 1172 0
85 -1090 1091 0
-1091 1173 0
86 -1091 1092 0
-1092 1174 0
87 -1092 1093 0
-1093 1175 0
88 -1093 1094 0
-1094 1176 0
89 -1094 1095 0
-1095 1177 0
90 -1095 1096 0
-1096 1178 0
91 -1096 1097 0
-1097 1179 0
92 -1097 1098 0
-1098 1180 0
93 -1098 0
12 1099 0
-1099 1181 0
13 -1099 1100 0
-1100 1182 0
14 -1100 1101 0
-1101 1183 0
15 -1101 1102 0
-1102 1184 0
16 -1102 1103 0
-1103 1185 0
17 -1103 1104 0
-1104 1186 0
18 -1104 1105 0
-1105 1187 0
19 -1105 1106 0
-1106 1188 0
20 -1106 1107 0
-1107 1189 0
21 -1107 1108 0
-1108 1190 0
22 -1108 1109 0
-1109 1191 0
23 -1109 1110 0
-1110 1192 0
24 -1110 1111 0
-1111 1193 0
25 -1111 1112 0
-1112 1194 0
26 -1112 1113 0
-1113 1195 0
27 -1113 1114 0
-1114 1196 0
28 -1114 1115 0
-1115 1197 0
29 -1115 1116 0
-1116 1198 0
30 -1116 1117 0
-1117 1199 0
31 -1117 1118 0
-1118 1200 0
32 -1118 1119 0
-1119 1201 0
33 -1119 1120 0
-1120 1202 0
34 -1120 1121 0
-1121 1203 0
35 -1121 1122 0
-1122 1204 0
36 -1122 1123 0
-1123 1205 0
37 -1123 1124 0
-1124 1206 0
38 -1124 1125 0
-1125 1207 0
39 -1125 1126 0
-1126 1208 0
40 -1126 1127 0
-1127 1209 0
41 -1127 1128 0
-1128 1210 0
42 -1128 1129 0
-1129 1211 0
43 -1129 1130 0
-1130 1212 0
44 -1130 1131 0
-1131 1213 0
45 -1131 1132 0
-1132 1214 0
46 -1132 1133 0
-1133 1215 0
47 -1133 1134 0
-1134 1216 0
48 -1134 1135 0
-1135 1217 0
49 -1135 1136 0
-1136 1218 0
50 -1136 1137 0
-1137 1219 0
51 -1137 1138 0
-1138 1220 0
52 -1138 1139 0
-1139 1221 0
53 -1139 1140 0
-1140 1222 0
54 -1140 1141 0
-1141 1223 0
55 -1141 1142 0
-1142 1224 0
56 -1142 1143 0
-1143 1225 0
57 -1143 1144 0
-1144 1226 0
58 -1144 1145 0
-1145 1227 0
59 -1145 1146 0
-1146 1228 0
60 -1146 1147 0
-1147 1229 0
61 -1147 1148 0
-1148 1230 0
62 -1148 1149 0
-1149 1231 0
63 -1149 1150 0
-1150 1232 0
64 -1150 1151 0
-1151 1233 0
65 -1151 1152 0
-1152 1234 0
66 -1152 1153 0
-1153 1235 0
67 -1153 1154 0
-1154 1236 0
68 -1154 1155 0
-1155 1237 0
69 -1155 1156 0
-1156 1238 0
70 -1156 1157 0
-1157 1239 0
71 -1157 1158 0
-1158 1240 0
72 -1158 1159 0
-1159 1241 0
73 -1159 1160 0
-1160 1242 0
74 -1160 1161 0
-1161 1243 0
75 -1161 1162 0
-1162 1244 0
76 -1162 1163 0
-1163 1245 0
77 -1163 1164 0
-1164 1246 0
78 -1164 1165 0
-1165 1247 0
79 -1165 1166 0
-1166 1248 0
80 -1166 1167 0
-1167 1249 0
81 -1167 1168 0
-1168 1250 0
82 -1168 1169 0
-1169 1251 0
83 -1169 1170 0
-1170 1252 0
84 -1170 1171 0
-1171 1253 0
85 -1171 1172 0
-1172 1254 0
86 -1172 1173 0
-1173 1255 0
87 -1173 1174 0
-1174 1256 0
88 -1174 1175 0
-1175 1257 0
89 -1175 1176 0
-1176 1258 0
90 -1176 1177 0
-1177 1259 0
91 -1177 1178 0
-1178 1260 0
92 -1178 1179 0
-1179 1261 0
93 -1179 1180 0
-1180 1262 0
94 -1180 0
13 1181 0
-1181 1263 0
14 -1181 1182 0
-1182 1264 0
15 -1182 1183 0
-1183 1265 0
16 -1183 1184 0
-1184 1266 0
17 -1184 1185 0
-1185 1267 0
18 -1185 1186 0
-1186 1268 0
19 -1186 1187 0
-1187 1269 0
20 -1187 1188 0
-1188 1270 0
21 -1188 1189 0
-1189 1271 0
22 -1189 1190 0
-1190 1272 0
23 -1190 1191 0
-1191 1273 0
24 -1191 1192 0
-1192 1274 0
25 -1192 1193 0
-1193 1275 0
26 -1193 1194 0
-1194 1276 0
27 -1194 1195 0
-1195 1277 0
28 -1195 1196 0
-1196 1278 0
29 -1196 1197 0
-1197 1279 0
30 -1197 1198 0
-1198 1280 0
31 -1198 1199 0
-1199 1281 0
32 -1199 1200 0
-1200 1282 0
33 -1200 1201 0
-1201 1283 0
34 -1201 1202 0
-1202 1284 0
35 -1202 1203 0
-1203 1285 0
36 -1203 1204 0
-1204 1286 0
37 -1204 1205 0
-1205 1287 0
38 -1205 1206 0
-1206 1288 0
39 -1206 1207 0
-1207 1289 0
40 -1207 1208 0
-1208 1290 0
41 -1208 1209 0
-1209 1291 0
42 -1209 1210 0
-1210 1292 0
43 -1210 1211 0
-1211 1293 0
44 -1211 1212 0
-1212 1294 0
45 -1212 1213 0
-1213 1295 0
46 -1213 1214 0
-1214 1296 0
47 -1214 1215 0
-1215 1297 0
48 -1215 1216 0
-1216 1298 0
49 -1216 1217 0
-1217 1299 0
50 -1217 1218 0
-1218 1300 0
51 -1218 1219 0
-1219 1301 0
52 -1219 1220 0
-1220 1302 0
53 -1220 1221 0
-1221 1303 0
54 -1221 1222 0
-1222 1304 0
55 -1222 1223 0
-1223 1305 0
56 -1223 1224 0
-1224 1306 0
57 -1224 1225 0
-1225 1307 0
58 -1225 1226 0
-1226 1308 0
59 -1226 1227 0
-1227 1309 0
60 -1227 1228 0
-1228 1310 0
61 -1228 1229 0
-1229 1311 0
62 -1229 1230 0
-1230 1312 0
63 -1230 1231 0
-1231 1313 0
64 -1231 1232 0
-1232 1314 0
65 -1232 1233 0
-1233 1315 0
66 -1233 1234 0
-1234 1316 0
67 -1234 1235 0
-1235 1317 0
68 -1235 1236 0
-1236 1318 0
69 -1236 1237 0
-1237 1319 0
70 -1237 1238 0
-1238 1320 0
71 -1238 1239 0
-1239 1321 0
72 -1239 1240 0
-1240 1322 0
73 -1240 1241 0
-1241 1323 0
74 -1241 1242 0
-1242 1324 0
75 -1242 1243 0
-1243 1325 0
76 -1243 1244 0
-1244 1326 0
77 -1244 1245 0
-1245 1327 0
78 -1245 1246 0
-1246 1328 0
79 -1246 1247 0
-1247 1329 0
80 -1247 1248 0
-1248 1330 0
81 -1248 1249 0
-1249 1331 0
82 -1249 1250 0
-1250 1332 0
83 -1250 1251 0
-1251 1333 0
84 -1251 1252 0
-1252 1334 0
85 -1252 1253 0
-1253 1335 0
86 -1253 1254 0
-1254 1336 0
87 -1254 1255 0
-1255 1337 0
88 -1255 1256 0
-1256 1338 0
89 -1256 1257 0
-1257 1339 0
90 -1257 1258 0
-1258 1340 0
91 -1258 1259 0
-1259 1341 0
92 -1259 1260 0
-1260 1342 0
93 -1260 1261 0
-1261 1343 0
94 -1261 1262 0
-1262 1344 0
95 -1262 0
14 1263 0
-1263 1345 0
15 -1263 1264 0
-1264 1346 0
16 -1264 1265 0
-1265 1347 0
17 -1265 1266 0
-1266 1348 0
18 -1266 1267 0
-1267 1349 0
19 -1267 1268 0
-1268 1350 0
20 -1268 1269 0
-1269 1351 0
21 -1269 1270 0
-1270 1352 0
22 -1270 1271 0
-1271 1353 0
23 -1271 1272 0
-1272 1354 0
24 -1272 1273 0
-1273 1355 0
25 -1273 1274 0
-1274 1356 0
26 -1274 1275 0
-1275 1357 0
27 -1275 1276 0
-1276 1358 0
28 -1276 1277 0
-1277 1359 0
29 -1277 1278 0
-1278 1360 0
30 -1278 1279 0
-1279 1361 0
31 -1279 1280 0
-1280 1362 0
32 -1280 1281 0
-1281 1363 0
33 -1281 1282 0
-1282 1364 0
34 -1282 1283 0
-1283 1365 0
35 -1283 1284 0
-1284 1366 0
36 -1284 1285 0
-1285 1367 0
37 -1285 1286 0
-1286 1368 0
38 -1286 1287 0
-1287 1369 0
39 -1287 1288 0
-1288 1370 0
40 -1288 1289 0
-1289 1371 0
41 -1289 1290 0
-1290 1372 0
42 -1290 1291 0
-1291 1373 0
43 -1291 1292 0
-1292 1374 0
44 -1292 1293 0
-1293 1375 0
45 -1293 1294 0
-1294 1376 0
46 -1294 1295 0
-1295 1377 0
47 -1295 1296 0
-1296 1378 0
48 -1296 1297 0
-1297 1379 0
49 -1297 1298 0
-1298 1380 0
50 -1298 1299 0
-1299 1381 0
51 -1299 1300 0
-1300 1382 0
52 -1300 1301 0
-1301 1383 0
53 -1301 1302 0
-1302 1384 0
54 -1302 1303 0
-1303 1385 0
55 -1303 1304 0
-1304 1386 0
56 -1304 1305 0
-1305 1387 0
57 -1305 1306 0
-1306 1388 0
58 -1306 1307 0
-1307 1389 0
59 -1307 1308 0
-1308 1390 0
60 -1308 1309 0
-1309 1391 0
61 -1309 1310 0
-1310 1392 0
62 -1310 1311 0
-1311 1393 0
63 -1311 1312 0
-1312 1394 0
64 -1312 1313 0
-1313 1395 0
65 -1313 1314 0
-1314 1396 0
66 -1314 1315 0
-1315 1397 0
67 -1315 1316 0
-1316 1398 0
68 -1316 1317 0
-1317 1399 0
69 -1317 1318 0
-1318 1400 0
70 -1318 1319 0
-1319 1401 0
71 -1319 1320 0
-1320 1402 0
72 -1320 1321 0
-1321 1403 0
73 -1321 1322 0
-1322 1404 0
74 -1322 1323 0
-1323 1405 0
75 -1323 1324 0
-1324 1406 0
76 -1324 1325 0
-1325 1407 0
77 -1325 1326 0
-1326 1408 0
78 -1326 1327 0
-1327 1409 0
79 -1327 1328 0
-1328 1410 0
80 -1328 1329 0
-1329 1411 0
81 -1329 1330 0
-1330 1412 0
82 -1330 1331 0
-1331 1413 0
83 -1331 1332 0
-1332 1414 0
84 -1332 1333 0
-1333 1415 0
85 -1333 1334 0
-1334 1416 0
86 -1334 1335 0
-1335 1417 0
87 -1335 1336 0
-1336 1418 0
88 -1336 1337 0
-1337 1419 0
89 -1337 1338 0
-1338 1420 0
90 -1338 1339 0
-1339 1421 0
91 -1339 1340 0
-1340 1422 0
92 -1340 1341 0
-1341 1423 0
93 -1341 1342 0
-1342 1424 0
94 -1342 1343 0
-1343 1425 0
95 -1343 1344 0
-1344 1426 0
96 -1344 0
15 1345 0
-1345 1427 0
16 -1345 1346 0
-1346 1428 0
17 -1346 1347 0
-1347 1429 0
18 -1347 1348 0
-1348 1430 0
19 -1348 1349 0
-1349 1431 0
20 -1349 1350 0
-1350 1432 0
21 -1350 1351 0
-1351 1433 0
22 -1351 1352 0
-1352 1434 0
23 -1352 1353 0
-1353 1435 0
24 -1353 1354 0
-1354 1436 0
25 -1354 1355 0
-1355 1437 0
26 -1355 1356 0
-1356 1438 0
27 -1356 1357 0
-1357 1439 0
28 -1357 1358 0
-1358 1440 0
29 -1358 1359 0
-1359 1441 0
30 -1359 1360 0
-1360 1442 0
31 -1360 1361 0
-1361 1443 0
32 -1361 1362 0
-1362 1444 0
33 -1362 1363 0
-1363 1445 0
34 -1363 1364 0
-1364 1446 0
35 -1364 1365 0
-1365 1447 0
36 -1365 1366 0
-1366 1448 0
37 -1366 1367 0
-1367 1449 0
38 -1367 1368 0
-1368 1450 0
39 -1368 1369 0
-1369 1451 0
40 -1369 1370 0
-1370 1452 0
41 -1370 1371 0
-1371 1453 0
42 -1371 1372 0
-1372 1454 0
43 -1372 1373 0
-1373 1455 0
44 -1373 1374 0
-1374 1456 0
45 -1374 1375 0
-1375 1457 0
46 -1375 1376 0
-1376 1458 0
47 -1376 1377 0
-1377 1459 0
48 -1377 1378 0
-1378 1460 0
49 -1378 1379 0
-1379 1461 0
50 -1379 1380 0
-1380 1462 0
51 -1380 1381 0
-1381 1463 0
52 -1381 1382 0
-1382 1464 0
53 -1382 1383 0
-1383 1465 0
54 -1383 1384 0
-1384 1466 0
55 -1384 1385 0
-1385 1467 0
56 -1385 1386 0
-1386 1468 0
57 -1386 1387 0
-1387 1469 0
58 -1387 1388 0
-1388 1470 0
59 -1388 1389 0
-1389 1471 0
60 -1389 1390 0
-1390 1472 0
61 -1390 1391 0
-1391 1473 0
62 -1391 1392 0
-1392 1474 0
63 -1392 1393 0
-1393 1475 0
64 -1393 1394 0
-1394 1476 0
65 -1394 1395 0
-1395 1477 0
66 -1395 1396 0
-1396 1478 0
67 -1396 1397 0
-1397 1479 0
68 -1397 1398 0
-1398 1480 0
69 -1398 1399 0
-1399 1481 0
70 -1399 1400 0
-1400 1482 0
71 -1400 1401 0
-1401 1483 0
72 -1401 1402 0
-1402 1484 0
73 -1402 1403 0
-1403 1485 0
74 -1403 1404 0
-1404 1486 0
75 -1404 1405 0
-1405 1487 0
76 -1405 1406 0
-1406 1488 0
77 -1406 1407 0
-1407 1489 0
78 -1407 1408 0
-1408 1490 0
79 -1408 1409 0
-1409 1491 0
80 -1409 1410 0
-1410 1492 0
81 -1410 1411 0
-1411 1493 0
82 -1411 1412 0
-1412 1494 0
83 -1412 1413 0
-1413 1495 0
84 -1413 1414 0
-1414 1496 0
85 -1414 1415 0
-1415 1497 0
86 -1415 1416 0
-1416 1498 0
87 -1416 1417 0
-1417 1499 0
88 -1417 1418 0
-1418 1500 0
89 -1418 1419 0
-1419 1501 0
90 -1419 1420 0
-1420 1502 0
91 -1420 1421 0
-1421 1503 0
92 -1421 1422 0
-1422 1504 0
93 -1422 1423 0
-1423 1505 0
94 -1423 1424 0
-1424 1506 0
95 -1424 1425 0
-1425 1507 0
96 -1425 1426 0
-1426 1508 0
97 -1426 0
16 1427 0
17 -1427 1428 0
18 -1428 1429 0
19 -1429 1430 0
20 -1430 1431 0
21 -1431 1432 0
22 -1432 1433 0
23 -1433 1434 0
24 -1434 1435 0
25 -1435 1436 0
26 -1436 1437 0
27 -1437 1438 0
28 -1438 1439 0
29 -1439 1440 0
30 -1440 1441 0
31 -1441 1442 0
32 -1442 1443 0
33 -1443 1444 0
34 -1444 1445 0
35 -1445 1446 0
36 -1446 1447 0
37 -1447 1448 0
38 -1448 1449 0
39 -1449 1450 0
40 -1450 1451 0
41 -1451 1452 0
42 -1452 1453 0
43 -1453 1454 0
44 -1454 1455 0
45 -1455 1456 0
46 -1456 1457 0
47 -1457 1458 0
48 -1458 1459 0
49 -1459 1460 0
50 -1460 1461 0
51 -1461 1462 0
52 -1462 1463 0
53 -1463 1464 0
54 -1464 1465 0
55 -1465 1466 0
56 -1466 1467 0
57 -1467 1468 0
58 -1468 1469 0
59 -1469 1470 0
60 -1470 1471 0
61 -1471 1472 0
62 -1472 1473 0
63 -1473 1474 0
64 -1474 1475 0
65 -1475 1476 0
66 -1476 1477 0
67 -1477 1478 0
68 -1478 1479 0
69 -1479 1480 0
70 -1480 1481 0
71 -1481 1482 0
72 -1482 1483 0
73 -1483 1484 0
74 -1484 1485 0
75 -1485 1486 0
76 -1486 1487 0
77 -1487 1488 0
78 -1488 1489 0
79 -1489 1490 0
80 -1490 1491 0
81 -1491 1492 0
82 -1492 1493 0
83 -1493 1494 0
84 -1494 1495 0
85 -1495 1496 0
86 -1496 1497 0
87 -1497 1498 0
88 -1498 1499 0
89 -1499 1500 0
90 -1500 1501 0
91 -1501 1502 0
92 -1502 1503 0
93 -1503 1504 0
94 -1504 1505 0
95 -1505 1506 0
96 -1506 1507 0
97 -1507 1508 0
98 -1508 0
-1 1509 0
-1509 1510 0
-2 -1509 1511 0
-1511 1512 0
-3 -1511 1513 0
-1513 1514 0
-4 -1513 1515 0
-1515 1516 0
-5 -1515 1517 0
-1517 1518 0
-6 -1517 1519 0
-1519 1520 0
-7 -1519 1521 0
-1521 1522 0
-8 -1521 1523 0
-1523 1524 0
-9 -1523 1525 0
-1525 1526 0
-10 -1525 1527 0
-1527 1528 0
-11 -1527 1529 0
-1529 1530 0
-12 -1529 1531 0
-1531 1532 0
-13 -1531 1533 0
-1533 1534 0
-14 -1533 1535 0
-1535 1536 0
-15 -1535 1537 0
-1537 1538 0
-16 -1537 1539 0
-1539 1540 0
-17 -1539 0
-2 1510 0
-1510 1541 0
-3 -1510 1512 0
-1512 1542 0
-4 -1512 1514 0
-1514 1543 0
-5 -1514 1516 0
-1516 1544 0
-6 -1516 1518 0
-1518 1545 0
-7 -1518 1520 0
-1520 1546 0
-8 -1520 1522 0
-1522 1547 0
-9 -1522 1524 0
-1524 1548 0
-10 -1524 1526 0
-1526 1549 0
-11 -1526 1528 0
-1528 1550 0
-12 -1528 1530 0
-1530 1551 0
-13 -1530 1532 0
-1532 1552 0
-14 -1532 1534 0
-1534 1553 0
-15 -1534 1536 0
-1536 1554 0
-16 -1536 1538 0
-1538 1555 0
-17 -1538 1540 0
-1540 1556 0
-18 -1540 0
-3 1541 0
-1541 1557 0
-4 -1541 1542 0
-1542 1558 0
-5 -1542 1543 0
-1543 1559 0
-6 -1543 1544 0
-1544 1560 0
-7 -1544 1545 0
-1545 1561 0
-8 -1545 1546 0
-1546 1562 0
-9 -1546 1547 0
-1547 1563 0
-10 -1547 1548 0
-1548 1564 0
-11 -1548 1549 0
-1549 1565 0
-12 -1549 1550 0
-1550 1566 0
-13 -1550 1551 0
-1551 1567 0
-14 -1551 1552 0
-1552 1568 0
-15 -1552 1553 0
-1553 1569 0
-16 -1553 1554 0
-1554 1570 0
-17 -1554 1555 0
-1555 1571 0
-18 -1555 1556 0
-1556 1572 0
-19 -1556 0
-4 1557 0
-1557 1573 0
-5 -1557 1558 0
-1558 1574 0
-6 -1558 1559 0
-1559 1575 0
-7 -1559 1560 0
-1560 1576 0
-8 -1560 1561 0
-1561 1577 0
-9 -1561 1562 0
-1562 1578 0
-10 -1562 1563 0
-1563 1579 0
-11 -1563 1564 0
-1564 1580 0
-12 -1564 1565 0
-1565 1581 0
-13 -1565 1566 0
-1566 1582 0
-14 -1566 1567 0
-1567 1583 0
-15 -1567 1568 0
-1568 1584 0
-16 -1568 1569 0
-1569 1585 0
-17 -1569 1570 0
-1570 1586 0
-18 -1570 1571 0
-1571 1587 0
-19 -1571 1572 0
-1572 1588 0
-20 -1572 0
-5 1573 0
-1573 1589 0
-6 -1573 1574 0
-1574 1590 0
-7 -1574 1575 0
-1575 1591 0
-8 -1575 1576 0
-1576 1592 0
-9 -1576 1577 0
-1577 1593 0
-10 -1577 1578 0
-1578 1594 0
-11 -1578 1579 0
-1579 1595 0
-12 -1579 1580 0
-1580 1596 0
-13 -1580 1581 0
-1581 1597 0
-14 -1581 1582 0
-1582 1598 0
-15 -1582 1583 0
-1583 1599 0
-16 -1583 1584 0
-1584 1600 0
-17 -1584 1585 0
-1585 1601 0
-18 -1585 1586 0
-1586 1602 0
-19 -1586 1587 0
-1587 1603 0
-20 -1587 1588 0
-1588 1604 0
-21 -1588 0
-6 1589 0
-1589 1605 0
-7 -1589 1590 0
-1590 1606 0
-8 -1590 1591 0
-1591 1607 0
-9 -1591 1592 0
-1592 1608 0
-10 -1592 1593 0
-1593 1609 0
-11 -1593 1594 0
-1594 1610 0
-12 -1594 1595 0
-1595 1611 0
-13 -1595 1596 0
-1596 1612 0
-14 -1596 1597 0
-1597 1613 0
-15 -1597 1598 0
-1598 1614 0
-16 -1598 1599 0
-1599 1615 0
-17 -1599 1600 0
-1600 1616 0
-18 -1600 1601 0
-1601 1617 0
-19 -1601 1602 0
-1602 1618 0
-20 -1602 1603 0
-1603 1619 0
-21 -1603 1604 0
-1604 1620 0
-22 -1604 0
-7 1605 0
-1605 1621 0
-8 -1605 1606 0
-1606 1622 0
-9 -1606 1607 0
-1607 1623 0
-10 -1607 1608 0
-1608 1624 0
-11 -1608 1609 0
-1609 1625 0
-12 -1609 1610 0
-1610 1626 0
-13 -1610 1611 0
-1611 1627 0
-14 -1611 1612 0
-1612 1628 0
-15 -1612 1613 0
-1613 1629 0
-16 -1613 1614 0
-1614 1630 0
-17 -1614 1615 0
-1615 1631 0
-18 -1615 1616 0
-1616 1632 0
-19 -1616 1617 0
-1617 1633 0
-20 -1617 1618 0
-1618 1634 0
-21 -1618 1619 0
-1619 1635 0
-22 -1619 1620 0
-1620 1636 0
-23 -1620 0
-8 1621 0
-1621 1637 0
-9 -1621 1622 0
-1622 1638 0
-10 -1622 1623 0
-1623 1639 0
-11 -1623 1624 0
-1624 1640 0
-12 -1624 1625 0
-1625 1641 0
-13 -1625 1626 0
-1626 1642 0
-14 -1626 1627 0
-1627 1643 0
-15 -1627 1628 0
-1628 1644 0
-16 -1628 1629 0
-1629 1645 0
-17 -1629 1630 0
-1630 1646 0
-18 -1630 1631 0
-1631 1647 0
-19 -1631 1632 0
-1632 1648 0
-20 -1632 1633 0
-1633 1649 0
-21 -1633 1634 0
-1634 1650 0
-22 -1634 1635 0
-1635 1651 0
-23 -1635 1636 0
-1636 1652 0
-24 -1636 0
-9 1637 0
-1637 1653 0
-10 -1637 1638 0
-1638 1654 0
-11 -1638 1639 0
-1639 1655 0
-12 -1639 1640 0
-1640 1656 0
-13 -1640 1641 0
-1641 1657 0
-14 -1641 1642 0
-1642 1658 0
-15 -1642 1643 0
-1643 1659 0
-16 -1643 1644 0
-1644 1660 0
-17 -1644 1645 0
-1645 1661 0
-18 -1645 1646 0
-1646 1662 0
-19 -1646 1647 0
-1647 1663 0
-20 -1647 1648 0
-1648 1664 0
-21 -1648 1649 0
-1649 1665 0
-22 -1649 1650 0
-1650 1666 0
-23 -1650 1651 0
-1651 1667 0
-24 -1651 1652 0
-1652 1668 0
-25 -1652 0
-10 1653 0
-1653 1669 0
-11 -1653 1654 0
-1654 1670 0
-12 -1654 1655 0
-1655 1671 0
-13 -1655 1656 0
-1656 1672 0
-14 -1656 1657 0
-1657 1673 0
-15 -1657 1658 0
-1658 1674 0
-16 -1658 1659 0
-1659 1675 0
-17 -1659 1660 0
-1660 1676 0
-18 -1660 1661 0
-1661 1677 0
-19 -1661 1662 0
-1662 1678 0
-20 -1662 1663 0
-1663 1679 0
-21 -1663 1664 0
-1664 1680 0
-22 -1664 1665 0
-1665 1681 0
-23 -1665 1666 0
-1666 1682 0
-24 -1666 1667 0
-1667 1683 0
-25 -1667 1668 0
-1668 1684 0
-26 -1668 0
-11 1669 0
-1669 1685 0
-12 -1669 1670 0
-1670 1686 0
-13 -1670 1671 0
-1671 1687 0
-14 -1671 1672 0
-1672 1688 0
-15 -1672 1673 0
-1673 1689 0
-16 -1673 1674 0
-1674 1690 0
-17 -1674 1675 0
-1675 1691 0
-18 -1675 1676 0
-1676 1692 0
-19 -1676 1677 0
-1677 1693 0
-20 -1677 1678 0
-1678 1694 0
-21 -1678 1679 0
-1679 1695 0
-22 -1679 1680 0
-1680 1696 0
-23 -1680 1681 0
-1681 1697 0
-24 -1681 1682 0
-1682 1698 0
-25 -1682 1683 0
-1683 1699 0
-26 -1683 1684 0
-1684 1700 0
-27 -1684 0
-12 1685 0
-1685 1701 0
-13 -1685 1686 0
-1686 1702 0
-14 -1686 1687 0
-1687 1703 0
-15 -1687 1688 0
-1688 1704 0
-16 -1688 1689 0
-1689 1705 0
-17 -1689 1690 0
-1690 1706 0
-18 -1690 1691 0
-1691 1707 0
-19 -1691 1692 0
-1692 1708 0
-20 -1692 1693 0
-1693 1709 0
-21 -1693 1694 0
-1694 1710 0
-22 -1694 1695 0
-1695 1711 0
-23 -1695 1696 0
-1696 1712 0
-24 -1696 1697 0
-1697 1713 0
-25 -1697 1698 0
-1698 1714 0
-26 -1698 1699 0
-1699 1715 0
-27 -1699 1700 0
-1700 1716 0
-28 -1700 0
-13 1701 0
-1701 1717 0
-14 -1701 1702 0
-1702 1718 0
-15 -1702 1703 0
-1703 1719 0
-16 -1703 1704 0
-1704 1720 0
-17 -1704 1705 0
-1705 1721 0
-18 -1705 1706 0
-1706 1722 0
-19 -1706 1707 0
-1707 1723 0
-20 -1707 1708 0
-1708 1724 0
-21 -1708 1709 0
-1709 1725 0
-22 -1709 1710 0
-1710 1726 0
-23 -1710 1711 0
-1711 1727 0
-24 -1711 1712 0
-1712 1728 0
-25 -1712 1713 0
-1713 1729 0
-26 -1713 1714 0
-1714 1730 0
-27 -1714 1715 0
-1715 1731 0
-28 -1715 1716 0
-1716 1732 0
-29 -1716 0
-14 1717 0
-1717 1733 0
-15 -1717 1718 0
-1718 1734 0
-16 -1718 1719 0
-1719 1735 0
-17 -1719 1720 0
-1720 1736 0
-18 -1720 1721 0
-1721 1737 0
-19 -1721 1722 0
-1722 1738 0
-20 -1722 1723 0
-1723 1739 0
-21 -1723 1724 0
-1724 1740 0
-22 -1724 1725 0
-1725 1741 0
-23 -1725 1726 0
-1726 1742 0
-24 -1726 1727 0
-1727 1743 0
-25 -1727 1728 0
-1728 1744 0
-26 -1728 1729 0
-1729 1745 0
-27 -1729 1730 0
-1730 1746 0
-28 -1730 1731 0
-1731 1747 0
-29 -1731 1732 0
-1732 1748 0
-30 -1732 0
-15 1733 0
-1733 1749 0
-16 -1733 1734 0
-1734 1750 0
-17 -1734 1735 0
-1735 1751 0
-18 -1735 1736 0
-1736 1752 0
-19 -1736 1737 0
-1737 1753 0
-20 -1737 1738 0
-1738 1754 0
-21 -1738 1739 0
-1739 1755 0
-22 -1739 1740 0
-1740 1756 0
-23 -1740 1741 0
-1741 1757 0
-24 -1741 1742 0
-1742 1758 0
-25 -1742 1743 0
-1743 1759 0
-26 -1743 1744 0
-1744 1760 0
-27 -1744 1745 0
-1745 1761 0
-28 -1745 1746 0
-1746 1762 0
-29 -1746 1747 0
-1747 1763 0
-30 -1747 1748 0
-1748 1764 0
-31 -1748 0
-16 1749 0
-1749 1765 0
-17 -1749 1750 0
-1750 1766 0
-18 -1750 1751 0
-1751 1767 0
-19 -1751 1752 0
-1752 1768 0
-20 -1752 1753 0
-1753 1769 0
-21 -1753 1754 0
-1754 1770 0
-22 -1754 1755 0
-1755 1771 0
-23 -1755 1756 0
-1756 1772 0
-24 -1756 1757 0
-1757 1773 0
-25 -1757 1758 0
-1758 1774 0
-26 -1758 1759 0
-1759 1775 0
-27 -1759 1760 0
-1760 1776 0
-28 -1760 1761 0
-1761 1777 0
-29 -1761 1762 0
-1762 1778 0
-30 -1762 1763 0
-1763 1779 0
-31 -1763 1764 0
-1764 1780 0
-32 -1764 0
-17 1765 0
-1765 1781 0
-18 -1765 1766 0
-1766 1782 0
-19 -1766 1767 0
-1767 1783 0
-20 -1767 1768 0
-1768 1784 0
-21 -1768 1769 0
-1769 1785 0
-22 -1769 1770 0
-1770 1786 0
-23 -1770 1771 0
-1771 1787 0
-24 -1771 1772 0
-1772 1788 0
-25 -1772 1773 0
-1773 1789 0
-26 -1773 1774 0
-1774 1790 0
-27 -1774 1775 0
-1775 1791 0
-28 -1775 1776 0
-1776 1792 0
-29 -1776 1777 0
-1777 1793 0
-30 -1777 1778 0
-1778 1794 0
-31 -1778 1779 0
-1779 1795 0
-32 -1779 1780 0
-1780 1796 0
-33 -1780 0
-18 1781 0
-1781 1797 0
-19 -1781 1782 0
-1782 1798 0
-20 -1782 1783 0
-1783 1799 0
-21 -1783 1784 0
-1784 1800 0
-22 -1784 1785 0
-1785 1801 0
-23 -1785 1786 0
-1786 1802 0
-24 -1786 1787 0
-1787 1803 0
-25 -1787 1788 0
-1788 1804 0
-26 -1788 1789 0
-1789 1805 0
-27 -1789 1790 0
-1790 1806 0
-28 -1790 1791 0
-1791 1807 0
-29 -1791 1792 0
-1792 1808 0
-30 -1792 1793 0
-1793 1809 0
-31 -1793 1794 0
-1794 1810 0
-32 -1794 1795 0
-1795 1811 0
-33 -1795 1796 0
-1796 1812 0
-34 -1796 0
-19 1797 0
-1797 1813 0
-20 -1797 1798 0
-1798 1814 0
-21 -1798 1799 0
-1799 1815 0
-22 -1799 1800 0
-1800 1816 0
-23 -1800 1801 0
-1801 1817 0
-24 -1801 1802 0
-1802 1818 0
-25 -1802 1803 0
-1803 1819 0
-26 -1803 1804 0
-1804 1820 0
-27 -1804 1805 0
-1805 1821 0
-28 -1805 1806 0
-1806 1822 0
-29 -1806 1807 0
-1807 1823 0
-30 -1807 1808 0
-1808 1824 0
-31 -1808 1809 0
-1809 1825 0
-32 -1809 1810 0
-1810 1826 0
-33 -1810 1811 0
-1811 1827 0
-34 -1811 1812 0
-1812 1828 0
-35 -1812 0
-20 1813 0
-1813 1829 0
-21 -1813 1814 0
-1814 1830 0
-22 -1814 1815 0
-1815 1831 0
-23 -1815 1816 0
-1816 1832 0
-24 -1816 1817 0
-1817 1833 0
-25 -1817 1818 0
-1818 1834 0
-26 -1818 1819 0
-1819 1835 0
-27 -1819 1820 0
-1820 1836 0
-28 -1820 1821 0
-1821 1837 0
-29 -1821 1822 0
-1822 1838 0
-30 -1822 1823 0
-1823 1839 0
-31 -1823 1824 0
-1824 1840 0
-32 -1824 1825 0
-1825 1841 0
-33 -1825 1826 0
-1826 1842 0
-34 -1826 1827 0
-1827 1843 0
-35 -1827 1828 0
-1828 1844 0
-36 -1828 0
-21 1829 0
-1829 1845 0
-22 -1829 1830 0
-1830 1846 0
-23 -1830 1831 0
-1831 1847 0
-24 -1831 1832 0
-1832 1848 0
-25 -1832 1833 0
-1833 1849 0
-26 -1833 1834 0
-1834 1850 0
-27 -1834 1835 0
-1835 1851 0
-28 -1835 1836 0
-1836 1852 0
-29 -1836 1837 0
-1837 1853 0
-30 -1837 1838 0
-1838 1854 0
-31 -1838 1839 0
-1839 1855 0
-32 -1839 1840 0
-1840 1856 0
-33 -1840 1841 0
-1841 1857 0
-34 -1841 1842 0
-1842 1858 0
-35 -1842 1843 0
-1843 1859 0
-36 -1843 1844 0
-1844 1860 0
-37 -1844 0
-22 1845 0
-1845 1861 0
-23 -1845 1846 0
-1846 1862 0
-24 -1846 1847 0
-1847 1863 0
-25 -1847 1848 0
-1848 1864 0
-26 -1848 1849 0
-1849 1865 0
-27 -1849 1850 0
-1850 1866 0
-28 -1850 1851 0
-1851 1867 0
-29 -1851 1852 0
-1852 1868 0
-30 -1852 1853 0
-1853 1869 0
-31 -1853 1854 0
-1854 1870 0
-32 -1854 1855 0
-1855 1871 0
-33 -1855 1856 0
-1856 1872 0
-34 -1856 1857 0
-1857 1873 0
-35 -1857 1858 0
-1858 1874 0
-36 -1858 1859 0
-1859 1875 0
-37 -1859 1860 0
-1860 1876 0
-38 -1860 0
-23 1861 0
-1861 1877 0
-24 -1861 1862 0
-1862 1878 0
-25 -1862 1863 0
-1863 1879 0
-26 -1863 1864 0
-1864 1880 0
-27 -1864 1865 0
-1865 1881 0
-28 -1865 1866 0
-1866 1882 0
-29 -1866 1867 0
-1867 1883 0
-30 -1867 1868 0
-1868 1884 0
-31 -1868 1869 0
-1869 1885 0
-32 -1869 1870 0
-1870 1886 0
-33 -1870 1871 0
-1871 1887 0
-34 -1871 1872 0
-1872 1888 0
-35 -1872 1873 0
-1873 1889 0
-36 -1873 1874 0
-1874 1890 0
-37 -1874 1875 0
-1875 1891 0
-38 -1875 1876 0
-1876 1892 0
-39 -1876 0
-24 1877 0
-1877 1893 0
-25 -1877 1878 0
-1878 1894 0
-26 -1878 1879 0
-1879 1895 0
-27 -1879 1880 0
-1880 1896 0
-28 -1880 1881 0
-1881 1897 0
-29 -1881 1882 0
-1882 1898 0
-30 -1882 1883 0
-1883 1899 0
-31 -1883 1884 0
-1884 1900 0
-32 -1884 1885 0
-1885 1901 0
-33 -1885 1886 0
-1886 1902 0
-34 -1886 1887 0
-1887 1903 0
-35 -1887 1888 0
-1888 1904 0
-36 -1888 1889 0
-1889 1905 0
-37 -1889 1890 0
-1890 1906 0
-38 -1890 1891 0
-1891 1907 0
-39 -1891 1892 0
-1892 1908 0
-40 -1892 0
-25 1893 0
-1893 1909 0
-26 -1893 1894 0
-1894 1910 0
-27 -1894 1895 0
-1895 1911 0
-28 -1895 1896 0
-1896 1912 0
-29 -1896 1897 0
-1897 1913 0
-30 -1897 1898 0
-1898 1914 0
-31 -1898 1899 0
-1899 1915 0
-32 -1899 1900 0
-1900 1916 0
-33 -1900 1901 0
-1901 1917 0
-34 -1901 1902 0
-1902 1918 0
-35 -1902 1903 0
-1903 1919 0
-36 -1903 1904 0
-1904 1920 0
-37 -1904 1905 0
-1905 1921 0
-38 -1905 1906 0
-1906 1922 0
-39 -1906 1907 0
-1907 1923 0
-40 -1907 1908 0
-1908 1924 0
-41 -1908 0
-26 1909 0
-1909 1925 0
-27 -1909 1910 0
-1910 1926 0
-28 -1910 1911 0
-1911 1927 0
-29 -1911 1912 0
-1912 1928 0
-30 -1912 1913 0
-1913 1929 0
-31 -1913 1914 0
-1914 1930 0
-32 -1914 1915 0
-1915 1931 0
-33 -1915 1916 0
-1916 1932 0
-34 -1916 1917 0
-1917 1933 0
-35 -1917 1918 0
-1918 1934 0
-36 -1918 1919 0
-1919 1935 0
-37 -1919 1920 0
-1920 1936 0
-38 -1920 1921 0
-1921 1937 0
-39 -1921 1922 0
-1922 1938 0
-40 -1922 1923 0
-1923 1939 0
-41 -1923 1924 0
-1924 1940 0
-42 -1924 0
-27 1925 0
-1925 1941 0
-28 -1925 1926 0
-1926 1942 0
-29 -1926 1927 0
-1927 1943 0
-30 -1927 1928 0
-1928 1944 0
-31 -1928 1929 0
-1929 1945 0
-32 -1929 1930 0
-1930 1946 0
-33 -1930 1931 0
-1931 1947 0
-34 -1931 1932 0
-1932 1948 0
-35 -1932 1933 0
-1933 1949 0
-36 -1933 1934 0
-1934 1950 0
-37 -1934 1935 0
-1935 1951 0
-38 -1935 1936 0
-1936 1952 0
-39 -1936 1937 0
-1937 1953 0
-40 -1937 1938 0
-1938 1954 0
-41 -1938 1939 0
-1939 1955 0
-42 -1939 1940 0
-1940 1956 0
-43 -1940 0
-28 1941 0
-1941 1957 0
-29 -1941 1942 0
-1942 1958 0
-30 -1942 1943 0
-1943 1959 0
-31 -1943 1944 0
-1944 1960 0
-32 -1944 1945 0
-1945 1961 0
-33 -1945 1946 0
-1946 1962 0
-34 -1946 1947 0
-1947 1963 0
-35 -1947 1948 0
-1948 1964 0
-36 -1948 1949 0
-1949 1965 0
-37 -1949 1950 0
-1950 1966 0
-38 -1950 1951 0
-1951 1967 0
-39 -1951 1952 0
-1952 1968 0
-40 -1952 1953 0
-1953 1969 0
-41 -1953 1954 0
-1954 1970 0
-42 -1954 1955 0
-1955 1971 0
-43 -1955 1956 0
-1956 1972 0
-44 -1956 0
-29 1957 0
-1957 1973 0
-30 -1957 1958 0
-1958 1974 0
-31 -1958 1959 0
-1959 1975 0
-32 -1959 1960 0
-1960 1976 0
-33 -1960 1961 0
-1961 1977 0
-34 -1961 1962 0
-1962 1978 0
-35 -1962 1963 0
-1963 1979 0
-36 -1963 1964 0
-1964 1980 0
-37 -1964 1965 0
-1965 1981 0
-38 -1965 1966 0
-1966 1982 0
-39 -1966 1967 0
-1967 1983 0
-40 -1967 1968 0
-1968 1984 0
-41 -1968 1969 0
-1969 1985 0
-42 -1969 1970 0
-1970 1986 0
-43 -1970 1971 0
-1971 1987 0
-44 -1971 1972 0
-1972 1988 0
-45 -1972 0
-30 1973 0
-1973 1989 0
-31 -1973 1974 0
-1974 1990 0
-32 -1974 1975 0
-1975 1991 0
-33 -1975 1976 0
-1976 1992 0
-34 -1976 1977 0
-1977 1993 0
-35 -1977 1978 0
-1978 1994 0
-36 -1978 1979 0
-1979 1995 0
-37 -1979 1980 0
-1980 1996 0
-38 -1980 1981 0
-1981 1997 0
-39 -1981 1982 0
-1982 1998 0
-40 -1982 1983 0
-1983 1999 0
-41 -1983 1984 0
-1984 2000 0
-42 -1984 1985 0
-1985 2001 0
-43 -1985 1986 0
-1986 2002 0
-44 -1986 1987 0
-1987 2003 0
-45 -1987 1988 0
-1988 2004 0
-46 -1988 0
-31 1989 0
-1989 2005 0
-32 -1989 1990 0
-1990 2006 0
-33 -1990 1991 0
-1991 2007 0
-34 -1991 1992 0
-1992 2008 0
-35 -1992 1993 0
-1993 2009 0
-36 -1993 1994 0
-1994 2010 0
-37 -1994 1995 0
-1995 2011 0
-38 -1995 1996 0
-1996 2012 0
-39 -1996 1997 0
-1997 2013 0
-40 -1997 1998 0
-1998 2014 0
-41 -1998 1999 0
-1999 2015 0
-42 -1999 2000 0
-2000 2016 0
-43 -2000 2001 0
-2001 2017 0
-44 -2001 2002 0
-2002 2018 0
-45 -2002 2003 0
-2003 2019 0
-46 -2003 2004 0
-2004 2020 0
-47 -2004 0
-32 2005 0
-2005 2021 0
-33 -2005 2006 0
-2006 2022 0
-34 -2006 2007 0
-2007 2023 0
-35 -2007 2008 0
-2008 2024 0
-36 -2008 2009 0
-2009 2025 0
-37 -2009 2010 0
-2010 2026 0
-38 -2010 2011 0
-2011 2027 0
-39 -2011 2012 0
-2012 2028 0
-40 -2012 2013 0
-2013 2029 0
-41 -2013 2014 0
-2014 2030 0
-42 -2014 2015 0
-2015 2031 0
-43 -2015 2016 0
-2016 2032 0
-44 -2016 2017 0
-2017 2033 0
-45 -2017 2018 0
-2018 2034 0
-46 -2018 2019 0
-2019 2035 0
-47 -2019 2020 0
-2020 2036 0
-48 -2020 0
-33 2021 0
-2021 2037 0
-34 -2021 2022 0
-2022 2038 0
-35 -2022 2023 0
-2023 2039 0
-36 -2023 2024 0
-2024 2040 0
-37 -2024 2025 0
-2025 2041 0
-38 -2025 2026 0
-2026 2042 0
-39 -2026 2027 0
-2027 2043 0
-40 -2027 2028 0
-2028 2044 0
-41 -2028 2029 0
-2029 2045 0
-42 -2029 2030 0
-2030 2046 0
-43 -2030 2031 0
-2031 2047 0
-44 -2031 2032 0
-2032 2048 0
-45 -2032 2033 0
-2033 2049 0
-46 -2033 2034 0
-2034 2050 0
-47 -2034 2035 0
-2035 2051 0
-48 -2035 2036 0
-2036 2052 0
-49 -2036 0
-34 2037 0
-2037 2053 0
-35 -2037 2038 0
-2038 2054 0
-36 -2038 2039 0
-2039 2055 0
-37 -2039 2040 0
-2040 2056 0
-38 -2040 2041 0
-2041 2057 0
-39 -2041 2042 0
-2042 2058 0
-40 -2042 2043 0
-2043 2059 0
-41 -2043 2044 0
-2044 2060 0
-42 -2044 2045 0
-2045 2061 0
-43 -2045 2046 0
-2046 2062 0
-44 -2046 2047 0
-2047 2063 0
-45 -2047 2048 0
-2048 2064 0
-46 -2048 2049 0
-2049 2065 0
-47 -2049 2050 0
-2050 2066 0
-48 -2050 2051 0
-2051 2067 0
-49 -2051 2052 0
-2052 2068 0
-50 -2052 0
-35 2053 0
-2053 2069 0
-36 -2053 2054 0
-2054 2070 0
-37 -2054 2055 0
-2055 2071 0
-38 -2055 2056 0
-2056 2072 0
-39 -2056 2057 0
-2057 2073 0
-40 -2057 2058 0
-2058 2074 0
-41 -2058 2059 0
-2059 2075 0
-42 -2059 2060 0
-2060 2076 0
-43 -2060 2061 0
-2061 2077 0
-44 -2061 2062 0
-2062 2078 0
-45 -2062 2063 0
-2063 2079 0
-46 -2063 2064 0
-2064 2080 0
-47 -2064 2065 0
-2065 2081 0
-48 -2065 2066 0
-2066 2082 0
-49 -2066 2067 0
-2067 2083 0
-50 -2067 2068 0
-2068 2084 0
-51 -2068 0
-36 2069 0
-2069 2085 0
-37 -2069 2070 0
-2070 2086 0
-38 -2070 2071 0
-2071 2087 0
-39 -2071 2072 0
-2072 2088 0
-40 -2072 2073 0
-2073 2089 0
-41 -2073 2074 0
-2074 2090 0
-42 -2074 2075 0
-2075 2091 0
-43 -2075 2076 0
-2076 2092 0
-44 -2076 2077 0
-2077 2093 0
-45 -2077 2078 0
-2078 2094 0
-46 -2078 2079 0
-2079 2095 0
-47 -2079 2080 0
-2080 2096 0
-48 -2080 2081 0
-2081 2097 0
-49 -2081 2082 0
-2082 2098 0
-50 -2082 2083 0
-2083 2099 0
-51 -2083 2084 0
-2084 2100 0
-52 -2084 0
-37 2085 0
-2085 2101 0
-38 -2085 2086 0
-2086 2102 0
-39 -2086 2087 0
-2087 2103 0
-40 -2087 2088 0
-2088 2104 0
-41 -2088 2089 0
-2089 2105 0
-42 -2089 2090 0
-2090 2106 0
-43 -2090 2091 0
-2091 2107 0
-44 -2091 2092 0
-2092 2108 0
-45 -2092 2093 0
-2093 2109 0
-46 -2093 2094 0
-2094 2110 0
-47 -2094 2095 0
-2095 2111 0
-48 -2095 2096 0
-2096 2112 0
-49 -2096 2097 0
-2097 2113 0
-50 -2097 2098 0
-2098 2114 0
-51 -2098 2099 0
-2099 2115 0
-52 -2099 2100 0
-2100 2116 0
-53 -2100 0
-38 2101 0
-2101 2117 0
-39 -2101 2102 0
-2102 2118 0
-40 -2102 2103 0
-2103 2119 0
-41 -2103 2104 0
-2104 2120 0
-42 -2104 2105 0
-2105 2121 0
-43 -2105 2106 0
-2106 2122 0
-44 -2106 2107 0
-2107 2123 0
-45 -2107 2108 0
-2108 2124 0
-46 -2108 2109 0
-2109 2125 0
-47 -2109 2110 0
-2110 2126 0
-48 -2110 2111 0
-2111 2127 0
-49 -2111 2112 0
-2112 2128 0
-50 -2112 2113 0
-2113 2129 0
-51 -2113 2114 0
-2114 2130 0
-52 -2114 2115 0
-2115 2131 0
-53 -2115 2116 0
-2116 2132 0
-54 -2116 0
-39 2117 0
-2117 2133 0
-40 -2117 2118 0
-2118 2134 0
-41 -2118 2119 0
-2119 2135 0
-42 -2119 2120 0
-2120 2136 0
-43 -2120 2121 0
-2121 2137 0
-44 -2121 2122 0
-2122 2138 0
-45 -2122 2123 0
-2123 2139 0
-46 -2123 2124 0
-2124 2140 0
-47 -2124 2125 0
-2125 2141 0
-48 -2125 2126 0
-2126 2142 0
-49 -2126 2127 0
-2127 2143 0
-50 -2127 2128 0
-2128 2144 0
-51 -2128 2129 0
-2129 2145 0
-52 -2129 2130 0
-2130 2146 0
-53 -2130 2131 0
-2131 2147 0
-54 -2131 2132 0
-2132 2148 0
-55 -2132 0
-40 2133 0
-2133 2149 0
-41 -2133 2134 0
-2134 2150 0
-42 -2134 2135 0
-2135 2151 0
-43 -2135 2136 0
-2136 2152 0
-44 -2136 2137 0
-2137 2153 0
-45 -2137 2138 0
-2138 2154 0
-46 -2138 2139 0
-2139 2155 0
-47 -2139 2140 0
-2140 2156 0
-48 -2140 2141 0
-2141 2157 0
-49 -2141 2142 0
-2142 2158 0
-50 -2142 2143 0
-2143 2159 0
-51 -2143 2144 0
-2144 2160 0
-52 -2144 2145 0
-2145 2161 0
-53 -2145 2146 0
-2146 2162 0
-54 -2146 2147 0
-2147 2163 0
-55 -2147 2148 0
-2148 2164 0
-56 -2148 0
-41 2149 0
-2149 2165 0
-42 -2149 2150 0
-2150 2166 0
-43 -2150 2151 0
-2151 2167 0
-44 -2151 2152 0
-2152 2168 0
-45 -2152 2153 0
-2153 2169 0
-46 -2153 2154 0
-2154 2170 0
-47 -2154 2155 0
-2155 2171 0
-48 -2155 2156 0
-2156 2172 0
-49 -2156 2157 0
-2157 2173 0
-50 -2157 2158 0
-2158 2174 0
-51 -2158 2159 0
-2159 2175 0
-52 -2159 2160 0
-2160 2176 0
-53 -2160 2161 0
-2161 2177 0
-54 -2161 2162 0
-2162 2178 0
-55 -2162 2163 0
-2163 2179 0
-56 -2163 2164 0
-2164 2180 0
-57 -2164 0
-42 2165 0
-2165 2181 0
-43 -2165 2166 0
-2166 2182 0
-44 -2166 2167 0
-2167 2183 0
-45 -2167 2168 0
-2168 2184 0
-46 -2168 2169 0
-2169 2185 0
-47 -2169 2170 0
-2170 2186 0
-48 -2170 2171 0
-2171 2187 0
-49 -2171 2172 0
-2172 2188 0
-50 -2172 2173 0
-2173 2189 0
-51 -2173 2174 0
-2174 2190 0
-52 -2174 2175 0
-2175 2191 0
-53 -2175 2176 0
-2176 2192 0
-54 -2176 2177 0
-2177 2193 0
-55 -2177 2178 0
-2178 2194 0
-56 -2178 2179 0
-2179 2195 0
-57 -2179 2180 0
-2180 2196 0
-58 -2180 0
-43 2181 0
-2181 2197 0
-44 -2181 2182 0
-2182 2198 0
-45 -2182 2183 0
-2183 2199 0
-46 -2183 2184 0
-2184 2200 0
-47 -2184 2185 0
-2185 2201 0
-48 -2185 2186 0
-2186 2202 0
-49 -2186 2187 0
-2187 2203 0
-50 -2187 2188 0
-2188 2204 0
-51 -2188 2189 0
-2189 2205 0
-52 -2189 2190 0
-2190 2206 0
-53 -2190 2191 0
-2191 2207 0
-54 -2191 2192 0
-2192 2208 0
-55 -2192 2193 0
-2193 2209 0
-56 -2193 2194 0
-2194 2210 0
-57 -2194 2195 0
-2195 2211 0
-58 -2195 2196 0
-2196 2212 0
-59 -2196 0
-44 2197 0
-2197 2213 0
-45 -2197 2198 0
-2198 2214 0
-46 -2198 2199 0
-2199 2215 0
-47 -2199 2200 0
-2200 2216 0
-48 -2200 2201 0
-2201 2217 0
-49 -2201 2202 0
-2202 2218 0
-50 -2202 2203 0
-2203 2219 0
-51 -2203 2204 0
-2204 2220 0
-52 -2204 2205 0
-2205 2221 0
-53 -2205 2206 0
-2206 2222 0
-54 -2206 2207 0
-2207 2223 0
-55 -2207 2208 0
-2208 2224 0
-56 -2208 2209 0
-2209 2225 0
-57 -2209 2210 0
-2210 2226 0
-58 -2210 2211 0
-2211 2227 0
-59 -2211 2212 0
-2212 2228 0
-60 -2212 0
-45 2213 0
-2213 2229 0
-46 -2213 2214 0
-2214 2230 0
-47 -2214 2215 0
-2215 2231 0
-48 -2215 2216 0
-2216 2232 0
-49 -2216 2217 0
-2217 2233 0
-50 -2217 2218 0
-2218 2234 0
-51 -2218 2219 0
-2219 2235 0
-52 -2219 2220 0
-2220 2236 0
-53 -2220 2221 0
-2221 2237 0
-54 -2221 2222 0
-2222 2238 0
-55 -2222 2223 0
-2223 2239 0
-56 -2223 2224 0
-2224 2240 0
-57 -2224 2225 0
-2225 2241 0
-58 -2225 2226 0
-2226 2242 0
-59 -2226 2227 0
-2227 2243 0
-60 -2227 2228 0
-2228 2244 0
-61 -2228 0
-46 2229 0
-2229 2245 0
-47 -2229 2230 0
-2230 2246 0
-48 -2230 2231 0
-2231 2247 0
-49 -2231 2232 0
-2232 2248 0
-50 -2232 2233 0
-2233 2249 0
-51 -2233 2234 0
-2234 2250 0
-52 -2234 2235 0
-2235 2251 0
-53 -2235 2236 0
-2236 2252 0
-54 -2236 2237 0
-2237 2253 0
-55 -2237 2238 0
-2238 2254 0
-56 -2238 2239 0
-2239 2255 0
-57 -2239 2240 0
-2240 2256 0
-58 -2240 2241 0
-2241 2257 0
-59 -2241 2242 0
-2242 2258 0
-60 -2242 2243 0
-2243 2259 0
-61 -2243 2244 0
-2244 2260 0
-62 -2244 0
-47 2245 0
-2245 2261 0
-48 -2245 2246 0
-2246 2262 0
-49 -2246 2247 0
-2247 2263 0
-50 -2247 2248 0
-2248 2264 0
-51 -2248 2249 0
-2249 2265 0
-52 -2249 2250 0
-2250 2266 0
-53 -2250 2251 0
-2251 2267 0
-54 -2251 2252 0
-2252 2268 0
-55 -2252 2253 0
-2253 2269 0
-56 -2253 2254 0
-2254 2270 0
-57 -2254 2255 0
-2255 2271 0
-58 -2255 2256 0
-2256 2272 0
-59 -2256 2257 0
-2257 2273 0
-60 -2257 2258 0
-2258 2274 0
-61 -2258 2259 0
-2259 2275 0
-62 -2259 2260 0
-2260 2276 0
-63 -2260 0
-48 2261 0
-2261 2277 0
-49 -2261 2262 0
-2262 2278 0
-50 -2262 2263 0
-2263 2279 0
-51 -2263 2264 0
-2264 2280 0
-52 -2264 2265 0
-2265 2281 0
-53 -2265 2266 0
-2266 2282 0
-54 -2266 2267 0
-2267 2283 0
-55 -2267 2268 0
-2268 2284 0
-56 -2268 2269 0
-2269 2285 0
-57 -2269 2270 0
-2270 2286 0
-58 -2270 2271 0
-2271 2287 0
-59 -2271 2272 0
-2272 2288 0
-60 -2272 2273 0
-2273 2289 0
-61 -2273 2274 0
-2274 2290 0
-62 -2274 2275 0
-2275 2291 0
-63 -2275 2276 0
-2276 2292 0
-64 -2276 0
-49 2277 0
-2277 2293 0
-50 -2277 2278 0
-2278 2294 0
-51 -2278 2279 0
-2279 2295 0
-52 -2279 2280 0
-2280 2296 0
-53 -2280 2281 0
-2281 2297 0
-54 -2281 2282 0
-2282 2298 0
-55 -2282 2283 0
-2283 2299 0
-56 -2283 2284 0
-2284 2300 0
-57 -2284 2285 0
-2285 2301 0
-58 -2285 2286 0
-2286 2302 0
-59 -2286 2287 0
-2287 2303 0
-60 -2287 2288 0
-2288 2304 0
-61 -2288 2289 0
-2289 2305 0
-62 -2289 2290 0
-2290 2306 0
-63 -2290 2291 0
-2291 2307 0
-64 -2291 2292 0
-2292 2308 0
-65 -2292 0
-50 2293 0
-2293 2309 0
-51 -2293 2294 0
-2294 2310 0
-52 -2294 2295 0
-2295 2311 0
-53 -2295 2296 0
-2296 2312 0
-54 -2296 2297 0
-2297 2313 0
-55 -2297 2298 0
-2298 2314 0
-56 -2298 2299 0
-2299 2315 0
-57 -2299 2300 0
-2300 2316 0
-58 -2300 2301 0
-2301 2317 0
-59 -2301 2302 0
-2302 2318 0
-60 -2302 2303 0
-2303 2319 0
-61 -2303 2304 0
-2304 2320 0
-62 -2304 2305 0
-2305 2321 0
-63 -2305 2306 0
-2306 2322 0
-64 -2306 2307 0
-2307 2323 0
-65 -2307 2308 0
-2308 2324 0
-66 -2308 0
-51 2309 0
-2309 2325 0
-52 -2309 2310 0
-2310 2326 0
-53 -2310 2311 0
-2311 2327 0
-54 -2311 2312 0
-2312 2328 0
-55 -2312 2313 0
-2313 2329 0
-56 -2313 2314 0
-2314 2330 0
-57 -2314 2315 0
-2315 2331 0
-58 -2315 2316 0
-2316 2332 0
-59 -2316 2317 0
-2317 2333 0
-60 -2317 2318 0
-2318 2334 0
-61 -2318 2319 0
-2319 2335 0
-62 -2319 2320 0
-2320 2336 0
-63 -2320 2321 0
-2321 2337 0
-64 -2321 2322 0
-2322 2338 0
-65 -2322 2323 0
-2323 2339 0
-66 -2323 2324 0
-2324 2340 0
-67 -2324 0
-52 2325 0
-2325 2341 0
-53 -2325 2326 0
-2326 2342 0
-54 -2326 2327 0
-2327 2343 0
-55 -2327 2328 0
-2328 2344 0
-56 -2328 2329 0
-2329 2345 0
-57 -2329 2330 0
-2330 2346 0
-58 -2330 2331 0
-2331 2347 0
-59 -2331 2332 0
-2332 2348 0
-60 -2332 2333 0
-2333 2349 0
-61 -2333 2334 0
-2334 2350 0
-62 -2334 2335 0
-2335 2351 0
-63 -2335 2336 0
-2336 2352 0
-64 -2336 2337 0
-2337 2353 0
-65 -2337 2338 0
-2338 2354 0
-66 -2338 2339 0
-2339 2355 0
-67 -2339 2340 0
-2340 2356 0
-68 -2340 0
-53 2341 0
-2341 2357 0
-54 -2341 2342 0
-2342 2358 0
-55 -2342 2343 0
-2343 2359 0
-56 -2343 2344 0
-2344 2360 0
-57 -2344 2345 0
-2345 2361 0
-58 -2345 2346 0
-2346 2362 0
-59 -2346 2347 0
-2347 2363 0
-60 -2347 2348 0
-2348 2364 0
-61 -2348 2349 0
-2349 2365 0
-62 -2349 2350 0
-2350 2366 0
-63 -2350 2351 0
-2351 2367 0
-64 -2351 2352 0
-2352 2368 0
-65 -2352 2353 0
-2353 2369 0
-66 -2353 2354 0
-2354 2370 0
-67 -2354 2355 0
-2355 2371 0
-68 -2355 2356 0
-2356 2372 0
-69 -2356 0
-54 2357 0
-2357 2373 0
-55 -2357 2358 0
-2358 2374 0
-56 -2358 2359 0
-2359 2375 0
-57 -2359 2360 0
-2360 2376 0
-58 -2360 2361 0
-2361 2377 0
-59 -2361 2362 0
-2362 2378 0
-60 -2362 2363 0
-2363 2379 0
-61 -2363 2364 0
-2364 2380 0
-62 -2364 2365 0
-2365 2381 0
-63 -2365 2366 0
-2366 2382 0
-64 -2366 2367 0
-2367 2383 0
-65 -2367 2368 0
-2368 2384 0
-66 -2368 2369 0
-2369 2385 0
-67 -2369 2370 0
-2370 2386 0
-68 -2370 2371 0
-2371 2387 0
-69 -2371 2372 0
-2372 2388 0
-70 -2372 0
-55 2373 0
-2373 2389 0
-56 -2373 2374 0
-2374 2390 0
-57 -2374 2375 0
-2375 2391 0
-58 -2375 2376 0
-2376 2392 0
-59 -2376 2377 0
-2377 2393 0
-60 -2377 2378 0
-2378 2394 0
-61 -2378 2379 0
-2379 2395 0
-62 -2379 2380 0
-2380 2396 0
-63 -2380 2381 0
-2381 2397 0
-64 -2381 2382 0
-2382 2398 0
-65 -2382 2383 0
-2383 2399 0
-66 -2383 2384 0
-2384 2400 0
-67 -2384 2385 0
-2385 2401 0
-68 -2385 2386 0
-2386 2402 0
-69 -2386 2387 0
-2387 2403 0
-70 -2387 2388 0
-2388 2404 0
-71 -2388 0
-56 2389 0
-2389 2405 0
-57 -2389 2390 0
-2390 2406 0
-58 -2390 2391 0
-2391 2407 0
-59 -2391 2392 0
-2392 2408 0
-60 -2392 2393 0
-2393 2409 0
-61 -2393 2394 0
-2394 2410 0
-62 -2394 2395 0
-2395 2411 0
-63 -2395 2396 0
-2396 2412 0
-64 -2396 2397 0
-2397 2413 0
-65 -2397 2398 0
-2398 2414 0
-66 -2398 2399 0
-2399 2415 0
-67 -2399 2400 0
-2400 2416 0
-68 -2400 2401 0
-2401 2417 0
-69 -2401 2402 0
-2402 2418 0
-70 -2402 2403 0
-2403 2419 0
-71 -2403 2404 0
-2404 2420 0
-72 -2404 0
-57 2405 0
-2405 2421 0
-58 -2405 2406 0
-2406 2422 0
-59 -2406 2407 0
-2407 2423 0
-60 -2407 2408 0
-2408 2424 0
-61 -2408 2409 0
-2409 2425 0
-62 -2409 2410 0
-2410 2426 0
-63 -2410 2411 0
-2411 2427 0
-64 -2411 2412 0
-2412 2428 0
-65 -2412 2413 0
-2413 2429 0
-66 -2413 2414 0
-2414 2430 0
-67 -2414 2415 0
-2415 2431 0
-68 -2415 2416 0
-2416 2432 0
-69 -2416 2417 0
-2417 2433 0
-70 -2417 2418 0
-2418 2434 0
-71 -2418 2419 0
-2419 2435 0
-72 -2419 2420 0
-2420 2436 0
-73 -2420 0
-58 2421 0
-2421 2437 0
-59 -2421 2422 0
-2422 2438 0
-60 -2422 2423 0
-2423 2439 0
-61 -2423 2424 0
-2424 2440 0
-62 -2424 2425 0
-2425 2441 0
-63 -2425 2426 0
-2426 2442 0
-64 -2426 2427 0
-2427 2443 0
-65 -2427 2428 0
-2428 2444 0
-66 -2428 2429 0
-2429 2445 0
-67 -2429 2430 0
-2430 2446 0
-68 -2430 2431 0
-2431 2447 0
-69 -2431 2432 0
-2432 2448 0
-70 -2432 2433 0
-2433 2449 0
-71 -2433 2434 0
-2434 2450 0
-72 -2434 2435 0
-2435 2451 0
-73 -2435 2436 0
-2436 2452 0
-74 -2436 0
-59 2437 0
-2437 2453 0
-60 -2437 2438 0
-2438 2454 0
-61 -2438 2439 0
-2439 2455 0
-62 -2439 2440 0
-2440 2456 0
-63 -2440 2441 0
-2441 2457 0
-64 -2441 2442 0
-2442 2458 0
-65 -2442 2443 0
-2443 2459 0
-66 -2443 2444 0
-2444 2460 0
-67 -2444 2445 0
-2445 2461 0
-68 -2445 2446 0
-2446 2462 0
-69 -2446 2447 0
-2447 2463 0
-70 -2447 2448 0
-2448 2464 0
-71 -2448 2449 0
-2449 2465 0
-72 -2449 2450 0
-2450 2466 0
-73 -2450 2451 0
-2451 2467 0
-74 -2451 2452 0
-2452 2468 0
-75 -2452 0
-60 2453 0
-2453 2469 0
-61 -2453 2454 0
-2454 2470 0
-62 -2454 2455 0
-2455 2471 0
-63 -2455 2456 0
-2456 2472 0
-64 -2456 2457 0
-2457 2473 0
-65 -2457 2458 0
-2458 2474 0
-66 -2458 2459 0
-2459 2475 0
-67 -2459 2460 0
-2460 2476 0
-68 -2460 2461 0
-2461 2477 0
-69 -2461 2462 0
-2462 2478 0
-70 -2462 2463 0
-2463 2479 0
-71 -2463 2464 0
-2464 2480 0
-72 -2464 2465 0
-2465 2481 0
-73 -2465 2466 0
-2466 2482 0
-74 -2466 2467 0
-2467 2483 0
-75 -2467 2468 0
-2468 2484 0
-76 -2468 0
-61 2469 0
-2469 2485 0
-62 -2469 2470 0
-2470 2486 0
-63 -2470 2471 0
-2471 2487 0
-64 -2471 2472 0
-2472 2488 0
-65 -2472 2473 0
-2473 2489 0
-66 -2473 2474 0
-2474 2490 0
-67 -2474 2475 0
-2475 2491 0
-68 -2475 2476 0
-2476 2492 0
-69 -2476 2477 0
-2477 2493 0
-70 -2477 2478 0
-2478 2494 0
-71 -2478 2479 0
-2479 2495 0
-72 -2479 2480 0
-2480 2496 0
-73 -2480 2481 0
-2481 2497 0
-74 -2481 2482 0
-2482 2498 0
-75 -2482 2483 0
-2483 2499 0
-76 -2483 2484 0
-2484 2500 0
-77 -2484 0
-62 2485 0
-2485 2501 0
-63 -2485 2486 0
-2486 2502 0
-64 -2486 2487 0
-2487 2503 0
-65 -2487 2488 0
-2488 2504 0
-66 -2488 2489 0
-2489 2505 0
-67 -2489 2490 0
-2490 2506 0
-68 -2490 2491 0
-2491 2507 0
-69 -2491 2492 0
-2492 2508 0
-70 -2492 2493 0
-2493 2509 0
-71 -2493 2494 0
-2494 2510 0
-72 -2494 2495 0
-2495 2511 0
-73 -2495 2496 0
-2496 2512 0
-74 -2496 2497 0
-2497 2513 0
-75 -2497 2498 0
-2498 2514 0
-76 -2498 2499 0
-2499 2515 0
-77 -2499 2500 0
-2500 2516 0
-78 -2500 0
-63 2501 0
-2501 2517 0
-64 -2501 2502 0
-2502 2518 0
-65 -2502 2503 0
-2503 2519 0
-66 -2503 2504 0
-2504 2520 0
-67 -2504 2505 0
-2505 2521 0
-68 -2505 2506 0
-2506 2522 0
-69 -2506 2507 0
-2507 2523 0
-70 -2507 2508 0
-2508 2524 0
-71 -2508 2509 0
-2509 2525 0
-72 -2509 2510 0
-2510 2526 0
-73 -2510 2511 0
-2511 2527 0
-74 -2511 2512 0
-2512 2528 0
-75 -2512 2513 0
-2513 2529 0
-76 -2513 2514 0
-2514 2530 0
-77 -2514 2515 0
-2515 2531 0
-78 -2515 2516 0
-2516 2532 0
-79 -2516 0
-64 2517 0
-2517 2533 0
-65 -2517 2518 0
-2518 2534 0
-66 -2518 2519 0
-2519 2535 0
-67 -2519 2520 0
-2520 2536 0
-68 -2520 2521 0
-2521 2537 0
-69 -2521 2522 0
-2522 2538 0
-70 -2522 2523 0
-2523 2539 0
-71 -2523 2524 0
-2524 2540 0
-72 -2524 2525 0
-2525 2541 0
-73 -2525 2526 0
-2526 2542 0
-74 -2526 2527 0
-2527 2543 0
-75 -2527 2528 0
-2528 2544 0
-76 -2528 2529 0
-2529 2545 0
-77 -2529 2530 0
-2530 2546 0
-78 -2530 2531 0
-2531 2547 0
-79 -2531 2532 0
-2532 2548 0
-80 -2532 0
-65 2533 0
-2533 2549 0
-66 -2533 2534 0
-2534 2550 0
-67 -2534 2535 0
-2535 2551 0
-68 -2535 2536 0
-2536 2552 0
-69 -2536 2537 0
-2537 2553 0
-70 -2537 2538 0
-2538 2554 0
-71 -2538 2539 0
-2539 2555 0
-72 -2539 2540 0
-2540 2556 0
-73 -2540 2541 0
-2541 2557 0
-74 -2541 2542 0
-2542 2558 0
-75 -2542 2543 0
-2543 2559 0
-76 -2543 2544 0
-2544 2560 0
-77 -2544 2545 0
-2545 2561 0
-78 -2545 2546 0
-2546 2562 0
-79 -2546 2547 0
-2547 2563 0
-80 -2547 2548 0
-2548 2564 0
-81 -2548 0
-66 2549 0
-2549 2565 0
-67 -2549 2550 0
-2550 2566 0
-68 -2550 2551 0
-2551 2567 0
-69 -2551 2552 0
-2552 2568 0
-70 -2552 2553 0
-2553 2569 0
-71 -2553 2554 0
-2554 2570 0
-72 -2554 2555 0
-2555 2571 0
-73 -2555 2556 0
-2556 2572 0
-74 -2556 2557 0
-2557 2573 0
-75 -2557 2558 0
-2558 2574 0
-76 -2558 2559 0
-2559 2575 0
-77 -2559 2560 0
-2560 2576 0
-78 -2560 2561 0
-2561 2577 0
-79 -2561 2562 0
-2562 2578 0
-80 -2562 2563 0
-2563 2579 0
-81 -2563 2564 0
-2564 2580 0
-82 -2564 0
-67 2565 0
-2565 2581 0
-68 -2565 2566 0
-2566 2582 0
-69 -2566 2567 0
-2567 2583 0
-70 -2567 2568 0
-2568 2584 0
-71 -2568 2569 0
-2569 2585 0
-72 -2569 2570 0
-2570 2586 0
-73 -2570 2571 0
-2571 2587 0
-74 -2571 2572 0
-2572 2588 0
-75 -2572 2573 0
-2573 2589 0
-76 -2573 2574 0
-2574 2590 0
-77 -2574 2575 0
-2575 2591 0
-78 -2575 2576 0
-2576 2592 0
-79 -2576 2577 0
-2577 2593 0
-80 -2577 2578 0
-2578 2594 0
-81 -2578 2579 0
-2579 2595 0
-82 -2579 2580 0
-2580 2596 0
-83 -2580 0
-68 2581 0
-2581 2597 0
-69 -2581 2582 0
-2582 2598 0
-70 -2582 2583 0
-2583 2599 0
-71 -2583 2584 0
-2584 2600 0
-72 -2584 2585 0
-2585 2601 0
-73 -2585 2586 0
-2586 2602 0
-74 -2586 2587 0
-2587 2603 0
-75 -2587 2588 0
-2588 2604 0
-76 -2588 2589 0
-2589 2605 0
-77 -2589 2590 0
-2590 2606 0
-78 -2590 2591 0
-2591 2607 0
-79 -2591 2592 0
-2592 2608 0
-80 -2592 2593 0
-2593 2609 0
-81 -2593 2594 0
-2594 2610 0
-82 -2594 2595 0
-2595 2611 0
-83 -2595 2596 0
-2596 2612 0
-84 -2596 0
-69 2597 0
-2597 2613 0
-70 -2597 2598 0
-2598 2614 0
-71 -2598 2599 0
-2599 2615 0
-72 -2599 2600 0
-2600 2616 0
-73 -2600 2601 0
-2601 2617 0
-74 -2601 2602 0
-2602 2618 0
-75 -2602 2603 0
-2603 2619 0
-76 -2603 2604 0
-2604 2620 0
-77 -2604 2605 0
-2605 2621 0
-78 -2605 2606 0
-2606 2622 0
-79 -2606 2607 0
-2607 2623 0
-80 -2607 2608 0
-2608 2624 0
-81 -2608 2609 0
-2609 2625 0
-82 -2609 2610 0
-2610 2626 0
-83 -2610 2611 0
-2611 2627 0
-84 -2611 2612 0
-2612 2628 0
-85 -2612 0
-70 2613 0
-2613 2629 0
-71 -2613 2614 0
-2614 2630 0
-72 -2614 2615 0
-2615 2631 0
-73 -2615 2616 0
-2616 2632 0
-74 -2616 2617 0
-2617 2633 0
-75 -2617 2618 0
-2618 2634 0
-76 -2618 2619 0
-2619 2635 0
-77 -2619 2620 0
-2620 2636 0
-78 -2620 2621 0
-2621 2637 0
-79 -2621 2622 0
-2622 2638 0
-80 -2622 2623 0
-2623 2639 0
-81 -2623 2624 0
-2624 2640 0
-82 -2624 2625 0
-2625 2641 0
-83 -2625 2626 0
-2626 2642 0
-84 -2626 2627 0
-2627 2643 0
-85 -2627 2628 0
-2628 2644 0
-86 -2628 0
-71 2629 0
-2629 2645 0
-72 -2629 2630 0
-2630 2646 0
-73 -2630 2631 0
-2631 2647 0
-74 -2631 2632 0
-2632 2648 0
-75 -2632 2633 0
-2633 2649 0
-76 -2633 2634 0
-2634 2650 0
-77 -2634 2635 0
-2635 2651 0
-78 -2635 2636 0
-2636 2652 0
-79 -2636 2637 0
-2637 2653 0
-80 -2637 2638 0
-2638 2654 0
-81 -2638 2639 0
-2639 2655 0
-82 -2639 2640 0
-2640 2656 0
-83 -2640 2641 0
-2641 2657 0
-84 -2641 2642 0
-2642 2658 0
-85 -2642 2643 0
-2643 2659 0
-86 -2643 2644 0
-2644 2660 0
-87 -2644 0
-72 2645 0
-2645 2661 0
-73 -2645 2646 0
-2646 2662 0
-74 -2646 2647 0
-2647 2663 0
-75 -2647 2648 0
-2648 2664 0
-76 -2648 2649 0
-2649 2665 0
-77 -2649 2650 0
-2650 2666 0
-78 -2650 2651 0
-2651 2667 0
-79 -2651 2652 0
-2652 2668 0
-80 -2652 2653 0
-2653 2669 0
-81 -2653 2654 0
-2654 2670 0
-82 -2654 2655 0
-2655 2671 0
-83 -2655 2656 0
-2656 2672 0
-84 -2656 2657 0
-2657 2673 0
-85 -2657 2658 0
-2658 2674 0
-86 -2658 2659 0
-2659 2675 0
-87 -2659 2660 0
-2660 2676 0
-88 -2660 0
-73 2661 0
-2661 2677 0
-74 -2661 2662 0
-2662 2678 0
-75 -2662 2663 0
-2663 2679 0
-76 -2663 2664 0
-2664 2680 0
-77 -2664 2665 0
-2665 2681 0
-78 -2665 2666 0
-2666 2682 0
-79 -2666 2667 0
-2667 2683 0
-80 -2667 2668 0
-2668 2684 0
-81 -2668 2669 0
-2669 2685 0
-82 -2669 2670 0
-2670 2686 0
-83 -2670 2671 0
-2671 2687 0
-84 -2671 2672 0
-2672 2688 0
-85 -2672 2673 0
-2673 2689 0
-86 -2673 2674 0
-2674 2690 0
-87 -2674 2675 0
-2675 2691 0
-88 -2675 2676 0
-2676 2692 0
-89 -2676 0
-74 2677 0
-2677 2693 0
-75 -2677 2678 0
-2678 2694 0
-76 -2678 2679 0
-2679 2695 0
-77 -2679 2680 0
-2680 2696 0
-78 -2680 2681 0
-2681 2697 0
-79 -2681 2682 0
-2682 2698 0
-80 -2682 2683 0
-2683 2699 0
-81 -2683 2684 0
-2684 2700 0
-82 -2684 2685 0
-2685 2701 0
-83 -2685 2686 0
-2686 2702 0
-84 -2686 2687 0
-2687 2703 0
-85 -2687 2688 0
-2688 2704 0
-86 -2688 2689 0
-2689 2705 0
-87 -2689 2690 0
-2690 2706 0
-88 -2690 2691 0
-2691 2707 0
-89 -2691 2692 0
-2692 2708 0
-90 -2692 0
-75 2693 0
-2693 2709 0
-76 -2693 2694 0
-2694 2710 0
-77 -2694 2695 0
-2695 2711 0
-78 -2695 2696 0
-2696 2712 0
-79 -2696 2697 0
-2697 2713 0
-80 -2697 2698 0
-2698 2714 0
-81 -2698 2699 0
-2699 2715 0
-82 -2699 2700 0
-2700 2716 0
-83 -2700 2701 0
-2701 2717 0
-84 -2701 2702 0
-2702 2718 0
-85 -2702 2703 0
-2703 2719 0
-86 -2703 2704 0
-2704 2720 0
-87 -2704 2705 0
-2705 2721 0
-88 -2705 2706 0
-2706 2722 0
-89 -2706 2707 0
-2707 2723 0
-90 -2707 2708 0
-2708 2724 0
-91 -2708 0
-76 2709 0
-2709 2725 0
-77 -2709 2710 0
-2710 2726 0
-78 -2710 2711 0
-2711 2727 0
-79 -2711 2712 0
-2712 2728 0
-80 -2712 2713 0
-2713 2729 0
-81 -2713 2714 0
-2714 2730 0
-82 -2714 2715 0
-2715 2731 0
-83 -2715 2716 0
-2716 2732 0
-84 -2716 2717 0
-2717 2733 0
-85 -2717 2718 0
-2718 2734 0
-86 -2718 2719 0
-2719 2735 0
-87 -2719 2720 0
-2720 2736 0
-88 -2720 2721 0
-2721 2737 0
-89 -2721 2722 0
-2722 2738 0
-90 -2722 2723 0
-2723 2739 0
-91 -2723 2724 0
-2724 2740 0
-92 -2724 0
-77 2725 0
-2725 2741 0
-78 -2725 2726 0
-2726 2742 0
-79 -2726 2727 0
-2727 2743 0
-80 -2727 2728 0
-2728 2744 0
-81 -2728 2729 0
-2729 2745 0
-82 -2729 2730 0
-2730 2746 0
-83 -2730 2731 0
-2731 2747 0
-84 -2731 2732 0
-2732 2748 0
-85 -2732 2733 0
-2733 2749 0
-86 -2733 2734 0
-2734 2750 0
-87 -2734 2735 0
-2735 2751 0
-88 -2735 2736 0
-2736 2752 0
-89 -2736 2737 0
-2737 2753 0
-90 -2737 2738 0
-2738 2754 0
-91 -2738 2739 0
-2739 2755 0
-92 -2739 2740 0
-2740 2756 0
-93 -2740 0
-78 2741 0
-2741 2757 0
-79 -2741 2742 0
-2742 2758 0
-80 -2742 2743 0
-2743 2759 0
-81 -2743 2744 0
-2744 2760 0
-82 -2744 2745 0
-2745 2761 0
-83 -2745 2746 0
-2746 2762 0
-84 -2746 2747 0
-2747 2763 0
-85 -2747 2748 0
-2748 2764 0
-86 -2748 2749 0
-2749 2765 0
-87 -2749 2750 0
-2750 2766 0
-88 -2750 2751 0
-2751 2767 0
-89 -2751 2752 0
-2752 2768 0
-90 -2752 2753 0
-2753 2769 0
-91 -2753 2754 0
-2754 2770 0
-92 -2754 2755 0
-2755 2771 0
-93 -2755 2756 0
-2756 2772 0
-94 -2756 0
-79 2757 0
-2757 2773 0
-80 -2757 2758 0
-2758 2774 0
-81 -2758 2759 0
-2759 2775 0
-82 -2759 2760 0
-2760 2776 0
-83 -2760 2761 0
-2761 2777 0
-84 -2761 2762 0
-2762 2778 0
-85 -2762 2763 0
-2763 2779 0
-86 -2763 2764 0
-2764 2780 0
-87 -2764 2765 0
-2765 2781 0
-88 -2765 2766 0
-2766 2782 0
-89 -2766 2767 0
-2767 2783 0
-90 -2767 2768 0
-2768 2784 0
-91 -2768 2769 0
-2769 2785 0
-92 -2769 2770 0
-2770 2786 0
-93 -2770 2771 0
-2771 2787 0
-94 -2771 2772 0
-2772 2788 0
-95 -2772 0
-80 2773 0
-2773 2789 0
-81 -2773 2774 0
-2774 2790 0
-82 -2774 2775 0
-2775 2791 0
-83 -2775 2776 0
-2776 2792 0
-84 -2776 2777 0
-2777 2793 0
-85 -2777 2778 0
-2778 2794 0
-86 -2778 2779 0
-2779 2795 0
-87 -2779 2780 0
-2780 2796 0
-88 -2780 2781 0
-2781 2797 0
-89 -2781 2782 0
-2782 2798 0
-90 -2782 2783 0
-2783 2799 0
-91 -2783 2784 0
-2784 2800 0
-92 -2784 2785 0
-2785 2801 0
-93 -2785 2786 0
-2786 2802 0
-94 -2786 2787 0
-2787 2803 0
-95 -2787 2788 0
-2788 2804 0
-96 -2788 0
-81 2789 0
-2789 2805 0
-82 -2789 2790 0
-2790 2806 0
-83 -2790 2791 0
-2791 2807 0
-84 -2791 2792 0
-2792 2808 0
-85 -2792 2793 0
-2793 2809 0
-86 -2793 2794 0
-2794 2810 0
-87 -2794 2795 0
-2795 2811 0
-88 -2795 2796 0
-2796 2812 0
-89 -2796 2797 0
-2797 2813 0
-90 -2797 2798 0
-2798 2814 0
-91 -2798 2799 0
-2799 2815 0
-92 -2799 2800 0
-2800 2816 0
-93 -2800 2801 0
-2801 2817 0
-94 -2801 2802 0
-2802 2818 0
-95 -2802 2803 0
-2803 2819 0
-96 -2803 2804 0
-2804 2820 0
-97 -2804 0
-82 2805 0
-83 -2805 2806 0
-84 -2806 2807 0
-85 -2807 2808 0
-86 -2808 2809 0
-87 -2809 2810 0
-88 -2810 2811 0
-89 -2811 2812 0
-90 -2812 2813 0
-91 -2813 2814 0
-92 -2814 2815 0
-93 -2815 2816 0
-94 -2816 2817 0
-95 -2817 2818 0
-96 -2818 2819 0
-97 -2819 2820 0
-98 -2820 0
-99 2821 0
-2821 2822 0
-100 -2821 2823 0
-2823 2824 0
-101 -2823 2825 0
-2825 2826 0
-102 -2825 2827 0
-2827 2828 0
-103 -2827 2829 0
-2829 2830 0
-104 -2829 2831 0
-2831 2832 0
-105 -2831 2833 0
-2833 2834 0
-106 -2833 2835 0
-2835 2836 0
-107 -2835 2837 0
-2837 2838 0
-108 -2837 0
-100 2822 0
-2822 2839 0
-101 -2822 2824 0
-2824 2840 0
-102 -2824 2826 0
-2826 2841 0
-103 -2826 2828 0
-2828 2842 0
-104 -2828 2830 0
-2830 2843 0
-105 -2830 2832 0
-2832 2844 0
-106 -2832 2834 0
-2834 2845 0
-107 -2834 2836 0
-2836 2846 0
-108 -2836 2838 0
-2838 2847 0
-109 -2838 0
-101 2839 0
-2839 2848 0
-102 -2839 2840 0
-2840 2849 0
-103 -2840 2841 0
-2841 2850 0
-104 -2841 2842 0
-2842 2851 0
-105 -2842 2843 0
-2843 2852 0
-106 -2843 2844 0
-2844 2853 0
-107 -2844 2845 0
-2845 2854 0
-108 -2845 2846 0
-2846 2855 0
-109 -2846 2847 0
-2847 2856 0
-110 -2847 0
-102 2848 0
-2848 2857 0
-103 -2848 2849 0
-2849 2858 0
-104 -2849 2850 0
-2850 2859 0
-105 -2850 2851 0
-2851 2860 0
-106 -2851 2852 0
-2852 2861 0
-107 -2852 2853 0
-2853 2862 0
-108 -2853 2854 0
-2854 2863 0
-109 -2854 2855 0
-2855 2864 0
-110 -2855 2856 0
-2856 2865 0
-111 -2856 0
-103 2857 0
-2857 2866 0
-104 -2857 2858 0
-2858 2867 0
-105 -2858 2859 0
-2859 2868 0
-106 -2859 2860 0
-2860 2869 0
-107 -2860 2861 0
-2861 2870 0
-108 -2861 2862 0
-2862 2871 0
-109 -2862 2863 0
-2863 2872 0
-110 -2863 2864 0
-2864 2873 0
-111 -2864 2865 0
-2865 2874 0
-112 -2865 0
-104 2866 0
-2866 2875 0
-105 -2866 2867 0
-2867 2876 0
-106 -2867 2868 0
-2868 2877 0
-107 -2868 2869 0
-2869 2878 0
-108 -2869 2870 0
-2870 2879 0
-109 -2870 2871 0
-2871 2880 0
-110 -2871 2872 0
-2872 2881 0
-111 -2872 2873 0
-2873 2882 0
-112 -2873 2874 0
-2874 2883 0
-113 -2874 0
-105 2875 0
-2875 2884 0
-106 -2875 2876 0
-2876 2885 0
-107 -2876 2877 0
-2877 2886 0
-108 -2877 2878 0
-2878 2887 0
-109 -2878 2879 0
-2879 2888 0
-110 -2879 2880 0
-2880 2889 0
-111 -2880 2881 0
-2881 2890 0
-112 -2881 2882 0
-2882 2891 0
-113 -2882 2883 0
-2883 2892 0
-114 -2883 0
-106 2884 0
-2884 2893 0
-107 -2884 2885 0
-2885 2894 0
-108 -2885 2886 0
-2886 2895 0
-109 -2886 2887 0
-2887 2896 0
-110 -2887 2888 0
-2888 2897 0
-111 -2888 2889 0
-2889 2898 0
-112 -2889 2890 0
-2890 2899 0
-113 -2890 2891 0
-2891 2900 0
-114 -2891 2892 0
-2892 2901 0
-115 -2892 0
-107 2893 0
-2893 2902 0
-108 -2893 2894 0
-2894 2903 0
-109 -2894 2895 0
-2895 2904 0
-110 -2895 2896 0
-2896 2905 0
-111 -2896 2897 0
-2897 2906 0
-112 -2897 2898 0
-2898 2907 0
-113 -2898 2899 0
-2899 2908 0
-114 -2899 2900 0
-2900 2909 0
-115 -2900 2901 0
-2901 2910 0
-116 -2901 0
-108 2902 0
-2902 2911 0
-109 -2902 2903 0
-2903 2912 0
-110 -2903 2904 0
-2904 2913 0
-111 -2904 2905 0
-2905 2914 0
-112 -2905 2906 0
-2906 2915 0
-113 -2906 2907 0
-2907 2916 0
-114 -2907 2908 0
-2908 2917 0
-115 -2908 2909 0
-2909 2918 0
-116 -2909 2910 0
-2910 2919 0
-117 -2910 0
-109 2911 0
-2911 2920 0
-110 -2911 2912 0
-2912 2921 0
-111 -2912 2913 0
-2913 2922 0
-112 -2913 2914 0
-2914 2923 0
-113 -2914 2915 0
-2915 2924 0
-114 -2915 2916 0
-2916 2925 0
-115 -2916 2917 0
-2917 2926 0
-116 -2917 2918 0
-2918 2927 0
-117 -2918 2919 0
-2919 2928 0
-118 -2919 0
-110 2920 0
-2920 2929 0
-111 -2920 2921 0
-2921 2930 0
-112 -2921 2922 0
-2922 2931 0
-113 -2922 2923 0
-2923 2932 0
-114 -2923 2924 0
-2924 2933 0
-115 -2924 2925 0
-2925 2934 0
-116 -2925 2926 0
-2926 2935 0
-117 -2926 2927 0
-2927 2936 0
-118 -2927 2928 0
-2928 2937 0
-119 -2928 0
-111 2929 0
-2929 2938 0
-112 -2929 2930 0
-2930 2939 0
-113 -2930 2931 0
-2931 2940 0
-114 -2931 2932 0
-2932 2941 0
-115 -2932 2933 0
-2933 2942 0
-116 -2933 2934 0
-2934 2943 0
-117 -2934 2935 0
-2935 2944 0
-118 -2935 2936 0
-2936 2945 0
-119 -2936 2937 0
-2937 2946 0
-120 -2937 0
-112 2938 0
-2938 2947 0
-113 -2938 2939 0
-2939 2948 0
-114 -2939 2940 0
-2940 2949 0
-115 -2940 2941 0
-2941 2950 0
-116 -2941 2942 0
-2942 2951 0
-117 -2942 2943 0
-2943 2952 0
-118 -2943 2944 0
-2944 2953 0
-119 -2944 2945 0
-2945 2954 0
-120 -2945 2946 0
-2946 2955 0
-121 -2946 0
-113 2947 0
-2947 2956 0
-114 -2947 2948 0
-2948 2957 0
-115 -2948 2949 0
-2949 2958 0
-116 -2949 2950 0
-2950 2959 0
-117 -2950 2951 0
-2951 2960 0
-118 -2951 2952 0
-2952 2961 0
-119 -2952 2953 0
-2953 2962 0
-120 -2953 2954 0
-2954 2963 0
-121 -2954 2955 0
-2955 2964 0
-122 -2955 0
-114 2956 0
-2956 2965 0
-115 -2956 2957 0
-2957 2966 0
-116 -2957 2958 0
-2958 2967 0
-117 -2958 2959 0
-2959 2968 0
-118 -2959 2960 0
-2960 2969 0
-119 -2960 2961 0
-2961 2970 0
-120 -2961 2962 0
-2962 2971 0
-121 -2962 2963 0
-2963 2972 0
-122 -2963 2964 0
-2964 2973 0
-123 -2964 0
-115 2965 0
-2965 2974 0
-116 -2965 2966 0
-2966 2975 0
-117 -2966 2967 0
-2967 2976 0
-118 -2967 2968 0
-2968 2977 0
-119 -2968 2969 0
-2969 2978 0
-120 -2969 2970 0
-2970 2979 0
-121 -2970 2971 0
-2971 2980 0
-122 -2971 2972 0
-2972 2981 0
-123 -2972 2973 0
-2973 2982 0
-124 -2973 0
-116 2974 0
-2974 2983 0
-117 -2974 2975 0
-2975 2984 0
-118 -2975 2976 0
-2976 2985 0
-119 -2976 2977 0
-2977 2986 0
-120 -2977 2978 0
-2978 2987 0
-121 -2978 2979 0
-2979 2988 0
-122 -2979 2980 0
-2980 2989 0
-123 -2980 2981 0
-2981 2990 0
-124 -2981 2982 0
-2982 2991 0
-125 -2982 0
-117 2983 0
-2983 2992 0
-118 -2983 2984 0
-2984 2993 0
-119 -2984 2985 0
-2985 2994 0
-120 -2985 2986 0
-2986 2995 0
-121 -2986 2987 0
-2987 2996 0
-122 -2987 2988 0
-2988 2997 0
-123 -2988 2989 0
-2989 2998 0
-124 -2989 2990 0
-2990 2999 0
-125 -2990 2991 0
-2991 3000 0
-126 -2991 0
-118 2992 0
-2992 3001 0
-119 -2992 2993 0
-2993 3002 0
-120 -2993 2994 0
-2994 3003 0
-121 -2994 2995 0
-2995 3004 0
-122 -2995 2996 0
-2996 3005 0
-123 -2996 2997 0
-2997 3006 0
-124 -2997 2998 0
-2998 3007 0
-125 -2998 2999 0
-2999 3008 0
-126 -2999 3000 0
-3000 3009 0
-127 -3000 0
-119 3001 0
-3001 3010 0
-120 -3001 3002 0
-3002 3011 0
-121 -3002 3003 0
-3003 3012 0
-122 -3003 3004 0
-3004 3013 0
-123 -3004 3005 0
-3005 3014 0
-124 -3005 3006 0
-3006 3015 0
-125 -3006 3007 0
-3007 3016 0
-126 -3007 3008 0
-3008 3017 0
-127 -3008 3009 0
-3009 3018 0
-128 -3009 0
-120 3010 0
-3010 3019 0
-121 -3010 3011 0
-3011 3020 0
-122 -3011 3012 0
-3012 3021 0
-123 -3012 3013 0
-3013 3022 0
-124 -3013 3014 0
-3014 3023 0
-125 -3014 3015 0
-3015 3024 0
-126 -3015 3016 0
-3016 3025 0
-127 -3016 3017 0
-3017 3026 0
-128 -3017 3018 0
-3018 3027 0
-129 -3018 0
-121 3019 0
-3019 3028 0
-122 -3019 3020 0
-3020 3029 0
-123 -3020 3021 0
-3021 3030 0
-124 -3021 3022 0
-3022 3031 0
-125 -3022 3023 0
-3023 3032 0
-126 -3023 3024 0
-3024 3033 0
-127 -3024 3025 0
-3025 3034 0
-128 -3025 3026 0
-3026 3035 0
-129 -3026 3027 0
-3027 3036 0
-130 -3027 0
-122 3028 0
-3028 3037 0
-123 -3028 3029 0
-3029 3038 0
-124 -3029 3030 0
-3030 3039 0
-125 -3030 3031 0
-3031 3040 0
-126 -3031 3032 0
-3032 3041 0
-127 -3032 3033 0
-3033 3042 0
-128 -3033 3034 0
-3034 3043 0
-129 -3034 3035 0
-3035 3044 0
-130 -3035 3036 0
-3036 3045 0
-131 -3036 0
-123 3037 0
-3037 3046 0
-124 -3037 3038 0
-3038 3047 0
-125 -3038 3039 0
-3039 3048 0
-126 -3039 3040 0
-3040 3049 0
-127 -3040 3041 0
-3041 3050 0
-128 -3041 3042 0
-3042 3051 0
-129 -3042 3043 0
-3043 3052 0
-130 -3043 3044 0
-3044 3053 0
-131 -3044 3045 0
-3045 3054 0
-132 -3045 0
-124 3046 0
-3046 3055 0
-125 -3046 3047 0
-3047 3056 0
-126 -3047 3048 0
-3048 3057 0
-127 -3048 3049 0
-3049 3058 0
-128 -3049 3050 0
-3050 3059 0
-129 -3050 3051 0
-3051 3060 0
-130 -3051 3052 0
-3052 3061 0
-131 -3052 3053 0
-3053 3062 0
-132 -3053 3054 0
-3054 3063 0
-133 -3054 0
-125 3055 0
-3055 3064 0
-126 -3055 3056 0
-3056 3065 0
-127 -3056 3057 0
-3057 3066 0
-128 -3057 3058 0
-3058 3067 0
-129 -3058 3059 0
-3059 3068 0
-130 -3059 3060 0
-3060 3069 0
-131 -3060 3061 0
-3061 3070 0
-132 -3061 3062 0
-3062 3071 0
-133 -3062 3063 0
-3063 3072 0
-134 -3063 0
-126 3064 0
-3064 3073 0
-127 -3064 3065 0
-3065 3074 0
-128 -3065 3066 0
-3066 3075 0
-129 -3066 3067 0
-3067 3076 0
-130 -3067 3068 0
-3068 3077 0
-131 -3068 3069 0
-3069 3078 0
-132 -3069 3070 0
-3070 3079 0
-133 -3070 3071 0
-3071 3080 0
-134 -3071 3072 0
-3072 3081 0
-135 -3072 0
-127 3073 0
-3073 3082 0
-128 -3073 3074 0
-3074 3083 0
-129 -3074 3075 0
-3075 3084 0
-130 -3075 3076 0
-3076 3085 0
-131 -3076 3077 0
-3077 3086 0
-132 -3077 3078 0
-3078 3087 0
-133 -3078 3079 0
-3079 3088 0
-134 -3079 3080 0
-3080 3089 0
-135 -3080 3081 0
-3081 3090 0
-136 -3081 0
-128 3082 0
-3082 3091 0
-129 -3082 3083 0
-3083 3092 0
-130 -3083 3084 0
-3084 3093 0
-131 -3084 3085 0
-3085 3094 0
-132 -3085 3086 0
-3086 3095 0
-133 -3086 3087 0
-3087 3096 0
-134 -3087 3088 0
-3088 3097 0
-135 -3088 3089 0
-3089 3098 0
-136 -3089 3090 0
-3090 3099 0
-137 -3090 0
-129 3091 0
-3091 3100 0
-130 -3091 3092 0
-3092 3101 0
-131 -3092 3093 0
-3093 3102 0
-132 -3093 3094 0
-3094 3103 0
-133 -3094 3095 0
-3095 3104 0
-134 -3095 3096 0
-3096 3105 0
-135 -3096 3097 0
-3097 3106 0
-136 -3097 3098 0
-3098 3107 0
-137 -3098 3099 0
-3099 3108 0
-138 -3099 0
-130 3100 0
-3100 3109 0
-131 -3100 3101 0
-3101 3110 0
-132 -3101 3102 0
-3102 3111 0
-133 -3102 3103 0
-3103 3112 0
-134 -3103 3104 0
-3104 3113 0
-135 -3104 3105 0
-3105 3114 0
-136 -3105 3106 0
-3106 3115 0
-137 -3106 3107 0
-3107 3116 0
-138 -3107 3108 0
-3108 3117 0
-139 -3108 0
-131 3109 0
-3109 3118 0
-132 -3109 3110 0
-3110 3119 0
-133 -3110 3111 0
-3111 3120 0
-134 -3111 3112 0
-3112 3121 0
-135 -3112 3113 0
-3113 3122 0
-136 -3113 3114 0
-3114 3123 0
-137 -3114 3115 0
-3115 3124 0
-138 -3115 3116 0
-3116 3125 0
-139 -3116 3117 0
-3117 3126 0
-140 -3117 0
-132 3118 0
-3118 3127 0
-133 -3118 3119 0
-3119 3128 0
-134 -3119 3120 0
-3120 3129 0
-135 -3120 3121 0
-3121 3130 0
-136 -3121 3122 0
-3122 3131 0
-137 -3122 3123 0
-3123 3132 0
-138 -3123 3124 0
-3124 3133 0
-139 -3124 3125 0
-3125 3134 0
-140 -3125 3126 0
-3126 3135 0
-141 -3126 0
-133 3127 0
-3127 3136 0
-134 -3127 3128 0
-3128 3137 0
-135 -3128 3129 0
-3129 3138 0
-136 -3129 3130 0
-3130 3139 0
-137 -3130 3131 0
-3131 3140 0
-138 -3131 3132 0
-3132 3141 0
-139 -3132 3133 0
-3133 3142 0
-140 -3133 3134 0
-3134 3143 0
-141 -3134 3135 0
-3135 3144 0
-142 -3135 0
-134 3136 0
-3136 3145 0
-135 -3136 3137 0
-3137 3146 0
-136 -3137 3138 0
-3138 3147 0
-137 -3138 3139 0
-3139 3148 0
-138 -3139 3140 0
-3140 3149 0
-139 -3140 3141 0
-3141 3150 0
-140 -3141 3142 0
-3142 3151 0
-141 -3142 3143 0
-3143 3152 0
-142 -3143 3144 0
-3144 3153 0
-143 -3144 0
-135 3145 0
-3145 3154 0
-136 -3145 3146 0
-3146 3155 0
-137 -3146 3147 0
-3147 3156 0
-138 -3147 3148 0
-3148 3157 0
-139 -3148 3149 0
-3149 3158 0
-140 -3149 3150 0
-3150 3159 0
-141 -3150 3151 0
-3151 3160 0
-142 -3151 3152 0
-3152 3161 0
-143 -3152 3153 0
-3153 3162 0
-144 -3153 0
-136 3154 0
-3154 3163 0
-137 -3154 3155 0
-3155 3164 0
-138 -3155 3156 0
-3156 3165 0
-139 -3156 3157 0
-3157 3166 0
-140 -3157 3158 0
-3158 3167 0
-141 -3158 3159 0
-3159 3168 0
-142 -3159 3160 0
-3160 3169 0
-143 -3160 3161 0
-3161 3170 0
-144 -3161 3162 0
-3162 3171 0
-145 -3162 0
-137 3163 0
-3163 3172 0
-138 -3163 3164 0
-3164 3173 0
-139 -3164 3165 0
-3165 3174 0
-140 -3165 3166 0
-3166 3175 0
-141 -3166 3167 0
-3167 3176 0
-142 -3167 3168 0
-3168 3177 0
-143 -3168 3169 0
-3169 3178 0
-144 -3169 3170 0
-3170 3179 0
-145 -3170 3171 0
-3171 3180 0
-146 -3171 0
-138 3172 0
-3172 3181 0
-139 -3172 3173 0
-3173 3182 0
-140 -3173 3174 0
-3174 3183 0
-141 -3174 3175 0
-3175 3184 0
-142 -3175 3176 0
-3176 3185 0
-143 -3176 3177 0
-3177 3186 0
-144 -3177 3178 0
-3178 3187 0
-145 -3178 3179 0
-3179 3188 0
-146 -3179 3180 0
-3180 3189 0
-147 -3180 0
-139 3181 0
-3181 3190 0
-140 -3181 3182 0
-3182 3191 0
-141 -3182 3183 0
-3183 3192 0
-142 -3183 3184 0
-3184 3193 0
-143 -3184 3185 0
-3185 3194 0
-144 -3185 3186 0
-3186 3195 0
-145 -3186 3187 0
-3187 3196 0
-146 -3187 3188 0
-3188 3197 0
-147 -3188 3189 0
-3189 3198 0
-148 -3189 0
-140 3190 0
-3190 3199 0
-141 -3190 3191 0
-3191 3200 0
-142 -3191 3192 0
-3192 3201 0
-143 -3192 3193 0
-3193 3202 0
-144 -3193 3194 0
-3194 3203 0
-145 -3194 3195 0
-3195 3204 0
-146 -3195 3196 0
-3196 3205 0
-147 -3196 3197 0
-3197 3206 0
-148 -3197 3198 0
-3198 3207 0
-149 -3198 0
-141 3199 0
-3199 3208 0
-142 -3199 3200 0
-3200 3209 0
-143 -3200 3201 0
-3201 3210 0
-144 -3201 3202 0
-3202 3211 0
-145 -3202 3203 0
-3203 3212 0
-146 -3203 3204 0
-3204 3213 0
-147 -3204 3205 0
-3205 3214 0
-148 -3205 3206 0
-3206 3215 0
-149 -3206 3207 0
-3207 3216 0
-150 -3207 0
-142 3208 0
-3208 3217 0
-143 -3208 3209 0
-3209 3218 0
-144 -3209 3210 0
-3210 3219 0
-145 -3210 3211 0
-3211 3220 0
-146 -3211 3212 0
-3212 3221 0
-147 -3212 3213 0
-3213 3222 0
-148 -3213 3214 0
-3214 3223 0
-149 -3214 3215 0
-3215 3224 0
-150 -3215 3216 0
-3216 3225 0
-151 -3216 0
-143 3217 0
-3217 3226 0
-144 -3217 3218 0
-3218 3227 0
-145 -3218 3219 0
-3219 3228 0
-146 -3219 3220 0
-3220 3229 0
-147 -3220 3221 0
-3221 3230 0
-148 -3221 3222 0
-3222 3231 0
-149 -3222 3223 0
-3223 3232 0
-150 -3223 3224 0
-3224 3233 0
-151 -3224 3225 0
-3225 3234 0
-152 -3225 0
-144 3226 0
-3226 3235 0
-145 -3226 3227 0
-3227 3236 0
-146 -3227 3228 0
-3228 3237 0
-147 -3228 3229 0
-3229 3238 0
-148 -3229 3230 0
-3230 3239 0
-149 -3230 3231 0
-3231 3240 0
-150 -3231 3232 0
-3232 3241 0
-151 -3232 3233 0
-3233 3242 0
-152 -3233 3234 0
-3234 3243 0
-153 -3234 0
-145 3235 0
-3235 3244 0
-146 -3235 3236 0
-3236 3245 0
-147 -3236 3237 0
-3237 3246 0
-148 -3237 3238 0
-3238 3247 0
-149 -3238 3239 0
-3239 3248 0
-150 -3239 3240 0
-3240 3249 0
-151 -3240 3241 0
-3241 3250 0
-152 -3241 3242 0
-3242 3251 0
-153 -3242 3243 0
-3243 3252 0
-154 -3243 0
-146 3244 0
-3244 3253 0
-147 -3244 3245 0
-3245 3254 0
-148 -3245 3246 0
-3246 3255 0
-149 -3246 3247 0
-3247 3256 0
-150 -3247 3248 0
-3248 3257 0
-151 -3248 3249 0
-3249 3258 0
-152 -3249 3250 0
-3250 3259 0
-153 -3250 3251 0
-3251 3260 0
-154 -3251 3252 0
-3252 3261 0
-155 -3252 0
-147 3253 0
-3253 3262 0
-148 -3253 3254 0
-3254 3263 0
-149 -3254 3255 0
-3255 3264 0
-150 -3255 3256 0
-3256 3265 0
-151 -3256 3257 0
-3257 3266 0
-152 -3257 3258 0
-3258 3267 0
-153 -3258 3259 0
-3259 3268 0
-154 -3259 3260 0
-3260 3269 0
-155 -3260 3261 0
-3261 3270 0
-156 -3261 0
-148 3262 0
-3262 3271 0
-149 -3262 3263 0
-3263 3272 0
-150 -3263 3264 0
-3264 3273 0
-151 -3264 3265 0
-3265 3274 0
-152 -3265 3266 0
-3266 3275 0
-153 -3266 3267 0
-3267 3276 0
-154 -3267 3268 0
-3268 3277 0
-155 -3268 3269 0
-3269 3278 0
-156 -3269 3270 0
-3270 3279 0
-157 -3270 0
-149 3271 0
-3271 3280 0
-150 -3271 3272 0
-3272 3281 0
-151 -3272 3273 0
-3273 3282 0
-152 -3273 3274 0
-3274 3283 0
-153 -3274 3275 0
-3275 3284 0
-154 -3275 3276 0
-3276 3285 0
-155 -3276 3277 0
-3277 3286 0
-156 -3277 3278 0
-3278 3287 0
-157 -3278 3279 0
-3279 3288 0
-158 -3279 0
-150 3280 0
-3280 3289 0
-151 -3280 3281 0
-3281 3290 0
-152 -3281 3282 0
-3282 3291 0
-153 -3282 3283 0
-3283 3292 0
-154 -3283 3284 0
-3284 3293 0
-155 -3284 3285 0
-3285 3294 0
-156 -3285 3286 0
-3286 3295 0
-157 -3286 3287 0
-3287 3296 0
-158 -3287 3288 0
-3288 3297 0
-159 -3288 0
-151 3289 0
-3289 3298 0
-152 -3289 3290 0
-3290 3299 0
-153 -3290 3291 0
-3291 3300 0
-154 -3291 3292 0
-3292 3301 0
-155 -3292 3293 0
-3293 3302 0
-156 -3293 3294 0
-3294 3303 0
-157 -3294 3295 0
-3295 3304 0
-158 -3295 3296 0
-3296 3305 0
-159 -3296 3297 0
-3297 3306 0
-160 -3297 0
-152 3298 0
-3298 3307 0
-153 -3298 3299 0
-3299 3308 0
-154 -3299 3300 0
-3300 3309 0
-155 -3300 3301 0
-3301 3310 0
-156 -3301 3302 0
-3302 3311 0
-157 -3302 3303 0
-3303 3312 0
-158 -3303 3304 0
-3304 3313 0
-159 -3304 3305 0
-3305 3314 0
-160 -3305 3306 0
-3306 3315 0
-161 -3306 0
-153 3307 0
-3307 3316 0
-154 -3307 3308 0
-3308 3317 0
-155 -3308 3309 0
-3309 3318 0
-156 -3309 3310 0
-3310 3319 0
-157 -3310 3311 0
-3311 3320 0
-158 -3311 3312 0
-3312 3321 0
-159 -3312 3313 0
-3313 3322 0
-160 -3313 3314 0
-3314 3323 0
-161 -3314 3315 0
-3315 3324 0
-162 -3315 0
-154 3316 0
-3316 3325 0
-155 -3316 3317 0
-3317 3326 0
-156 -3317 3318 0
-3318 3327 0
-157 -3318 3319 0
-3319 3328 0
-158 -3319 3320 0
-3320 3329 0
-159 -3320 3321 0
-3321 3330 0
-160 -3321 3322 0
-3322 3331 0
-161 -3322 3323 0
-3323 3332 0
-162 -3323 3324 0
-3324 3333 0
-163 -3324 0
-155 3325 0
-3325 3334 0
-156 -3325 3326 0
-3326 3335 0
-157 -3326 3327 0
-3327 3336 0
-158 -3327 3328 0
-3328 3337 0
-159 -3328 3329 0
-3329 3338 0
-160 -3329 3330 0
-3330 3339 0
-161 -3330 3331 0
-3331 3340 0
-162 -3331 3332 0
-3332 3341 0
-163 -3332 3333 0
-3333 3342 0
-164 -3333 0
-156 3334 0
-3334 3343 0
-157 -3334 3335 0
-3335 3344 0
-158 -3335 3336 0
-3336 3345 0
-159 -3336 3337 0
-3337 3346 0
-160 -3337 3338 0
-3338 3347 0
-161 -3338 3339 0
-3339 3348 0
-162 -3339 3340 0
-3340 3349 0
-163 -3340 3341 0
-3341 3350 0
-164 -3341 3342 0
-3342 3351 0
-165 -3342 0
-157 3343 0
-3343 3352 0
-158 -3343 3344 0
-3344 3353 0
-159 -3344 3345 0
-3345 3354 0
-160 -3345 3346 0
-3346 3355 0
-161 -3346 3347 0
-3347 3356 0
-162 -3347 3348 0
-3348 3357 0
-163 -3348 3349 0
-3349 3358 0
-164 -3349 3350 0
-3350 3359 0
-165 -3350 3351 0
-3351 3360 0
-166 -3351 0
-158 3352 0
-3352 3361 0
-159 -3352 3353 0
-3353 3362 0
-160 -3353 3354 0
-3354 3363 0
-161 -3354 3355 0
-3355 3364 0
-162 -3355 3356 0
-3356 3365 0
-163 -3356 3357 0
-3357 3366 0
-164 -3357 3358 0
-3358 3367 0
-165 -3358 3359 0
-3359 3368 0
-166 -3359 3360 0
-3360 3369 0
-167 -3360 0
-159 3361 0
-3361 3370 0
-160 -3361 3362 0
-3362 3371 0
-161 -3362 3363 0
-3363 3372 0
-162 -3363 3364 0
-3364 3373 0
-163 -3364 3365 0
-3365 3374 0
-164 -3365 3366 0
-3366 3375 0
-165 -3366 3367 0
-3367 3376 0
-166 -3367 3368 0
-3368 3377 0
-167 -3368 3369 0
-3369 3378 0
-168 -3369 0
-160 3370 0
-3370 3379 0
-161 -3370 3371 0
-3371 3380 0
-162 -3371 3372 0
-3372 3381 0
-163 -3372 3373 0
-3373 3382 0
-164 -3373 3374 0
-3374 3383 0
-165 -3374 3375 0
-3375 3384 0
-166 -3375 3376 0
-3376 3385 0
-167 -3376 3377 0
-3377 3386 0
-168 -3377 3378 0
-3378 3387 0
-169 -3378 0
-161 3379 0
-3379 3388 0
-162 -3379 3380 0
-3380 3389 0
-163 -3380 3381 0
-3381 3390 0
-164 -3381 3382 0
-3382 3391 0
-165 -3382 3383 0
-3383 3392 0
-166 -3383 3384 0
-3384 3393 0
-167 -3384 3385 0
-3385 3394 0
-168 -3385 3386 0
-3386 3395 0
-169 -3386 3387 0
-3387 3396 0
-170 -3387 0
-162 3388 0
-3388 3397 0
-163 -3388 3389 0
-3389 3398 0
-164 -3389 3390 0
-3390 3399 0
-165 -3390 3391 0
-3391 3400 0
-166 -3391 3392 0
-3392 3401 0
-167 -3392 3393 0
-3393 3402 0
-168 -3393 3394 0
-3394 3403 0
-169 -3394 3395 0
-3395 3404 0
-170 -3395 3396 0
-3396 3405 0
-171 -3396 0
-163 3397 0
-3397 3406 0
-164 -3397 3398 0
-3398 3407 0
-165 -3398 3399 0
-3399 3408 0
-166 -3399 3400 0
-3400 3409 0
-167 -3400 3401 0
-3401 3410 0
-168 -3401 3402 0
-3402 3411 0
-169 -3402 3403 0
-3403 3412 0
-170 -3403 3404 0
-3404 3413 0
-171 -3404 3405 0
-3405 3414 0
-172 -3405 0
-164 3406 0
-3406 3415 0
-165 -3406 3407 0
-3407 3416 0
-166 -3407 3408 0
-3408 3417 0
-167 -3408 3409 0
-3409 3418 0
-168 -3409 3410 0
-3410 3419 0
-169 -3410 3411 0
-3411 3420 0
-170 -3411 3412 0
-3412 3421 0
-171 -3412 3413 0
-3413 3422 0
-172 -3413 3414 0
-3414 3423 0
-173 -3414 0
-165 3415 0
-3415 3424 0
-166 -3415 3416 0
-3416 3425 0
-167 -3416 3417 0
-3417 3426 0
-168 -3417 3418 0
-3418 3427 0
-169 -3418 3419 0
-3419 3428 0
-170 -3419 3420 0
-3420 3429 0
-171 -3420 3421 0
-3421 3430 0
-172 -3421 3422 0
-3422 3431 0
-173 -3422 3423 0
-3423 3432 0
-174 -3423 0
-166 3424 0
-3424 3433 0
-167 -3424 3425 0
-3425 3434 0
-168 -3425 3426 0
-3426 3435 0
-169 -3426 3427 0
-3427 3436 0
-170 -3427 3428 0
-3428 3437 0
-171 -3428 3429 0
-3429 3438 0
-172 -3429 3430 0
-3430 3439 0
-173 -3430 3431 0
-3431 3440 0
-174 -3431 3432 0
-3432 3441 0
-175 -3432 0
-167 3433 0
-3433 3442 0
-168 -3433 3434 0
-3434 3443 0
-169 -3434 3435 0
-3435 3444 0
-170 -3435 3436 0
-3436 3445 0
-171 -3436 3437 0
-3437 3446 0
-172 -3437 3438 0
-3438 3447 0
-173 -3438 3439 0
-3439 3448 0
-174 -3439 3440 0
-3440 3449 0
-175 -3440 3441 0
-3441 3450 0
-176 -3441 0
-168 3442 0
-3442 3451 0
-169 -3442 3443 0
-3443 3452 0
-170 -3443 3444 0
-3444 3453 0
-171 -3444 3445 0
-3445 3454 0
-172 -3445 3446 0
-3446 3455 0
-173 -3446 3447 0
-3447 3456 0
-174 -3447 3448 0
-3448 3457 0
-175 -3448 3449 0
-3449 3458 0
-176 -3449 3450 0
-3450 3459 0
-177 -3450 0
-169 3451 0
-3451 3460 0
-170 -3451 3452 0
-3452 3461 0
-171 -3452 3453 0
-3453 3462 0
-172 -3453 3454 0
-3454 3463 0
-173 -3454 3455 0
-3455 3464 0
-174 -3455 3456 0
-3456 3465 0
-175 -3456 3457 0
-3457 3466 0
-176 -3457 3458 0
-3458 3467 0
-177 -3458 3459 0
-3459 3468 0
-178 -3459 0
-170 3460 0
-3460 3469 0
-171 -3460 3461 0
-3461 3470 0
-172 -3461 3462 0
-3462 3471 0
-173 -3462 3463 0
-3463 3472 0
-174 -3463 3464 0
-3464 3473 0
-175 -3464 3465 0
-3465 3474 0
-176 -3465 3466 0
-3466 3475 0
-177 -3466 3467 0
-3467 3476 0
-178 -3467 3468 0
-3468 3477 0
-179 -3468 0
-171 3469 0
-3469 3478 0
-172 -3469 3470 0
-3470 3479 0
-173 -3470 3471 0
-3471 3480 0
-174 -3471 3472 0
-3472 3481 0
-175 -3472 3473 0
-3473 3482 0
-176 -3473 3474 0
-3474 3483 0
-177 -3474 3475 0
-3475 3484 0
-178 -3475 3476 0
-3476 3485 0
-179 -3476 3477 0
-3477 3486 0
-180 -3477 0
-172 3478 0
-3478 3487 0
-173 -3478 3479 0
-3479 3488 0
-174 -3479 3480 0
-3480 3489 0
-175 -3480 3481 0
-3481 3490 0
-176 -3481 3482 0
-3482 3491 0
-177 -3482 3483 0
-3483 3492 0
-178 -3483 3484 0
-3484 3493 0
-179 -3484 3485 0
-3485 3494 0
-180 -3485 3486 0
-3486 3495 0
-181 -3486 0
-173 3487 0
-3487 3496 0
-174 -3487 3488 0
-3488 3497 0
-175 -3488 3489 0
-3489 3498 0
-176 -3489 3490 0
-3490 3499 0
-177 -3490 3491 0
-3491 3500 0
-178 -3491 3492 0
-3492 3501 0
-179 -3492 3493 0
-3493 3502 0
-180 -3493 3494 0
-3494 3503 0
-181 -3494 3495 0
-3495 3504 0
-182 -3495 0
-174 3496 0
-3496 3505 0
-175 -3496 3497 0
-3497 3506 0
-176 -3497 3498 0
-3498 3507 0
-177 -3498 3499 0
-3499 3508 0
-178 -3499 3500 0
-3500 3509 0
-179 -3500 3501 0
-3501 3510 0
-180 -3501 3502 0
-3502 3511 0
-181 -3502 3503 0
-3503 3512 0
-182 -3503 3504 0
-3504 3513 0
-183 -3504 0
-175 3505 0
-3505 3514 0
-176 -3505 3506 0
-3506 3515 0
-177 -3506 3507 0
-3507 3516 0
-178 -3507 3508 0
-3508 3517 0
-179 -3508 3509 0
-3509 3518 0
-180 -3509 3510 0
-3510 3519 0
-181 -3510 3511 0
-3511 3520 0
-182 -3511 3512 0
-3512 3521 0
-183 -3512 3513 0
-3513 3522 0
-184 -3513 0
-176 3514 0
-3514 3523 0
-177 -3514 3515 0
-3515 3524 0
-178 -3515 3516 0
-3516 3525 0
-179 -3516 3517 0
-3517 3526 0
-180 -3517 3518 0
-3518 3527 0
-181 -3518 3519 0
-3519 3528 0
-182 -3519 3520 0
-3520 3529 0
-183 -3520 3521 0
-3521 3530 0
-184 -3521 3522 0
-3522 3531 0
-185 -3522 0
-177 3523 0
-3523 3532 0
-178 -3523 3524 0
-3524 3533 0
-179 -3524 3525 0
-3525 3534 0
-180 -3525 3526 0
-3526 3535 0
-181 -3526 3527 0
-3527 3536 0
-182 -3527 3528 0
-3528 3537 0
-183 -3528 3529 0
-3529 3538 0
-184 -3529 3530 0
-3530 3539 0
-185 -3530 3531 0
-3531 3540 0
-186 -3531 0
-178 3532 0
-3532 3541 0
-179 -3532 3533 0
-3533 3542 0
-180 -3533 3534 0
-3534 3543 0
-181 -3534 3535 0
-3535 3544 0
-182 -3535 3536 0
-3536 3545 0
-183 -3536 3537 0
-3537 3546 0
-184 -3537 3538 0
-3538 3547 0
-185 -3538 3539 0
-3539 3548 0
-186 -3539 3540 0
-3540 3549 0
-187 -3540 0
-179 3541 0
-3541 3550 0
-180 -3541 3542 0
-3542 3551 0
-181 -3542 3543 0
-3543 3552 0
-182 -3543 3544 0
-3544 3553 0
-183 -3544 3545 0
-3545 3554 0
-184 -3545 3546 0
-3546 3555 0
-185 -3546 3547 0
-3547 3556 0
-186 -3547 3548 0
-3548 3557 0
-187 -3548 3549 0
-3549 3558 0
-188 -3549 0
-180 3550 0
-3550 3559 0
-181 -3550 3551 0
-3551 3560 0
-182 -3551 3552 0
-3552 3561 0
-183 -3552 3553 0
-3553 3562 0
-184 -3553 3554 0
-3554 3563 0
-185 -3554 3555 0
-3555 3564 0
-186 -3555 3556 0
-3556 3565 0
-187 -3556 3557 0
-3557 3566 0
-188 -3557 3558 0
-3558 3567 0
-189 -3558 0
-181 3559 0
-3559 3568 0
-182 -3559 3560 0
-3560 3569 0
-183 -3560 3561 0
-3561 3570 0
-184 -3561 3562 0
-3562 3571 0
-185 -3562 3563 0
-3563 3572 0
-186 -3563 3564 0
-3564 3573 0
-187 -3564 3565 0
-3565 3574 0
-188 -3565 3566 0
-3566 3575 0
-189 -3566 3567 0
-3567 3576 0
-190 -3567 0
-182 3568 0
-3568 3577 0
-183 -3568 3569 0
-3569 3578 0
-184 -3569 3570 0
-3570 3579 0
-185 -3570 3571 0
-3571 3580 0
-186 -3571 3572 0
-3572 3581 0
-187 -3572 3573 0
-3573 3582 0
-188 -3573 3574 0
-3574 3583 0
-189 -3574 3575 0
-3575 3584 0
-190 -3575 3576 0
-3576 3585 0
-191 -3576 0
-183 3577 0
-3577 3586 0
-184 -3577 3578 0
-3578 3587 0
-185 -3578 3579 0
-3579 3588 0
-186 -3579 3580 0
-3580 3589 0
-187 -3580 3581 0
-3581 3590 0
-188 -3581 3582 0
-3582 3591 0
-189 -3582 3583 0
-3583 3592 0
-190 -3583 3584 0
-3584 3593 0
-191 -3584 3585 0
-3585 3594 0
-192 -3585 0
-184 3586 0
-3586 3595 0
-185 -3586 3587 0
-3587 3596 0
-186 -3587 3588 0
-3588 3597 0
-187 -3588 3589 0
-3589 3598 0
-188 -3589 3590 0
-3590 3599 0
-189 -3590 3591 0
-3591 3600 0
-190 -3591 3592 0
-3592 3601 0
-191 -3592 3593 0
-3593 3602 0
-192 -3593 3594 0
-3594 3603 0
-193 -3594 0
-185 3595 0
-3595 3604 0
-186 -3595 3596 0
-3596 3605 0
-187 -3596 3597 0
-3597 3606 0
-188 -3597 3598 0
-3598 3607 0
-189 -3598 3599 0
-3599 3608 0
-190 -3599 3600 0
-3600 3609 0
-191 -3600 3601 0
-3601 3610 0
-192 -3601 3602 0
-3602 3611 0
-193 -3602 3603 0
-3603 3612 0
-194 -3603 0
-186 3604 0
-3604 3613 0
-187 -3604 3605 0
-3605 3614 0
-188 -3605 3606 0
-3606 3615 0
-189 -3606 3607 0
-3607 3616 0
-190 -3607 3608 0
-3608 3617 0
-191 -3608 3609 0
-3609 3618 0
-192 -3609 3610 0
-3610 3619 0
-193 -3610 3611 0
-3611 3620 0
-194 -3611 3612 0
-3612 3621 0
-195 -3612 0
-187 3613 0
-188 -3613 3614 0
-189 -3614 3615 0
-190 -3615 3616 0
-191 -3616 3617 0
-192 -3617 3618 0
-193 -3618 3619 0
-194 -3619 3620 0
-195 -3620 3621 0
-196 -3621 0
1 50 0
