p cnf 4997 10237
-131 -1 0
-131 2 65 66 0
-2 1 131 0
-65 1 131 0
-66 1 131 0
-132 -2 0
-132 1 3 67 0
-1 2 132 0
-3 2 132 0
-67 2 132 0
-133 -3 0
-133 2 4 68 0
-2 3 133 0
-4 3 133 0
-68 3 133 0
-134 -4 0
-134 3 5 69 0
-3 4 134 0
-5 4 134 0
-69 4 134 0
-135 -5 0
-135 4 6 70 0
-4 5 135 0
-6 5 135 0
-70 5 135 0
-136 -6 0
-136 5 7 71 0
-5 6 136 0
-7 6 136 0
-71 6 136 0
-137 -7 0
-137 6 8 72 0
-6 7 137 0
-8 7 137 0
-72 7 137 0
-138 -8 0
-138 7 9 73 0
-7 8 138 0
-9 8 138 0
-73 8 138 0
-139 -9 0
-139 8 10 74 0
-8 9 139 0
-10 9 139 0
-74 9 139 0
-140 -10 0
-140 9 11 75 0
-9 10 140 0
-11 10 140 0
-75 10 140 0
-141 -11 0
-141 10 12 76 0
-10 11 141 0
-12 11 141 0
-76 11 141 0
-142 -12 0
-142 11 13 77 0
-11 12 142 0
-13 12 142 0
-77 12 142 0
-143 -13 0
-143 12 14 78 0
-12 13 143 0
-14 13 143 0
-78 13 143 0
-144 -14 0
-144 13 15 79 0
-13 14 144 0
-15 14 144 0
-79 14 144 0
-145 -15 0
-145 14 16 80 0
-14 15 145 0
-16 15 145 0
-80 15 145 0
-146 -16 0
-146 15 17 81 0
-15 16 146 0
-17 16 146 0
-81 16 146 0
-147 -17 0
-147 16 18 82 0
-16 17 147 0
-18 17 147 0
-82 17 147 0
-148 -18 0
-148 17 19 83 0
-17 18 148 0
-19 18 148 0
-83 18 148 0
-149 -19 0
-149 18 20 84 0
-18 19 149 0
-20 19 149 0
-84 19 149 0
-150 -20 0
-150 19 21 85 0
-19 20 150 0
-21 20 150 0
-85 20 150 0
-151 -21 0
-151 20 22 86 0
-20 21 151 0
-22 21 151 0
-86 21 151 0
-152 -22 0
-152 21 23 87 0
-21 22 152 0
-23 22 152 0
-87 22 152 0
-153 -23 0
-153 22 24 88 0
-22 23 153 0
-24 23 153 0
-88 23 153 0
-154 -24 0
-154 23 25 89 0
-23 24 154 0
-25 24 154 0
-89 24 154 0
-155 -25 0
-155 24 26 90 0
-24 25 155 0
-26 25 155 0
-90 25 155 0
-156 -26 0
-156 25 27 91 0
-25 26 156 0
-27 26 156 0
-91 26 156 0
-157 -27 0
-157 26 28 92 0
-26 27 157 0
-28 27 157 0
-92 27 157 0
-158 -28 0
-158 27 29 93 0
-27 28 158 0
-29 28 158 0
-93 28 158 0
-159 -29 0
-159 28 30 94 0
-28 29 159 0
-30 29 159 0
-94 29 159 0
-160 -30 0
-160 29 31 95 0
-29 30 160 0
-31 30 160 0
-95 30 160 0
-161 -31 0
-161 30 32 96 0
-30 31 161 0
-32 31 161 0
-96 31 161 0
-162 -32 0
-162 31 33 97 0
-31 32 162 0
-33 32 162 0
-97 32 162 0
-163 -33 0
-163 32 34 98 0
-32 33 163 0
-34 33 163 0
-98 33 163 0
-164 -34 0
-164 33 35 99 0
-33 34 164 0
-35 34 164 0
-99 34 164 0
-165 -35 0
-165 34 36 100 0
-34 35 165 0
-36 35 165 0
-100 35 165 0
-166 -36 0
-166 35 37 101 0
-35 36 166 0
-37 36 166 0
-101 36 166 0
-167 -37 0
-167 36 38 102 0
-36 37 167 0
-38 37 167 0
-102 37 167 0
-168 -38 0
-168 37 39 103 0
-37 38 168 0
-39 38 168 0
-103 38 168 0
-169 -39 0
-169 38 40 104 0
-38 39 169 0
-40 39 169 0
-104 39 169 0
-170 -40 0
-170 39 41 105 0
-39 40 170 0
-41 40 170 0
-105 40 170 0
-171 -41 0
-171 40 42 106 0
-40 41 171 0
-42 41 171 0
-106 41 171 0
-172 -42 0
-172 41 43 107 0
-41 42 172 0
-43 42 172 0
-107 42 172 0
-173 -43 0
-173 42 44 108 0
-42 43 173 0
-44 43 173 0
-108 43 173 0
-174 -44 0
-174 43 45 109 0
-43 44 174 0
-45 44 174 0
-109 44 174 0
-175 -45 0
-175 44 46 110 0
-44 45 175 0
-46 45 175 0
-110 45 175 0
-176 -46 0
-176 45 47 111 0
-45 46 176 0
-47 46 176 0
-111 46 176 0
-177 -47 0
-177 46 48 112 0
-46 47 177 0
-48 47 177 0
-112 47 177 0
-178 -48 0
-178 47 49 113 0
-47 48 178 0
-49 48 178 0
-113 48 178 0
-179 -49 0
-179 48 50 114 0
-48 49 179 0
-50 49 179 0
-114 49 179 0
-180 -50 0
-180 49 51 115 0
-49 50 180 0
-51 50 180 0
-115 50 180 0
-181 -51 0
-181 50 52 116 0
-50 51 181 0
-52 51 181 0
-116 51 181 0
-182 -52 0
-182 51 53 117 0
-51 52 182 0
-53 52 182 0
-117 52 182 0
-183 -53 0
-183 52 54 118 0
-52 53 183 0
-54 53 183 0
-118 53 183 0
-184 -54 0
-184 53 55 119 0
-53 54 184 0
-55 54 184 0
-119 54 184 0
-185 -55 0
-185 54 56 120 0
-54 55 185 0
-56 55 185 0
-120 55 185 0
-186 -56 0
-186 55 57 121 0
-55 56 186 0
-57 56 186 0
-121 56 186 0
-187 -57 0
-187 56 58 122 0
-56 57 187 0
-58 57 187 0
-122 57 187 0
-188 -58 0
-188 57 59 123 0
-57 58 188 0
-59 58 188 0
-123 58 188 0
-189 -59 0
-189 58 60 124 0
-58 59 189 0
-60 59 189 0
-124 59 189 0
-190 -60 0
-190 59 61 125 0
-59 60 190 0
-61 60 190 0
-125 60 190 0
-191 -61 0
-191 60 62 126 0
-60 61 191 0
-62 61 191 0
-126 61 191 0
-192 -62 0
-192 61 63 127 0
-61 62 192 0
-63 62 192 0
-127 62 192 0
-193 -63 0
-193 62 64 128 0
-62 63 193 0
-64 63 193 0
-128 63 193 0
-194 -64 0
-194 63 65 129 0
-63 64 194 0
-65 64 194 0
-129 64 194 0
-195 -65 0
-195 1 64 130 0
-1 65 195 0
-64 65 195 0
-130 65 195 0
-196 -66 0
-196 1 70 127 0
-1 66 196 0
-70 66 196 0
-127 66 196 0
-197 -67 0
-197 2 71 128 0
-2 67 197 0
-71 67 197 0
-128 67 197 0
-198 -68 0
-198 3 72 129 0
-3 68 198 0
-72 68 198 0
-129 68 198 0
-199 -69 0
-199 4 73 130 0
-4 69 199 0
-73 69 199 0
-130 69 199 0
-200 -70 0
-200 5 66 74 0
-5 70 200 0
-66 70 200 0
-74 70 200 0
-201 -71 0
-201 6 67 75 0
-6 71 201 0
-67 71 201 0
-75 71 201 0
-202 -72 0
-202 7 68 76 0
-7 72 202 0
-68 72 202 0
-76 72 202 0
-203 -73 0
-203 8 69 77 0
-8 73 203 0
-69 73 203 0
-77 73 203 0
-204 -74 0
-204 9 70 78 0
-9 74 204 0
-70 74 204 0
-78 74 204 0
-205 -75 0
-205 10 71 79 0
-10 75 205 0
-71 75 205 0
-79 75 205 0
-206 -76 0
-206 11 72 80 0
-11 76 206 0
-72 76 206 0
-80 76 206 0
-207 -77 0
-207 12 73 81 0
-12 77 207 0
-73 77 207 0
-81 77 207 0
-208 -78 0
-208 13 74 82 0
-13 78 208 0
-74 78 208 0
-82 78 208 0
-209 -79 0
-209 14 75 83 0
-14 79 209 0
-75 79 209 0
-83 79 209 0
-210 -80 0
-210 15 76 84 0
-15 80 210 0
-76 80 210 0
-84 80 210 0
-211 -81 0
-211 16 77 85 0
-16 81 211 0
-77 81 211 0
-85 81 211 0
-212 -82 0
-212 17 78 86 0
-17 82 212 0
-78 82 212 0
-86 82 212 0
-213 -83 0
-213 18 79 87 0
-18 83 213 0
-79 83 213 0
-87 83 213 0
-214 -84 0
-214 19 80 88 0
-19 84 214 0
-80 84 214 0
-88 84 214 0
-215 -85 0
-215 20 81 89 0
-20 85 215 0
-81 85 215 0
-89 85 215 0
-216 -86 0
-216 21 82 90 0
-21 86 216 0
-82 86 216 0
-90 86 216 0
-217 -87 0
-217 22 83 91 0
-22 87 217 0
-83 87 217 0
-91 87 217 0
-218 -88 0
-218 23 84 92 0
-23 88 218 0
-84 88 218 0
-92 88 218 0
-219 -89 0
-219 24 85 93 0
-24 89 219 0
-85 89 219 0
-93 89 219 0
-220 -90 0
-220 25 86 94 0
-25 90 220 0
-86 90 220 0
-94 90 220 0
-221 -91 0
-221 26 87 95 0
-26 91 221 0
-87 91 221 0
-95 91 221 0
-222 -92 0
-222 27 88 96 0
-27 92 222 0
-88 92 222 0
-96 92 222 0
-223 -93 0
-223 28 89 97 0
-28 93 223 0
-89 93 223 0
-97 93 223 0
-224 -94 0
-224 29 90 98 0
-29 94 224 0
-90 94 224 0
-98 94 224 0
-225 -95 0
-225 30 91 99 0
-30 95 225 0
-91 95 225 0
-99 95 225 0
-226 -96 0
-226 31 92 100 0
-31 96 226 0
-92 96 226 0
-100 96 226 0
-227 -97 0
-227 32 93 101 0
-32 97 227 0
-93 97 227 0
-101 97 227 0
-228 -98 0
-228 33 94 102 0
-33 98 228 0
-94 98 228 0
-102 98 228 0
-229 -99 0
-229 34 95 103 0
-34 99 229 0
-95 99 229 0
-103 99 229 0
-230 -100 0
-230 35 96 104 0
-35 100 230 0
-96 100 230 0
-104 100 230 0
-231 -101 0
-231 36 97 105 0
-36 101 231 0
-97 101 231 0
-105 101 231 0
-232 -102 0
-232 37 98 106 0
-37 102 232 0
-98 102 232 0
-106 102 232 0
-233 -103 0
-233 38 99 107 0
-38 103 233 0
-99 103 233 0
-107 103 233 0
-234 -104 0
-234 39 100 108 0
-39 104 234 0
-100 104 234 0
-108 104 234 0
-235 -105 0
-235 40 101 109 0
-40 105 235 0
-101 105 235 0
-109 105 235 0
-236 -106 0
-236 41 102 110 0
-41 106 236 0
-102 106 236 0
-110 106 236 0
-237 -107 0
-237 42 103 111 0
-42 107 237 0
-103 107 237 0
-111 107 237 0
-238 -108 0
-238 43 104 112 0
-43 108 238 0
-104 108 238 0
-112 108 238 0
-239 -109 0
-239 44 105 113 0
-44 109 239 0
-105 109 239 0
-113 109 239 0
-240 -110 0
-240 45 106 114 0
-45 110 240 0
-106 110 240 0
-114 110 240 0
-241 -111 0
-241 46 107 115 0
-46 111 241 0
-107 111 241 0
-115 111 241 0
-242 -112 0
-242 47 108 116 0
-47 112 242 0
-108 112 242 0
-116 112 242 0
-243 -113 0
-243 48 109 117 0
-48 113 243 0
-109 113 243 0
-117 113 243 0
-244 -114 0
-244 49 110 118 0
-49 114 244 0
-110 114 244 0
-118 114 244 0
-245 -115 0
-245 50 111 119 0
-50 115 245 0
-111 115 245 0
-119 115 245 0
-246 -116 0
-246 51 112 120 0
-51 116 246 0
-112 116 246 0
-120 116 246 0
-247 -117 0
-247 52 113 121 0
-52 117 247 0
-113 117 247 0
-121 117 247 0
-248 -118 0
-248 53 114 122 0
-53 118 248 0
-114 118 248 0
-122 118 248 0
-249 -119 0
-249 54 115 123 0
-54 119 249 0
-115 119 249 0
-123 119 249 0
-250 -120 0
-250 55 116 124 0
-55 120 250 0
-116 120 250 0
-124 120 250 0
-251 -121 0
-251 56 117 125 0
-56 121 251 0
-117 121 251 0
-125 121 251 0
-252 -122 0
-252 57 118 126 0
-57 122 252 0
-118 122 252 0
-126 122 252 0
-253 -123 0
-253 58 119 127 0
-58 123 253 0
-119 123 253 0
-127 123 253 0
-254 -124 0
-254 59 120 128 0
-59 124 254 0
-120 124 254 0
-128 124 254 0
-255 -125 0
-255 60 121 129 0
-60 125 255 0
-121 125 255 0
-129 125 255 0
-256 -126 0
-256 61 122 130 0
-61 126 256 0
-122 126 256 0
-130 126 256 0
-257 -127 0
-257 62 66 123 0
-62 127 257 0
-66 127 257 0
-123 127 257 0
-258 -128 0
-258 63 67 124 0
-63 128 258 0
-67 128 258 0
-124 128 258 0
-259 -129 0
-259 64 68 125 0
-64 129 259 0
-68 129 259 0
-125 129 259 0
-260 -130 0
-260 65 69 126 0
-65 130 260 0
-69 130 260 0
-126 130 260 0
1 261 0
-261 262 0
2 -261 263 0
-263 264 0
3 -263 265 0
-265 266 0
4 -265 267 0
-267 268 0
5 -267 269 0
-269 270 0
6 -269 271 0
-271 272 0
7 -271 273 0
-273 274 0
8 -273 275 0
-275 276 0
9 -275 277 0
-277 278 0
10 -277 279 0
-279 280 0
11 -279 281 0
-281 282 0
12 -281 283 0
-283 284 0
13 -283 285 0
-285 286 0
14 -285 287 0
-287 288 0
15 -287 289 0
-289 290 0
16 -289 291 0
-291 292 0
17 -291 293 0
-293 294 0
18 -293 295 0
-295 296 0
19 -295 297 0
-297 298 0
20 -297 299 0
-299 300 0
21 -299 301 0
-301 302 0
22 -301 303 0
-303 304 0
23 -303 305 0
-305 306 0
24 -305 307 0
-307 308 0
25 -307 309 0
-309 310 0
26 -309 311 0
-311 312 0
27 -311 313 0
-313 314 0
28 -313 315 0
-315 316 0
29 -315 317 0
-317 318 0
30 -317 319 0
-319 320 0
31 -319 321 0
-321 322 0
32 -321 323 0
-323 324 0
33 -323 325 0
-325 326 0
34 -325 327 0
-327 328 0
35 -327 329 0
-329 330 0
36 -329 331 0
-331 332 0
37 -331 333 0
-333 334 0
38 -333 335 0
-335 336 0
39 -335 337 0
-337 338 0
40 -337 339 0
-339 340 0
41 -339 341 0
-341 342 0
42 -341 343 0
-343 344 0
43 -343 345 0
-345 346 0
44 -345 347 0
-347 348 0
45 -347 349 0
-349 350 0
46 -349 351 0
-351 352 0
47 -351 353 0
-353 354 0
48 -353 355 0
-355 356 0
49 -355 357 0
-357 358 0
50 -357 359 0
-359 360 0
51 -359 361 0
-361 362 0
52 -361 363 0
-363 364 0
53 -363 365 0
-365 366 0
54 -365 367 0
-367 368 0
55 -367 369 0
-369 370 0
56 -369 371 0
-371 372 0
57 -371 373 0
-373 374 0
58 -373 375 0
-375 376 0
59 -375 377 0
-377 378 0
60 -377 379 0
-379 380 0
61 -379 381 0
-381 382 0
62 -381 383 0
-383 384 0
63 -383 385 0
-385 386 0
64 -385 387 0
-387 388 0
65 -387 389 0
-389 390 0
66 -389 391 0
-391 392 0
67 -391 393 0
-393 394 0
68 -393 395 0
-395 396 0
69 -395 397 0
-397 398 0
70 -397 399 0
-399 400 0
71 -399 401 0
-401 402 0
72 -401 403 0
-403 404 0
73 -403 405 0
-405 406 0
74 -405 407 0
-407 408 0
75 -407 409 0
-409 410 0
76 -409 411 0
-411 412 0
77 -411 413 0
-413 414 0
78 -413 415 0
-415 416 0
79 -415 417 0
-417 418 0
80 -417 419 0
-419 420 0
81 -419 421 0
-421 422 0
82 -421 423 0
-423 424 0
83 -423 425 0
-425 426 0
84 -425 427 0
-427 428 0
85 -427 429 0
-429 430 0
86 -429 431 0
-431 432 0
87 -431 433 0
-433 434 0
88 -433 435 0
-435 436 0
89 -435 437 0
-437 438 0
90 -437 439 0
-439 440 0
91 -439 441 0
-441 442 0
92 -441 443 0
-443 444 0
93 -443 445 0
-445 446 0
94 -445 447 0
-447 448 0
95 -447 449 0
-449 450 0
96 -449 451 0
-451 452 0
97 -451 453 0
-453 454 0
98 -453 455 0
-455 456 0
99 -455 457 0
-457 458 0
100 -457 459 0
-459 460 0
101 -459 461 0
-461 462 0
102 -461 463 0
-463 464 0
103 -463 465 0
-465 466 0
104 -465 467 0
-467 468 0
105 -467 469 0
-469 470 0
106 -469 471 0
-471 472 0
107 -471 473 0
-473 474 0
108 -473 475 0
-475 476 0
109 -475 477 0
-477 478 0
110 -477 479 0
-479 480 0
111 -479 481 0
-481 482 0
112 -481 483 0
-483 484 0
113 -483 485 0
-485 486 0
114 -485 487 0
-487 488 0
115 -487 0
2 262 0
-262 489 0
3 -262 264 0
-264 490 0
4 -264 266 0
-266 491 0
5 -266 268 0
-268 492 0
6 -268 270 0
-270 493 0
7 -270 272 0
-272 494 0
8 -272 274 0
-274 495 0
9 -274 276 0
-276 496 0
10 -276 278 0
-278 497 0
11 -278 280 0
-280 498 0
12 -280 282 0
-282 499 0
13 -282 284 0
-284 500 0
14 -284 286 0
-286 501 0
15 -286 288 0
-288 502 0
16 -288 290 0
-290 503 0
17 -290 292 0
-292 504 0
18 -292 294 0
-294 505 0
19 -294 296 0
-296 506 0
20 -296 298 0
-298 507 0
21 -298 300 0
-300 508 0
22 -300 302 0
-302 509 0
23 -302 304 0
-304 510 0
24 -304 306 0
-306 511 0
25 -306 308 0
-308 512 0
26 -308 310 0
-310 513 0
27 -310 312 0
-312 514 0
28 -312 314 0
-314 515 0
29 -314 316 0
-316 516 0
30 -316 318 0
-318 517 0
31 -318 320 0
-320 518 0
32 -320 322 0
-322 519 0
33 -322 324 0
-324 520 0
34 -324 326 0
-326 521 0
35 -326 328 0
-328 522 0
36 -328 330 0
-330 523 0
37 -330 332 0
-332 524 0
38 -332 334 0
-334 525 0
39 -334 336 0
-336 526 0
40 -336 338 0
-338 527 0
41 -338 340 0
-340 528 0
42 -340 342 0
-342 529 0
43 -342 344 0
-344 530 0
44 -344 346 0
-346 531 0
45 -346 348 0
-348 532 0
46 -348 350 0
-350 533 0
47 -350 352 0
-352 534 0
48 -352 354 0
-354 535 0
49 -354 356 0
-356 536 0
50 -356 358 0
-358 537 0
51 -358 360 0
-360 538 0
52 -360 362 0
-362 539 0
53 -362 364 0
-364 540 0
54 -364 366 0
-366 541 0
55 -366 368 0
-368 542 0
56 -368 370 0
-370 543 0
57 -370 372 0
-372 544 0
58 -372 374 0
-374 545 0
59 -374 376 0
-376 546 0
60 -376 378 0
-378 547 0
61 -378 380 0
-380 548 0
62 -380 382 0
-382 549 0
63 -382 384 0
-384 550 0
64 -384 386 0
-386 551 0
65 -386 388 0
-388 552 0
66 -388 390 0
-390 553 0
67 -390 392 0
-392 554 0
68 -392 394 0
-394 555 0
69 -394 396 0
-396 556 0
70 -396 398 0
-398 557 0
71 -398 400 0
-400 558 0
72 -400 402 0
-402 559 0
73 -402 404 0
-404 560 0
74 -404 406 0
-406 561 0
75 -406 408 0
-408 562 0
76 -408 410 0
-410 563 0
77 -410 412 0
-412 564 0
78 -412 414 0
-414 565 0
79 -414 416 0
-416 566 0
80 -416 418 0
-418 567 0
81 -418 420 0
-420 568 0
82 -420 422 0
-422 569 0
83 -422 424 0
-424 570 0
84 -424 426 0
-426 571 0
85 -426 428 0
-428 572 0
86 -428 430 0
-430 573 0
87 -430 432 0
-432 574 0
88 -432 434 0
-434 575 0
89 -434 436 0
-436 576 0
90 -436 438 0
-438 577 0
91 -438 440 0
-440 578 0
92 -440 442 0
-442 579 0
93 -442 444 0
-444 580 0
94 -444 446 0
-446 581 0
95 -446 448 0
-448 582 0
96 -448 450 0
-450 583 0
97 -450 452 0
-452 584 0
98 -452 454 0
-454 585 0
99 -454 456 0
-456 586 0
100 -456 458 0
-458 587 0
101 -458 460 0
-460 588 0
102 -460 462 0
-462 589 0
103 -462 464 0
-464 590 0
104 -464 466 0
-466 591 0
105 -466 468 0
-468 592 0
106 -468 470 0
-470 593 0
107 -470 472 0
-472 594 0
108 -472 474 0
-474 595 0
109 -474 476 0
-476 596 0
110 -476 478 0
-478 597 0
111 -478 480 0
-480 598 0
112 -480 482 0
-482 599 0
113 -482 484 0
-484 600 0
114 -484 486 0
-486 601 0
115 -486 488 0
-488 602 0
116 -488 0
3 489 0
-489 603 0
4 -489 490 0
-490 604 0
5 -490 491 0
-491 605 0
6 -491 492 0
-492 606 0
7 -492 493 0
-493 607 0
8 -493 494 0
-494 608 0
9 -494 495 0
-495 609 0
10 -495 496 0
-496 610 0
11 -496 497 0
-497 611 0
12 -497 498 0
-498 612 0
13 -498 499 0
-499 613 0
14 -499 500 0
-500 614 0
15 -500 501 0
-501 615 0
16 -501 502 0
-502 616 0
17 -502 503 0
-503 617 0
18 -503 504 0
-504 618 0
19 -504 505 0
-505 619 0
20 -505 506 0
-506 620 0
21 -506 507 0
-507 621 0
22 -507 508 0
-508 622 0
23 -508 509 0
-509 623 0
24 -509 510 0
-510 624 0
25 -510 511 0
-511 625 0
26 -511 512 0
-512 626 0
27 -512 513 0
-513 627 0
28 -513 514 0
-514 628 0
29 -514 515 0
-515 629 0
30 -515 516 0
-516 630 0
31 -516 517 0
-517 631 0
32 -517 518 0
-518 632 0
33 -518 519 0
-519 633 0
34 -519 520 0
-520 634 0
35 -520 521 0
-521 635 0
36 -521 522 0
-522 636 0
37 -522 523 0
-523 637 0
38 -523 524 0
-524 638 0
39 -524 525 0
-525 639 0
40 -525 526 0
-526 640 0
41 -526 527 0
-527 641 0
42 -527 528 0
-528 642 0
43 -528 529 0
-529 643 0
44 -529 530 0
-530 644 0
45 -530 531 0
-531 645 0
46 -531 532 0
-532 646 0
47 -532 533 0
-533 647 0
48 -533 534 0
-534 648 0
49 -534 535 0
-535 649 0
50 -535 536 0
-536 650 0
51 -536 537 0
-537 651 0
52 -537 538 0
-538 652 0
53 -538 539 0
-539 653 0
54 -539 540 0
-540 654 0
55 -540 541 0
-541 655 0
56 -541 542 0
-542 656 0
57 -542 543 0
-543 657 0
58 -543 544 0
-544 658 0
59 -544 545 0
-545 659 0
60 -545 546 0
-546 660 0
61 -546 547 0
-547 661 0
62 -547 548 0
-548 662 0
63 -548 549 0
-549 663 0
64 -549 550 0
-550 664 0
65 -550 551 0
-551 665 0
66 -551 552 0
-552 666 0
67 -552 553 0
-553 667 0
68 -553 554 0
-554 668 0
69 -554 555 0
-555 669 0
70 -555 556 0
-556 670 0
71 -556 557 0
-557 671 0
72 -557 558 0
-558 672 0
73 -558 559 0
-559 673 0
74 -559 560 0
-560 674 0
75 -560 561 0
-561 675 0
76 -561 562 0
-562 676 0
77 -562 563 0
-563 677 0
78 -563 564 0
-564 678 0
79 -564 565 0
-565 679 0
80 -565 566 0
-566 680 0
81 -566 567 0
-567 681 0
82 -567 568 0
-568 682 0
83 -568 569 0
-569 683 0
84 -569 570 0
-570 684 0
85 -570 571 0
-571 685 0
86 -571 572 0
-572 686 0
87 -572 573 0
-573 687 0
88 -573 574 0
-574 688 0
89 -574 575 0
-575 689 0
90 -575 576 0
-576 690 0
91 -576 577 0
-577 691 0
92 -577 578 0
-578 692 0
93 -578 579 0
-579 693 0
94 -579 580 0
-580 694 0
95 -580 581 0
-581 695 0
96 -581 582 0
-582 696 0
97 -582 583 0
-583 697 0
98 -583 584 0
-584 698 0
99 -584 585 0
-585 699 0
100 -585 586 0
-586 700 0
101 -586 587 0
-587 701 0
102 -587 588 0
-588 702 0
103 -588 589 0
-589 703 0
104 -589 590 0
-590 704 0
105 -590 591 0
-591 705 0
106 -591 592 0
-592 706 0
107 -592 593 0
-593 707 0
108 -593 594 0
-594 708 0
109 -594 595 0
-595 709 0
110 -595 596 0
-596 710 0
111 -596 597 0
-597 711 0
112 -597 598 0
-598 712 0
113 -598 599 0
-599 713 0
114 -599 600 0
-600 714 0
115 -600 601 0
-601 715 0
116 -601 602 0
-602 716 0
117 -602 0
4 603 0
-603 717 0
5 -603 604 0
-604 718 0
6 -604 605 0
-605 719 0
7 -605 606 0
-606 720 0
8 -606 607 0
-607 721 0
9 -607 608 0
-608 722 0
10 -608 609 0
-609 723 0
11 -609 610 0
-610 724 0
12 -610 611 0
-611 725 0
13 -611 612 0
-612 726 0
14 -612 613 0
-613 727 0
15 -613 614 0
-614 728 0
16 -614 615 0
-615 729 0
17 -615 616 0
-616 730 0
18 -616 617 0
-617 731 0
19 -617 618 0
-618 732 0
20 -618 619 0
-619 733 0
21 -619 620 0
-620 734 0
22 -620 621 0
-621 735 0
23 -621 622 0
-622 736 0
24 -622 623 0
-623 737 0
25 -623 624 0
-624 738 0
26 -624 625 0
-625 739 0
27 -625 626 0
-626 740 0
28 -626 627 0
-627 741 0
29 -627 628 0
-628 742 0
30 -628 629 0
-629 743 0
31 -629 630 0
-630 744 0
32 -630 631 0
-631 745 0
33 -631 632 0
-632 746 0
34 -632 633 0
-633 747 0
35 -633 634 0
-634 748 0
36 -634 635 0
-635 749 0
37 -635 636 0
-636 750 0
38 -636 637 0
-637 751 0
39 -637 638 0
-638 752 0
40 -638 639 0
-639 753 0
41 -639 640 0
-640 754 0
42 -640 641 0
-641 755 0
43 -641 642 0
-642 756 0
44 -642 643 0
-643 757 0
45 -643 644 0
-644 758 0
46 -644 645 0
-645 759 0
47 -645 646 0
-646 760 0
48 -646 647 0
-647 761 0
49 -647 648 0
-648 762 0
50 -648 649 0
-649 763 0
51 -649 650 0
-650 764 0
52 -650 651 0
-651 765 0
53 -651 652 0
-652 766 0
54 -652 653 0
-653 767 0
55 -653 654 0
-654 768 0
56 -654 655 0
-655 769 0
57 -655 656 0
-656 770 0
58 -656 657 0
-657 771 0
59 -657 658 0
-658 772 0
60 -658 659 0
-659 773 0
61 -659 660 0
-660 774 0
62 -660 661 0
-661 775 0
63 -661 662 0
-662 776 0
64 -662 663 0
-663 777 0
65 -663 664 0
-664 778 0
66 -664 665 0
-665 779 0
67 -665 666 0
-666 780 0
68 -666 667 0
-667 781 0
69 -667 668 0
-668 782 0
70 -668 669 0
-669 783 0
71 -669 670 0
-670 784 0
72 -670 671 0
-671 785 0
73 -671 672 0
-672 786 0
74 -672 673 0
-673 787 0
75 -673 674 0
-674 788 0
76 -674 675 0
-675 789 0
77 -675 676 0
-676 790 0
78 -676 677 0
-677 791 0
79 -677 678 0
-678 792 0
80 -678 679 0
-679 793 0
81 -679 680 0
-680 794 0
82 -680 681 0
-681 795 0
83 -681 682 0
-682 796 0
84 -682 683 0
-683 797 0
85 -683 684 0
-684 798 0
86 -684 685 0
-685 799 0
87 -685 686 0
-686 800 0
88 -686 687 0
-687 801 0
89 -687 688 0
-688 802 0
90 -688 689 0
-689 803 0
91 -689 690 0
-690 804 0
92 -690 691 0
-691 805 0
93 -691 692 0
-692 806 0
94 -692 693 0
-693 807 0
95 -693 694 0
-694 808 0
96 -694 695 0
-695 809 0
97 -695 696 0
-696 810 0
98 -696 697 0
-697 811 0
99 -697 698 0
-698 812 0
100 -698 699 0
-699 813 0
101 -699 700 0
-700 814 0
102 -700 701 0
-701 815 0
103 -701 702 0
-702 816 0
104 -702 703 0
-703 817 0
105 -703 704 0
-704 818 0
106 -704 705 0
-705 819 0
107 -705 706 0
-706 820 0
108 -706 707 0
-707 821 0
109 -707 708 0
-708 822 0
110 -708 709 0
-709 823 0
111 -709 710 0
-710 824 0
112 -710 711 0
-711 825 0
113 -711 712 0
-712 826 0
114 -712 713 0
-713 827 0
115 -713 714 0
-714 828 0
116 -714 715 0
-715 829 0
117 -715 716 0
-716 830 0
118 -716 0
5 717 0
-717 831 0
6 -717 718 0
-718 832 0
7 -718 719 0
-719 833 0
8 -719 720 0
-720 834 0
9 -720 721 0
-721 835 0
10 -721 722 0
-722 836 0
11 -722 723 0
-723 837 0
12 -723 724 0
-724 838 0
13 -724 725 0
-725 839 0
14 -725 726 0
-726 840 0
15 -726 727 0
-727 841 0
16 -727 728 0
-728 842 0
17 -728 729 0
-729 843 0
18 -729 730 0
-730 844 0
19 -730 731 0
-731 845 0
20 -731 732 0
-732 846 0
21 -732 733 0
-733 847 0
22 -733 734 0
-734 848 0
23 -734 735 0
-735 849 0
24 -735 736 0
-736 850 0
25 -736 737 0
-737 851 0
26 -737 738 0
-738 852 0
27 -738 739 0
-739 853 0
28 -739 740 0
-740 854 0
29 -740 741 0
-741 855 0
30 -741 742 0
-742 856 0
31 -742 743 0
-743 857 0
32 -743 744 0
-744 858 0
33 -744 745 0
-745 859 0
34 -745 746 0
-746 860 0
35 -746 747 0
-747 861 0
36 -747 748 0
-748 862 0
37 -748 749 0
-749 863 0
38 -749 750 0
-750 864 0
39 -750 751 0
-751 865 0
40 -751 752 0
-752 866 0
41 -752 753 0
-753 867 0
42 -753 754 0
-754 868 0
43 -754 755 0
-755 869 0
44 -755 756 0
-756 870 0
45 -756 757 0
-757 871 0
46 -757 758 0
-758 872 0
47 -758 759 0
-759 873 0
48 -759 760 0
-760 874 0
49 -760 761 0
-761 875 0
50 -761 762 0
-762 876 0
51 -762 763 0
-763 877 0
52 -763 764 0
-764 878 0
53 -764 765 0
-765 879 0
54 -765 766 0
-766 880 0
55 -766 767 0
-767 881 0
56 -767 768 0
-768 882 0
57 -768 769 0
-769 883 0
58 -769 770 0
-770 884 0
59 -770 771 0
-771 885 0
60 -771 772 0
-772 886 0
61 -772 773 0
-773 887 0
62 -773 774 0
-774 888 0
63 -774 775 0
-775 889 0
64 -775 776 0
-776 890 0
65 -776 777 0
-777 891 0
66 -777 778 0
-778 892 0
67 -778 779 0
-779 893 0
68 -779 780 0
-780 894 0
69 -780 781 0
-781 895 0
70 -781 782 0
-782 896 0
71 -782 783 0
-783 897 0
72 -783 784 0
-784 898 0
73 -784 785 0
-785 899 0
74 -785 786 0
-786 900 0
75 -786 787 0
-787 901 0
76 -787 788 0
-788 902 0
77 -788 789 0
-789 903 0
78 -789 790 0
-790 904 0
79 -790 791 0
-791 905 0
80 -791 792 0
-792 906 0
81 -792 793 0
-793 907 0
82 -793 794 0
-794 908 0
83 -794 795 0
-795 909 0
84 -795 796 0
-796 910 0
85 -796 797 0
-797 911 0
86 -797 798 0
-798 912 0
87 -798 799 0
-799 913 0
88 -799 800 0
-800 914 0
89 -800 801 0
-801 915 0
90 -801 802 0
-802 916 0
91 -802 803 0
-803 917 0
92 -803 804 0
-804 918 0
93 -804 805 0
-805 919 0
94 -805 806 0
-806 920 0
95 -806 807 0
-807 921 0
96 -807 808 0
-808 922 0
97 -808 809 0
-809 923 0
98 -809 810 0
-810 924 0
99 -810 811 0
-811 925 0
100 -811 812 0
-812 926 0
101 -812 813 0
-813 927 0
102 -813 814 0
-814 928 0
103 -814 815 0
-815 929 0
104 -815 816 0
-816 930 0
105 -816 817 0
-817 931 0
106 -817 818 0
-818 932 0
107 -818 819 0
-819 933 0
108 -819 820 0
-820 934 0
109 -820 821 0
-821 935 0
110 -821 822 0
-822 936 0
111 -822 823 0
-823 937 0
112 -823 824 0
-824 938 0
113 -824 825 0
-825 939 0
114 -825 826 0
-826 940 0
115 -826 827 0
-827 941 0
116 -827 828 0
-828 942 0
117 -828 829 0
-829 943 0
118 -829 830 0
-830 944 0
119 -830 0
6 831 0
-831 945 0
7 -831 832 0
-832 946 0
8 -832 833 0
-833 947 0
9 -833 834 0
-834 948 0
10 -834 835 0
-835 949 0
11 -835 836 0
-836 950 0
12 -836 837 0
-837 951 0
13 -837 838 0
-838 952 0
14 -838 839 0
-839 953 0
15 -839 840 0
-840 954 0
16 -840 841 0
-841 955 0
17 -841 842 0
-842 956 0
18 -842 843 0
-843 957 0
19 -843 844 0
-844 958 0
20 -844 845 0
-845 959 0
21 -845 846 0
-846 960 0
22 -846 847 0
-847 961 0
23 -847 848 0
-848 962 0
24 -848 849 0
-849 963 0
25 -849 850 0
-850 964 0
26 -850 851 0
-851 965 0
27 -851 852 0
-852 966 0
28 -852 853 0
-853 967 0
29 -853 854 0
-854 968 0
30 -854 855 0
-855 969 0
31 -855 856 0
-856 970 0
32 -856 857 0
-857 971 0
33 -857 858 0
-858 972 0
34 -858 859 0
-859 973 0
35 -859 860 0
-860 974 0
36 -860 861 0
-861 975 0
37 -861 862 0
-862 976 0
38 -862 863 0
-863 977 0
39 -863 864 0
-864 978 0
40 -864 865 0
-865 979 0
41 -865 866 0
-866 980 0
42 -866 867 0
-867 981 0
43 -867 868 0
-868 982 0
44 -868 869 0
-869 983 0
45 -869 870 0
-870 984 0
46 -870 871 0
-871 985 0
47 -871 872 0
-872 986 0
48 -872 873 0
-873 987 0
49 -873 874 0
-874 988 0
50 -874 875 0
-875 989 0
51 -875 876 0
-876 990 0
52 -876 877 0
-877 991 0
53 -877 878 0
-878 992 0
54 -878 879 0
-879 993 0
55 -879 880 0
-880 994 0
56 -880 881 0
-881 995 0
57 -881 882 0
-882 996 0
58 -882 883 0
-883 997 0
59 -883 884 0
-884 998 0
60 -884 885 0
-885 999 0
61 -885 886 0
-886 1000 0
62 -886 887 0
-887 1001 0
63 -887 888 0
-888 1002 0
64 -888 889 0
-889 1003 0
65 -889 890 0
-890 1004 0
66 -890 891 0
-891 1005 0
67 -891 892 0
-892 1006 0
68 -892 893 0
-893 1007 0
69 -893 894 0
-894 1008 0
70 -894 895 0
-895 1009 0
71 -895 896 0
-896 1010 0
72 -896 897 0
-897 1011 0
73 -897 898 0
-898 1012 0
74 -898 899 0
-899 1013 0
75 -899 900 0
-900 1014 0
76 -900 901 0
-901 1015 0
77 -901 902 0
-902 1016 0
78 -902 903 0
-903 1017 0
79 -903 904 0
-904 1018 0
80 -904 905 0
-905 1019 0
81 -905 906 0
-906 1020 0
82 -906 907 0
-907 1021 0
83 -907 908 0
-908 1022 0
84 -908 909 0
-909 1023 0
85 -909 910 0
-910 1024 0
86 -910 911 0
-911 1025 0
87 -911 912 0
-912 1026 0
88 -912 913 0
-913 1027 0
89 -913 914 0
-914 1028 0
90 -914 915 0
-915 1029 0
91 -915 916 0
-916 1030 0
92 -916 917 0
-917 1031 0
93 -917 918 0
-918 1032 0
94 -918 919 0
-919 1033 0
95 -919 920 0
-920 1034 0
96 -920 921 0
-921 1035 0
97 -921 922 0
-922 1036 0
98 -922 923 0
-923 1037 0
99 -923 924 0
-924 1038 0
100 -924 925 0
-925 1039 0
101 -925 926 0
-926 1040 0
102 -926 927 0
-927 1041 0
103 -927 928 0
-928 1042 0
104 -928 929 0
-929 1043 0
105 -929 930 0
-930 1044 0
106 -930 931 0
-931 1045 0
107 -931 932 0
-932 1046 0
108 -932 933 0
-933 1047 0
109 -933 934 0
-934 1048 0
110 -934 935 0
-935 1049 0
111 -935 936 0
-936 1050 0
112 -936 937 0
-937 1051 0
113 -937 938 0
-938 1052 0
114 -938 939 0
-939 1053 0
115 -939 940 0
-940 1054 0
116 -940 941 0
-941 1055 0
117 -941 942 0
-942 1056 0
118 -942 943 0
-943 1057 0
119 -943 944 0
-944 1058 0
120 -944 0
7 945 0
-945 1059 0
8 -945 946 0
-946 1060 0
9 -946 947 0
-947 1061 0
10 -947 948 0
-948 1062 0
11 -948 949 0
-949 1063 0
12 -949 950 0
-950 1064 0
13 -950 951 0
-951 1065 0
14 -951 952 0
-952 1066 0
15 -952 953 0
-953 1067 0
16 -953 954 0
-954 1068 0
17 -954 955 0
-955 1069 0
18 -955 956 0
-956 1070 0
19 -956 957 0
-957 1071 0
20 -957 958 0
-958 1072 0
21 -958 959 0
-959 1073 0
22 -959 960 0
-960 1074 0
23 -960 961 0
-961 1075 0
24 -961 962 0
-962 1076 0
25 -962 963 0
-963 1077 0
26 -963 964 0
-964 1078 0
27 -964 965 0
-965 1079 0
28 -965 966 0
-966 1080 0
29 -966 967 0
-967 1081 0
30 -967 968 0
-968 1082 0
31 -968 969 0
-969 1083 0
32 -969 970 0
-970 1084 0
33 -970 971 0
-971 1085 0
34 -971 972 0
-972 1086 0
35 -972 973 0
-973 1087 0
36 -973 974 0
-974 1088 0
37 -974 975 0
-975 1089 0
38 -975 976 0
-976 1090 0
39 -976 977 0
-977 1091 0
40 -977 978 0
-978 1092 0
41 -978 979 0
-979 1093 0
42 -979 980 0
-980 1094 0
43 -980 981 0
-981 1095 0
44 -981 982 0
-982 1096 0
45 -982 983 0
-983 1097 0
46 -983 984 0
-984 1098 0
47 -984 985 0
-985 1099 0
48 -985 986 0
-986 1100 0
49 -986 987 0
-987 1101 0
50 -987 988 0
-988 1102 0
51 -988 989 0
-989 1103 0
52 -989 990 0
-990 1104 0
53 -990 991 0
-991 1105 0
54 -991 992 0
-992 1106 0
55 -992 993 0
-993 1107 0
56 -993 994 0
-994 1108 0
57 -994 995 0
-995 1109 0
58 -995 996 0
-996 1110 0
59 -996 997 0
-997 1111 0
60 -997 998 0
-998 1112 0
61 -998 999 0
-999 1113 0
62 -999 1000 0
-1000 1114 0
63 -1000 1001 0
-1001 1115 0
64 -1001 1002 0
-1002 1116 0
65 -1002 1003 0
-1003 1117 0
66 -1003 1004 0
-1004 1118 0
67 -1004 1005 0
-1005 1119 0
68 -1005 1006 0
-1006 1120 0
69 -1006 1007 0
-1007 1121 0
70 -1007 1008 0
-1008 1122 0
71 -1008 1009 0
-1009 1123 0
72 -1009 1010 0
-1010 1124 0
73 -1010 1011 0
-1011 1125 0
74 -1011 1012 0
-1012 1126 0
75 -1012 1013 0
-1013 1127 0
76 -1013 1014 0
-1014 1128 0
77 -1014 1015 0
-1015 1129 0
78 -1015 1016 0
-1016 1130 0
79 -1016 1017 0
-1017 1131 0
80 -1017 1018 0
-1018 1132 0
81 -1018 1019 0
-1019 1133 0
82 -1019 1020 0
-1020 1134 0
83 -1020 1021 0
-1021 1135 0
84 -1021 1022 0
-1022 1136 0
85 -1022 1023 0
-1023 1137 0
86 -1023 1024 0
-1024 1138 0
87 -1024 1025 0
-1025 1139 0
88 -1025 1026 0
-1026 1140 0
89 -1026 1027 0
-1027 1141 0
90 -1027 1028 0
-1028 1142 0
91 -1028 1029 0
-1029 1143 0
92 -1029 1030 0
-1030 1144 0
93 -1030 1031 0
-1031 1145 0
94 -1031 1032 0
-1032 1146 0
95 -1032 1033 0
-1033 1147 0
96 -1033 1034 0
-1034 1148 0
97 -1034 1035 0
-1035 1149 0
98 -1035 1036 0
-1036 1150 0
99 -1036 1037 0
-1037 1151 0
100 -1037 1038 0
-1038 1152 0
101 -1038 1039 0
-1039 1153 0
102 -1039 1040 0
-1040 1154 0
103 -1040 1041 0
-1041 1155 0
104 -1041 1042 0
-1042 1156 0
105 -1042 1043 0
-1043 1157 0
106 -1043 1044 0
-1044 1158 0
107 -1044 1045 0
-1045 1159 0
108 -1045 1046 0
-1046 1160 0
109 -1046 1047 0
-1047 1161 0
110 -1047 1048 0
-1048 1162 0
111 -1048 1049 0
-1049 1163 0
112 -1049 1050 0
-1050 1164 0
113 -1050 1051 0
-1051 1165 0
114 -1051 1052 0
-1052 1166 0
115 -1052 1053 0
-1053 1167 0
116 -1053 1054 0
-1054 1168 0
117 -1054 1055 0
-1055 1169 0
118 -1055 1056 0
-1056 1170 0
119 -1056 1057 0
-1057 1171 0
120 -1057 1058 0
-1058 1172 0
121 -1058 0
8 1059 0
-1059 1173 0
9 -1059 1060 0
-1060 1174 0
10 -1060 1061 0
-1061 1175 0
11 -1061 1062 0
-1062 1176 0
12 -1062 1063 0
-1063 1177 0
13 -1063 1064 0
-1064 1178 0
14 -1064 1065 0
-1065 1179 0
15 -1065 1066 0
-1066 1180 0
16 -1066 1067 0
-1067 1181 0
17 -1067 1068 0
-1068 1182 0
18 -1068 1069 0
-1069 1183 0
19 -1069 1070 0
-1070 1184 0
20 -1070 1071 0
-1071 1185 0
21 -1071 1072 0
-1072 1186 0
22 -1072 1073 0
-1073 1187 0
23 -1073 1074 0
-1074 1188 0
24 -1074 1075 0
-1075 1189 0
25 -1075 1076 0
-1076 1190 0
26 -1076 1077 0
-1077 1191 0
27 -1077 1078 0
-1078 1192 0
28 -1078 1079 0
-1079 1193 0
29 -1079 1080 0
-1080 1194 0
30 -1080 1081 0
-1081 1195 0
31 -1081 1082 0
-1082 1196 0
32 -1082 1083 0
-1083 1197 0
33 -1083 1084 0
-1084 1198 0
34 -1084 1085 0
-1085 1199 0
35 -1085 1086 0
-1086 1200 0
36 -1086 1087 0
-1087 1201 0
37 -1087 1088 0
-1088 1202 0
38 -1088 1089 0
-1089 1203 0
39 -1089 1090 0
-1090 1204 0
40 -1090 1091 0
-1091 1205 0
41 -1091 1092 0
-1092 1206 0
42 -1092 1093 0
-1093 1207 0
43 -1093 1094 0
-1094 1208 0
44 -1094 1095 0
-1095 1209 0
45 -1095 1096 0
-1096 1210 0
46 -1096 1097 0
-1097 1211 0
47 -1097 1098 0
-1098 1212 0
48 -1098 1099 0
-1099 1213 0
49 -1099 1100 0
-1100 1214 0
50 -1100 1101 0
-1101 1215 0
51 -1101 1102 0
-1102 1216 0
52 -1102 1103 0
-1103 1217 0
53 -1103 1104 0
-1104 1218 0
54 -1104 1105 0
-1105 1219 0
55 -1105 1106 0
-1106 1220 0
56 -1106 1107 0
-1107 1221 0
57 -1107 1108 0
-1108 1222 0
58 -1108 1109 0
-1109 1223 0
59 -1109 1110 0
-1110 1224 0
60 -1110 1111 0
-1111 1225 0
61 -1111 1112 0
-1112 1226 0
62 -1112 1113 0
-1113 1227 0
63 -1113 1114 0
-1114 1228 0
64 -1114 1115 0
-1115 1229 0
65 -1115 1116 0
-1116 1230 0
66 -1116 1117 0
-1117 1231 0
67 -1117 1118 0
-1118 1232 0
68 -1118 1119 0
-1119 1233 0
69 -1119 1120 0
-1120 1234 0
70 -1120 1121 0
-1121 1235 0
71 -1121 1122 0
-1122 1236 0
72 -1122 1123 0
-1123 1237 0
73 -1123 1124 0
-1124 1238 0
74 -1124 1125 0
-1125 1239 0
75 -1125 1126 0
-1126 1240 0
76 -1126 1127 0
-1127 1241 0
77 -1127 1128 0
-1128 1242 0
78 -1128 1129 0
-1129 1243 0
79 -1129 1130 0
-1130 1244 0
80 -1130 1131 0
-1131 1245 0
81 -1131 1132 0
-1132 1246 0
82 -1132 1133 0
-1133 1247 0
83 -1133 1134 0
-1134 1248 0
84 -1134 1135 0
-1135 1249 0
85 -1135 1136 0
-1136 1250 0
86 -1136 1137 0
-1137 1251 0
87 -1137 1138 0
-1138 1252 0
88 -1138 1139 0
-1139 1253 0
89 -1139 1140 0
-1140 1254 0
90 -1140 1141 0
-1141 1255 0
91 -1141 1142 0
-1142 1256 0
92 -1142 1143 0
-1143 1257 0
93 -1143 1144 0
-1144 1258 0
94 -1144 1145 0
-1145 1259 0
95 -1145 1146 0
-1146 1260 0
96 -1146 1147 0
-1147 1261 0
97 -1147 1148 0
-1148 1262 0
98 -1148 1149 0
-1149 1263 0
99 -1149 1150 0
-1150 1264 0
100 -1150 1151 0
-1151 1265 0
101 -1151 1152 0
-1152 1266 0
102 -1152 1153 0
-1153 1267 0
103 -1153 1154 0
-1154 1268 0
104 -1154 1155 0
-1155 1269 0
105 -1155 1156 0
-1156 1270 0
106 -1156 1157 0
-1157 1271 0
107 -1157 1158 0
-1158 1272 0
108 -1158 1159 0
-1159 1273 0
109 -1159 1160 0
-1160 1274 0
110 -1160 1161 0
-1161 1275 0
111 -1161 1162 0
-1162 1276 0
112 -1162 1163 0
-1163 1277 0
113 -1163 1164 0
-1164 1278 0
114 -1164 1165 0
-1165 1279 0
115 -1165 1166 0
-1166 1280 0
116 -1166 1167 0
-1167 1281 0
117 -1167 1168 0
-1168 1282 0
118 -1168 1169 0
-1169 1283 0
119 -1169 1170 0
-1170 1284 0
120 -1170 1171 0
-1171 1285 0
121 -1171 1172 0
-1172 1286 0
122 -1172 0
9 1173 0
-1173 1287 0
10 -1173 1174 0
-1174 1288 0
11 -1174 1175 0
-1175 1289 0
12 -1175 1176 0
-1176 1290 0
13 -1176 1177 0
-1177 1291 0
14 -1177 1178 0
-1178 1292 0
15 -1178 1179 0
-1179 1293 0
16 -1179 1180 0
-1180 1294 0
17 -1180 1181 0
-1181 1295 0
18 -1181 1182 0
-1182 1296 0
19 -1182 1183 0
-1183 1297 0
20 -1183 1184 0
-1184 1298 0
21 -1184 1185 0
-1185 1299 0
22 -1185 1186 0
-1186 1300 0
23 -1186 1187 0
-1187 1301 0
24 -1187 1188 0
-1188 1302 0
25 -1188 1189 0
-1189 1303 0
26 -1189 1190 0
-1190 1304 0
27 -1190 1191 0
-1191 1305 0
28 -1191 1192 0
-1192 1306 0
29 -1192 1193 0
-1193 1307 0
30 -1193 1194 0
-1194 1308 0
31 -1194 1195 0
-1195 1309 0
32 -1195 1196 0
-1196 1310 0
33 -1196 1197 0
-1197 1311 0
34 -1197 1198 0
-1198 1312 0
35 -1198 1199 0
-1199 1313 0
36 -1199 1200 0
-1200 1314 0
37 -1200 1201 0
-1201 1315 0
38 -1201 1202 0
-1202 1316 0
39 -1202 1203 0
-1203 1317 0
40 -1203 1204 0
-1204 1318 0
41 -1204 1205 0
-1205 1319 0
42 -1205 1206 0
-1206 1320 0
43 -1206 1207 0
-1207 1321 0
44 -1207 1208 0
-1208 1322 0
45 -1208 1209 0
-1209 1323 0
46 -1209 1210 0
-1210 1324 0
47 -1210 1211 0
-1211 1325 0
48 -1211 1212 0
-1212 1326 0
49 -1212 1213 0
-1213 1327 0
50 -1213 1214 0
-1214 1328 0
51 -1214 1215 0
-1215 1329 0
52 -1215 1216 0
-1216 1330 0
53 -1216 1217 0
-1217 1331 0
54 -1217 1218 0
-1218 1332 0
55 -1218 1219 0
-1219 1333 0
56 -1219 1220 0
-1220 1334 0
57 -1220 1221 0
-1221 1335 0
58 -1221 1222 0
-1222 1336 0
59 -1222 1223 0
-1223 1337 0
60 -1223 1224 0
-1224 1338 0
61 -1224 1225 0
-1225 1339 0
62 -1225 1226 0
-1226 1340 0
63 -1226 1227 0
-1227 1341 0
64 -1227 1228 0
-1228 1342 0
65 -1228 1229 0
-1229 1343 0
66 -1229 1230 0
-1230 1344 0
67 -1230 1231 0
-1231 1345 0
68 -1231 1232 0
-1232 1346 0
69 -1232 1233 0
-1233 1347 0
70 -1233 1234 0
-1234 1348 0
71 -1234 1235 0
-1235 1349 0
72 -1235 1236 0
-1236 1350 0
73 -1236 1237 0
-1237 1351 0
74 -1237 1238 0
-1238 1352 0
75 -1238 1239 0
-1239 1353 0
76 -1239 1240 0
-1240 1354 0
77 -1240 1241 0
-1241 1355 0
78 -1241 1242 0
-1242 1356 0
79 -1242 1243 0
-1243 1357 0
80 -1243 1244 0
-1244 1358 0
81 -1244 1245 0
-1245 1359 0
82 -1245 1246 0
-1246 1360 0
83 -1246 1247 0
-1247 1361 0
84 -1247 1248 0
-1248 1362 0
85 -1248 1249 0
-1249 1363 0
86 -1249 1250 0
-1250 1364 0
87 -1250 1251 0
-1251 1365 0
88 -1251 1252 0
-1252 1366 0
89 -1252 1253 0
-1253 1367 0
90 -1253 1254 0
-1254 1368 0
91 -1254 1255 0
-1255 1369 0
92 -1255 1256 0
-1256 1370 0
93 -1256 1257 0
-1257 1371 0
94 -1257 1258 0
-1258 1372 0
95 -1258 1259 0
-1259 1373 0
96 -1259 1260 0
-1260 1374 0
97 -1260 1261 0
-1261 1375 0
98 -1261 1262 0
-1262 1376 0
99 -1262 1263 0
-1263 1377 0
100 -1263 1264 0
-1264 1378 0
101 -1264 1265 0
-1265 1379 0
102 -1265 1266 0
-1266 1380 0
103 -1266 1267 0
-1267 1381 0
104 -1267 1268 0
-1268 1382 0
105 -1268 1269 0
-1269 1383 0
106 -1269 1270 0
-1270 1384 0
107 -1270 1271 0
-1271 1385 0
108 -1271 1272 0
-1272 1386 0
109 -1272 1273 0
-1273 1387 0
110 -1273 1274 0
-1274 1388 0
111 -1274 1275 0
-1275 1389 0
112 -1275 1276 0
-1276 1390 0
113 -1276 1277 0
-1277 1391 0
114 -1277 1278 0
-1278 1392 0
115 -1278 1279 0
-1279 1393 0
116 -1279 1280 0
-1280 1394 0
117 -1280 1281 0
-1281 1395 0
118 -1281 1282 0
-1282 1396 0
119 -1282 1283 0
-1283 1397 0
120 -1283 1284 0
-1284 1398 0
121 -1284 1285 0
-1285 1399 0
122 -1285 1286 0
-1286 1400 0
123 -1286 0
10 1287 0
-1287 1401 0
11 -1287 1288 0
-1288 1402 0
12 -1288 1289 0
-1289 1403 0
13 -1289 1290 0
-1290 1404 0
14 -1290 1291 0
-1291 1405 0
15 -1291 1292 0
-1292 1406 0
16 -1292 1293 0
-1293 1407 0
17 -1293 1294 0
-1294 1408 0
18 -1294 1295 0
-1295 1409 0
19 -1295 1296 0
-1296 1410 0
20 -1296 1297 0
-1297 1411 0
21 -1297 1298 0
-1298 1412 0
22 -1298 1299 0
-1299 1413 0
23 -1299 1300 0
-1300 1414 0
24 -1300 1301 0
-1301 1415 0
25 -1301 1302 0
-1302 1416 0
26 -1302 1303 0
-1303 1417 0
27 -1303 1304 0
-1304 1418 0
28 -1304 1305 0
-1305 1419 0
29 -1305 1306 0
-1306 1420 0
30 -1306 1307 0
-1307 1421 0
31 -1307 1308 0
-1308 1422 0
32 -1308 1309 0
-1309 1423 0
33 -1309 1310 0
-1310 1424 0
34 -1310 1311 0
-1311 1425 0
35 -1311 1312 0
-1312 1426 0
36 -1312 1313 0
-1313 1427 0
37 -1313 1314 0
-1314 1428 0
38 -1314 1315 0
-1315 1429 0
39 -1315 1316 0
-1316 1430 0
40 -1316 1317 0
-1317 1431 0
41 -1317 1318 0
-1318 1432 0
42 -1318 1319 0
-1319 1433 0
43 -1319 1320 0
-1320 1434 0
44 -1320 1321 0
-1321 1435 0
45 -1321 1322 0
-1322 1436 0
46 -1322 1323 0
-1323 1437 0
47 -1323 1324 0
-1324 1438 0
48 -1324 1325 0
-1325 1439 0
49 -1325 1326 0
-1326 1440 0
50 -1326 1327 0
-1327 1441 0
51 -1327 1328 0
-1328 1442 0
52 -1328 1329 0
-1329 1443 0
53 -1329 1330 0
-1330 1444 0
54 -1330 1331 0
-1331 1445 0
55 -1331 1332 0
-1332 1446 0
56 -1332 1333 0
-1333 1447 0
57 -1333 1334 0
-1334 1448 0
58 -1334 1335 0
-1335 1449 0
59 -1335 1336 0
-1336 1450 0
60 -1336 1337 0
-1337 1451 0
61 -1337 1338 0
-1338 1452 0
62 -1338 1339 0
-1339 1453 0
63 -1339 1340 0
-1340 1454 0
64 -1340 1341 0
-1341 1455 0
65 -1341 1342 0
-1342 1456 0
66 -1342 1343 0
-1343 1457 0
67 -1343 1344 0
-1344 1458 0
68 -1344 1345 0
-1345 1459 0
69 -1345 1346 0
-1346 1460 0
70 -1346 1347 0
-1347 1461 0
71 -1347 1348 0
-1348 1462 0
72 -1348 1349 0
-1349 1463 0
73 -1349 1350 0
-1350 1464 0
74 -1350 1351 0
-1351 1465 0
75 -1351 1352 0
-1352 1466 0
76 -1352 1353 0
-1353 1467 0
77 -1353 1354 0
-1354 1468 0
78 -1354 1355 0
-1355 1469 0
79 -1355 1356 0
-1356 1470 0
80 -1356 1357 0
-1357 1471 0
81 -1357 1358 0
-1358 1472 0
82 -1358 1359 0
-1359 1473 0
83 -1359 1360 0
-1360 1474 0
84 -1360 1361 0
-1361 1475 0
85 -1361 1362 0
-1362 1476 0
86 -1362 1363 0
-1363 1477 0
87 -1363 1364 0
-1364 1478 0
88 -1364 1365 0
-1365 1479 0
89 -1365 1366 0
-1366 1480 0
90 -1366 1367 0
-1367 1481 0
91 -1367 1368 0
-1368 1482 0
92 -1368 1369 0
-1369 1483 0
93 -1369 1370 0
-1370 1484 0
94 -1370 1371 0
-1371 1485 0
95 -1371 1372 0
-1372 1486 0
96 -1372 1373 0
-1373 1487 0
97 -1373 1374 0
-1374 1488 0
98 -1374 1375 0
-1375 1489 0
99 -1375 1376 0
-1376 1490 0
100 -1376 1377 0
-1377 1491 0
101 -1377 1378 0
-1378 1492 0
102 -1378 1379 0
-1379 1493 0
103 -1379 1380 0
-1380 1494 0
104 -1380 1381 0
-1381 1495 0
105 -1381 1382 0
-1382 1496 0
106 -1382 1383 0
-1383 1497 0
107 -1383 1384 0
-1384 1498 0
108 -1384 1385 0
-1385 1499 0
109 -1385 1386 0
-1386 1500 0
110 -1386 1387 0
-1387 1501 0
111 -1387 1388 0
-1388 1502 0
112 -1388 1389 0
-1389 1503 0
113 -1389 1390 0
-1390 1504 0
114 -1390 1391 0
-1391 1505 0
115 -1391 1392 0
-1392 1506 0
116 -1392 1393 0
-1393 1507 0
117 -1393 1394 0
-1394 1508 0
118 -1394 1395 0
-1395 1509 0
119 -1395 1396 0
-1396 1510 0
120 -1396 1397 0
-1397 1511 0
121 -1397 1398 0
-1398 1512 0
122 -1398 1399 0
-1399 1513 0
123 -1399 1400 0
-1400 1514 0
124 -1400 0
11 1401 0
-1401 1515 0
12 -1401 1402 0
-1402 1516 0
13 -1402 1403 0
-1403 1517 0
14 -1403 1404 0
-1404 1518 0
15 -1404 1405 0
-1405 1519 0
16 -1405 1406 0
-1406 1520 0
17 -1406 1407 0
-1407 1521 0
18 -1407 1408 0
-1408 1522 0
19 -1408 1409 0
-1409 1523 0
20 -1409 1410 0
-1410 1524 0
21 -1410 1411 0
-1411 1525 0
22 -1411 1412 0
-1412 1526 0
23 -1412 1413 0
-1413 1527 0
24 -1413 1414 0
-1414 1528 0
25 -1414 1415 0
-1415 1529 0
26 -1415 1416 0
-1416 1530 0
27 -1416 1417 0
-1417 1531 0
28 -1417 1418 0
-1418 1532 0
29 -1418 1419 0
-1419 1533 0
30 -1419 1420 0
-1420 1534 0
31 -1420 1421 0
-1421 1535 0
32 -1421 1422 0
-1422 1536 0
33 -1422 1423 0
-1423 1537 0
34 -1423 1424 0
-1424 1538 0
35 -1424 1425 0
-1425 1539 0
36 -1425 1426 0
-1426 1540 0
37 -1426 1427 0
-1427 1541 0
38 -1427 1428 0
-1428 1542 0
39 -1428 1429 0
-1429 1543 0
40 -1429 1430 0
-1430 1544 0
41 -1430 1431 0
-1431 1545 0
42 -1431 1432 0
-1432 1546 0
43 -1432 1433 0
-1433 1547 0
44 -1433 1434 0
-1434 1548 0
45 -1434 1435 0
-1435 1549 0
46 -1435 1436 0
-1436 1550 0
47 -1436 1437 0
-1437 1551 0
48 -1437 1438 0
-1438 1552 0
49 -1438 1439 0
-1439 1553 0
50 -1439 1440 0
-1440 1554 0
51 -1440 1441 0
-1441 1555 0
52 -1441 1442 0
-1442 1556 0
53 -1442 1443 0
-1443 1557 0
54 -1443 1444 0
-1444 1558 0
55 -1444 1445 0
-1445 1559 0
56 -1445 1446 0
-1446 1560 0
57 -1446 1447 0
-1447 1561 0
58 -1447 1448 0
-1448 1562 0
59 -1448 1449 0
-1449 1563 0
60 -1449 1450 0
-1450 1564 0
61 -1450 1451 0
-1451 1565 0
62 -1451 1452 0
-1452 1566 0
63 -1452 1453 0
-1453 1567 0
64 -1453 1454 0
-1454 1568 0
65 -1454 1455 0
-1455 1569 0
66 -1455 1456 0
-1456 1570 0
67 -1456 1457 0
-1457 1571 0
68 -1457 1458 0
-1458 1572 0
69 -1458 1459 0
-1459 1573 0
70 -1459 1460 0
-1460 1574 0
71 -1460 1461 0
-1461 1575 0
72 -1461 1462 0
-1462 1576 0
73 -1462 1463 0
-1463 1577 0
74 -1463 1464 0
-1464 1578 0
75 -1464 1465 0
-1465 1579 0
76 -1465 1466 0
-1466 1580 0
77 -1466 1467 0
-1467 1581 0
78 -1467 1468 0
-1468 1582 0
79 -1468 1469 0
-1469 1583 0
80 -1469 1470 0
-1470 1584 0
81 -1470 1471 0
-1471 1585 0
82 -1471 1472 0
-1472 1586 0
83 -1472 1473 0
-1473 1587 0
84 -1473 1474 0
-1474 1588 0
85 -1474 1475 0
-1475 1589 0
86 -1475 1476 0
-1476 1590 0
87 -1476 1477 0
-1477 1591 0
88 -1477 1478 0
-1478 1592 0
89 -1478 1479 0
-1479 1593 0
90 -1479 1480 0
-1480 1594 0
91 -1480 1481 0
-1481 1595 0
92 -1481 1482 0
-1482 1596 0
93 -1482 1483 0
-1483 1597 0
94 -1483 1484 0
-1484 1598 0
95 -1484 1485 0
-1485 1599 0
96 -1485 1486 0
-1486 1600 0
97 -1486 1487 0
-1487 1601 0
98 -1487 1488 0
-1488 1602 0
99 -1488 1489 0
-1489 1603 0
100 -1489 1490 0
-1490 1604 0
101 -1490 1491 0
-1491 1605 0
102 -1491 1492 0
-1492 1606 0
103 -1492 1493 0
-1493 1607 0
104 -1493 1494 0
-1494 1608 0
105 -1494 1495 0
-1495 1609 0
106 -1495 1496 0
-1496 1610 0
107 -1496 1497 0
-1497 1611 0
108 -1497 1498 0
-1498 1612 0
109 -1498 1499 0
-1499 1613 0
110 -1499 1500 0
-1500 1614 0
111 -1500 1501 0
-1501 1615 0
112 -1501 1502 0
-1502 1616 0
113 -1502 1503 0
-1503 1617 0
114 -1503 1504 0
-1504 1618 0
115 -1504 1505 0
-1505 1619 0
116 -1505 1506 0
-1506 1620 0
117 -1506 1507 0
-1507 1621 0
118 -1507 1508 0
-1508 1622 0
119 -1508 1509 0
-1509 1623 0
120 -1509 1510 0
-1510 1624 0
121 -1510 1511 0
-1511 1625 0
122 -1511 1512 0
-1512 1626 0
123 -1512 1513 0
-1513 1627 0
124 -1513 1514 0
-1514 1628 0
125 -1514 0
12 1515 0
-1515 1629 0
13 -1515 1516 0
-1516 1630 0
14 -1516 1517 0
-1517 1631 0
15 -1517 1518 0
-1518 1632 0
16 -1518 1519 0
-1519 1633 0
17 -1519 1520 0
-1520 1634 0
18 -1520 1521 0
-1521 1635 0
19 -1521 1522 0
-1522 1636 0
20 -1522 1523 0
-1523 1637 0
21 -1523 1524 0
-1524 1638 0
22 -1524 1525 0
-1525 1639 0
23 -1525 1526 0
-1526 1640 0
24 -1526 1527 0
-1527 1641 0
25 -1527 1528 0
-1528 1642 0
26 -1528 1529 0
-1529 1643 0
27 -1529 1530 0
-1530 1644 0
28 -1530 1531 0
-1531 1645 0
29 -1531 1532 0
-1532 1646 0
30 -1532 1533 0
-1533 1647 0
31 -1533 1534 0
-1534 1648 0
32 -1534 1535 0
-1535 1649 0
33 -1535 1536 0
-1536 1650 0
34 -1536 1537 0
-1537 1651 0
35 -1537 1538 0
-1538 1652 0
36 -1538 1539 0
-1539 1653 0
37 -1539 1540 0
-1540 1654 0
38 -1540 1541 0
-1541 1655 0
39 -1541 1542 0
-1542 1656 0
40 -1542 1543 0
-1543 1657 0
41 -1543 1544 0
-1544 1658 0
42 -1544 1545 0
-1545 1659 0
43 -1545 1546 0
-1546 1660 0
44 -1546 1547 0
-1547 1661 0
45 -1547 1548 0
-1548 1662 0
46 -1548 1549 0
-1549 1663 0
47 -1549 1550 0
-1550 1664 0
48 -1550 1551 0
-1551 1665 0
49 -1551 1552 0
-1552 1666 0
50 -1552 1553 0
-1553 1667 0
51 -1553 1554 0
-1554 1668 0
52 -1554 1555 0
-1555 1669 0
53 -1555 1556 0
-1556 1670 0
54 -1556 1557 0
-1557 1671 0
55 -1557 1558 0
-1558 1672 0
56 -1558 1559 0
-1559 1673 0
57 -1559 1560 0
-1560 1674 0
58 -1560 1561 0
-1561 1675 0
59 -1561 1562 0
-1562 1676 0
60 -1562 1563 0
-1563 1677 0
61 -1563 1564 0
-1564 1678 0
62 -1564 1565 0
-1565 1679 0
63 -1565 1566 0
-1566 1680 0
64 -1566 1567 0
-1567 1681 0
65 -1567 1568 0
-1568 1682 0
66 -1568 1569 0
-1569 1683 0
67 -1569 1570 0
-1570 1684 0
68 -1570 1571 0
-1571 1685 0
69 -1571 1572 0
-1572 1686 0
70 -1572 1573 0
-1573 1687 0
71 -1573 1574 0
-1574 1688 0
72 -1574 1575 0
-1575 1689 0
73 -1575 1576 0
-1576 1690 0
74 -1576 1577 0
-1577 1691 0
75 -1577 1578 0
-1578 1692 0
76 -1578 1579 0
-1579 1693 0
77 -1579 1580 0
-1580 1694 0
78 -1580 1581 0
-1581 1695 0
79 -1581 1582 0
-1582 1696 0
80 -1582 1583 0
-1583 1697 0
81 -1583 1584 0
-1584 1698 0
82 -1584 1585 0
-1585 1699 0
83 -1585 1586 0
-1586 1700 0
84 -1586 1587 0
-1587 1701 0
85 -1587 1588 0
-1588 1702 0
86 -1588 1589 0
-1589 1703 0
87 -1589 1590 0
-1590 1704 0
88 -1590 1591 0
-1591 1705 0
89 -1591 1592 0
-1592 1706 0
90 -1592 1593 0
-1593 1707 0
91 -1593 1594 0
-1594 1708 0
92 -1594 1595 0
-1595 1709 0
93 -1595 1596 0
-1596 1710 0
94 -1596 1597 0
-1597 1711 0
95 -1597 1598 0
-1598 1712 0
96 -1598 1599 0
-1599 1713 0
97 -1599 1600 0
-1600 1714 0
98 -1600 1601 0
-1601 1715 0
99 -1601 1602 0
-1602 1716 0
100 -1602 1603 0
-1603 1717 0
101 -1603 1604 0
-1604 1718 0
102 -1604 1605 0
-1605 1719 0
103 -1605 1606 0
-1606 1720 0
104 -1606 1607 0
-1607 1721 0
105 -1607 1608 0
-1608 1722 0
106 -1608 1609 0
-1609 1723 0
107 -1609 1610 0
-1610 1724 0
108 -1610 1611 0
-1611 1725 0
109 -1611 1612 0
-1612 1726 0
110 -1612 1613 0
-1613 1727 0
111 -1613 1614 0
-1614 1728 0
112 -1614 1615 0
-1615 1729 0
113 -1615 1616 0
-1616 1730 0
114 -1616 1617 0
-1617 1731 0
115 -1617 1618 0
-1618 1732 0
116 -1618 1619 0
-1619 1733 0
117 -1619 1620 0
-1620 1734 0
118 -1620 1621 0
-1621 1735 0
119 -1621 1622 0
-1622 1736 0
120 -1622 1623 0
-1623 1737 0
121 -1623 1624 0
-1624 1738 0
122 -1624 1625 0
-1625 1739 0
123 -1625 1626 0
-1626 1740 0
124 -1626 1627 0
-1627 1741 0
125 -1627 1628 0
-1628 1742 0
126 -1628 0
13 1629 0
-1629 1743 0
14 -1629 1630 0
-1630 1744 0
15 -1630 1631 0
-1631 1745 0
16 -1631 1632 0
-1632 1746 0
17 -1632 1633 0
-1633 1747 0
18 -1633 1634 0
-1634 1748 0
19 -1634 1635 0
-1635 1749 0
20 -1635 1636 0
-1636 1750 0
21 -1636 1637 0
-1637 1751 0
22 -1637 1638 0
-1638 1752 0
23 -1638 1639 0
-1639 1753 0
24 -1639 1640 0
-1640 1754 0
25 -1640 1641 0
-1641 1755 0
26 -1641 1642 0
-1642 1756 0
27 -1642 1643 0
-1643 1757 0
28 -1643 1644 0
-1644 1758 0
29 -1644 1645 0
-1645 1759 0
30 -1645 1646 0
-1646 1760 0
31 -1646 1647 0
-1647 1761 0
32 -1647 1648 0
-1648 1762 0
33 -1648 1649 0
-1649 1763 0
34 -1649 1650 0
-1650 1764 0
35 -1650 1651 0
-1651 1765 0
36 -1651 1652 0
-1652 1766 0
37 -1652 1653 0
-1653 1767 0
38 -1653 1654 0
-1654 1768 0
39 -1654 1655 0
-1655 1769 0
40 -1655 1656 0
-1656 1770 0
41 -1656 1657 0
-1657 1771 0
42 -1657 1658 0
-1658 1772 0
43 -1658 1659 0
-1659 1773 0
44 -1659 1660 0
-1660 1774 0
45 -1660 1661 0
-1661 1775 0
46 -1661 1662 0
-1662 1776 0
47 -1662 1663 0
-1663 1777 0
48 -1663 1664 0
-1664 1778 0
49 -1664 1665 0
-1665 1779 0
50 -1665 1666 0
-1666 1780 0
51 -1666 1667 0
-1667 1781 0
52 -1667 1668 0
-1668 1782 0
53 -1668 1669 0
-1669 1783 0
54 -1669 1670 0
-1670 1784 0
55 -1670 1671 0
-1671 1785 0
56 -1671 1672 0
-1672 1786 0
57 -1672 1673 0
-1673 1787 0
58 -1673 1674 0
-1674 1788 0
59 -1674 1675 0
-1675 1789 0
60 -1675 1676 0
-1676 1790 0
61 -1676 1677 0
-1677 1791 0
62 -1677 1678 0
-1678 1792 0
63 -1678 1679 0
-1679 1793 0
64 -1679 1680 0
-1680 1794 0
65 -1680 1681 0
-1681 1795 0
66 -1681 1682 0
-1682 1796 0
67 -1682 1683 0
-1683 1797 0
68 -1683 1684 0
-1684 1798 0
69 -1684 1685 0
-1685 1799 0
70 -1685 1686 0
-1686 1800 0
71 -1686 1687 0
-1687 1801 0
72 -1687 1688 0
-1688 1802 0
73 -1688 1689 0
-1689 1803 0
74 -1689 1690 0
-1690 1804 0
75 -1690 1691 0
-1691 1805 0
76 -1691 1692 0
-1692 1806 0
77 -1692 1693 0
-1693 1807 0
78 -1693 1694 0
-1694 1808 0
79 -1694 1695 0
-1695 1809 0
80 -1695 1696 0
-1696 1810 0
81 -1696 1697 0
-1697 1811 0
82 -1697 1698 0
-1698 1812 0
83 -1698 1699 0
-1699 1813 0
84 -1699 1700 0
-1700 1814 0
85 -1700 1701 0
-1701 1815 0
86 -1701 1702 0
-1702 1816 0
87 -1702 1703 0
-1703 1817 0
88 -1703 1704 0
-1704 1818 0
89 -1704 1705 0
-1705 1819 0
90 -1705 1706 0
-1706 1820 0
91 -1706 1707 0
-1707 1821 0
92 -1707 1708 0
-1708 1822 0
93 -1708 1709 0
-1709 1823 0
94 -1709 1710 0
-1710 1824 0
95 -1710 1711 0
-1711 1825 0
96 -1711 1712 0
-1712 1826 0
97 -1712 1713 0
-1713 1827 0
98 -1713 1714 0
-1714 1828 0
99 -1714 1715 0
-1715 1829 0
100 -1715 1716 0
-1716 1830 0
101 -1716 1717 0
-1717 1831 0
102 -1717 1718 0
-1718 1832 0
103 -1718 1719 0
-1719 1833 0
104 -1719 1720 0
-1720 1834 0
105 -1720 1721 0
-1721 1835 0
106 -1721 1722 0
-1722 1836 0
107 -1722 1723 0
-1723 1837 0
108 -1723 1724 0
-1724 1838 0
109 -1724 1725 0
-1725 1839 0
110 -1725 1726 0
-1726 1840 0
111 -1726 1727 0
-1727 1841 0
112 -1727 1728 0
-1728 1842 0
113 -1728 1729 0
-1729 1843 0
114 -1729 1730 0
-1730 1844 0
115 -1730 1731 0
-1731 1845 0
116 -1731 1732 0
-1732 1846 0
117 -1732 1733 0
-1733 1847 0
118 -1733 1734 0
-1734 1848 0
119 -1734 1735 0
-1735 1849 0
120 -1735 1736 0
-1736 1850 0
121 -1736 1737 0
-1737 1851 0
122 -1737 1738 0
-1738 1852 0
123 -1738 1739 0
-1739 1853 0
124 -1739 1740 0
-1740 1854 0
125 -1740 1741 0
-1741 1855 0
126 -1741 1742 0
-1742 1856 0
127 -1742 0
14 1743 0
-1743 1857 0
15 -1743 1744 0
-1744 1858 0
16 -1744 1745 0
-1745 1859 0
17 -1745 1746 0
-1746 1860 0
18 -1746 1747 0
-1747 1861 0
19 -1747 1748 0
-1748 1862 0
20 -1748 1749 0
-1749 1863 0
21 -1749 1750 0
-1750 1864 0
22 -1750 1751 0
-1751 1865 0
23 -1751 1752 0
-1752 1866 0
24 -1752 1753 0
-1753 1867 0
25 -1753 1754 0
-1754 1868 0
26 -1754 1755 0
-1755 1869 0
27 -1755 1756 0
-1756 1870 0
28 -1756 1757 0
-1757 1871 0
29 -1757 1758 0
-1758 1872 0
30 -1758 1759 0
-1759 1873 0
31 -1759 1760 0
-1760 1874 0
32 -1760 1761 0
-1761 1875 0
33 -1761 1762 0
-1762 1876 0
34 -1762 1763 0
-1763 1877 0
35 -1763 1764 0
-1764 1878 0
36 -1764 1765 0
-1765 1879 0
37 -1765 1766 0
-1766 1880 0
38 -1766 1767 0
-1767 1881 0
39 -1767 1768 0
-1768 1882 0
40 -1768 1769 0
-1769 1883 0
41 -1769 1770 0
-1770 1884 0
42 -1770 1771 0
-1771 1885 0
43 -1771 1772 0
-1772 1886 0
44 -1772 1773 0
-1773 1887 0
45 -1773 1774 0
-1774 1888 0
46 -1774 1775 0
-1775 1889 0
47 -1775 1776 0
-1776 1890 0
48 -1776 1777 0
-1777 1891 0
49 -1777 1778 0
-1778 1892 0
50 -1778 1779 0
-1779 1893 0
51 -1779 1780 0
-1780 1894 0
52 -1780 1781 0
-1781 1895 0
53 -1781 1782 0
-1782 1896 0
54 -1782 1783 0
-1783 1897 0
55 -1783 1784 0
-1784 1898 0
56 -1784 1785 0
-1785 1899 0
57 -1785 1786 0
-1786 1900 0
58 -1786 1787 0
-1787 1901 0
59 -1787 1788 0
-1788 1902 0
60 -1788 1789 0
-1789 1903 0
61 -1789 1790 0
-1790 1904 0
62 -1790 1791 0
-1791 1905 0
63 -1791 1792 0
-1792 1906 0
64 -1792 1793 0
-1793 1907 0
65 -1793 1794 0
-1794 1908 0
66 -1794 1795 0
-1795 1909 0
67 -1795 1796 0
-1796 1910 0
68 -1796 1797 0
-1797 1911 0
69 -1797 1798 0
-1798 1912 0
70 -1798 1799 0
-1799 1913 0
71 -1799 1800 0
-1800 1914 0
72 -1800 1801 0
-1801 1915 0
73 -1801 1802 0
-1802 1916 0
74 -1802 1803 0
-1803 1917 0
75 -1803 1804 0
-1804 1918 0
76 -1804 1805 0
-1805 1919 0
77 -1805 1806 0
-1806 1920 0
78 -1806 1807 0
-1807 1921 0
79 -1807 1808 0
-1808 1922 0
80 -1808 1809 0
-1809 1923 0
81 -1809 1810 0
-1810 1924 0
82 -1810 1811 0
-1811 1925 0
83 -1811 1812 0
-1812 1926 0
84 -1812 1813 0
-1813 1927 0
85 -1813 1814 0
-1814 1928 0
86 -1814 1815 0
-1815 1929 0
87 -1815 1816 0
-1816 1930 0
88 -1816 1817 0
-1817 1931 0
89 -1817 1818 0
-1818 1932 0
90 -1818 1819 0
-1819 1933 0
91 -1819 1820 0
-1820 1934 0
92 -1820 1821 0
-1821 1935 0
93 -1821 1822 0
-1822 1936 0
94 -1822 1823 0
-1823 1937 0
95 -1823 1824 0
-1824 1938 0
96 -1824 1825 0
-1825 1939 0
97 -1825 1826 0
-1826 1940 0
98 -1826 1827 0
-1827 1941 0
99 -1827 1828 0
-1828 1942 0
100 -1828 1829 0
-1829 1943 0
101 -1829 1830 0
-1830 1944 0
102 -1830 1831 0
-1831 1945 0
103 -1831 1832 0
-1832 1946 0
104 -1832 1833 0
-1833 1947 0
105 -1833 1834 0
-1834 1948 0
106 -1834 1835 0
-1835 1949 0
107 -1835 1836 0
-1836 1950 0
108 -1836 1837 0
-1837 1951 0
109 -1837 1838 0
-1838 1952 0
110 -1838 1839 0
-1839 1953 0
111 -1839 1840 0
-1840 1954 0
112 -1840 1841 0
-1841 1955 0
113 -1841 1842 0
-1842 1956 0
114 -1842 1843 0
-1843 1957 0
115 -1843 1844 0
-1844 1958 0
116 -1844 1845 0
-1845 1959 0
117 -1845 1846 0
-1846 1960 0
118 -1846 1847 0
-1847 1961 0
119 -1847 1848 0
-1848 1962 0
120 -1848 1849 0
-1849 1963 0
121 -1849 1850 0
-1850 1964 0
122 -1850 1851 0
-1851 1965 0
123 -1851 1852 0
-1852 1966 0
124 -1852 1853 0
-1853 1967 0
125 -1853 1854 0
-1854 1968 0
126 -1854 1855 0
-1855 1969 0
127 -1855 1856 0
-1856 1970 0
128 -1856 0
15 1857 0
-1857 1971 0
16 -1857 1858 0
-1858 1972 0
17 -1858 1859 0
-1859 1973 0
18 -1859 1860 0
-1860 1974 0
19 -1860 1861 0
-1861 1975 0
20 -1861 1862 0
-1862 1976 0
21 -1862 1863 0
-1863 1977 0
22 -1863 1864 0
-1864 1978 0
23 -1864 1865 0
-1865 1979 0
24 -1865 1866 0
-1866 1980 0
25 -1866 1867 0
-1867 1981 0
26 -1867 1868 0
-1868 1982 0
27 -1868 1869 0
-1869 1983 0
28 -1869 1870 0
-1870 1984 0
29 -1870 1871 0
-1871 1985 0
30 -1871 1872 0
-1872 1986 0
31 -1872 1873 0
-1873 1987 0
32 -1873 1874 0
-1874 1988 0
33 -1874 1875 0
-1875 1989 0
34 -1875 1876 0
-1876 1990 0
35 -1876 1877 0
-1877 1991 0
36 -1877 1878 0
-1878 1992 0
37 -1878 1879 0
-1879 1993 0
38 -1879 1880 0
-1880 1994 0
39 -1880 1881 0
-1881 1995 0
40 -1881 1882 0
-1882 1996 0
41 -1882 1883 0
-1883 1997 0
42 -1883 1884 0
-1884 1998 0
43 -1884 1885 0
-1885 1999 0
44 -1885 1886 0
-1886 2000 0
45 -1886 1887 0
-1887 2001 0
46 -1887 1888 0
-1888 2002 0
47 -1888 1889 0
-1889 2003 0
48 -1889 1890 0
-1890 2004 0
49 -1890 1891 0
-1891 2005 0
50 -1891 1892 0
-1892 2006 0
51 -1892 1893 0
-1893 2007 0
52 -1893 1894 0
-1894 2008 0
53 -1894 1895 0
-1895 2009 0
54 -1895 1896 0
-1896 2010 0
55 -1896 1897 0
-1897 2011 0
56 -1897 1898 0
-1898 2012 0
57 -1898 1899 0
-1899 2013 0
58 -1899 1900 0
-1900 2014 0
59 -1900 1901 0
-1901 2015 0
60 -1901 1902 0
-1902 2016 0
61 -1902 1903 0
-1903 2017 0
62 -1903 1904 0
-1904 2018 0
63 -1904 1905 0
-1905 2019 0
64 -1905 1906 0
-1906 2020 0
65 -1906 1907 0
-1907 2021 0
66 -1907 1908 0
-1908 2022 0
67 -1908 1909 0
-1909 2023 0
68 -1909 1910 0
-1910 2024 0
69 -1910 1911 0
-1911 2025 0
70 -1911 1912 0
-1912 2026 0
71 -1912 1913 0
-1913 2027 0
72 -1913 1914 0
-1914 2028 0
73 -1914 1915 0
-1915 2029 0
74 -1915 1916 0
-1916 2030 0
75 -1916 1917 0
-1917 2031 0
76 -1917 1918 0
-1918 2032 0
77 -1918 1919 0
-1919 2033 0
78 -1919 1920 0
-1920 2034 0
79 -1920 1921 0
-1921 2035 0
80 -1921 1922 0
-1922 2036 0
81 -1922 1923 0
-1923 2037 0
82 -1923 1924 0
-1924 2038 0
83 -1924 1925 0
-1925 2039 0
84 -1925 1926 0
-1926 2040 0
85 -1926 1927 0
-1927 2041 0
86 -1927 1928 0
-1928 2042 0
87 -1928 1929 0
-1929 2043 0
88 -1929 1930 0
-1930 2044 0
89 -1930 1931 0
-1931 2045 0
90 -1931 1932 0
-1932 2046 0
91 -1932 1933 0
-1933 2047 0
92 -1933 1934 0
-1934 2048 0
93 -1934 1935 0
-1935 2049 0
94 -1935 1936 0
-1936 2050 0
95 -1936 1937 0
-1937 2051 0
96 -1937 1938 0
-1938 2052 0
97 -1938 1939 0
-1939 2053 0
98 -1939 1940 0
-1940 2054 0
99 -1940 1941 0
-1941 2055 0
100 -1941 1942 0
-1942 2056 0
101 -1942 1943 0
-1943 2057 0
102 -1943 1944 0
-1944 2058 0
103 -1944 1945 0
-1945 2059 0
104 -1945 1946 0
-1946 2060 0
105 -1946 1947 0
-1947 2061 0
106 -1947 1948 0
-1948 2062 0
107 -1948 1949 0
-1949 2063 0
108 -1949 1950 0
-1950 2064 0
109 -1950 1951 0
-1951 2065 0
110 -1951 1952 0
-1952 2066 0
111 -1952 1953 0
-1953 2067 0
112 -1953 1954 0
-1954 2068 0
113 -1954 1955 0
-1955 2069 0
114 -1955 1956 0
-1956 2070 0
115 -1956 1957 0
-1957 2071 0
116 -1957 1958 0
-1958 2072 0
117 -1958 1959 0
-1959 2073 0
118 -1959 1960 0
-1960 2074 0
119 -1960 1961 0
-1961 2075 0
120 -1961 1962 0
-1962 2076 0
121 -1962 1963 0
-1963 2077 0
122 -1963 1964 0
-1964 2078 0
123 -1964 1965 0
-1965 2079 0
124 -1965 1966 0
-1966 2080 0
125 -1966 1967 0
-1967 2081 0
126 -1967 1968 0
-1968 2082 0
127 -1968 1969 0
-1969 2083 0
128 -1969 1970 0
-1970 2084 0
129 -1970 0
16 1971 0
17 -1971 1972 0
18 -1972 1973 0
19 -1973 1974 0
20 -1974 1975 0
21 -1975 1976 0
22 -1976 1977 0
23 -1977 1978 0
24 -1978 1979 0
25 -1979 1980 0
26 -1980 1981 0
27 -1981 1982 0
28 -1982 1983 0
29 -1983 1984 0
30 -1984 1985 0
31 -1985 1986 0
32 -1986 1987 0
33 -1987 1988 0
34 -1988 1989 0
35 -1989 1990 0
36 -1990 1991 0
37 -1991 1992 0
38 -1992 1993 0
39 -1993 1994 0
40 -1994 1995 0
41 -1995 1996 0
42 -1996 1997 0
43 -1997 1998 0
44 -1998 1999 0
45 -1999 2000 0
46 -2000 2001 0
47 -2001 2002 0
48 -2002 2003 0
49 -2003 2004 0
50 -2004 2005 0
51 -2005 2006 0
52 -2006 2007 0
53 -2007 2008 0
54 -2008 2009 0
55 -2009 2010 0
56 -2010 2011 0
57 -2011 2012 0
58 -2012 2013 0
59 -2013 2014 0
60 -2014 2015 0
61 -2015 2016 0
62 -2016 2017 0
63 -2017 2018 0
64 -2018 2019 0
65 -2019 2020 0
66 -2020 2021 0
67 -2021 2022 0
68 -2022 2023 0
69 -2023 2024 0
70 -2024 2025 0
71 -2025 2026 0
72 -2026 2027 0
73 -2027 2028 0
74 -2028 2029 0
75 -2029 2030 0
76 -2030 2031 0
77 -2031 2032 0
78 -2032 2033 0
79 -2033 2034 0
80 -2034 2035 0
81 -2035 2036 0
82 -2036 2037 0
83 -2037 2038 0
84 -2038 2039 0
85 -2039 2040 0
86 -2040 2041 0
87 -2041 2042 0
88 -2042 2043 0
89 -2043 2044 0
90 -2044 2045 0
91 -2045 2046 0
92 -2046 2047 0
93 -2047 2048 0
94 -2048 2049 0
95 -2049 2050 0
96 -2050 2051 0
97 -2051 2052 0
98 -2052 2053 0
99 -2053 2054 0
100 -2054 2055 0
101 -2055 2056 0
102 -2056 2057 0
103 -2057 2058 0
104 -2058 2059 0
105 -2059 2060 0
106 -2060 2061 0
107 -2061 2062 0
108 -2062 2063 0
109 -2063 2064 0
110 -2064 2065 0
111 -2065 2066 0
112 -2066 2067 0
113 -2067 2068 0
114 -2068 2069 0
115 -2069 2070 0
116 -2070 2071 0
117 -2071 2072 0
118 -2072 2073 0
119 -2073 2074 0
120 -2074 2075 0
121 -2075 2076 0
122 -2076 2077 0
123 -2077 2078 0
124 -2078 2079 0
125 -2079 2080 0
126 -2080 2081 0
127 -2081 2082 0
128 -2082 2083 0
129 -2083 2084 0
130 -2084 0
-1 2085 0
-2085 2086 0
-2 -2085 2087 0
-2087 2088 0
-3 -2087 2089 0
-2089 2090 0
-4 -2089 2091 0
-2091 2092 0
-5 -2091 2093 0
-2093 2094 0
-6 -2093 2095 0
-2095 2096 0
-7 -2095 2097 0
-2097 2098 0
-8 -2097 2099 0
-2099 2100 0
-9 -2099 2101 0
-2101 2102 0
-10 -2101 2103 0
-2103 2104 0
-11 -2103 2105 0
-2105 2106 0
-12 -2105 2107 0
-2107 2108 0
-13 -2107 2109 0
-2109 2110 0
-14 -2109 2111 0
-2111 2112 0
-15 -2111 2113 0
-2113 2114 0
-16 -2113 2115 0
-2115 2116 0
-17 -2115 0
-2 2086 0
-2086 2117 0
-3 -2086 2088 0
-2088 2118 0
-4 -2088 2090 0
-2090 2119 0
-5 -2090 2092 0
-2092 2120 0
-6 -2092 2094 0
-2094 2121 0
-7 -2094 2096 0
-2096 2122 0
-8 -2096 2098 0
-2098 2123 0
-9 -2098 2100 0
-2100 2124 0
-10 -2100 2102 0
-2102 2125 0
-11 -2102 2104 0
-2104 2126 0
-12 -2104 2106 0
-2106 2127 0
-13 -2106 2108 0
-2108 2128 0
-14 -2108 2110 0
-2110 2129 0
-15 -2110 2112 0
-2112 2130 0
-16 -2112 2114 0
-2114 2131 0
-17 -2114 2116 0
-2116 2132 0
-18 -2116 0
-3 2117 0
-2117 2133 0
-4 -2117 2118 0
-2118 2134 0
-5 -2118 2119 0
-2119 2135 0
-6 -2119 2120 0
-2120 2136 0
-7 -2120 2121 0
-2121 2137 0
-8 -2121 2122 0
-2122 2138 0
-9 -2122 2123 0
-2123 2139 0
-10 -2123 2124 0
-2124 2140 0
-11 -2124 2125 0
-2125 2141 0
-12 -2125 2126 0
-2126 2142 0
-13 -2126 2127 0
-2127 2143 0
-14 -2127 2128 0
-2128 2144 0
-15 -2128 2129 0
-2129 2145 0
-16 -2129 2130 0
-2130 2146 0
-17 -2130 2131 0
-2131 2147 0
-18 -2131 2132 0
-2132 2148 0
-19 -2132 0
-4 2133 0
-2133 2149 0
-5 -2133 2134 0
-2134 2150 0
-6 -2134 2135 0
-2135 2151 0
-7 -2135 2136 0
-2136 2152 0
-8 -2136 2137 0
-2137 2153 0
-9 -2137 2138 0
-2138 2154 0
-10 -2138 2139 0
-2139 2155 0
-11 -2139 2140 0
-2140 2156 0
-12 -2140 2141 0
-2141 2157 0
-13 -2141 2142 0
-2142 2158 0
-14 -2142 2143 0
-2143 2159 0
-15 -2143 2144 0
-2144 2160 0
-16 -2144 2145 0
-2145 2161 0
-17 -2145 2146 0
-2146 2162 0
-18 -2146 2147 0
-2147 2163 0
-19 -2147 2148 0
-2148 2164 0
-20 -2148 0
-5 2149 0
-2149 2165 0
-6 -2149 2150 0
-2150 2166 0
-7 -2150 2151 0
-2151 2167 0
-8 -2151 2152 0
-2152 2168 0
-9 -2152 2153 0
-2153 2169 0
-10 -2153 2154 0
-2154 2170 0
-11 -2154 2155 0
-2155 2171 0
-12 -2155 2156 0
-2156 2172 0
-13 -2156 2157 0
-2157 2173 0
-14 -2157 2158 0
-2158 2174 0
-15 -2158 2159 0
-2159 2175 0
-16 -2159 2160 0
-2160 2176 0
-17 -2160 2161 0
-2161 2177 0
-18 -2161 2162 0
-2162 2178 0
-19 -2162 2163 0
-2163 2179 0
-20 -2163 2164 0
-2164 2180 0
-21 -2164 0
-6 2165 0
-2165 2181 0
-7 -2165 2166 0
-2166 2182 0
-8 -2166 2167 0
-2167 2183 0
-9 -2167 2168 0
-2168 2184 0
-10 -2168 2169 0
-2169 2185 0
-11 -2169 2170 0
-2170 2186 0
-12 -2170 2171 0
-2171 2187 0
-13 -2171 2172 0
-2172 2188 0
-14 -2172 2173 0
-2173 2189 0
-15 -2173 2174 0
-2174 2190 0
-16 -2174 2175 0
-2175 2191 0
-17 -2175 2176 0
-2176 2192 0
-18 -2176 2177 0
-2177 2193 0
-19 -2177 2178 0
-2178 2194 0
-20 -2178 2179 0
-2179 2195 0
-21 -2179 2180 0
-2180 2196 0
-22 -2180 0
-7 2181 0
-2181 2197 0
-8 -2181 2182 0
-2182 2198 0
-9 -2182 2183 0
-2183 2199 0
-10 -2183 2184 0
-2184 2200 0
-11 -2184 2185 0
-2185 2201 0
-12 -2185 2186 0
-2186 2202 0
-13 -2186 2187 0
-2187 2203 0
-14 -2187 2188 0
-2188 2204 0
-15 -2188 2189 0
-2189 2205 0
-16 -2189 2190 0
-2190 2206 0
-17 -2190 2191 0
-2191 2207 0
-18 -2191 2192 0
-2192 2208 0
-19 -2192 2193 0
-2193 2209 0
-20 -2193 2194 0
-2194 2210 0
-21 -2194 2195 0
-2195 2211 0
-22 -2195 2196 0
-2196 2212 0
-23 -2196 0
-8 2197 0
-2197 2213 0
-9 -2197 2198 0
-2198 2214 0
-10 -2198 2199 0
-2199 2215 0
-11 -2199 2200 0
-2200 2216 0
-12 -2200 2201 0
-2201 2217 0
-13 -2201 2202 0
-2202 2218 0
-14 -2202 2203 0
-2203 2219 0
-15 -2203 2204 0
-2204 2220 0
-16 -2204 2205 0
-2205 2221 0
-17 -2205 2206 0
-2206 2222 0
-18 -2206 2207 0
-2207 2223 0
-19 -2207 2208 0
-2208 2224 0
-20 -2208 2209 0
-2209 2225 0
-21 -2209 2210 0
-2210 2226 0
-22 -2210 2211 0
-2211 2227 0
-23 -2211 2212 0
-2212 2228 0
-24 -2212 0
-9 2213 0
-2213 2229 0
-10 -2213 2214 0
-2214 2230 0
-11 -2214 2215 0
-2215 2231 0
-12 -2215 2216 0
-2216 2232 0
-13 -2216 2217 0
-2217 2233 0
-14 -2217 2218 0
-2218 2234 0
-15 -2218 2219 0
-2219 2235 0
-16 -2219 2220 0
-2220 2236 0
-17 -2220 2221 0
-2221 2237 0
-18 -2221 2222 0
-2222 2238 0
-19 -2222 2223 0
-2223 2239 0
-20 -2223 2224 0
-2224 2240 0
-21 -2224 2225 0
-2225 2241 0
-22 -2225 2226 0
-2226 2242 0
-23 -2226 2227 0
-2227 2243 0
-24 -2227 2228 0
-2228 2244 0
-25 -2228 0
-10 2229 0
-2229 2245 0
-11 -2229 2230 0
-2230 2246 0
-12 -2230 2231 0
-2231 2247 0
-13 -2231 2232 0
-2232 2248 0
-14 -2232 2233 0
-2233 2249 0
-15 -2233 2234 0
-2234 2250 0
-16 -2234 2235 0
-2235 2251 0
-17 -2235 2236 0
-2236 2252 0
-18 -2236 2237 0
-2237 2253 0
-19 -2237 2238 0
-2238 2254 0
-20 -2238 2239 0
-2239 2255 0
-21 -2239 2240 0
-2240 2256 0
-22 -2240 2241 0
-2241 2257 0
-23 -2241 2242 0
-2242 2258 0
-24 -2242 2243 0
-2243 2259 0
-25 -2243 2244 0
-2244 2260 0
-26 -2244 0
-11 2245 0
-2245 2261 0
-12 -2245 2246 0
-2246 2262 0
-13 -2246 2247 0
-2247 2263 0
-14 -2247 2248 0
-2248 2264 0
-15 -2248 2249 0
-2249 2265 0
-16 -2249 2250 0
-2250 2266 0
-17 -2250 2251 0
-2251 2267 0
-18 -2251 2252 0
-2252 2268 0
-19 -2252 2253 0
-2253 2269 0
-20 -2253 2254 0
-2254 2270 0
-21 -2254 2255 0
-2255 2271 0
-22 -2255 2256 0
-2256 2272 0
-23 -2256 2257 0
-2257 2273 0
-24 -2257 2258 0
-2258 2274 0
-25 -2258 2259 0
-2259 2275 0
-26 -2259 2260 0
-2260 2276 0
-27 -2260 0
-12 2261 0
-2261 2277 0
-13 -2261 2262 0
-2262 2278 0
-14 -2262 2263 0
-2263 2279 0
-15 -2263 2264 0
-2264 2280 0
-16 -2264 2265 0
-2265 2281 0
-17 -2265 2266 0
-2266 2282 0
-18 -2266 2267 0
-2267 2283 0
-19 -2267 2268 0
-2268 2284 0
-20 -2268 2269 0
-2269 2285 0
-21 -2269 2270 0
-2270 2286 0
-22 -2270 2271 0
-2271 2287 0
-23 -2271 2272 0
-2272 2288 0
-24 -2272 2273 0
-2273 2289 0
-25 -2273 2274 0
-2274 2290 0
-26 -2274 2275 0
-2275 2291 0
-27 -2275 2276 0
-2276 2292 0
-28 -2276 0
-13 2277 0
-2277 2293 0
-14 -2277 2278 0
-2278 2294 0
-15 -2278 2279 0
-2279 2295 0
-16 -2279 2280 0
-2280 2296 0
-17 -2280 2281 0
-2281 2297 0
-18 -2281 2282 0
-2282 2298 0
-19 -2282 2283 0
-2283 2299 0
-20 -2283 2284 0
-2284 2300 0
-21 -2284 2285 0
-2285 2301 0
-22 -2285 2286 0
-2286 2302 0
-23 -2286 2287 0
-2287 2303 0
-24 -2287 2288 0
-2288 2304 0
-25 -2288 2289 0
-2289 2305 0
-26 -2289 2290 0
-2290 2306 0
-27 -2290 2291 0
-2291 2307 0
-28 -2291 2292 0
-2292 2308 0
-29 -2292 0
-14 2293 0
-2293 2309 0
-15 -2293 2294 0
-2294 2310 0
-16 -2294 2295 0
-2295 2311 0
-17 -2295 2296 0
-2296 2312 0
-18 -2296 2297 0
-2297 2313 0
-19 -2297 2298 0
-2298 2314 0
-20 -2298 2299 0
-2299 2315 0
-21 -2299 2300 0
-2300 2316 0
-22 -2300 2301 0
-2301 2317 0
-23 -2301 2302 0
-2302 2318 0
-24 -2302 2303 0
-2303 2319 0
-25 -2303 2304 0
-2304 2320 0
-26 -2304 2305 0
-2305 2321 0
-27 -2305 2306 0
-2306 2322 0
-28 -2306 2307 0
-2307 2323 0
-29 -2307 2308 0
-2308 2324 0
-30 -2308 0
-15 2309 0
-2309 2325 0
-16 -2309 2310 0
-2310 2326 0
-17 -2310 2311 0
-2311 2327 0
-18 -2311 2312 0
-2312 2328 0
-19 -2312 2313 0
-2313 2329 0
-20 -2313 2314 0
-2314 2330 0
-21 -2314 2315 0
-2315 2331 0
-22 -2315 2316 0
-2316 2332 0
-23 -2316 2317 0
-2317 2333 0
-24 -2317 2318 0
-2318 2334 0
-25 -2318 2319 0
-2319 2335 0
-26 -2319 2320 0
-2320 2336 0
-27 -2320 2321 0
-2321 2337 0
-28 -2321 2322 0
-2322 2338 0
-29 -2322 2323 0
-2323 2339 0
-30 -2323 2324 0
-2324 2340 0
-31 -2324 0
-16 2325 0
-2325 2341 0
-17 -2325 2326 0
-2326 2342 0
-18 -2326 2327 0
-2327 2343 0
-19 -2327 2328 0
-2328 2344 0
-20 -2328 2329 0
-2329 2345 0
-21 -2329 2330 0
-2330 2346 0
-22 -2330 2331 0
-2331 2347 0
-23 -2331 2332 0
-2332 2348 0
-24 -2332 2333 0
-2333 2349 0
-25 -2333 2334 0
-2334 2350 0
-26 -2334 2335 0
-2335 2351 0
-27 -2335 2336 0
-2336 2352 0
-28 -2336 2337 0
-2337 2353 0
-29 -2337 2338 0
-2338 2354 0
-30 -2338 2339 0
-2339 2355 0
-31 -2339 2340 0
-2340 2356 0
-32 -2340 0
-17 2341 0
-2341 2357 0
-18 -2341 2342 0
-2342 2358 0
-19 -2342 2343 0
-2343 2359 0
-20 -2343 2344 0
-2344 2360 0
-21 -2344 2345 0
-2345 2361 0
-22 -2345 2346 0
-2346 2362 0
-23 -2346 2347 0
-2347 2363 0
-24 -2347 2348 0
-2348 2364 0
-25 -2348 2349 0
-2349 2365 0
-26 -2349 2350 0
-2350 2366 0
-27 -2350 2351 0
-2351 2367 0
-28 -2351 2352 0
-2352 2368 0
-29 -2352 2353 0
-2353 2369 0
-30 -2353 2354 0
-2354 2370 0
-31 -2354 2355 0
-2355 2371 0
-32 -2355 2356 0
-2356 2372 0
-33 -2356 0
-18 2357 0
-2357 2373 0
-19 -2357 2358 0
-2358 2374 0
-20 -2358 2359 0
-2359 2375 0
-21 -2359 2360 0
-2360 2376 0
-22 -2360 2361 0
-2361 2377 0
-23 -2361 2362 0
-2362 2378 0
-24 -2362 2363 0
-2363 2379 0
-25 -2363 2364 0
-2364 2380 0
-26 -2364 2365 0
-2365 2381 0
-27 -2365 2366 0
-2366 2382 0
-28 -2366 2367 0
-2367 2383 0
-29 -2367 2368 0
-2368 2384 0
-30 -2368 2369 0
-2369 2385 0
-31 -2369 2370 0
-2370 2386 0
-32 -2370 2371 0
-2371 2387 0
-33 -2371 2372 0
-2372 2388 0
-34 -2372 0
-19 2373 0
-2373 2389 0
-20 -2373 2374 0
-2374 2390 0
-21 -2374 2375 0
-2375 2391 0
-22 -2375 2376 0
-2376 2392 0
-23 -2376 2377 0
-2377 2393 0
-24 -2377 2378 0
-2378 2394 0
-25 -2378 2379 0
-2379 2395 0
-26 -2379 2380 0
-2380 2396 0
-27 -2380 2381 0
-2381 2397 0
-28 -2381 2382 0
-2382 2398 0
-29 -2382 2383 0
-2383 2399 0
-30 -2383 2384 0
-2384 2400 0
-31 -2384 2385 0
-2385 2401 0
-32 -2385 2386 0
-2386 2402 0
-33 -2386 2387 0
-2387 2403 0
-34 -2387 2388 0
-2388 2404 0
-35 -2388 0
-20 2389 0
-2389 2405 0
-21 -2389 2390 0
-2390 2406 0
-22 -2390 2391 0
-2391 2407 0
-23 -2391 2392 0
-2392 2408 0
-24 -2392 2393 0
-2393 2409 0
-25 -2393 2394 0
-2394 2410 0
-26 -2394 2395 0
-2395 2411 0
-27 -2395 2396 0
-2396 2412 0
-28 -2396 2397 0
-2397 2413 0
-29 -2397 2398 0
-2398 2414 0
-30 -2398 2399 0
-2399 2415 0
-31 -2399 2400 0
-2400 2416 0
-32 -2400 2401 0
-2401 2417 0
-33 -2401 2402 0
-2402 2418 0
-34 -2402 2403 0
-2403 2419 0
-35 -2403 2404 0
-2404 2420 0
-36 -2404 0
-21 2405 0
-2405 2421 0
-22 -2405 2406 0
-2406 2422 0
-23 -2406 2407 0
-2407 2423 0
-24 -2407 2408 0
-2408 2424 0
-25 -2408 2409 0
-2409 2425 0
-26 -2409 2410 0
-2410 2426 0
-27 -2410 2411 0
-2411 2427 0
-28 -2411 2412 0
-2412 2428 0
-29 -2412 2413 0
-2413 2429 0
-30 -2413 2414 0
-2414 2430 0
-31 -2414 2415 0
-2415 2431 0
-32 -2415 2416 0
-2416 2432 0
-33 -2416 2417 0
-2417 2433 0
-34 -2417 2418 0
-2418 2434 0
-35 -2418 2419 0
-2419 2435 0
-36 -2419 2420 0
-2420 2436 0
-37 -2420 0
-22 2421 0
-2421 2437 0
-23 -2421 2422 0
-2422 2438 0
-24 -2422 2423 0
-2423 2439 0
-25 -2423 2424 0
-2424 2440 0
-26 -2424 2425 0
-2425 2441 0
-27 -2425 2426 0
-2426 2442 0
-28 -2426 2427 0
-2427 2443 0
-29 -2427 2428 0
-2428 2444 0
-30 -2428 2429 0
-2429 2445 0
-31 -2429 2430 0
-2430 2446 0
-32 -2430 2431 0
-2431 2447 0
-33 -2431 2432 0
-2432 2448 0
-34 -2432 2433 0
-2433 2449 0
-35 -2433 2434 0
-2434 2450 0
-36 -2434 2435 0
-2435 2451 0
-37 -2435 2436 0
-2436 2452 0
-38 -2436 0
-23 2437 0
-2437 2453 0
-24 -2437 2438 0
-2438 2454 0
-25 -2438 2439 0
-2439 2455 0
-26 -2439 2440 0
-2440 2456 0
-27 -2440 2441 0
-2441 2457 0
-28 -2441 2442 0
-2442 2458 0
-29 -2442 2443 0
-2443 2459 0
-30 -2443 2444 0
-2444 2460 0
-31 -2444 2445 0
-2445 2461 0
-32 -2445 2446 0
-2446 2462 0
-33 -2446 2447 0
-2447 2463 0
-34 -2447 2448 0
-2448 2464 0
-35 -2448 2449 0
-2449 2465 0
-36 -2449 2450 0
-2450 2466 0
-37 -2450 2451 0
-2451 2467 0
-38 -2451 2452 0
-2452 2468 0
-39 -2452 0
-24 2453 0
-2453 2469 0
-25 -2453 2454 0
-2454 2470 0
-26 -2454 2455 0
-2455 2471 0
-27 -2455 2456 0
-2456 2472 0
-28 -2456 2457 0
-2457 2473 0
-29 -2457 2458 0
-2458 2474 0
-30 -2458 2459 0
-2459 2475 0
-31 -2459 2460 0
-2460 2476 0
-32 -2460 2461 0
-2461 2477 0
-33 -2461 2462 0
-2462 2478 0
-34 -2462 2463 0
-2463 2479 0
-35 -2463 2464 0
-2464 2480 0
-36 -2464 2465 0
-2465 2481 0
-37 -2465 2466 0
-2466 2482 0
-38 -2466 2467 0
-2467 2483 0
-39 -2467 2468 0
-2468 2484 0
-40 -2468 0
-25 2469 0
-2469 2485 0
-26 -2469 2470 0
-2470 2486 0
-27 -2470 2471 0
-2471 2487 0
-28 -2471 2472 0
-2472 2488 0
-29 -2472 2473 0
-2473 2489 0
-30 -2473 2474 0
-2474 2490 0
-31 -2474 2475 0
-2475 2491 0
-32 -2475 2476 0
-2476 2492 0
-33 -2476 2477 0
-2477 2493 0
-34 -2477 2478 0
-2478 2494 0
-35 -2478 2479 0
-2479 2495 0
-36 -2479 2480 0
-2480 2496 0
-37 -2480 2481 0
-2481 2497 0
-38 -2481 2482 0
-2482 2498 0
-39 -2482 2483 0
-2483 2499 0
-40 -2483 2484 0
-2484 2500 0
-41 -2484 0
-26 2485 0
-2485 2501 0
-27 -2485 2486 0
-2486 2502 0
-28 -2486 2487 0
-2487 2503 0
-29 -2487 2488 0
-2488 2504 0
-30 -2488 2489 0
-2489 2505 0
-31 -2489 2490 0
-2490 2506 0
-32 -2490 2491 0
-2491 2507 0
-33 -2491 2492 0
-2492 2508 0
-34 -2492 2493 0
-2493 2509 0
-35 -2493 2494 0
-2494 2510 0
-36 -2494 2495 0
-2495 2511 0
-37 -2495 2496 0
-2496 2512 0
-38 -2496 2497 0
-2497 2513 0
-39 -2497 2498 0
-2498 2514 0
-40 -2498 2499 0
-2499 2515 0
-41 -2499 2500 0
-2500 2516 0
-42 -2500 0
-27 2501 0
-2501 2517 0
-28 -2501 2502 0
-2502 2518 0
-29 -2502 2503 0
-2503 2519 0
-30 -2503 2504 0
-2504 2520 0
-31 -2504 2505 0
-2505 2521 0
-32 -2505 2506 0
-2506 2522 0
-33 -2506 2507 0
-2507 2523 0
-34 -2507 2508 0
-2508 2524 0
-35 -2508 2509 0
-2509 2525 0
-36 -2509 2510 0
-2510 2526 0
-37 -2510 2511 0
-2511 2527 0
-38 -2511 2512 0
-2512 2528 0
-39 -2512 2513 0
-2513 2529 0
-40 -2513 2514 0
-2514 2530 0
-41 -2514 2515 0
-2515 2531 0
-42 -2515 2516 0
-2516 2532 0
-43 -2516 0
-28 2517 0
-2517 2533 0
-29 -2517 2518 0
-2518 2534 0
-30 -2518 2519 0
-2519 2535 0
-31 -2519 2520 0
-2520 2536 0
-32 -2520 2521 0
-2521 2537 0
-33 -2521 2522 0
-2522 2538 0
-34 -2522 2523 0
-2523 2539 0
-35 -2523 2524 0
-2524 2540 0
-36 -2524 2525 0
-2525 2541 0
-37 -2525 2526 0
-2526 2542 0
-38 -2526 2527 0
-2527 2543 0
-39 -2527 2528 0
-2528 2544 0
-40 -2528 2529 0
-2529 2545 0
-41 -2529 2530 0
-2530 2546 0
-42 -2530 2531 0
-2531 2547 0
-43 -2531 2532 0
-2532 2548 0
-44 -2532 0
-29 2533 0
-2533 2549 0
-30 -2533 2534 0
-2534 2550 0
-31 -2534 2535 0
-2535 2551 0
-32 -2535 2536 0
-2536 2552 0
-33 -2536 2537 0
-2537 2553 0
-34 -2537 2538 0
-2538 2554 0
-35 -2538 2539 0
-2539 2555 0
-36 -2539 2540 0
-2540 2556 0
-37 -2540 2541 0
-2541 2557 0
-38 -2541 2542 0
-2542 2558 0
-39 -2542 2543 0
-2543 2559 0
-40 -2543 2544 0
-2544 2560 0
-41 -2544 2545 0
-2545 2561 0
-42 -2545 2546 0
-2546 2562 0
-43 -2546 2547 0
-2547 2563 0
-44 -2547 2548 0
-2548 2564 0
-45 -2548 0
-30 2549 0
-2549 2565 0
-31 -2549 2550 0
-2550 2566 0
-32 -2550 2551 0
-2551 2567 0
-33 -2551 2552 0
-2552 2568 0
-34 -2552 2553 0
-2553 2569 0
-35 -2553 2554 0
-2554 2570 0
-36 -2554 2555 0
-2555 2571 0
-37 -2555 2556 0
-2556 2572 0
-38 -2556 2557 0
-2557 2573 0
-39 -2557 2558 0
-2558 2574 0
-40 -2558 2559 0
-2559 2575 0
-41 -2559 2560 0
-2560 2576 0
-42 -2560 2561 0
-2561 2577 0
-43 -2561 2562 0
-2562 2578 0
-44 -2562 2563 0
-2563 2579 0
-45 -2563 2564 0
-2564 2580 0
-46 -2564 0
-31 2565 0
-2565 2581 0
-32 -2565 2566 0
-2566 2582 0
-33 -2566 2567 0
-2567 2583 0
-34 -2567 2568 0
-2568 2584 0
-35 -2568 2569 0
-2569 2585 0
-36 -2569 2570 0
-2570 2586 0
-37 -2570 2571 0
-2571 2587 0
-38 -2571 2572 0
-2572 2588 0
-39 -2572 2573 0
-2573 2589 0
-40 -2573 2574 0
-2574 2590 0
-41 -2574 2575 0
-2575 2591 0
-42 -2575 2576 0
-2576 2592 0
-43 -2576 2577 0
-2577 2593 0
-44 -2577 2578 0
-2578 2594 0
-45 -2578 2579 0
-2579 2595 0
-46 -2579 2580 0
-2580 2596 0
-47 -2580 0
-32 2581 0
-2581 2597 0
-33 -2581 2582 0
-2582 2598 0
-34 -2582 2583 0
-2583 2599 0
-35 -2583 2584 0
-2584 2600 0
-36 -2584 2585 0
-2585 2601 0
-37 -2585 2586 0
-2586 2602 0
-38 -2586 2587 0
-2587 2603 0
-39 -2587 2588 0
-2588 2604 0
-40 -2588 2589 0
-2589 2605 0
-41 -2589 2590 0
-2590 2606 0
-42 -2590 2591 0
-2591 2607 0
-43 -2591 2592 0
-2592 2608 0
-44 -2592 2593 0
-2593 2609 0
-45 -2593 2594 0
-2594 2610 0
-46 -2594 2595 0
-2595 2611 0
-47 -2595 2596 0
-2596 2612 0
-48 -2596 0
-33 2597 0
-2597 2613 0
-34 -2597 2598 0
-2598 2614 0
-35 -2598 2599 0
-2599 2615 0
-36 -2599 2600 0
-2600 2616 0
-37 -2600 2601 0
-2601 2617 0
-38 -2601 2602 0
-2602 2618 0
-39 -2602 2603 0
-2603 2619 0
-40 -2603 2604 0
-2604 2620 0
-41 -2604 2605 0
-2605 2621 0
-42 -2605 2606 0
-2606 2622 0
-43 -2606 2607 0
-2607 2623 0
-44 -2607 2608 0
-2608 2624 0
-45 -2608 2609 0
-2609 2625 0
-46 -2609 2610 0
-2610 2626 0
-47 -2610 2611 0
-2611 2627 0
-48 -2611 2612 0
-2612 2628 0
-49 -2612 0
-34 2613 0
-2613 2629 0
-35 -2613 2614 0
-2614 2630 0
-36 -2614 2615 0
-2615 2631 0
-37 -2615 2616 0
-2616 2632 0
-38 -2616 2617 0
-2617 2633 0
-39 -2617 2618 0
-2618 2634 0
-40 -2618 2619 0
-2619 2635 0
-41 -2619 2620 0
-2620 2636 0
-42 -2620 2621 0
-2621 2637 0
-43 -2621 2622 0
-2622 2638 0
-44 -2622 2623 0
-2623 2639 0
-45 -2623 2624 0
-2624 2640 0
-46 -2624 2625 0
-2625 2641 0
-47 -2625 2626 0
-2626 2642 0
-48 -2626 2627 0
-2627 2643 0
-49 -2627 2628 0
-2628 2644 0
-50 -2628 0
-35 2629 0
-2629 2645 0
-36 -2629 2630 0
-2630 2646 0
-37 -2630 2631 0
-2631 2647 0
-38 -2631 2632 0
-2632 2648 0
-39 -2632 2633 0
-2633 2649 0
-40 -2633 2634 0
-2634 2650 0
-41 -2634 2635 0
-2635 2651 0
-42 -2635 2636 0
-2636 2652 0
-43 -2636 2637 0
-2637 2653 0
-44 -2637 2638 0
-2638 2654 0
-45 -2638 2639 0
-2639 2655 0
-46 -2639 2640 0
-2640 2656 0
-47 -2640 2641 0
-2641 2657 0
-48 -2641 2642 0
-2642 2658 0
-49 -2642 2643 0
-2643 2659 0
-50 -2643 2644 0
-2644 2660 0
-51 -2644 0
-36 2645 0
-2645 2661 0
-37 -2645 2646 0
-2646 2662 0
-38 -2646 2647 0
-2647 2663 0
-39 -2647 2648 0
-2648 2664 0
-40 -2648 2649 0
-2649 2665 0
-41 -2649 2650 0
-2650 2666 0
-42 -2650 2651 0
-2651 2667 0
-43 -2651 2652 0
-2652 2668 0
-44 -2652 2653 0
-2653 2669 0
-45 -2653 2654 0
-2654 2670 0
-46 -2654 2655 0
-2655 2671 0
-47 -2655 2656 0
-2656 2672 0
-48 -2656 2657 0
-2657 2673 0
-49 -2657 2658 0
-2658 2674 0
-50 -2658 2659 0
-2659 2675 0
-51 -2659 2660 0
-2660 2676 0
-52 -2660 0
-37 2661 0
-2661 2677 0
-38 -2661 2662 0
-2662 2678 0
-39 -2662 2663 0
-2663 2679 0
-40 -2663 2664 0
-2664 2680 0
-41 -2664 2665 0
-2665 2681 0
-42 -2665 2666 0
-2666 2682 0
-43 -2666 2667 0
-2667 2683 0
-44 -2667 2668 0
-2668 2684 0
-45 -2668 2669 0
-2669 2685 0
-46 -2669 2670 0
-2670 2686 0
-47 -2670 2671 0
-2671 2687 0
-48 -2671 2672 0
-2672 2688 0
-49 -2672 2673 0
-2673 2689 0
-50 -2673 2674 0
-2674 2690 0
-51 -2674 2675 0
-2675 2691 0
-52 -2675 2676 0
-2676 2692 0
-53 -2676 0
-38 2677 0
-2677 2693 0
-39 -2677 2678 0
-2678 2694 0
-40 -2678 2679 0
-2679 2695 0
-41 -2679 2680 0
-2680 2696 0
-42 -2680 2681 0
-2681 2697 0
-43 -2681 2682 0
-2682 2698 0
-44 -2682 2683 0
-2683 2699 0
-45 -2683 2684 0
-2684 2700 0
-46 -2684 2685 0
-2685 2701 0
-47 -2685 2686 0
-2686 2702 0
-48 -2686 2687 0
-2687 2703 0
-49 -2687 2688 0
-2688 2704 0
-50 -2688 2689 0
-2689 2705 0
-51 -2689 2690 0
-2690 2706 0
-52 -2690 2691 0
-2691 2707 0
-53 -2691 2692 0
-2692 2708 0
-54 -2692 0
-39 2693 0
-2693 2709 0
-40 -2693 2694 0
-2694 2710 0
-41 -2694 2695 0
-2695 2711 0
-42 -2695 2696 0
-2696 2712 0
-43 -2696 2697 0
-2697 2713 0
-44 -2697 2698 0
-2698 2714 0
-45 -2698 2699 0
-2699 2715 0
-46 -2699 2700 0
-2700 2716 0
-47 -2700 2701 0
-2701 2717 0
-48 -2701 2702 0
-2702 2718 0
-49 -2702 2703 0
-2703 2719 0
-50 -2703 2704 0
-2704 2720 0
-51 -2704 2705 0
-2705 2721 0
-52 -2705 2706 0
-2706 2722 0
-53 -2706 2707 0
-2707 2723 0
-54 -2707 2708 0
-2708 2724 0
-55 -2708 0
-40 2709 0
-2709 2725 0
-41 -2709 2710 0
-2710 2726 0
-42 -2710 2711 0
-2711 2727 0
-43 -2711 2712 0
-2712 2728 0
-44 -2712 2713 0
-2713 2729 0
-45 -2713 2714 0
-2714 2730 0
-46 -2714 2715 0
-2715 2731 0
-47 -2715 2716 0
-2716 2732 0
-48 -2716 2717 0
-2717 2733 0
-49 -2717 2718 0
-2718 2734 0
-50 -2718 2719 0
-2719 2735 0
-51 -2719 2720 0
-2720 2736 0
-52 -2720 2721 0
-2721 2737 0
-53 -2721 2722 0
-2722 2738 0
-54 -2722 2723 0
-2723 2739 0
-55 -2723 2724 0
-2724 2740 0
-56 -2724 0
-41 2725 0
-2725 2741 0
-42 -2725 2726 0
-2726 2742 0
-43 -2726 2727 0
-2727 2743 0
-44 -2727 2728 0
-2728 2744 0
-45 -2728 2729 0
-2729 2745 0
-46 -2729 2730 0
-2730 2746 0
-47 -2730 2731 0
-2731 2747 0
-48 -2731 2732 0
-2732 2748 0
-49 -2732 2733 0
-2733 2749 0
-50 -2733 2734 0
-2734 2750 0
-51 -2734 2735 0
-2735 2751 0
-52 -2735 2736 0
-2736 2752 0
-53 -2736 2737 0
-2737 2753 0
-54 -2737 2738 0
-2738 2754 0
-55 -2738 2739 0
-2739 2755 0
-56 -2739 2740 0
-2740 2756 0
-57 -2740 0
-42 2741 0
-2741 2757 0
-43 -2741 2742 0
-2742 2758 0
-44 -2742 2743 0
-2743 2759 0
-45 -2743 2744 0
-2744 2760 0
-46 -2744 2745 0
-2745 2761 0
-47 -2745 2746 0
-2746 2762 0
-48 -2746 2747 0
-2747 2763 0
-49 -2747 2748 0
-2748 2764 0
-50 -2748 2749 0
-2749 2765 0
-51 -2749 2750 0
-2750 2766 0
-52 -2750 2751 0
-2751 2767 0
-53 -2751 2752 0
-2752 2768 0
-54 -2752 2753 0
-2753 2769 0
-55 -2753 2754 0
-2754 2770 0
-56 -2754 2755 0
-2755 2771 0
-57 -2755 2756 0
-2756 2772 0
-58 -2756 0
-43 2757 0
-2757 2773 0
-44 -2757 2758 0
-2758 2774 0
-45 -2758 2759 0
-2759 2775 0
-46 -2759 2760 0
-2760 2776 0
-47 -2760 2761 0
-2761 2777 0
-48 -2761 2762 0
-2762 2778 0
-49 -2762 2763 0
-2763 2779 0
-50 -2763 2764 0
-2764 2780 0
-51 -2764 2765 0
-2765 2781 0
-52 -2765 2766 0
-2766 2782 0
-53 -2766 2767 0
-2767 2783 0
-54 -2767 2768 0
-2768 2784 0
-55 -2768 2769 0
-2769 2785 0
-56 -2769 2770 0
-2770 2786 0
-57 -2770 2771 0
-2771 2787 0
-58 -2771 2772 0
-2772 2788 0
-59 -2772 0
-44 2773 0
-2773 2789 0
-45 -2773 2774 0
-2774 2790 0
-46 -2774 2775 0
-2775 2791 0
-47 -2775 2776 0
-2776 2792 0
-48 -2776 2777 0
-2777 2793 0
-49 -2777 2778 0
-2778 2794 0
-50 -2778 2779 0
-2779 2795 0
-51 -2779 2780 0
-2780 2796 0
-52 -2780 2781 0
-2781 2797 0
-53 -2781 2782 0
-2782 2798 0
-54 -2782 2783 0
-2783 2799 0
-55 -2783 2784 0
-2784 2800 0
-56 -2784 2785 0
-2785 2801 0
-57 -2785 2786 0
-2786 2802 0
-58 -2786 2787 0
-2787 2803 0
-59 -2787 2788 0
-2788 2804 0
-60 -2788 0
-45 2789 0
-2789 2805 0
-46 -2789 2790 0
-2790 2806 0
-47 -2790 2791 0
-2791 2807 0
-48 -2791 2792 0
-2792 2808 0
-49 -2792 2793 0
-2793 2809 0
-50 -2793 2794 0
-2794 2810 0
-51 -2794 2795 0
-2795 2811 0
-52 -2795 2796 0
-2796 2812 0
-53 -2796 2797 0
-2797 2813 0
-54 -2797 2798 0
-2798 2814 0
-55 -2798 2799 0
-2799 2815 0
-56 -2799 2800 0
-2800 2816 0
-57 -2800 2801 0
-2801 2817 0
-58 -2801 2802 0
-2802 2818 0
-59 -2802 2803 0
-2803 2819 0
-60 -2803 2804 0
-2804 2820 0
-61 -2804 0
-46 2805 0
-2805 2821 0
-47 -2805 2806 0
-2806 2822 0
-48 -2806 2807 0
-2807 2823 0
-49 -2807 2808 0
-2808 2824 0
-50 -2808 2809 0
-2809 2825 0
-51 -2809 2810 0
-2810 2826 0
-52 -2810 2811 0
-2811 2827 0
-53 -2811 2812 0
-2812 2828 0
-54 -2812 2813 0
-2813 2829 0
-55 -2813 2814 0
-2814 2830 0
-56 -2814 2815 0
-2815 2831 0
-57 -2815 2816 0
-2816 2832 0
-58 -2816 2817 0
-2817 2833 0
-59 -2817 2818 0
-2818 2834 0
-60 -2818 2819 0
-2819 2835 0
-61 -2819 2820 0
-2820 2836 0
-62 -2820 0
-47 2821 0
-2821 2837 0
-48 -2821 2822 0
-2822 2838 0
-49 -2822 2823 0
-2823 2839 0
-50 -2823 2824 0
-2824 2840 0
-51 -2824 2825 0
-2825 2841 0
-52 -2825 2826 0
-2826 2842 0
-53 -2826 2827 0
-2827 2843 0
-54 -2827 2828 0
-2828 2844 0
-55 -2828 2829 0
-2829 2845 0
-56 -2829 2830 0
-2830 2846 0
-57 -2830 2831 0
-2831 2847 0
-58 -2831 2832 0
-2832 2848 0
-59 -2832 2833 0
-2833 2849 0
-60 -2833 2834 0
-2834 2850 0
-61 -2834 2835 0
-2835 2851 0
-62 -2835 2836 0
-2836 2852 0
-63 -2836 0
-48 2837 0
-2837 2853 0
-49 -2837 2838 0
-2838 2854 0
-50 -2838 2839 0
-2839 2855 0
-51 -2839 2840 0
-2840 2856 0
-52 -2840 2841 0
-2841 2857 0
-53 -2841 2842 0
-2842 2858 0
-54 -2842 2843 0
-2843 2859 0
-55 -2843 2844 0
-2844 2860 0
-56 -2844 2845 0
-2845 2861 0
-57 -2845 2846 0
-2846 2862 0
-58 -2846 2847 0
-2847 2863 0
-59 -2847 2848 0
-2848 2864 0
-60 -2848 2849 0
-2849 2865 0
-61 -2849 2850 0
-2850 2866 0
-62 -2850 2851 0
-2851 2867 0
-63 -2851 2852 0
-2852 2868 0
-64 -2852 0
-49 2853 0
-2853 2869 0
-50 -2853 2854 0
-2854 2870 0
-51 -2854 2855 0
-2855 2871 0
-52 -2855 2856 0
-2856 2872 0
-53 -2856 2857 0
-2857 2873 0
-54 -2857 2858 0
-2858 2874 0
-55 -2858 2859 0
-2859 2875 0
-56 -2859 2860 0
-2860 2876 0
-57 -2860 2861 0
-2861 2877 0
-58 -2861 2862 0
-2862 2878 0
-59 -2862 2863 0
-2863 2879 0
-60 -2863 2864 0
-2864 2880 0
-61 -2864 2865 0
-2865 2881 0
-62 -2865 2866 0
-2866 2882 0
-63 -2866 2867 0
-2867 2883 0
-64 -2867 2868 0
-2868 2884 0
-65 -2868 0
-50 2869 0
-2869 2885 0
-51 -2869 2870 0
-2870 2886 0
-52 -2870 2871 0
-2871 2887 0
-53 -2871 2872 0
-2872 2888 0
-54 -2872 2873 0
-2873 2889 0
-55 -2873 2874 0
-2874 2890 0
-56 -2874 2875 0
-2875 2891 0
-57 -2875 2876 0
-2876 2892 0
-58 -2876 2877 0
-2877 2893 0
-59 -2877 2878 0
-2878 2894 0
-60 -2878 2879 0
-2879 2895 0
-61 -2879 2880 0
-2880 2896 0
-62 -2880 2881 0
-2881 2897 0
-63 -2881 2882 0
-2882 2898 0
-64 -2882 2883 0
-2883 2899 0
-65 -2883 2884 0
-2884 2900 0
-66 -2884 0
-51 2885 0
-2885 2901 0
-52 -2885 2886 0
-2886 2902 0
-53 -2886 2887 0
-2887 2903 0
-54 -2887 2888 0
-2888 2904 0
-55 -2888 2889 0
-2889 2905 0
-56 -2889 2890 0
-2890 2906 0
-57 -2890 2891 0
-2891 2907 0
-58 -2891 2892 0
-2892 2908 0
-59 -2892 2893 0
-2893 2909 0
-60 -2893 2894 0
-2894 2910 0
-61 -2894 2895 0
-2895 2911 0
-62 -2895 2896 0
-2896 2912 0
-63 -2896 2897 0
-2897 2913 0
-64 -2897 2898 0
-2898 2914 0
-65 -2898 2899 0
-2899 2915 0
-66 -2899 2900 0
-2900 2916 0
-67 -2900 0
-52 2901 0
-2901 2917 0
-53 -2901 2902 0
-2902 2918 0
-54 -2902 2903 0
-2903 2919 0
-55 -2903 2904 0
-2904 2920 0
-56 -2904 2905 0
-2905 2921 0
-57 -2905 2906 0
-2906 2922 0
-58 -2906 2907 0
-2907 2923 0
-59 -2907 2908 0
-2908 2924 0
-60 -2908 2909 0
-2909 2925 0
-61 -2909 2910 0
-2910 2926 0
-62 -2910 2911 0
-2911 2927 0
-63 -2911 2912 0
-2912 2928 0
-64 -2912 2913 0
-2913 2929 0
-65 -2913 2914 0
-2914 2930 0
-66 -2914 2915 0
-2915 2931 0
-67 -2915 2916 0
-2916 2932 0
-68 -2916 0
-53 2917 0
-2917 2933 0
-54 -2917 2918 0
-2918 2934 0
-55 -2918 2919 0
-2919 2935 0
-56 -2919 2920 0
-2920 2936 0
-57 -2920 2921 0
-2921 2937 0
-58 -2921 2922 0
-2922 2938 0
-59 -2922 2923 0
-2923 2939 0
-60 -2923 2924 0
-2924 2940 0
-61 -2924 2925 0
-2925 2941 0
-62 -2925 2926 0
-2926 2942 0
-63 -2926 2927 0
-2927 2943 0
-64 -2927 2928 0
-2928 2944 0
-65 -2928 2929 0
-2929 2945 0
-66 -2929 2930 0
-2930 2946 0
-67 -2930 2931 0
-2931 2947 0
-68 -2931 2932 0
-2932 2948 0
-69 -2932 0
-54 2933 0
-2933 2949 0
-55 -2933 2934 0
-2934 2950 0
-56 -2934 2935 0
-2935 2951 0
-57 -2935 2936 0
-2936 2952 0
-58 -2936 2937 0
-2937 2953 0
-59 -2937 2938 0
-2938 2954 0
-60 -2938 2939 0
-2939 2955 0
-61 -2939 2940 0
-2940 2956 0
-62 -2940 2941 0
-2941 2957 0
-63 -2941 2942 0
-2942 2958 0
-64 -2942 2943 0
-2943 2959 0
-65 -2943 2944 0
-2944 2960 0
-66 -2944 2945 0
-2945 2961 0
-67 -2945 2946 0
-2946 2962 0
-68 -2946 2947 0
-2947 2963 0
-69 -2947 2948 0
-2948 2964 0
-70 -2948 0
-55 2949 0
-2949 2965 0
-56 -2949 2950 0
-2950 2966 0
-57 -2950 2951 0
-2951 2967 0
-58 -2951 2952 0
-2952 2968 0
-59 -2952 2953 0
-2953 2969 0
-60 -2953 2954 0
-2954 2970 0
-61 -2954 2955 0
-2955 2971 0
-62 -2955 2956 0
-2956 2972 0
-63 -2956 2957 0
-2957 2973 0
-64 -2957 2958 0
-2958 2974 0
-65 -2958 2959 0
-2959 2975 0
-66 -2959 2960 0
-2960 2976 0
-67 -2960 2961 0
-2961 2977 0
-68 -2961 2962 0
-2962 2978 0
-69 -2962 2963 0
-2963 2979 0
-70 -2963 2964 0
-2964 2980 0
-71 -2964 0
-56 2965 0
-2965 2981 0
-57 -2965 2966 0
-2966 2982 0
-58 -2966 2967 0
-2967 2983 0
-59 -2967 2968 0
-2968 2984 0
-60 -2968 2969 0
-2969 2985 0
-61 -2969 2970 0
-2970 2986 0
-62 -2970 2971 0
-2971 2987 0
-63 -2971 2972 0
-2972 2988 0
-64 -2972 2973 0
-2973 2989 0
-65 -2973 2974 0
-2974 2990 0
-66 -2974 2975 0
-2975 2991 0
-67 -2975 2976 0
-2976 2992 0
-68 -2976 2977 0
-2977 2993 0
-69 -2977 2978 0
-2978 2994 0
-70 -2978 2979 0
-2979 2995 0
-71 -2979 2980 0
-2980 2996 0
-72 -2980 0
-57 2981 0
-2981 2997 0
-58 -2981 2982 0
-2982 2998 0
-59 -2982 2983 0
-2983 2999 0
-60 -2983 2984 0
-2984 3000 0
-61 -2984 2985 0
-2985 3001 0
-62 -2985 2986 0
-2986 3002 0
-63 -2986 2987 0
-2987 3003 0
-64 -2987 2988 0
-2988 3004 0
-65 -2988 2989 0
-2989 3005 0
-66 -2989 2990 0
-2990 3006 0
-67 -2990 2991 0
-2991 3007 0
-68 -2991 2992 0
-2992 3008 0
-69 -2992 2993 0
-2993 3009 0
-70 -2993 2994 0
-2994 3010 0
-71 -2994 2995 0
-2995 3011 0
-72 -2995 2996 0
-2996 3012 0
-73 -2996 0
-58 2997 0
-2997 3013 0
-59 -2997 2998 0
-2998 3014 0
-60 -2998 2999 0
-2999 3015 0
-61 -2999 3000 0
-3000 3016 0
-62 -3000 3001 0
-3001 3017 0
-63 -3001 3002 0
-3002 3018 0
-64 -3002 3003 0
-3003 3019 0
-65 -3003 3004 0
-3004 3020 0
-66 -3004 3005 0
-3005 3021 0
-67 -3005 3006 0
-3006 3022 0
-68 -3006 3007 0
-3007 3023 0
-69 -3007 3008 0
-3008 3024 0
-70 -3008 3009 0
-3009 3025 0
-71 -3009 3010 0
-3010 3026 0
-72 -3010 3011 0
-3011 3027 0
-73 -3011 3012 0
-3012 3028 0
-74 -3012 0
-59 3013 0
-3013 3029 0
-60 -3013 3014 0
-3014 3030 0
-61 -3014 3015 0
-3015 3031 0
-62 -3015 3016 0
-3016 3032 0
-63 -3016 3017 0
-3017 3033 0
-64 -3017 3018 0
-3018 3034 0
-65 -3018 3019 0
-3019 3035 0
-66 -3019 3020 0
-3020 3036 0
-67 -3020 3021 0
-3021 3037 0
-68 -3021 3022 0
-3022 3038 0
-69 -3022 3023 0
-3023 3039 0
-70 -3023 3024 0
-3024 3040 0
-71 -3024 3025 0
-3025 3041 0
-72 -3025 3026 0
-3026 3042 0
-73 -3026 3027 0
-3027 3043 0
-74 -3027 3028 0
-3028 3044 0
-75 -3028 0
-60 3029 0
-3029 3045 0
-61 -3029 3030 0
-3030 3046 0
-62 -3030 3031 0
-3031 3047 0
-63 -3031 3032 0
-3032 3048 0
-64 -3032 3033 0
-3033 3049 0
-65 -3033 3034 0
-3034 3050 0
-66 -3034 3035 0
-3035 3051 0
-67 -3035 3036 0
-3036 3052 0
-68 -3036 3037 0
-3037 3053 0
-69 -3037 3038 0
-3038 3054 0
-70 -3038 3039 0
-3039 3055 0
-71 -3039 3040 0
-3040 3056 0
-72 -3040 3041 0
-3041 3057 0
-73 -3041 3042 0
-3042 3058 0
-74 -3042 3043 0
-3043 3059 0
-75 -3043 3044 0
-3044 3060 0
-76 -3044 0
-61 3045 0
-3045 3061 0
-62 -3045 3046 0
-3046 3062 0
-63 -3046 3047 0
-3047 3063 0
-64 -3047 3048 0
-3048 3064 0
-65 -3048 3049 0
-3049 3065 0
-66 -3049 3050 0
-3050 3066 0
-67 -3050 3051 0
-3051 3067 0
-68 -3051 3052 0
-3052 3068 0
-69 -3052 3053 0
-3053 3069 0
-70 -3053 3054 0
-3054 3070 0
-71 -3054 3055 0
-3055 3071 0
-72 -3055 3056 0
-3056 3072 0
-73 -3056 3057 0
-3057 3073 0
-74 -3057 3058 0
-3058 3074 0
-75 -3058 3059 0
-3059 3075 0
-76 -3059 3060 0
-3060 3076 0
-77 -3060 0
-62 3061 0
-3061 3077 0
-63 -3061 3062 0
-3062 3078 0
-64 -3062 3063 0
-3063 3079 0
-65 -3063 3064 0
-3064 3080 0
-66 -3064 3065 0
-3065 3081 0
-67 -3065 3066 0
-3066 3082 0
-68 -3066 3067 0
-3067 3083 0
-69 -3067 3068 0
-3068 3084 0
-70 -3068 3069 0
-3069 3085 0
-71 -3069 3070 0
-3070 3086 0
-72 -3070 3071 0
-3071 3087 0
-73 -3071 3072 0
-3072 3088 0
-74 -3072 3073 0
-3073 3089 0
-75 -3073 3074 0
-3074 3090 0
-76 -3074 3075 0
-3075 3091 0
-77 -3075 3076 0
-3076 3092 0
-78 -3076 0
-63 3077 0
-3077 3093 0
-64 -3077 3078 0
-3078 3094 0
-65 -3078 3079 0
-3079 3095 0
-66 -3079 3080 0
-3080 3096 0
-67 -3080 3081 0
-3081 3097 0
-68 -3081 3082 0
-3082 3098 0
-69 -3082 3083 0
-3083 3099 0
-70 -3083 3084 0
-3084 3100 0
-71 -3084 3085 0
-3085 3101 0
-72 -3085 3086 0
-3086 3102 0
-73 -3086 3087 0
-3087 3103 0
-74 -3087 3088 0
-3088 3104 0
-75 -3088 3089 0
-3089 3105 0
-76 -3089 3090 0
-3090 3106 0
-77 -3090 3091 0
-3091 3107 0
-78 -3091 3092 0
-3092 3108 0
-79 -3092 0
-64 3093 0
-3093 3109 0
-65 -3093 3094 0
-3094 3110 0
-66 -3094 3095 0
-3095 3111 0
-67 -3095 3096 0
-3096 3112 0
-68 -3096 3097 0
-3097 3113 0
-69 -3097 3098 0
-3098 3114 0
-70 -3098 3099 0
-3099 3115 0
-71 -3099 3100 0
-3100 3116 0
-72 -3100 3101 0
-3101 3117 0
-73 -3101 3102 0
-3102 3118 0
-74 -3102 3103 0
-3103 3119 0
-75 -3103 3104 0
-3104 3120 0
-76 -3104 3105 0
-3105 3121 0
-77 -3105 3106 0
-3106 3122 0
-78 -3106 3107 0
-3107 3123 0
-79 -3107 3108 0
-3108 3124 0
-80 -3108 0
-65 3109 0
-3109 3125 0
-66 -3109 3110 0
-3110 3126 0
-67 -3110 3111 0
-3111 3127 0
-68 -3111 3112 0
-3112 3128 0
-69 -3112 3113 0
-3113 3129 0
-70 -3113 3114 0
-3114 3130 0
-71 -3114 3115 0
-3115 3131 0
-72 -3115 3116 0
-3116 3132 0
-73 -3116 3117 0
-3117 3133 0
-74 -3117 3118 0
-3118 3134 0
-75 -3118 3119 0
-3119 3135 0
-76 -3119 3120 0
-3120 3136 0
-77 -3120 3121 0
-3121 3137 0
-78 -3121 3122 0
-3122 3138 0
-79 -3122 3123 0
-3123 3139 0
-80 -3123 3124 0
-3124 3140 0
-81 -3124 0
-66 3125 0
-3125 3141 0
-67 -3125 3126 0
-3126 3142 0
-68 -3126 3127 0
-3127 3143 0
-69 -3127 3128 0
-3128 3144 0
-70 -3128 3129 0
-3129 3145 0
-71 -3129 3130 0
-3130 3146 0
-72 -3130 3131 0
-3131 3147 0
-73 -3131 3132 0
-3132 3148 0
-74 -3132 3133 0
-3133 3149 0
-75 -3133 3134 0
-3134 3150 0
-76 -3134 3135 0
-3135 3151 0
-77 -3135 3136 0
-3136 3152 0
-78 -3136 3137 0
-3137 3153 0
-79 -3137 3138 0
-3138 3154 0
-80 -3138 3139 0
-3139 3155 0
-81 -3139 3140 0
-3140 3156 0
-82 -3140 0
-67 3141 0
-3141 3157 0
-68 -3141 3142 0
-3142 3158 0
-69 -3142 3143 0
-3143 3159 0
-70 -3143 3144 0
-3144 3160 0
-71 -3144 3145 0
-3145 3161 0
-72 -3145 3146 0
-3146 3162 0
-73 -3146 3147 0
-3147 3163 0
-74 -3147 3148 0
-3148 3164 0
-75 -3148 3149 0
-3149 3165 0
-76 -3149 3150 0
-3150 3166 0
-77 -3150 3151 0
-3151 3167 0
-78 -3151 3152 0
-3152 3168 0
-79 -3152 3153 0
-3153 3169 0
-80 -3153 3154 0
-3154 3170 0
-81 -3154 3155 0
-3155 3171 0
-82 -3155 3156 0
-3156 3172 0
-83 -3156 0
-68 3157 0
-3157 3173 0
-69 -3157 3158 0
-3158 3174 0
-70 -3158 3159 0
-3159 3175 0
-71 -3159 3160 0
-3160 3176 0
-72 -3160 3161 0
-3161 3177 0
-73 -3161 3162 0
-3162 3178 0
-74 -3162 3163 0
-3163 3179 0
-75 -3163 3164 0
-3164 3180 0
-76 -3164 3165 0
-3165 3181 0
-77 -3165 3166 0
-3166 3182 0
-78 -3166 3167 0
-3167 3183 0
-79 -3167 3168 0
-3168 3184 0
-80 -3168 3169 0
-3169 3185 0
-81 -3169 3170 0
-3170 3186 0
-82 -3170 3171 0
-3171 3187 0
-83 -3171 3172 0
-3172 3188 0
-84 -3172 0
-69 3173 0
-3173 3189 0
-70 -3173 3174 0
-3174 3190 0
-71 -3174 3175 0
-3175 3191 0
-72 -3175 3176 0
-3176 3192 0
-73 -3176 3177 0
-3177 3193 0
-74 -3177 3178 0
-3178 3194 0
-75 -3178 3179 0
-3179 3195 0
-76 -3179 3180 0
-3180 3196 0
-77 -3180 3181 0
-3181 3197 0
-78 -3181 3182 0
-3182 3198 0
-79 -3182 3183 0
-3183 3199 0
-80 -3183 3184 0
-3184 3200 0
-81 -3184 3185 0
-3185 3201 0
-82 -3185 3186 0
-3186 3202 0
-83 -3186 3187 0
-3187 3203 0
-84 -3187 3188 0
-3188 3204 0
-85 -3188 0
-70 3189 0
-3189 3205 0
-71 -3189 3190 0
-3190 3206 0
-72 -3190 3191 0
-3191 3207 0
-73 -3191 3192 0
-3192 3208 0
-74 -3192 3193 0
-3193 3209 0
-75 -3193 3194 0
-3194 3210 0
-76 -3194 3195 0
-3195 3211 0
-77 -3195 3196 0
-3196 3212 0
-78 -3196 3197 0
-3197 3213 0
-79 -3197 3198 0
-3198 3214 0
-80 -3198 3199 0
-3199 3215 0
-81 -3199 3200 0
-3200 3216 0
-82 -3200 3201 0
-3201 3217 0
-83 -3201 3202 0
-3202 3218 0
-84 -3202 3203 0
-3203 3219 0
-85 -3203 3204 0
-3204 3220 0
-86 -3204 0
-71 3205 0
-3205 3221 0
-72 -3205 3206 0
-3206 3222 0
-73 -3206 3207 0
-3207 3223 0
-74 -3207 3208 0
-3208 3224 0
-75 -3208 3209 0
-3209 3225 0
-76 -3209 3210 0
-3210 3226 0
-77 -3210 3211 0
-3211 3227 0
-78 -3211 3212 0
-3212 3228 0
-79 -3212 3213 0
-3213 3229 0
-80 -3213 3214 0
-3214 3230 0
-81 -3214 3215 0
-3215 3231 0
-82 -3215 3216 0
-3216 3232 0
-83 -3216 3217 0
-3217 3233 0
-84 -3217 3218 0
-3218 3234 0
-85 -3218 3219 0
-3219 3235 0
-86 -3219 3220 0
-3220 3236 0
-87 -3220 0
-72 3221 0
-3221 3237 0
-73 -3221 3222 0
-3222 3238 0
-74 -3222 3223 0
-3223 3239 0
-75 -3223 3224 0
-3224 3240 0
-76 -3224 3225 0
-3225 3241 0
-77 -3225 3226 0
-3226 3242 0
-78 -3226 3227 0
-3227 3243 0
-79 -3227 3228 0
-3228 3244 0
-80 -3228 3229 0
-3229 3245 0
-81 -3229 3230 0
-3230 3246 0
-82 -3230 3231 0
-3231 3247 0
-83 -3231 3232 0
-3232 3248 0
-84 -3232 3233 0
-3233 3249 0
-85 -3233 3234 0
-3234 3250 0
-86 -3234 3235 0
-3235 3251 0
-87 -3235 3236 0
-3236 3252 0
-88 -3236 0
-73 3237 0
-3237 3253 0
-74 -3237 3238 0
-3238 3254 0
-75 -3238 3239 0
-3239 3255 0
-76 -3239 3240 0
-3240 3256 0
-77 -3240 3241 0
-3241 3257 0
-78 -3241 3242 0
-3242 3258 0
-79 -3242 3243 0
-3243 3259 0
-80 -3243 3244 0
-3244 3260 0
-81 -3244 3245 0
-3245 3261 0
-82 -3245 3246 0
-3246 3262 0
-83 -3246 3247 0
-3247 3263 0
-84 -3247 3248 0
-3248 3264 0
-85 -3248 3249 0
-3249 3265 0
-86 -3249 3250 0
-3250 3266 0
-87 -3250 3251 0
-3251 3267 0
-88 -3251 3252 0
-3252 3268 0
-89 -3252 0
-74 3253 0
-3253 3269 0
-75 -3253 3254 0
-3254 3270 0
-76 -3254 3255 0
-3255 3271 0
-77 -3255 3256 0
-3256 3272 0
-78 -3256 3257 0
-3257 3273 0
-79 -3257 3258 0
-3258 3274 0
-80 -3258 3259 0
-3259 3275 0
-81 -3259 3260 0
-3260 3276 0
-82 -3260 3261 0
-3261 3277 0
-83 -3261 3262 0
-3262 3278 0
-84 -3262 3263 0
-3263 3279 0
-85 -3263 3264 0
-3264 3280 0
-86 -3264 3265 0
-3265 3281 0
-87 -3265 3266 0
-3266 3282 0
-88 -3266 3267 0
-3267 3283 0
-89 -3267 3268 0
-3268 3284 0
-90 -3268 0
-75 3269 0
-3269 3285 0
-76 -3269 3270 0
-3270 3286 0
-77 -3270 3271 0
-3271 3287 0
-78 -3271 3272 0
-3272 3288 0
-79 -3272 3273 0
-3273 3289 0
-80 -3273 3274 0
-3274 3290 0
-81 -3274 3275 0
-3275 3291 0
-82 -3275 3276 0
-3276 3292 0
-83 -3276 3277 0
-3277 3293 0
-84 -3277 3278 0
-3278 3294 0
-85 -3278 3279 0
-3279 3295 0
-86 -3279 3280 0
-3280 3296 0
-87 -3280 3281 0
-3281 3297 0
-88 -3281 3282 0
-3282 3298 0
-89 -3282 3283 0
-3283 3299 0
-90 -3283 3284 0
-3284 3300 0
-91 -3284 0
-76 3285 0
-3285 3301 0
-77 -3285 3286 0
-3286 3302 0
-78 -3286 3287 0
-3287 3303 0
-79 -3287 3288 0
-3288 3304 0
-80 -3288 3289 0
-3289 3305 0
-81 -3289 3290 0
-3290 3306 0
-82 -3290 3291 0
-3291 3307 0
-83 -3291 3292 0
-3292 3308 0
-84 -3292 3293 0
-3293 3309 0
-85 -3293 3294 0
-3294 3310 0
-86 -3294 3295 0
-3295 3311 0
-87 -3295 3296 0
-3296 3312 0
-88 -3296 3297 0
-3297 3313 0
-89 -3297 3298 0
-3298 3314 0
-90 -3298 3299 0
-3299 3315 0
-91 -3299 3300 0
-3300 3316 0
-92 -3300 0
-77 3301 0
-3301 3317 0
-78 -3301 3302 0
-3302 3318 0
-79 -3302 3303 0
-3303 3319 0
-80 -3303 3304 0
-3304 3320 0
-81 -3304 3305 0
-3305 3321 0
-82 -3305 3306 0
-3306 3322 0
-83 -3306 3307 0
-3307 3323 0
-84 -3307 3308 0
-3308 3324 0
-85 -3308 3309 0
-3309 3325 0
-86 -3309 3310 0
-3310 3326 0
-87 -3310 3311 0
-3311 3327 0
-88 -3311 3312 0
-3312 3328 0
-89 -3312 3313 0
-3313 3329 0
-90 -3313 3314 0
-3314 3330 0
-91 -3314 3315 0
-3315 3331 0
-92 -3315 3316 0
-3316 3332 0
-93 -3316 0
-78 3317 0
-3317 3333 0
-79 -3317 3318 0
-3318 3334 0
-80 -3318 3319 0
-3319 3335 0
-81 -3319 3320 0
-3320 3336 0
-82 -3320 3321 0
-3321 3337 0
-83 -3321 3322 0
-3322 3338 0
-84 -3322 3323 0
-3323 3339 0
-85 -3323 3324 0
-3324 3340 0
-86 -3324 3325 0
-3325 3341 0
-87 -3325 3326 0
-3326 3342 0
-88 -3326 3327 0
-3327 3343 0
-89 -3327 3328 0
-3328 3344 0
-90 -3328 3329 0
-3329 3345 0
-91 -3329 3330 0
-3330 3346 0
-92 -3330 3331 0
-3331 3347 0
-93 -3331 3332 0
-3332 3348 0
-94 -3332 0
-79 3333 0
-3333 3349 0
-80 -3333 3334 0
-3334 3350 0
-81 -3334 3335 0
-3335 3351 0
-82 -3335 3336 0
-3336 3352 0
-83 -3336 3337 0
-3337 3353 0
-84 -3337 3338 0
-3338 3354 0
-85 -3338 3339 0
-3339 3355 0
-86 -3339 3340 0
-3340 3356 0
-87 -3340 3341 0
-3341 3357 0
-88 -3341 3342 0
-3342 3358 0
-89 -3342 3343 0
-3343 3359 0
-90 -3343 3344 0
-3344 3360 0
-91 -3344 3345 0
-3345 3361 0
-92 -3345 3346 0
-3346 3362 0
-93 -3346 3347 0
-3347 3363 0
-94 -3347 3348 0
-3348 3364 0
-95 -3348 0
-80 3349 0
-3349 3365 0
-81 -3349 3350 0
-3350 3366 0
-82 -3350 3351 0
-3351 3367 0
-83 -3351 3352 0
-3352 3368 0
-84 -3352 3353 0
-3353 3369 0
-85 -3353 3354 0
-3354 3370 0
-86 -3354 3355 0
-3355 3371 0
-87 -3355 3356 0
-3356 3372 0
-88 -3356 3357 0
-3357 3373 0
-89 -3357 3358 0
-3358 3374 0
-90 -3358 3359 0
-3359 3375 0
-91 -3359 3360 0
-3360 3376 0
-92 -3360 3361 0
-3361 3377 0
-93 -3361 3362 0
-3362 3378 0
-94 -3362 3363 0
-3363 3379 0
-95 -3363 3364 0
-3364 3380 0
-96 -3364 0
-81 3365 0
-3365 3381 0
-82 -3365 3366 0
-3366 3382 0
-83 -3366 3367 0
-3367 3383 0
-84 -3367 3368 0
-3368 3384 0
-85 -3368 3369 0
-3369 3385 0
-86 -3369 3370 0
-3370 3386 0
-87 -3370 3371 0
-3371 3387 0
-88 -3371 3372 0
-3372 3388 0
-89 -3372 3373 0
-3373 3389 0
-90 -3373 3374 0
-3374 3390 0
-91 -3374 3375 0
-3375 3391 0
-92 -3375 3376 0
-3376 3392 0
-93 -3376 3377 0
-3377 3393 0
-94 -3377 3378 0
-3378 3394 0
-95 -3378 3379 0
-3379 3395 0
-96 -3379 3380 0
-3380 3396 0
-97 -3380 0
-82 3381 0
-3381 3397 0
-83 -3381 3382 0
-3382 3398 0
-84 -3382 3383 0
-3383 3399 0
-85 -3383 3384 0
-3384 3400 0
-86 -3384 3385 0
-3385 3401 0
-87 -3385 3386 0
-3386 3402 0
-88 -3386 3387 0
-3387 3403 0
-89 -3387 3388 0
-3388 3404 0
-90 -3388 3389 0
-3389 3405 0
-91 -3389 3390 0
-3390 3406 0
-92 -3390 3391 0
-3391 3407 0
-93 -3391 3392 0
-3392 3408 0
-94 -3392 3393 0
-3393 3409 0
-95 -3393 3394 0
-3394 3410 0
-96 -3394 3395 0
-3395 3411 0
-97 -3395 3396 0
-3396 3412 0
-98 -3396 0
-83 3397 0
-3397 3413 0
-84 -3397 3398 0
-3398 3414 0
-85 -3398 3399 0
-3399 3415 0
-86 -3399 3400 0
-3400 3416 0
-87 -3400 3401 0
-3401 3417 0
-88 -3401 3402 0
-3402 3418 0
-89 -3402 3403 0
-3403 3419 0
-90 -3403 3404 0
-3404 3420 0
-91 -3404 3405 0
-3405 3421 0
-92 -3405 3406 0
-3406 3422 0
-93 -3406 3407 0
-3407 3423 0
-94 -3407 3408 0
-3408 3424 0
-95 -3408 3409 0
-3409 3425 0
-96 -3409 3410 0
-3410 3426 0
-97 -3410 3411 0
-3411 3427 0
-98 -3411 3412 0
-3412 3428 0
-99 -3412 0
-84 3413 0
-3413 3429 0
-85 -3413 3414 0
-3414 3430 0
-86 -3414 3415 0
-3415 3431 0
-87 -3415 3416 0
-3416 3432 0
-88 -3416 3417 0
-3417 3433 0
-89 -3417 3418 0
-3418 3434 0
-90 -3418 3419 0
-3419 3435 0
-91 -3419 3420 0
-3420 3436 0
-92 -3420 3421 0
-3421 3437 0
-93 -3421 3422 0
-3422 3438 0
-94 -3422 3423 0
-3423 3439 0
-95 -3423 3424 0
-3424 3440 0
-96 -3424 3425 0
-3425 3441 0
-97 -3425 3426 0
-3426 3442 0
-98 -3426 3427 0
-3427 3443 0
-99 -3427 3428 0
-3428 3444 0
-100 -3428 0
-85 3429 0
-3429 3445 0
-86 -3429 3430 0
-3430 3446 0
-87 -3430 3431 0
-3431 3447 0
-88 -3431 3432 0
-3432 3448 0
-89 -3432 3433 0
-3433 3449 0
-90 -3433 3434 0
-3434 3450 0
-91 -3434 3435 0
-3435 3451 0
-92 -3435 3436 0
-3436 3452 0
-93 -3436 3437 0
-3437 3453 0
-94 -3437 3438 0
-3438 3454 0
-95 -3438 3439 0
-3439 3455 0
-96 -3439 3440 0
-3440 3456 0
-97 -3440 3441 0
-3441 3457 0
-98 -3441 3442 0
-3442 3458 0
-99 -3442 3443 0
-3443 3459 0
-100 -3443 3444 0
-3444 3460 0
-101 -3444 0
-86 3445 0
-3445 3461 0
-87 -3445 3446 0
-3446 3462 0
-88 -3446 3447 0
-3447 3463 0
-89 -3447 3448 0
-3448 3464 0
-90 -3448 3449 0
-3449 3465 0
-91 -3449 3450 0
-3450 3466 0
-92 -3450 3451 0
-3451 3467 0
-93 -3451 3452 0
-3452 3468 0
-94 -3452 3453 0
-3453 3469 0
-95 -3453 3454 0
-3454 3470 0
-96 -3454 3455 0
-3455 3471 0
-97 -3455 3456 0
-3456 3472 0
-98 -3456 3457 0
-3457 3473 0
-99 -3457 3458 0
-3458 3474 0
-100 -3458 3459 0
-3459 3475 0
-101 -3459 3460 0
-3460 3476 0
-102 -3460 0
-87 3461 0
-3461 3477 0
-88 -3461 3462 0
-3462 3478 0
-89 -3462 3463 0
-3463 3479 0
-90 -3463 3464 0
-3464 3480 0
-91 -3464 3465 0
-3465 3481 0
-92 -3465 3466 0
-3466 3482 0
-93 -3466 3467 0
-3467 3483 0
-94 -3467 3468 0
-3468 3484 0
-95 -3468 3469 0
-3469 3485 0
-96 -3469 3470 0
-3470 3486 0
-97 -3470 3471 0
-3471 3487 0
-98 -3471 3472 0
-3472 3488 0
-99 -3472 3473 0
-3473 3489 0
-100 -3473 3474 0
-3474 3490 0
-101 -3474 3475 0
-3475 3491 0
-102 -3475 3476 0
-3476 3492 0
-103 -3476 0
-88 3477 0
-3477 3493 0
-89 -3477 3478 0
-3478 3494 0
-90 -3478 3479 0
-3479 3495 0
-91 -3479 3480 0
-3480 3496 0
-92 -3480 3481 0
-3481 3497 0
-93 -3481 3482 0
-3482 3498 0
-94 -3482 3483 0
-3483 3499 0
-95 -3483 3484 0
-3484 3500 0
-96 -3484 3485 0
-3485 3501 0
-97 -3485 3486 0
-3486 3502 0
-98 -3486 3487 0
-3487 3503 0
-99 -3487 3488 0
-3488 3504 0
-100 -3488 3489 0
-3489 3505 0
-101 -3489 3490 0
-3490 3506 0
-102 -3490 3491 0
-3491 3507 0
-103 -3491 3492 0
-3492 3508 0
-104 -3492 0
-89 3493 0
-3493 3509 0
-90 -3493 3494 0
-3494 3510 0
-91 -3494 3495 0
-3495 3511 0
-92 -3495 3496 0
-3496 3512 0
-93 -3496 3497 0
-3497 3513 0
-94 -3497 3498 0
-3498 3514 0
-95 -3498 3499 0
-3499 3515 0
-96 -3499 3500 0
-3500 3516 0
-97 -3500 3501 0
-3501 3517 0
-98 -3501 3502 0
-3502 3518 0
-99 -3502 3503 0
-3503 3519 0
-100 -3503 3504 0
-3504 3520 0
-101 -3504 3505 0
-3505 3521 0
-102 -3505 3506 0
-3506 3522 0
-103 -3506 3507 0
-3507 3523 0
-104 -3507 3508 0
-3508 3524 0
-105 -3508 0
-90 3509 0
-3509 3525 0
-91 -3509 3510 0
-3510 3526 0
-92 -3510 3511 0
-3511 3527 0
-93 -3511 3512 0
-3512 3528 0
-94 -3512 3513 0
-3513 3529 0
-95 -3513 3514 0
-3514 3530 0
-96 -3514 3515 0
-3515 3531 0
-97 -3515 3516 0
-3516 3532 0
-98 -3516 3517 0
-3517 3533 0
-99 -3517 3518 0
-3518 3534 0
-100 -3518 3519 0
-3519 3535 0
-101 -3519 3520 0
-3520 3536 0
-102 -3520 3521 0
-3521 3537 0
-103 -3521 3522 0
-3522 3538 0
-104 -3522 3523 0
-3523 3539 0
-105 -3523 3524 0
-3524 3540 0
-106 -3524 0
-91 3525 0
-3525 3541 0
-92 -3525 3526 0
-3526 3542 0
-93 -3526 3527 0
-3527 3543 0
-94 -3527 3528 0
-3528 3544 0
-95 -3528 3529 0
-3529 3545 0
-96 -3529 3530 0
-3530 3546 0
-97 -3530 3531 0
-3531 3547 0
-98 -3531 3532 0
-3532 3548 0
-99 -3532 3533 0
-3533 3549 0
-100 -3533 3534 0
-3534 3550 0
-101 -3534 3535 0
-3535 3551 0
-102 -3535 3536 0
-3536 3552 0
-103 -3536 3537 0
-3537 3553 0
-104 -3537 3538 0
-3538 3554 0
-105 -3538 3539 0
-3539 3555 0
-106 -3539 3540 0
-3540 3556 0
-107 -3540 0
-92 3541 0
-3541 3557 0
-93 -3541 3542 0
-3542 3558 0
-94 -3542 3543 0
-3543 3559 0
-95 -3543 3544 0
-3544 3560 0
-96 -3544 3545 0
-3545 3561 0
-97 -3545 3546 0
-3546 3562 0
-98 -3546 3547 0
-3547 3563 0
-99 -3547 3548 0
-3548 3564 0
-100 -3548 3549 0
-3549 3565 0
-101 -3549 3550 0
-3550 3566 0
-102 -3550 3551 0
-3551 3567 0
-103 -3551 3552 0
-3552 3568 0
-104 -3552 3553 0
-3553 3569 0
-105 -3553 3554 0
-3554 3570 0
-106 -3554 3555 0
-3555 3571 0
-107 -3555 3556 0
-3556 3572 0
-108 -3556 0
-93 3557 0
-3557 3573 0
-94 -3557 3558 0
-3558 3574 0
-95 -3558 3559 0
-3559 3575 0
-96 -3559 3560 0
-3560 3576 0
-97 -3560 3561 0
-3561 3577 0
-98 -3561 3562 0
-3562 3578 0
-99 -3562 3563 0
-3563 3579 0
-100 -3563 3564 0
-3564 3580 0
-101 -3564 3565 0
-3565 3581 0
-102 -3565 3566 0
-3566 3582 0
-103 -3566 3567 0
-3567 3583 0
-104 -3567 3568 0
-3568 3584 0
-105 -3568 3569 0
-3569 3585 0
-106 -3569 3570 0
-3570 3586 0
-107 -3570 3571 0
-3571 3587 0
-108 -3571 3572 0
-3572 3588 0
-109 -3572 0
-94 3573 0
-3573 3589 0
-95 -3573 3574 0
-3574 3590 0
-96 -3574 3575 0
-3575 3591 0
-97 -3575 3576 0
-3576 3592 0
-98 -3576 3577 0
-3577 3593 0
-99 -3577 3578 0
-3578 3594 0
-100 -3578 3579 0
-3579 3595 0
-101 -3579 3580 0
-3580 3596 0
-102 -3580 3581 0
-3581 3597 0
-103 -3581 3582 0
-3582 3598 0
-104 -3582 3583 0
-3583 3599 0
-105 -3583 3584 0
-3584 3600 0
-106 -3584 3585 0
-3585 3601 0
-107 -3585 3586 0
-3586 3602 0
-108 -3586 3587 0
-3587 3603 0
-109 -3587 3588 0
-3588 3604 0
-110 -3588 0
-95 3589 0
-3589 3605 0
-96 -3589 3590 0
-3590 3606 0
-97 -3590 3591 0
-3591 3607 0
-98 -3591 3592 0
-3592 3608 0
-99 -3592 3593 0
-3593 3609 0
-100 -3593 3594 0
-3594 3610 0
-101 -3594 3595 0
-3595 3611 0
-102 -3595 3596 0
-3596 3612 0
-103 -3596 3597 0
-3597 3613 0
-104 -3597 3598 0
-3598 3614 0
-105 -3598 3599 0
-3599 3615 0
-106 -3599 3600 0
-3600 3616 0
-107 -3600 3601 0
-3601 3617 0
-108 -3601 3602 0
-3602 3618 0
-109 -3602 3603 0
-3603 3619 0
-110 -3603 3604 0
-3604 3620 0
-111 -3604 0
-96 3605 0
-3605 3621 0
-97 -3605 3606 0
-3606 3622 0
-98 -3606 3607 0
-3607 3623 0
-99 -3607 3608 0
-3608 3624 0
-100 -3608 3609 0
-3609 3625 0
-101 -3609 3610 0
-3610 3626 0
-102 -3610 3611 0
-3611 3627 0
-103 -3611 3612 0
-3612 3628 0
-104 -3612 3613 0
-3613 3629 0
-105 -3613 3614 0
-3614 3630 0
-106 -3614 3615 0
-3615 3631 0
-107 -3615 3616 0
-3616 3632 0
-108 -3616 3617 0
-3617 3633 0
-109 -3617 3618 0
-3618 3634 0
-110 -3618 3619 0
-3619 3635 0
-111 -3619 3620 0
-3620 3636 0
-112 -3620 0
-97 3621 0
-3621 3637 0
-98 -3621 3622 0
-3622 3638 0
-99 -3622 3623 0
-3623 3639 0
-100 -3623 3624 0
-3624 3640 0
-101 -3624 3625 0
-3625 3641 0
-102 -3625 3626 0
-3626 3642 0
-103 -3626 3627 0
-3627 3643 0
-104 -3627 3628 0
-3628 3644 0
-105 -3628 3629 0
-3629 3645 0
-106 -3629 3630 0
-3630 3646 0
-107 -3630 3631 0
-3631 3647 0
-108 -3631 3632 0
-3632 3648 0
-109 -3632 3633 0
-3633 3649 0
-110 -3633 3634 0
-3634 3650 0
-111 -3634 3635 0
-3635 3651 0
-112 -3635 3636 0
-3636 3652 0
-113 -3636 0
-98 3637 0
-3637 3653 0
-99 -3637 3638 0
-3638 3654 0
-100 -3638 3639 0
-3639 3655 0
-101 -3639 3640 0
-3640 3656 0
-102 -3640 3641 0
-3641 3657 0
-103 -3641 3642 0
-3642 3658 0
-104 -3642 3643 0
-3643 3659 0
-105 -3643 3644 0
-3644 3660 0
-106 -3644 3645 0
-3645 3661 0
-107 -3645 3646 0
-3646 3662 0
-108 -3646 3647 0
-3647 3663 0
-109 -3647 3648 0
-3648 3664 0
-110 -3648 3649 0
-3649 3665 0
-111 -3649 3650 0
-3650 3666 0
-112 -3650 3651 0
-3651 3667 0
-113 -3651 3652 0
-3652 3668 0
-114 -3652 0
-99 3653 0
-3653 3669 0
-100 -3653 3654 0
-3654 3670 0
-101 -3654 3655 0
-3655 3671 0
-102 -3655 3656 0
-3656 3672 0
-103 -3656 3657 0
-3657 3673 0
-104 -3657 3658 0
-3658 3674 0
-105 -3658 3659 0
-3659 3675 0
-106 -3659 3660 0
-3660 3676 0
-107 -3660 3661 0
-3661 3677 0
-108 -3661 3662 0
-3662 3678 0
-109 -3662 3663 0
-3663 3679 0
-110 -3663 3664 0
-3664 3680 0
-111 -3664 3665 0
-3665 3681 0
-112 -3665 3666 0
-3666 3682 0
-113 -3666 3667 0
-3667 3683 0
-114 -3667 3668 0
-3668 3684 0
-115 -3668 0
-100 3669 0
-3669 3685 0
-101 -3669 3670 0
-3670 3686 0
-102 -3670 3671 0
-3671 3687 0
-103 -3671 3672 0
-3672 3688 0
-104 -3672 3673 0
-3673 3689 0
-105 -3673 3674 0
-3674 3690 0
-106 -3674 3675 0
-3675 3691 0
-107 -3675 3676 0
-3676 3692 0
-108 -3676 3677 0
-3677 3693 0
-109 -3677 3678 0
-3678 3694 0
-110 -3678 3679 0
-3679 3695 0
-111 -3679 3680 0
-3680 3696 0
-112 -3680 3681 0
-3681 3697 0
-113 -3681 3682 0
-3682 3698 0
-114 -3682 3683 0
-3683 3699 0
-115 -3683 3684 0
-3684 3700 0
-116 -3684 0
-101 3685 0
-3685 3701 0
-102 -3685 3686 0
-3686 3702 0
-103 -3686 3687 0
-3687 3703 0
-104 -3687 3688 0
-3688 3704 0
-105 -3688 3689 0
-3689 3705 0
-106 -3689 3690 0
-3690 3706 0
-107 -3690 3691 0
-3691 3707 0
-108 -3691 3692 0
-3692 3708 0
-109 -3692 3693 0
-3693 3709 0
-110 -3693 3694 0
-3694 3710 0
-111 -3694 3695 0
-3695 3711 0
-112 -3695 3696 0
-3696 3712 0
-113 -3696 3697 0
-3697 3713 0
-114 -3697 3698 0
-3698 3714 0
-115 -3698 3699 0
-3699 3715 0
-116 -3699 3700 0
-3700 3716 0
-117 -3700 0
-102 3701 0
-3701 3717 0
-103 -3701 3702 0
-3702 3718 0
-104 -3702 3703 0
-3703 3719 0
-105 -3703 3704 0
-3704 3720 0
-106 -3704 3705 0
-3705 3721 0
-107 -3705 3706 0
-3706 3722 0
-108 -3706 3707 0
-3707 3723 0
-109 -3707 3708 0
-3708 3724 0
-110 -3708 3709 0
-3709 3725 0
-111 -3709 3710 0
-3710 3726 0
-112 -3710 3711 0
-3711 3727 0
-113 -3711 3712 0
-3712 3728 0
-114 -3712 3713 0
-3713 3729 0
-115 -3713 3714 0
-3714 3730 0
-116 -3714 3715 0
-3715 3731 0
-117 -3715 3716 0
-3716 3732 0
-118 -3716 0
-103 3717 0
-3717 3733 0
-104 -3717 3718 0
-3718 3734 0
-105 -3718 3719 0
-3719 3735 0
-106 -3719 3720 0
-3720 3736 0
-107 -3720 3721 0
-3721 3737 0
-108 -3721 3722 0
-3722 3738 0
-109 -3722 3723 0
-3723 3739 0
-110 -3723 3724 0
-3724 3740 0
-111 -3724 3725 0
-3725 3741 0
-112 -3725 3726 0
-3726 3742 0
-113 -3726 3727 0
-3727 3743 0
-114 -3727 3728 0
-3728 3744 0
-115 -3728 3729 0
-3729 3745 0
-116 -3729 3730 0
-3730 3746 0
-117 -3730 3731 0
-3731 3747 0
-118 -3731 3732 0
-3732 3748 0
-119 -3732 0
-104 3733 0
-3733 3749 0
-105 -3733 3734 0
-3734 3750 0
-106 -3734 3735 0
-3735 3751 0
-107 -3735 3736 0
-3736 3752 0
-108 -3736 3737 0
-3737 3753 0
-109 -3737 3738 0
-3738 3754 0
-110 -3738 3739 0
-3739 3755 0
-111 -3739 3740 0
-3740 3756 0
-112 -3740 3741 0
-3741 3757 0
-113 -3741 3742 0
-3742 3758 0
-114 -3742 3743 0
-3743 3759 0
-115 -3743 3744 0
-3744 3760 0
-116 -3744 3745 0
-3745 3761 0
-117 -3745 3746 0
-3746 3762 0
-118 -3746 3747 0
-3747 3763 0
-119 -3747 3748 0
-3748 3764 0
-120 -3748 0
-105 3749 0
-3749 3765 0
-106 -3749 3750 0
-3750 3766 0
-107 -3750 3751 0
-3751 3767 0
-108 -3751 3752 0
-3752 3768 0
-109 -3752 3753 0
-3753 3769 0
-110 -3753 3754 0
-3754 3770 0
-111 -3754 3755 0
-3755 3771 0
-112 -3755 3756 0
-3756 3772 0
-113 -3756 3757 0
-3757 3773 0
-114 -3757 3758 0
-3758 3774 0
-115 -3758 3759 0
-3759 3775 0
-116 -3759 3760 0
-3760 3776 0
-117 -3760 3761 0
-3761 3777 0
-118 -3761 3762 0
-3762 3778 0
-119 -3762 3763 0
-3763 3779 0
-120 -3763 3764 0
-3764 3780 0
-121 -3764 0
-106 3765 0
-3765 3781 0
-107 -3765 3766 0
-3766 3782 0
-108 -3766 3767 0
-3767 3783 0
-109 -3767 3768 0
-3768 3784 0
-110 -3768 3769 0
-3769 3785 0
-111 -3769 3770 0
-3770 3786 0
-112 -3770 3771 0
-3771 3787 0
-113 -3771 3772 0
-3772 3788 0
-114 -3772 3773 0
-3773 3789 0
-115 -3773 3774 0
-3774 3790 0
-116 -3774 3775 0
-3775 3791 0
-117 -3775 3776 0
-3776 3792 0
-118 -3776 3777 0
-3777 3793 0
-119 -3777 3778 0
-3778 3794 0
-120 -3778 3779 0
-3779 3795 0
-121 -3779 3780 0
-3780 3796 0
-122 -3780 0
-107 3781 0
-3781 3797 0
-108 -3781 3782 0
-3782 3798 0
-109 -3782 3783 0
-3783 3799 0
-110 -3783 3784 0
-3784 3800 0
-111 -3784 3785 0
-3785 3801 0
-112 -3785 3786 0
-3786 3802 0
-113 -3786 3787 0
-3787 3803 0
-114 -3787 3788 0
-3788 3804 0
-115 -3788 3789 0
-3789 3805 0
-116 -3789 3790 0
-3790 3806 0
-117 -3790 3791 0
-3791 3807 0
-118 -3791 3792 0
-3792 3808 0
-119 -3792 3793 0
-3793 3809 0
-120 -3793 3794 0
-3794 3810 0
-121 -3794 3795 0
-3795 3811 0
-122 -3795 3796 0
-3796 3812 0
-123 -3796 0
-108 3797 0
-3797 3813 0
-109 -3797 3798 0
-3798 3814 0
-110 -3798 3799 0
-3799 3815 0
-111 -3799 3800 0
-3800 3816 0
-112 -3800 3801 0
-3801 3817 0
-113 -3801 3802 0
-3802 3818 0
-114 -3802 3803 0
-3803 3819 0
-115 -3803 3804 0
-3804 3820 0
-116 -3804 3805 0
-3805 3821 0
-117 -3805 3806 0
-3806 3822 0
-118 -3806 3807 0
-3807 3823 0
-119 -3807 3808 0
-3808 3824 0
-120 -3808 3809 0
-3809 3825 0
-121 -3809 3810 0
-3810 3826 0
-122 -3810 3811 0
-3811 3827 0
-123 -3811 3812 0
-3812 3828 0
-124 -3812 0
-109 3813 0
-3813 3829 0
-110 -3813 3814 0
-3814 3830 0
-111 -3814 3815 0
-3815 3831 0
-112 -3815 3816 0
-3816 3832 0
-113 -3816 3817 0
-3817 3833 0
-114 -3817 3818 0
-3818 3834 0
-115 -3818 3819 0
-3819 3835 0
-116 -3819 3820 0
-3820 3836 0
-117 -3820 3821 0
-3821 3837 0
-118 -3821 3822 0
-3822 3838 0
-119 -3822 3823 0
-3823 3839 0
-120 -3823 3824 0
-3824 3840 0
-121 -3824 3825 0
-3825 3841 0
-122 -3825 3826 0
-3826 3842 0
-123 -3826 3827 0
-3827 3843 0
-124 -3827 3828 0
-3828 3844 0
-125 -3828 0
-110 3829 0
-3829 3845 0
-111 -3829 3830 0
-3830 3846 0
-112 -3830 3831 0
-3831 3847 0
-113 -3831 3832 0
-3832 3848 0
-114 -3832 3833 0
-3833 3849 0
-115 -3833 3834 0
-3834 3850 0
-116 -3834 3835 0
-3835 3851 0
-117 -3835 3836 0
-3836 3852 0
-118 -3836 3837 0
-3837 3853 0
-119 -3837 3838 0
-3838 3854 0
-120 -3838 3839 0
-3839 3855 0
-121 -3839 3840 0
-3840 3856 0
-122 -3840 3841 0
-3841 3857 0
-123 -3841 3842 0
-3842 3858 0
-124 -3842 3843 0
-3843 3859 0
-125 -3843 3844 0
-3844 3860 0
-126 -3844 0
-111 3845 0
-3845 3861 0
-112 -3845 3846 0
-3846 3862 0
-113 -3846 3847 0
-3847 3863 0
-114 -3847 3848 0
-3848 3864 0
-115 -3848 3849 0
-3849 3865 0
-116 -3849 3850 0
-3850 3866 0
-117 -3850 3851 0
-3851 3867 0
-118 -3851 3852 0
-3852 3868 0
-119 -3852 3853 0
-3853 3869 0
-120 -3853 3854 0
-3854 3870 0
-121 -3854 3855 0
-3855 3871 0
-122 -3855 3856 0
-3856 3872 0
-123 -3856 3857 0
-3857 3873 0
-124 -3857 3858 0
-3858 3874 0
-125 -3858 3859 0
-3859 3875 0
-126 -3859 3860 0
-3860 3876 0
-127 -3860 0
-112 3861 0
-3861 3877 0
-113 -3861 3862 0
-3862 3878 0
-114 -3862 3863 0
-3863 3879 0
-115 -3863 3864 0
-3864 3880 0
-116 -3864 3865 0
-3865 3881 0
-117 -3865 3866 0
-3866 3882 0
-118 -3866 3867 0
-3867 3883 0
-119 -3867 3868 0
-3868 3884 0
-120 -3868 3869 0
-3869 3885 0
-121 -3869 3870 0
-3870 3886 0
-122 -3870 3871 0
-3871 3887 0
-123 -3871 3872 0
-3872 3888 0
-124 -3872 3873 0
-3873 3889 0
-125 -3873 3874 0
-3874 3890 0
-126 -3874 3875 0
-3875 3891 0
-127 -3875 3876 0
-3876 3892 0
-128 -3876 0
-113 3877 0
-3877 3893 0
-114 -3877 3878 0
-3878 3894 0
-115 -3878 3879 0
-3879 3895 0
-116 -3879 3880 0
-3880 3896 0
-117 -3880 3881 0
-3881 3897 0
-118 -3881 3882 0
-3882 3898 0
-119 -3882 3883 0
-3883 3899 0
-120 -3883 3884 0
-3884 3900 0
-121 -3884 3885 0
-3885 3901 0
-122 -3885 3886 0
-3886 3902 0
-123 -3886 3887 0
-3887 3903 0
-124 -3887 3888 0
-3888 3904 0
-125 -3888 3889 0
-3889 3905 0
-126 -3889 3890 0
-3890 3906 0
-127 -3890 3891 0
-3891 3907 0
-128 -3891 3892 0
-3892 3908 0
-129 -3892 0
-114 3893 0
-115 -3893 3894 0
-116 -3894 3895 0
-117 -3895 3896 0
-118 -3896 3897 0
-119 -3897 3898 0
-120 -3898 3899 0
-121 -3899 3900 0
-122 -3900 3901 0
-123 -3901 3902 0
-124 -3902 3903 0
-125 -3903 3904 0
-126 -3904 3905 0
-127 -3905 3906 0
-128 -3906 3907 0
-129 -3907 3908 0
-130 -3908 0
-131 3909 0
-3909 3910 0
-132 -3909 3911 0
-3911 3912 0
-133 -3911 3913 0
-3913 3914 0
-134 -3913 3915 0
-3915 3916 0
-135 -3915 3917 0
-3917 3918 0
-136 -3917 3919 0
-3919 3920 0
-137 -3919 3921 0
-3921 3922 0
-138 -3921 3923 0
-3923 3924 0
-139 -3923 3925 0
-3925 3926 0
-140 -3925 0
-132 3910 0
-3910 3927 0
-133 -3910 3912 0
-3912 3928 0
-134 -3912 3914 0
-3914 3929 0
-135 -3914 3916 0
-3916 3930 0
-136 -3916 3918 0
-3918 3931 0
-137 -3918 3920 0
-3920 3932 0
-138 -3920 3922 0
-3922 3933 0
-139 -3922 3924 0
-3924 3934 0
-140 -3924 3926 0
-3926 3935 0
-141 -3926 0
-133 3927 0
-3927 3936 0
-134 -3927 3928 0
-3928 3937 0
-135 -3928 3929 0
-3929 3938 0
-136 -3929 3930 0
-3930 3939 0
-137 -3930 3931 0
-3931 3940 0
-138 -3931 3932 0
-3932 3941 0
-139 -3932 3933 0
-3933 3942 0
-140 -3933 3934 0
-3934 3943 0
-141 -3934 3935 0
-3935 3944 0
-142 -3935 0
-134 3936 0
-3936 3945 0
-135 -3936 3937 0
-3937 3946 0
-136 -3937 3938 0
-3938 3947 0
-137 -3938 3939 0
-3939 3948 0
-138 -3939 3940 0
-3940 3949 0
-139 -3940 3941 0
-3941 3950 0
-140 -3941 3942 0
-3942 3951 0
-141 -3942 3943 0
-3943 3952 0
-142 -3943 3944 0
-3944 3953 0
-143 -3944 0
-135 3945 0
-3945 3954 0
-136 -3945 3946 0
-3946 3955 0
-137 -3946 3947 0
-3947 3956 0
-138 -3947 3948 0
-3948 3957 0
-139 -3948 3949 0
-3949 3958 0
-140 -3949 3950 0
-3950 3959 0
-141 -3950 3951 0
-3951 3960 0
-142 -3951 3952 0
-3952 3961 0
-143 -3952 3953 0
-3953 3962 0
-144 -3953 0
-136 3954 0
-3954 3963 0
-137 -3954 3955 0
-3955 3964 0
-138 -3955 3956 0
-3956 3965 0
-139 -3956 3957 0
-3957 3966 0
-140 -3957 3958 0
-3958 3967 0
-141 -3958 3959 0
-3959 3968 0
-142 -3959 3960 0
-3960 3969 0
-143 -3960 3961 0
-3961 3970 0
-144 -3961 3962 0
-3962 3971 0
-145 -3962 0
-137 3963 0
-3963 3972 0
-138 -3963 3964 0
-3964 3973 0
-139 -3964 3965 0
-3965 3974 0
-140 -3965 3966 0
-3966 3975 0
-141 -3966 3967 0
-3967 3976 0
-142 -3967 3968 0
-3968 3977 0
-143 -3968 3969 0
-3969 3978 0
-144 -3969 3970 0
-3970 3979 0
-145 -3970 3971 0
-3971 3980 0
-146 -3971 0
-138 3972 0
-3972 3981 0
-139 -3972 3973 0
-3973 3982 0
-140 -3973 3974 0
-3974 3983 0
-141 -3974 3975 0
-3975 3984 0
-142 -3975 3976 0
-3976 3985 0
-143 -3976 3977 0
-3977 3986 0
-144 -3977 3978 0
-3978 3987 0
-145 -3978 3979 0
-3979 3988 0
-146 -3979 3980 0
-3980 3989 0
-147 -3980 0
-139 3981 0
-3981 3990 0
-140 -3981 3982 0
-3982 3991 0
-141 -3982 3983 0
-3983 3992 0
-142 -3983 3984 0
-3984 3993 0
-143 -3984 3985 0
-3985 3994 0
-144 -3985 3986 0
-3986 3995 0
-145 -3986 3987 0
-3987 3996 0
-146 -3987 3988 0
-3988 3997 0
-147 -3988 3989 0
-3989 3998 0
-148 -3989 0
-140 3990 0
-3990 3999 0
-141 -3990 3991 0
-3991 4000 0
-142 -3991 3992 0
-3992 4001 0
-143 -3992 3993 0
-3993 4002 0
-144 -3993 3994 0
-3994 4003 0
-145 -3994 3995 0
-3995 4004 0
-146 -3995 3996 0
-3996 4005 0
-147 -3996 3997 0
-3997 4006 0
-148 -3997 3998 0
-3998 4007 0
-149 -3998 0
-141 3999 0
-3999 4008 0
-142 -3999 4000 0
-4000 4009 0
-143 -4000 4001 0
-4001 4010 0
-144 -4001 4002 0
-4002 4011 0
-145 -4002 4003 0
-4003 4012 0
-146 -4003 4004 0
-4004 4013 0
-147 -4004 4005 0
-4005 4014 0
-148 -4005 4006 0
-4006 4015 0
-149 -4006 4007 0
-4007 4016 0
-150 -4007 0
-142 4008 0
-4008 4017 0
-143 -4008 4009 0
-4009 4018 0
-144 -4009 4010 0
-4010 4019 0
-145 -4010 4011 0
-4011 4020 0
-146 -4011 4012 0
-4012 4021 0
-147 -4012 4013 0
-4013 4022 0
-148 -4013 4014 0
-4014 4023 0
-149 -4014 4015 0
-4015 4024 0
-150 -4015 4016 0
-4016 4025 0
-151 -4016 0
-143 4017 0
-4017 4026 0
-144 -4017 4018 0
-4018 4027 0
-145 -4018 4019 0
-4019 4028 0
-146 -4019 4020 0
-4020 4029 0
-147 -4020 4021 0
-4021 4030 0
-148 -4021 4022 0
-4022 4031 0
-149 -4022 4023 0
-4023 4032 0
-150 -4023 4024 0
-4024 4033 0
-151 -4024 4025 0
-4025 4034 0
-152 -4025 0
-144 4026 0
-4026 4035 0
-145 -4026 4027 0
-4027 4036 0
-146 -4027 4028 0
-4028 4037 0
-147 -4028 4029 0
-4029 4038 0
-148 -4029 4030 0
-4030 4039 0
-149 -4030 4031 0
-4031 4040 0
-150 -4031 4032 0
-4032 4041 0
-151 -4032 4033 0
-4033 4042 0
-152 -4033 4034 0
-4034 4043 0
-153 -4034 0
-145 4035 0
-4035 4044 0
-146 -4035 4036 0
-4036 4045 0
-147 -4036 4037 0
-4037 4046 0
-148 -4037 4038 0
-4038 4047 0
-149 -4038 4039 0
-4039 4048 0
-150 -4039 4040 0
-4040 4049 0
-151 -4040 4041 0
-4041 4050 0
-152 -4041 4042 0
-4042 4051 0
-153 -4042 4043 0
-4043 4052 0
-154 -4043 0
-146 4044 0
-4044 4053 0
-147 -4044 4045 0
-4045 4054 0
-148 -4045 4046 0
-4046 4055 0
-149 -4046 4047 0
-4047 4056 0
-150 -4047 4048 0
-4048 4057 0
-151 -4048 4049 0
-4049 4058 0
-152 -4049 4050 0
-4050 4059 0
-153 -4050 4051 0
-4051 4060 0
-154 -4051 4052 0
-4052 4061 0
-155 -4052 0
-147 4053 0
-4053 4062 0
-148 -4053 4054 0
-4054 4063 0
-149 -4054 4055 0
-4055 4064 0
-150 -4055 4056 0
-4056 4065 0
-151 -4056 4057 0
-4057 4066 0
-152 -4057 4058 0
-4058 4067 0
-153 -4058 4059 0
-4059 4068 0
-154 -4059 4060 0
-4060 4069 0
-155 -4060 4061 0
-4061 4070 0
-156 -4061 0
-148 4062 0
-4062 4071 0
-149 -4062 4063 0
-4063 4072 0
-150 -4063 4064 0
-4064 4073 0
-151 -4064 4065 0
-4065 4074 0
-152 -4065 4066 0
-4066 4075 0
-153 -4066 4067 0
-4067 4076 0
-154 -4067 4068 0
-4068 4077 0
-155 -4068 4069 0
-4069 4078 0
-156 -4069 4070 0
-4070 4079 0
-157 -4070 0
-149 4071 0
-4071 4080 0
-150 -4071 4072 0
-4072 4081 0
-151 -4072 4073 0
-4073 4082 0
-152 -4073 4074 0
-4074 4083 0
-153 -4074 4075 0
-4075 4084 0
-154 -4075 4076 0
-4076 4085 0
-155 -4076 4077 0
-4077 4086 0
-156 -4077 4078 0
-4078 4087 0
-157 -4078 4079 0
-4079 4088 0
-158 -4079 0
-150 4080 0
-4080 4089 0
-151 -4080 4081 0
-4081 4090 0
-152 -4081 4082 0
-4082 4091 0
-153 -4082 4083 0
-4083 4092 0
-154 -4083 4084 0
-4084 4093 0
-155 -4084 4085 0
-4085 4094 0
-156 -4085 4086 0
-4086 4095 0
-157 -4086 4087 0
-4087 4096 0
-158 -4087 4088 0
-4088 4097 0
-159 -4088 0
-151 4089 0
-4089 4098 0
-152 -4089 4090 0
-4090 4099 0
-153 -4090 4091 0
-4091 4100 0
-154 -4091 4092 0
-4092 4101 0
-155 -4092 4093 0
-4093 4102 0
-156 -4093 4094 0
-4094 4103 0
-157 -4094 4095 0
-4095 4104 0
-158 -4095 4096 0
-4096 4105 0
-159 -4096 4097 0
-4097 4106 0
-160 -4097 0
-152 4098 0
-4098 4107 0
-153 -4098 4099 0
-4099 4108 0
-154 -4099 4100 0
-4100 4109 0
-155 -4100 4101 0
-4101 4110 0
-156 -4101 4102 0
-4102 4111 0
-157 -4102 4103 0
-4103 4112 0
-158 -4103 4104 0
-4104 4113 0
-159 -4104 4105 0
-4105 4114 0
-160 -4105 4106 0
-4106 4115 0
-161 -4106 0
-153 4107 0
-4107 4116 0
-154 -4107 4108 0
-4108 4117 0
-155 -4108 4109 0
-4109 4118 0
-156 -4109 4110 0
-4110 4119 0
-157 -4110 4111 0
-4111 4120 0
-158 -4111 4112 0
-4112 4121 0
-159 -4112 4113 0
-4113 4122 0
-160 -4113 4114 0
-4114 4123 0
-161 -4114 4115 0
-4115 4124 0
-162 -4115 0
-154 4116 0
-4116 4125 0
-155 -4116 4117 0
-4117 4126 0
-156 -4117 4118 0
-4118 4127 0
-157 -4118 4119 0
-4119 4128 0
-158 -4119 4120 0
-4120 4129 0
-159 -4120 4121 0
-4121 4130 0
-160 -4121 4122 0
-4122 4131 0
-161 -4122 4123 0
-4123 4132 0
-162 -4123 4124 0
-4124 4133 0
-163 -4124 0
-155 4125 0
-4125 4134 0
-156 -4125 4126 0
-4126 4135 0
-157 -4126 4127 0
-4127 4136 0
-158 -4127 4128 0
-4128 4137 0
-159 -4128 4129 0
-4129 4138 0
-160 -4129 4130 0
-4130 4139 0
-161 -4130 4131 0
-4131 4140 0
-162 -4131 4132 0
-4132 4141 0
-163 -4132 4133 0
-4133 4142 0
-164 -4133 0
-156 4134 0
-4134 4143 0
-157 -4134 4135 0
-4135 4144 0
-158 -4135 4136 0
-4136 4145 0
-159 -4136 4137 0
-4137 4146 0
-160 -4137 4138 0
-4138 4147 0
-161 -4138 4139 0
-4139 4148 0
-162 -4139 4140 0
-4140 4149 0
-163 -4140 4141 0
-4141 4150 0
-164 -4141 4142 0
-4142 4151 0
-165 -4142 0
-157 4143 0
-4143 4152 0
-158 -4143 4144 0
-4144 4153 0
-159 -4144 4145 0
-4145 4154 0
-160 -4145 4146 0
-4146 4155 0
-161 -4146 4147 0
-4147 4156 0
-162 -4147 4148 0
-4148 4157 0
-163 -4148 4149 0
-4149 4158 0
-164 -4149 4150 0
-4150 4159 0
-165 -4150 4151 0
-4151 4160 0
-166 -4151 0
-158 4152 0
-4152 4161 0
-159 -4152 4153 0
-4153 4162 0
-160 -4153 4154 0
-4154 4163 0
-161 -4154 4155 0
-4155 4164 0
-162 -4155 4156 0
-4156 4165 0
-163 -4156 4157 0
-4157 4166 0
-164 -4157 4158 0
-4158 4167 0
-165 -4158 4159 0
-4159 4168 0
-166 -4159 4160 0
-4160 4169 0
-167 -4160 0
-159 4161 0
-4161 4170 0
-160 -4161 4162 0
-4162 4171 0
-161 -4162 4163 0
-4163 4172 0
-162 -4163 4164 0
-4164 4173 0
-163 -4164 4165 0
-4165 4174 0
-164 -4165 4166 0
-4166 4175 0
-165 -4166 4167 0
-4167 4176 0
-166 -4167 4168 0
-4168 4177 0
-167 -4168 4169 0
-4169 4178 0
-168 -4169 0
-160 4170 0
-4170 4179 0
-161 -4170 4171 0
-4171 4180 0
-162 -4171 4172 0
-4172 4181 0
-163 -4172 4173 0
-4173 4182 0
-164 -4173 4174 0
-4174 4183 0
-165 -4174 4175 0
-4175 4184 0
-166 -4175 4176 0
-4176 4185 0
-167 -4176 4177 0
-4177 4186 0
-168 -4177 4178 0
-4178 4187 0
-169 -4178 0
-161 4179 0
-4179 4188 0
-162 -4179 4180 0
-4180 4189 0
-163 -4180 4181 0
-4181 4190 0
-164 -4181 4182 0
-4182 4191 0
-165 -4182 4183 0
-4183 4192 0
-166 -4183 4184 0
-4184 4193 0
-167 -4184 4185 0
-4185 4194 0
-168 -4185 4186 0
-4186 4195 0
-169 -4186 4187 0
-4187 4196 0
-170 -4187 0
-162 4188 0
-4188 4197 0
-163 -4188 4189 0
-4189 4198 0
-164 -4189 4190 0
-4190 4199 0
-165 -4190 4191 0
-4191 4200 0
-166 -4191 4192 0
-4192 4201 0
-167 -4192 4193 0
-4193 4202 0
-168 -4193 4194 0
-4194 4203 0
-169 -4194 4195 0
-4195 4204 0
-170 -4195 4196 0
-4196 4205 0
-171 -4196 0
-163 4197 0
-4197 4206 0
-164 -4197 4198 0
-4198 4207 0
-165 -4198 4199 0
-4199 4208 0
-166 -4199 4200 0
-4200 4209 0
-167 -4200 4201 0
-4201 4210 0
-168 -4201 4202 0
-4202 4211 0
-169 -4202 4203 0
-4203 4212 0
-170 -4203 4204 0
-4204 4213 0
-171 -4204 4205 0
-4205 4214 0
-172 -4205 0
-164 4206 0
-4206 4215 0
-165 -4206 4207 0
-4207 4216 0
-166 -4207 4208 0
-4208 4217 0
-167 -4208 4209 0
-4209 4218 0
-168 -4209 4210 0
-4210 4219 0
-169 -4210 4211 0
-4211 4220 0
-170 -4211 4212 0
-4212 4221 0
-171 -4212 4213 0
-4213 4222 0
-172 -4213 4214 0
-4214 4223 0
-173 -4214 0
-165 4215 0
-4215 4224 0
-166 -4215 4216 0
-4216 4225 0
-167 -4216 4217 0
-4217 4226 0
-168 -4217 4218 0
-4218 4227 0
-169 -4218 4219 0
-4219 4228 0
-170 -4219 4220 0
-4220 4229 0
-171 -4220 4221 0
-4221 4230 0
-172 -4221 4222 0
-4222 4231 0
-173 -4222 4223 0
-4223 4232 0
-174 -4223 0
-166 4224 0
-4224 4233 0
-167 -4224 4225 0
-4225 4234 0
-168 -4225 4226 0
-4226 4235 0
-169 -4226 4227 0
-4227 4236 0
-170 -4227 4228 0
-4228 4237 0
-171 -4228 4229 0
-4229 4238 0
-172 -4229 4230 0
-4230 4239 0
-173 -4230 4231 0
-4231 4240 0
-174 -4231 4232 0
-4232 4241 0
-175 -4232 0
-167 4233 0
-4233 4242 0
-168 -4233 4234 0
-4234 4243 0
-169 -4234 4235 0
-4235 4244 0
-170 -4235 4236 0
-4236 4245 0
-171 -4236 4237 0
-4237 4246 0
-172 -4237 4238 0
-4238 4247 0
-173 -4238 4239 0
-4239 4248 0
-174 -4239 4240 0
-4240 4249 0
-175 -4240 4241 0
-4241 4250 0
-176 -4241 0
-168 4242 0
-4242 4251 0
-169 -4242 4243 0
-4243 4252 0
-170 -4243 4244 0
-4244 4253 0
-171 -4244 4245 0
-4245 4254 0
-172 -4245 4246 0
-4246 4255 0
-173 -4246 4247 0
-4247 4256 0
-174 -4247 4248 0
-4248 4257 0
-175 -4248 4249 0
-4249 4258 0
-176 -4249 4250 0
-4250 4259 0
-177 -4250 0
-169 4251 0
-4251 4260 0
-170 -4251 4252 0
-4252 4261 0
-171 -4252 4253 0
-4253 4262 0
-172 -4253 4254 0
-4254 4263 0
-173 -4254 4255 0
-4255 4264 0
-174 -4255 4256 0
-4256 4265 0
-175 -4256 4257 0
-4257 4266 0
-176 -4257 4258 0
-4258 4267 0
-177 -4258 4259 0
-4259 4268 0
-178 -4259 0
-170 4260 0
-4260 4269 0
-171 -4260 4261 0
-4261 4270 0
-172 -4261 4262 0
-4262 4271 0
-173 -4262 4263 0
-4263 4272 0
-174 -4263 4264 0
-4264 4273 0
-175 -4264 4265 0
-4265 4274 0
-176 -4265 4266 0
-4266 4275 0
-177 -4266 4267 0
-4267 4276 0
-178 -4267 4268 0
-4268 4277 0
-179 -4268 0
-171 4269 0
-4269 4278 0
-172 -4269 4270 0
-4270 4279 0
-173 -4270 4271 0
-4271 4280 0
-174 -4271 4272 0
-4272 4281 0
-175 -4272 4273 0
-4273 4282 0
-176 -4273 4274 0
-4274 4283 0
-177 -4274 4275 0
-4275 4284 0
-178 -4275 4276 0
-4276 4285 0
-179 -4276 4277 0
-4277 4286 0
-180 -4277 0
-172 4278 0
-4278 4287 0
-173 -4278 4279 0
-4279 4288 0
-174 -4279 4280 0
-4280 4289 0
-175 -4280 4281 0
-4281 4290 0
-176 -4281 4282 0
-4282 4291 0
-177 -4282 4283 0
-4283 4292 0
-178 -4283 4284 0
-4284 4293 0
-179 -4284 4285 0
-4285 4294 0
-180 -4285 4286 0
-4286 4295 0
-181 -4286 0
-173 4287 0
-4287 4296 0
-174 -4287 4288 0
-4288 4297 0
-175 -4288 4289 0
-4289 4298 0
-176 -4289 4290 0
-4290 4299 0
-177 -4290 4291 0
-4291 4300 0
-178 -4291 4292 0
-4292 4301 0
-179 -4292 4293 0
-4293 4302 0
-180 -4293 4294 0
-4294 4303 0
-181 -4294 4295 0
-4295 4304 0
-182 -4295 0
-174 4296 0
-4296 4305 0
-175 -4296 4297 0
-4297 4306 0
-176 -4297 4298 0
-4298 4307 0
-177 -4298 4299 0
-4299 4308 0
-178 -4299 4300 0
-4300 4309 0
-179 -4300 4301 0
-4301 4310 0
-180 -4301 4302 0
-4302 4311 0
-181 -4302 4303 0
-4303 4312 0
-182 -4303 4304 0
-4304 4313 0
-183 -4304 0
-175 4305 0
-4305 4314 0
-176 -4305 4306 0
-4306 4315 0
-177 -4306 4307 0
-4307 4316 0
-178 -4307 4308 0
-4308 4317 0
-179 -4308 4309 0
-4309 4318 0
-180 -4309 4310 0
-4310 4319 0
-181 -4310 4311 0
-4311 4320 0
-182 -4311 4312 0
-4312 4321 0
-183 -4312 4313 0
-4313 4322 0
-184 -4313 0
-176 4314 0
-4314 4323 0
-177 -4314 4315 0
-4315 4324 0
-178 -4315 4316 0
-4316 4325 0
-179 -4316 4317 0
-4317 4326 0
-180 -4317 4318 0
-4318 4327 0
-181 -4318 4319 0
-4319 4328 0
-182 -4319 4320 0
-4320 4329 0
-183 -4320 4321 0
-4321 4330 0
-184 -4321 4322 0
-4322 4331 0
-185 -4322 0
-177 4323 0
-4323 4332 0
-178 -4323 4324 0
-4324 4333 0
-179 -4324 4325 0
-4325 4334 0
-180 -4325 4326 0
-4326 4335 0
-181 -4326 4327 0
-4327 4336 0
-182 -4327 4328 0
-4328 4337 0
-183 -4328 4329 0
-4329 4338 0
-184 -4329 4330 0
-4330 4339 0
-185 -4330 4331 0
-4331 4340 0
-186 -4331 0
-178 4332 0
-4332 4341 0
-179 -4332 4333 0
-4333 4342 0
-180 -4333 4334 0
-4334 4343 0
-181 -4334 4335 0
-4335 4344 0
-182 -4335 4336 0
-4336 4345 0
-183 -4336 4337 0
-4337 4346 0
-184 -4337 4338 0
-4338 4347 0
-185 -4338 4339 0
-4339 4348 0
-186 -4339 4340 0
-4340 4349 0
-187 -4340 0
-179 4341 0
-4341 4350 0
-180 -4341 4342 0
-4342 4351 0
-181 -4342 4343 0
-4343 4352 0
-182 -4343 4344 0
-4344 4353 0
-183 -4344 4345 0
-4345 4354 0
-184 -4345 4346 0
-4346 4355 0
-185 -4346 4347 0
-4347 4356 0
-186 -4347 4348 0
-4348 4357 0
-187 -4348 4349 0
-4349 4358 0
-188 -4349 0
-180 4350 0
-4350 4359 0
-181 -4350 4351 0
-4351 4360 0
-182 -4351 4352 0
-4352 4361 0
-183 -4352 4353 0
-4353 4362 0
-184 -4353 4354 0
-4354 4363 0
-185 -4354 4355 0
-4355 4364 0
-186 -4355 4356 0
-4356 4365 0
-187 -4356 4357 0
-4357 4366 0
-188 -4357 4358 0
-4358 4367 0
-189 -4358 0
-181 4359 0
-4359 4368 0
-182 -4359 4360 0
-4360 4369 0
-183 -4360 4361 0
-4361 4370 0
-184 -4361 4362 0
-4362 4371 0
-185 -4362 4363 0
-4363 4372 0
-186 -4363 4364 0
-4364 4373 0
-187 -4364 4365 0
-4365 4374 0
-188 -4365 4366 0
-4366 4375 0
-189 -4366 4367 0
-4367 4376 0
-190 -4367 0
-182 4368 0
-4368 4377 0
-183 -4368 4369 0
-4369 4378 0
-184 -4369 4370 0
-4370 4379 0
-185 -4370 4371 0
-4371 4380 0
-186 -4371 4372 0
-4372 4381 0
-187 -4372 4373 0
-4373 4382 0
-188 -4373 4374 0
-4374 4383 0
-189 -4374 4375 0
-4375 4384 0
-190 -4375 4376 0
-4376 4385 0
-191 -4376 0
-183 4377 0
-4377 4386 0
-184 -4377 4378 0
-4378 4387 0
-185 -4378 4379 0
-4379 4388 0
-186 -4379 4380 0
-4380 4389 0
-187 -4380 4381 0
-4381 4390 0
-188 -4381 4382 0
-4382 4391 0
-189 -4382 4383 0
-4383 4392 0
-190 -4383 4384 0
-4384 4393 0
-191 -4384 4385 0
-4385 4394 0
-192 -4385 0
-184 4386 0
-4386 4395 0
-185 -4386 4387 0
-4387 4396 0
-186 -4387 4388 0
-4388 4397 0
-187 -4388 4389 0
-4389 4398 0
-188 -4389 4390 0
-4390 4399 0
-189 -4390 4391 0
-4391 4400 0
-190 -4391 4392 0
-4392 4401 0
-191 -4392 4393 0
-4393 4402 0
-192 -4393 4394 0
-4394 4403 0
-193 -4394 0
-185 4395 0
-4395 4404 0
-186 -4395 4396 0
-4396 4405 0
-187 -4396 4397 0
-4397 4406 0
-188 -4397 4398 0
-4398 4407 0
-189 -4398 4399 0
-4399 4408 0
-190 -4399 4400 0
-4400 4409 0
-191 -4400 4401 0
-4401 4410 0
-192 -4401 4402 0
-4402 4411 0
-193 -4402 4403 0
-4403 4412 0
-194 -4403 0
-186 4404 0
-4404 4413 0
-187 -4404 4405 0
-4405 4414 0
-188 -4405 4406 0
-4406 4415 0
-189 -4406 4407 0
-4407 4416 0
-190 -4407 4408 0
-4408 4417 0
-191 -4408 4409 0
-4409 4418 0
-192 -4409 4410 0
-4410 4419 0
-193 -4410 4411 0
-4411 4420 0
-194 -4411 4412 0
-4412 4421 0
-195 -4412 0
-187 4413 0
-4413 4422 0
-188 -4413 4414 0
-4414 4423 0
-189 -4414 4415 0
-4415 4424 0
-190 -4415 4416 0
-4416 4425 0
-191 -4416 4417 0
-4417 4426 0
-192 -4417 4418 0
-4418 4427 0
-193 -4418 4419 0
-4419 4428 0
-194 -4419 4420 0
-4420 4429 0
-195 -4420 4421 0
-4421 4430 0
-196 -4421 0
-188 4422 0
-4422 4431 0
-189 -4422 4423 0
-4423 4432 0
-190 -4423 4424 0
-4424 4433 0
-191 -4424 4425 0
-4425 4434 0
-192 -4425 4426 0
-4426 4435 0
-193 -4426 4427 0
-4427 4436 0
-194 -4427 4428 0
-4428 4437 0
-195 -4428 4429 0
-4429 4438 0
-196 -4429 4430 0
-4430 4439 0
-197 -4430 0
-189 4431 0
-4431 4440 0
-190 -4431 4432 0
-4432 4441 0
-191 -4432 4433 0
-4433 4442 0
-192 -4433 4434 0
-4434 4443 0
-193 -4434 4435 0
-4435 4444 0
-194 -4435 4436 0
-4436 4445 0
-195 -4436 4437 0
-4437 4446 0
-196 -4437 4438 0
-4438 4447 0
-197 -4438 4439 0
-4439 4448 0
-198 -4439 0
-190 4440 0
-4440 4449 0
-191 -4440 4441 0
-4441 4450 0
-192 -4441 4442 0
-4442 4451 0
-193 -4442 4443 0
-4443 4452 0
-194 -4443 4444 0
-4444 4453 0
-195 -4444 4445 0
-4445 4454 0
-196 -4445 4446 0
-4446 4455 0
-197 -4446 4447 0
-4447 4456 0
-198 -4447 4448 0
-4448 4457 0
-199 -4448 0
-191 4449 0
-4449 4458 0
-192 -4449 4450 0
-4450 4459 0
-193 -4450 4451 0
-4451 4460 0
-194 -4451 4452 0
-4452 4461 0
-195 -4452 4453 0
-4453 4462 0
-196 -4453 4454 0
-4454 4463 0
-197 -4454 4455 0
-4455 4464 0
-198 -4455 4456 0
-4456 4465 0
-199 -4456 4457 0
-4457 4466 0
-200 -4457 0
-192 4458 0
-4458 4467 0
-193 -4458 4459 0
-4459 4468 0
-194 -4459 4460 0
-4460 4469 0
-195 -4460 4461 0
-4461 4470 0
-196 -4461 4462 0
-4462 4471 0
-197 -4462 4463 0
-4463 4472 0
-198 -4463 4464 0
-4464 4473 0
-199 -4464 4465 0
-4465 4474 0
-200 -4465 4466 0
-4466 4475 0
-201 -4466 0
-193 4467 0
-4467 4476 0
-194 -4467 4468 0
-4468 4477 0
-195 -4468 4469 0
-4469 4478 0
-196 -4469 4470 0
-4470 4479 0
-197 -4470 4471 0
-4471 4480 0
-198 -4471 4472 0
-4472 4481 0
-199 -4472 4473 0
-4473 4482 0
-200 -4473 4474 0
-4474 4483 0
-201 -4474 4475 0
-4475 4484 0
-202 -4475 0
-194 4476 0
-4476 4485 0
-195 -4476 4477 0
-4477 4486 0
-196 -4477 4478 0
-4478 4487 0
-197 -4478 4479 0
-4479 4488 0
-198 -4479 4480 0
-4480 4489 0
-199 -4480 4481 0
-4481 4490 0
-200 -4481 4482 0
-4482 4491 0
-201 -4482 4483 0
-4483 4492 0
-202 -4483 4484 0
-4484 4493 0
-203 -4484 0
-195 4485 0
-4485 4494 0
-196 -4485 4486 0
-4486 4495 0
-197 -4486 4487 0
-4487 4496 0
-198 -4487 4488 0
-4488 4497 0
-199 -4488 4489 0
-4489 4498 0
-200 -4489 4490 0
-4490 4499 0
-201 -4490 4491 0
-4491 4500 0
-202 -4491 4492 0
-4492 4501 0
-203 -4492 4493 0
-4493 4502 0
-204 -4493 0
-196 4494 0
-4494 4503 0
-197 -4494 4495 0
-4495 4504 0
-198 -4495 4496 0
-4496 4505 0
-199 -4496 4497 0
-4497 4506 0
-200 -4497 4498 0
-4498 4507 0
-201 -4498 4499 0
-4499 4508 0
-202 -4499 4500 0
-4500 4509 0
-203 -4500 4501 0
-4501 4510 0
-204 -4501 4502 0
-4502 4511 0
-205 -4502 0
-197 4503 0
-4503 4512 0
-198 -4503 4504 0
-4504 4513 0
-199 -4504 4505 0
-4505 4514 0
-200 -4505 4506 0
-4506 4515 0
-201 -4506 4507 0
-4507 4516 0
-202 -4507 4508 0
-4508 4517 0
-203 -4508 4509 0
-4509 4518 0
-204 -4509 4510 0
-4510 4519 0
-205 -4510 4511 0
-4511 4520 0
-206 -4511 0
-198 4512 0
-4512 4521 0
-199 -4512 4513 0
-4513 4522 0
-200 -4513 4514 0
-4514 4523 0
-201 -4514 4515 0
-4515 4524 0
-202 -4515 4516 0
-4516 4525 0
-203 -4516 4517 0
-4517 4526 0
-204 -4517 4518 0
-4518 4527 0
-205 -4518 4519 0
-4519 4528 0
-206 -4519 4520 0
-4520 4529 0
-207 -4520 0
-199 4521 0
-4521 4530 0
-200 -4521 4522 0
-4522 4531 0
-201 -4522 4523 0
-4523 4532 0
-202 -4523 4524 0
-4524 4533 0
-203 -4524 4525 0
-4525 4534 0
-204 -4525 4526 0
-4526 4535 0
-205 -4526 4527 0
-4527 4536 0
-206 -4527 4528 0
-4528 4537 0
-207 -4528 4529 0
-4529 4538 0
-208 -4529 0
-200 4530 0
-4530 4539 0
-201 -4530 4531 0
-4531 4540 0
-202 -4531 4532 0
-4532 4541 0
-203 -4532 4533 0
-4533 4542 0
-204 -4533 4534 0
-4534 4543 0
-205 -4534 4535 0
-4535 4544 0
-206 -4535 4536 0
-4536 4545 0
-207 -4536 4537 0
-4537 4546 0
-208 -4537 4538 0
-4538 4547 0
-209 -4538 0
-201 4539 0
-4539 4548 0
-202 -4539 4540 0
-4540 4549 0
-203 -4540 4541 0
-4541 4550 0
-204 -4541 4542 0
-4542 4551 0
-205 -4542 4543 0
-4543 4552 0
-206 -4543 4544 0
-4544 4553 0
-207 -4544 4545 0
-4545 4554 0
-208 -4545 4546 0
-4546 4555 0
-209 -4546 4547 0
-4547 4556 0
-210 -4547 0
-202 4548 0
-4548 4557 0
-203 -4548 4549 0
-4549 4558 0
-204 -4549 4550 0
-4550 4559 0
-205 -4550 4551 0
-4551 4560 0
-206 -4551 4552 0
-4552 4561 0
-207 -4552 4553 0
-4553 4562 0
-208 -4553 4554 0
-4554 4563 0
-209 -4554 4555 0
-4555 4564 0
-210 -4555 4556 0
-4556 4565 0
-211 -4556 0
-203 4557 0
-4557 4566 0
-204 -4557 4558 0
-4558 4567 0
-205 -4558 4559 0
-4559 4568 0
-206 -4559 4560 0
-4560 4569 0
-207 -4560 4561 0
-4561 4570 0
-208 -4561 4562 0
-4562 4571 0
-209 -4562 4563 0
-4563 4572 0
-210 -4563 4564 0
-4564 4573 0
-211 -4564 4565 0
-4565 4574 0
-212 -4565 0
-204 4566 0
-4566 4575 0
-205 -4566 4567 0
-4567 4576 0
-206 -4567 4568 0
-4568 4577 0
-207 -4568 4569 0
-4569 4578 0
-208 -4569 4570 0
-4570 4579 0
-209 -4570 4571 0
-4571 4580 0
-210 -4571 4572 0
-4572 4581 0
-211 -4572 4573 0
-4573 4582 0
-212 -4573 4574 0
-4574 4583 0
-213 -4574 0
-205 4575 0
-4575 4584 0
-206 -4575 4576 0
-4576 4585 0
-207 -4576 4577 0
-4577 4586 0
-208 -4577 4578 0
-4578 4587 0
-209 -4578 4579 0
-4579 4588 0
-210 -4579 4580 0
-4580 4589 0
-211 -4580 4581 0
-4581 4590 0
-212 -4581 4582 0
-4582 4591 0
-213 -4582 4583 0
-4583 4592 0
-214 -4583 0
-206 4584 0
-4584 4593 0
-207 -4584 4585 0
-4585 4594 0
-208 -4585 4586 0
-4586 4595 0
-209 -4586 4587 0
-4587 4596 0
-210 -4587 4588 0
-4588 4597 0
-211 -4588 4589 0
-4589 4598 0
-212 -4589 4590 0
-4590 4599 0
-213 -4590 4591 0
-4591 4600 0
-214 -4591 4592 0
-4592 4601 0
-215 -4592 0
-207 4593 0
-4593 4602 0
-208 -4593 4594 0
-4594 4603 0
-209 -4594 4595 0
-4595 4604 0
-210 -4595 4596 0
-4596 4605 0
-211 -4596 4597 0
-4597 4606 0
-212 -4597 4598 0
-4598 4607 0
-213 -4598 4599 0
-4599 4608 0
-214 -4599 4600 0
-4600 4609 0
-215 -4600 4601 0
-4601 4610 0
-216 -4601 0
-208 4602 0
-4602 4611 0
-209 -4602 4603 0
-4603 4612 0
-210 -4603 4604 0
-4604 4613 0
-211 -4604 4605 0
-4605 4614 0
-212 -4605 4606 0
-4606 4615 0
-213 -4606 4607 0
-4607 4616 0
-214 -4607 4608 0
-4608 4617 0
-215 -4608 4609 0
-4609 4618 0
-216 -4609 4610 0
-4610 4619 0
-217 -4610 0
-209 4611 0
-4611 4620 0
-210 -4611 4612 0
-4612 4621 0
-211 -4612 4613 0
-4613 4622 0
-212 -4613 4614 0
-4614 4623 0
-213 -4614 4615 0
-4615 4624 0
-214 -4615 4616 0
-4616 4625 0
-215 -4616 4617 0
-4617 4626 0
-216 -4617 4618 0
-4618 4627 0
-217 -4618 4619 0
-4619 4628 0
-218 -4619 0
-210 4620 0
-4620 4629 0
-211 -4620 4621 0
-4621 4630 0
-212 -4621 4622 0
-4622 4631 0
-213 -4622 4623 0
-4623 4632 0
-214 -4623 4624 0
-4624 4633 0
-215 -4624 4625 0
-4625 4634 0
-216 -4625 4626 0
-4626 4635 0
-217 -4626 4627 0
-4627 4636 0
-218 -4627 4628 0
-4628 4637 0
-219 -4628 0
-211 4629 0
-4629 4638 0
-212 -4629 4630 0
-4630 4639 0
-213 -4630 4631 0
-4631 4640 0
-214 -4631 4632 0
-4632 4641 0
-215 -4632 4633 0
-4633 4642 0
-216 -4633 4634 0
-4634 4643 0
-217 -4634 4635 0
-4635 4644 0
-218 -4635 4636 0
-4636 4645 0
-219 -4636 4637 0
-4637 4646 0
-220 -4637 0
-212 4638 0
-4638 4647 0
-213 -4638 4639 0
-4639 4648 0
-214 -4639 4640 0
-4640 4649 0
-215 -4640 4641 0
-4641 4650 0
-216 -4641 4642 0
-4642 4651 0
-217 -4642 4643 0
-4643 4652 0
-218 -4643 4644 0
-4644 4653 0
-219 -4644 4645 0
-4645 4654 0
-220 -4645 4646 0
-4646 4655 0
-221 -4646 0
-213 4647 0
-4647 4656 0
-214 -4647 4648 0
-4648 4657 0
-215 -4648 4649 0
-4649 4658 0
-216 -4649 4650 0
-4650 4659 0
-217 -4650 4651 0
-4651 4660 0
-218 -4651 4652 0
-4652 4661 0
-219 -4652 4653 0
-4653 4662 0
-220 -4653 4654 0
-4654 4663 0
-221 -4654 4655 0
-4655 4664 0
-222 -4655 0
-214 4656 0
-4656 4665 0
-215 -4656 4657 0
-4657 4666 0
-216 -4657 4658 0
-4658 4667 0
-217 -4658 4659 0
-4659 4668 0
-218 -4659 4660 0
-4660 4669 0
-219 -4660 4661 0
-4661 4670 0
-220 -4661 4662 0
-4662 4671 0
-221 -4662 4663 0
-4663 4672 0
-222 -4663 4664 0
-4664 4673 0
-223 -4664 0
-215 4665 0
-4665 4674 0
-216 -4665 4666 0
-4666 4675 0
-217 -4666 4667 0
-4667 4676 0
-218 -4667 4668 0
-4668 4677 0
-219 -4668 4669 0
-4669 4678 0
-220 -4669 4670 0
-4670 4679 0
-221 -4670 4671 0
-4671 4680 0
-222 -4671 4672 0
-4672 4681 0
-223 -4672 4673 0
-4673 4682 0
-224 -4673 0
-216 4674 0
-4674 4683 0
-217 -4674 4675 0
-4675 4684 0
-218 -4675 4676 0
-4676 4685 0
-219 -4676 4677 0
-4677 4686 0
-220 -4677 4678 0
-4678 4687 0
-221 -4678 4679 0
-4679 4688 0
-222 -4679 4680 0
-4680 4689 0
-223 -4680 4681 0
-4681 4690 0
-224 -4681 4682 0
-4682 4691 0
-225 -4682 0
-217 4683 0
-4683 4692 0
-218 -4683 4684 0
-4684 4693 0
-219 -4684 4685 0
-4685 4694 0
-220 -4685 4686 0
-4686 4695 0
-221 -4686 4687 0
-4687 4696 0
-222 -4687 4688 0
-4688 4697 0
-223 -4688 4689 0
-4689 4698 0
-224 -4689 4690 0
-4690 4699 0
-225 -4690 4691 0
-4691 4700 0
-226 -4691 0
-218 4692 0
-4692 4701 0
-219 -4692 4693 0
-4693 4702 0
-220 -4693 4694 0
-4694 4703 0
-221 -4694 4695 0
-4695 4704 0
-222 -4695 4696 0
-4696 4705 0
-223 -4696 4697 0
-4697 4706 0
-224 -4697 4698 0
-4698 4707 0
-225 -4698 4699 0
-4699 4708 0
-226 -4699 4700 0
-4700 4709 0
-227 -4700 0
-219 4701 0
-4701 4710 0
-220 -4701 4702 0
-4702 4711 0
-221 -4702 4703 0
-4703 4712 0
-222 -4703 4704 0
-4704 4713 0
-223 -4704 4705 0
-4705 4714 0
-224 -4705 4706 0
-4706 4715 0
-225 -4706 4707 0
-4707 4716 0
-226 -4707 4708 0
-4708 4717 0
-227 -4708 4709 0
-4709 4718 0
-228 -4709 0
-220 4710 0
-4710 4719 0
-221 -4710 4711 0
-4711 4720 0
-222 -4711 4712 0
-4712 4721 0
-223 -4712 4713 0
-4713 4722 0
-224 -4713 4714 0
-4714 4723 0
-225 -4714 4715 0
-4715 4724 0
-226 -4715 4716 0
-4716 4725 0
-227 -4716 4717 0
-4717 4726 0
-228 -4717 4718 0
-4718 4727 0
-229 -4718 0
-221 4719 0
-4719 4728 0
-222 -4719 4720 0
-4720 4729 0
-223 -4720 4721 0
-4721 4730 0
-224 -4721 4722 0
-4722 4731 0
-225 -4722 4723 0
-4723 4732 0
-226 -4723 4724 0
-4724 4733 0
-227 -4724 4725 0
-4725 4734 0
-228 -4725 4726 0
-4726 4735 0
-229 -4726 4727 0
-4727 4736 0
-230 -4727 0
-222 4728 0
-4728 4737 0
-223 -4728 4729 0
-4729 4738 0
-224 -4729 4730 0
-4730 4739 0
-225 -4730 4731 0
-4731 4740 0
-226 -4731 4732 0
-4732 4741 0
-227 -4732 4733 0
-4733 4742 0
-228 -4733 4734 0
-4734 4743 0
-229 -4734 4735 0
-4735 4744 0
-230 -4735 4736 0
-4736 4745 0
-231 -4736 0
-223 4737 0
-4737 4746 0
-224 -4737 4738 0
-4738 4747 0
-225 -4738 4739 0
-4739 4748 0
-226 -4739 4740 0
-4740 4749 0
-227 -4740 4741 0
-4741 4750 0
-228 -4741 4742 0
-4742 4751 0
-229 -4742 4743 0
-4743 4752 0
-230 -4743 4744 0
-4744 4753 0
-231 -4744 4745 0
-4745 4754 0
-232 -4745 0
-224 4746 0
-4746 4755 0
-225 -4746 4747 0
-4747 4756 0
-226 -4747 4748 0
-4748 4757 0
-227 -4748 4749 0
-4749 4758 0
-228 -4749 4750 0
-4750 4759 0
-229 -4750 4751 0
-4751 4760 0
-230 -4751 4752 0
-4752 4761 0
-231 -4752 4753 0
-4753 4762 0
-232 -4753 4754 0
-4754 4763 0
-233 -4754 0
-225 4755 0
-4755 4764 0
-226 -4755 4756 0
-4756 4765 0
-227 -4756 4757 0
-4757 4766 0
-228 -4757 4758 0
-4758 4767 0
-229 -4758 4759 0
-4759 4768 0
-230 -4759 4760 0
-4760 4769 0
-231 -4760 4761 0
-4761 4770 0
-232 -4761 4762 0
-4762 4771 0
-233 -4762 4763 0
-4763 4772 0
-234 -4763 0
-226 4764 0
-4764 4773 0
-227 -4764 4765 0
-4765 4774 0
-228 -4765 4766 0
-4766 4775 0
-229 -4766 4767 0
-4767 4776 0
-230 -4767 4768 0
-4768 4777 0
-231 -4768 4769 0
-4769 4778 0
-232 -4769 4770 0
-4770 4779 0
-233 -4770 4771 0
-4771 4780 0
-234 -4771 4772 0
-4772 4781 0
-235 -4772 0
-227 4773 0
-4773 4782 0
-228 -4773 4774 0
-4774 4783 0
-229 -4774 4775 0
-4775 4784 0
-230 -4775 4776 0
-4776 4785 0
-231 -4776 4777 0
-4777 4786 0
-232 -4777 4778 0
-4778 4787 0
-233 -4778 4779 0
-4779 4788 0
-234 -4779 4780 0
-4780 4789 0
-235 -4780 4781 0
-4781 4790 0
-236 -4781 0
-228 4782 0
-4782 4791 0
-229 -4782 4783 0
-4783 4792 0
-230 -4783 4784 0
-4784 4793 0
-231 -4784 4785 0
-4785 4794 0
-232 -4785 4786 0
-4786 4795 0
-233 -4786 4787 0
-4787 4796 0
-234 -4787 4788 0
-4788 4797 0
-235 -4788 4789 0
-4789 4798 0
-236 -4789 4790 0
-4790 4799 0
-237 -4790 0
-229 4791 0
-4791 4800 0
-230 -4791 4792 0
-4792 4801 0
-231 -4792 4793 0
-4793 4802 0
-232 -4793 4794 0
-4794 4803 0
-233 -4794 4795 0
-4795 4804 0
-234 -4795 4796 0
-4796 4805 0
-235 -4796 4797 0
-4797 4806 0
-236 -4797 4798 0
-4798 4807 0
-237 -4798 4799 0
-4799 4808 0
-238 -4799 0
-230 4800 0
-4800 4809 0
-231 -4800 4801 0
-4801 4810 0
-232 -4801 4802 0
-4802 4811 0
-233 -4802 4803 0
-4803 4812 0
-234 -4803 4804 0
-4804 4813 0
-235 -4804 4805 0
-4805 4814 0
-236 -4805 4806 0
-4806 4815 0
-237 -4806 4807 0
-4807 4816 0
-238 -4807 4808 0
-4808 4817 0
-239 -4808 0
-231 4809 0
-4809 4818 0
-232 -4809 4810 0
-4810 4819 0
-233 -4810 4811 0
-4811 4820 0
-234 -4811 4812 0
-4812 4821 0
-235 -4812 4813 0
-4813 4822 0
-236 -4813 4814 0
-4814 4823 0
-237 -4814 4815 0
-4815 4824 0
-238 -4815 4816 0
-4816 4825 0
-239 -4816 4817 0
-4817 4826 0
-240 -4817 0
-232 4818 0
-4818 4827 0
-233 -4818 4819 0
-4819 4828 0
-234 -4819 4820 0
-4820 4829 0
-235 -4820 4821 0
-4821 4830 0
-236 -4821 4822 0
-4822 4831 0
-237 -4822 4823 0
-4823 4832 0
-238 -4823 4824 0
-4824 4833 0
-239 -4824 4825 0
-4825 4834 0
-240 -4825 4826 0
-4826 4835 0
-241 -4826 0
-233 4827 0
-4827 4836 0
-234 -4827 4828 0
-4828 4837 0
-235 -4828 4829 0
-4829 4838 0
-236 -4829 4830 0
-4830 4839 0
-237 -4830 4831 0
-4831 4840 0
-238 -4831 4832 0
-4832 4841 0
-239 -4832 4833 0
-4833 4842 0
-240 -4833 4834 0
-4834 4843 0
-241 -4834 4835 0
-4835 4844 0
-242 -4835 0
-234 4836 0
-4836 4845 0
-235 -4836 4837 0
-4837 4846 0
-236 -4837 4838 0
-4838 4847 0
-237 -4838 4839 0
-4839 4848 0
-238 -4839 4840 0
-4840 4849 0
-239 -4840 4841 0
-4841 4850 0
-240 -4841 4842 0
-4842 4851 0
-241 -4842 4843 0
-4843 4852 0
-242 -4843 4844 0
-4844 4853 0
-243 -4844 0
-235 4845 0
-4845 4854 0
-236 -4845 4846 0
-4846 4855 0
-237 -4846 4847 0
-4847 4856 0
-238 -4847 4848 0
-4848 4857 0
-239 -4848 4849 0
-4849 4858 0
-240 -4849 4850 0
-4850 4859 0
-241 -4850 4851 0
-4851 4860 0
-242 -4851 4852 0
-4852 4861 0
-243 -4852 4853 0
-4853 4862 0
-244 -4853 0
-236 4854 0
-4854 4863 0
-237 -4854 4855 0
-4855 4864 0
-238 -4855 4856 0
-4856 4865 0
-239 -4856 4857 0
-4857 4866 0
-240 -4857 4858 0
-4858 4867 0
-241 -4858 4859 0
-4859 4868 0
-242 -4859 4860 0
-4860 4869 0
-243 -4860 4861 0
-4861 4870 0
-244 -4861 4862 0
-4862 4871 0
-245 -4862 0
-237 4863 0
-4863 4872 0
-238 -4863 4864 0
-4864 4873 0
-239 -4864 4865 0
-4865 4874 0
-240 -4865 4866 0
-4866 4875 0
-241 -4866 4867 0
-4867 4876 0
-242 -4867 4868 0
-4868 4877 0
-243 -4868 4869 0
-4869 4878 0
-244 -4869 4870 0
-4870 4879 0
-245 -4870 4871 0
-4871 4880 0
-246 -4871 0
-238 4872 0
-4872 4881 0
-239 -4872 4873 0
-4873 4882 0
-240 -4873 4874 0
-4874 4883 0
-241 -4874 4875 0
-4875 4884 0
-242 -4875 4876 0
-4876 4885 0
-243 -4876 4877 0
-4877 4886 0
-244 -4877 4878 0
-4878 4887 0
-245 -4878 4879 0
-4879 4888 0
-246 -4879 4880 0
-4880 4889 0
-247 -4880 0
-239 4881 0
-4881 4890 0
-240 -4881 4882 0
-4882 4891 0
-241 -4882 4883 0
-4883 4892 0
-242 -4883 4884 0
-4884 4893 0
-243 -4884 4885 0
-4885 4894 0
-244 -4885 4886 0
-4886 4895 0
-245 -4886 4887 0
-4887 4896 0
-246 -4887 4888 0
-4888 4897 0
-247 -4888 4889 0
-4889 4898 0
-248 -4889 0
-240 4890 0
-4890 4899 0
-241 -4890 4891 0
-4891 4900 0
-242 -4891 4892 0
-4892 4901 0
-243 -4892 4893 0
-4893 4902 0
-244 -4893 4894 0
-4894 4903 0
-245 -4894 4895 0
-4895 4904 0
-246 -4895 4896 0
-4896 4905 0
-247 -4896 4897 0
-4897 4906 0
-248 -4897 4898 0
-4898 4907 0
-249 -4898 0
-241 4899 0
-4899 4908 0
-242 -4899 4900 0
-4900 4909 0
-243 -4900 4901 0
-4901 4910 0
-244 -4901 4902 0
-4902 4911 0
-245 -4902 4903 0
-4903 4912 0
-246 -4903 4904 0
-4904 4913 0
-247 -4904 4905 0
-4905 4914 0
-248 -4905 4906 0
-4906 4915 0
-249 -4906 4907 0
-4907 4916 0
-250 -4907 0
-242 4908 0
-4908 4917 0
-243 -4908 4909 0
-4909 4918 0
-244 -4909 4910 0
-4910 4919 0
-245 -4910 4911 0
-4911 4920 0
-246 -4911 4912 0
-4912 4921 0
-247 -4912 4913 0
-4913 4922 0
-248 -4913 4914 0
-4914 4923 0
-249 -4914 4915 0
-4915 4924 0
-250 -4915 4916 0
-4916 4925 0
-251 -4916 0
-243 4917 0
-4917 4926 0
-244 -4917 4918 0
-4918 4927 0
-245 -4918 4919 0
-4919 4928 0
-246 -4919 4920 0
-4920 4929 0
-247 -4920 4921 0
-4921 4930 0
-248 -4921 4922 0
-4922 4931 0
-249 -4922 4923 0
-4923 4932 0
-250 -4923 4924 0
-4924 4933 0
-251 -4924 4925 0
-4925 4934 0
-252 -4925 0
-244 4926 0
-4926 4935 0
-245 -4926 4927 0
-4927 4936 0
-246 -4927 4928 0
-4928 4937 0
-247 -4928 4929 0
-4929 4938 0
-248 -4929 4930 0
-4930 4939 0
-249 -4930 4931 0
-4931 4940 0
-250 -4931 4932 0
-4932 4941 0
-251 -4932 4933 0
-4933 4942 0
-252 -4933 4934 0
-4934 4943 0
-253 -4934 0
-245 4935 0
-4935 4944 0
-246 -4935 4936 0
-4936 4945 0
-247 -4936 4937 0
-4937 4946 0
-248 -4937 4938 0
-4938 4947 0
-249 -4938 4939 0
-4939 4948 0
-250 -4939 4940 0
-4940 4949 0
-251 -4940 4941 0
-4941 4950 0
-252 -4941 4942 0
-4942 4951 0
-253 -4942 4943 0
-4943 4952 0
-254 -4943 0
-246 4944 0
-4944 4953 0
-247 -4944 4945 0
-4945 4954 0
-248 -4945 4946 0
-4946 4955 0
-249 -4946 4947 0
-4947 4956 0
-250 -4947 4948 0
-4948 4957 0
-251 -4948 4949 0
-4949 4958 0
-252 -4949 4950 0
-4950 4959 0
-253 -4950 4951 0
-4951 4960 0
-254 -4951 4952 0
-4952 4961 0
-255 -4952 0
-247 4953 0
-4953 4962 0
-248 -4953 4954 0
-4954 4963 0
-249 -4954 4955 0
-4955 4964 0
-250 -4955 4956 0
-4956 4965 0
-251 -4956 4957 0
-4957 4966 0
-252 -4957 4958 0
-4958 4967 0
-253 -4958 4959 0
-4959 4968 0
-254 -4959 4960 0
-4960 4969 0
-255 -4960 4961 0
-4961 4970 0
-256 -4961 0
-248 4962 0
-4962 4971 0
-249 -4962 4963 0
-4963 4972 0
-250 -4963 4964 0
-4964 4973 0
-251 -4964 4965 0
-4965 4974 0
-252 -4965 4966 0
-4966 4975 0
-253 -4966 4967 0
-4967 4976 0
-254 -4967 4968 0
-4968 4977 0
-255 -4968 4969 0
-4969 4978 0
-256 -4969 4970 0
-4970 4979 0
-257 -4970 0
-249 4971 0
-4971 4980 0
-250 -4971 4972 0
-4972 4981 0
-251 -4972 4973 0
-4973 4982 0
-252 -4973 4974 0
-4974 4983 0
-253 -4974 4975 0
-4975 4984 0
-254 -4975 4976 0
-4976 4985 0
-255 -4976 4977 0
-4977 4986 0
-256 -4977 4978 0
-4978 4987 0
-257 -4978 4979 0
-4979 4988 0
-258 -4979 0
-250 4980 0
-4980 4989 0
-251 -4980 4981 0
-4981 4990 0
-252 -4981 4982 0
-4982 4991 0
-253 -4982 4983 0
-4983 4992 0
-254 -4983 4984 0
-4984 4993 0
-255 -4984 4985 0
-4985 4994 0
-256 -4985 4986 0
-4986 4995 0
-257 -4986 4987 0
-4987 4996 0
-258 -4987 4988 0
-4988 4997 0
-259 -4988 0
-251 4989 0
-252 -4989 4990 0
-253 -4990 4991 0
-254 -4991 4992 0
-255 -4992 4993 0
-256 -4993 4994 0
-257 -4994 4995 0
-258 -4995 4996 0
-259 -4996 4997 0
-260 -4997 0
1 66 0
