p cnf 1459 2957
-1 45 0
-2 45 0
-22 45 0
-23 45 0
-45 1 2 22 23 0
-2 46 0
-1 46 0
-3 46 0
-24 46 0
-46 2 1 3 24 0
-3 47 0
-2 47 0
-4 47 0
-25 47 0
-47 3 2 4 25 0
-4 48 0
-3 48 0
-5 48 0
-26 48 0
-48 4 3 5 26 0
-5 49 0
-4 49 0
-6 49 0
-27 49 0
-49 5 4 6 27 0
-6 50 0
-5 50 0
-7 50 0
-28 50 0
-50 6 5 7 28 0
-7 51 0
-6 51 0
-8 51 0
-29 51 0
-51 7 6 8 29 0
-8 52 0
-7 52 0
-9 52 0
-30 52 0
-52 8 7 9 30 0
-9 53 0
-8 53 0
-10 53 0
-31 53 0
-53 9 8 10 31 0
-10 54 0
-9 54 0
-11 54 0
-32 54 0
-54 10 9 11 32 0
-11 55 0
-10 55 0
-12 55 0
-33 55 0
-55 11 10 12 33 0
-12 56 0
-11 56 0
-13 56 0
-34 56 0
-56 12 11 13 34 0
-13 57 0
-12 57 0
-14 57 0
-35 57 0
-57 13 12 14 35 0
-14 58 0
-13 58 0
-15 58 0
-36 58 0
-58 14 13 15 36 0
-15 59 0
-14 59 0
-16 59 0
-37 59 0
-59 15 14 16 37 0
-16 60 0
-15 60 0
-17 60 0
-38 60 0
-60 16 15 17 38 0
-17 61 0
-16 61 0
-18 61 0
-39 61 0
-61 17 16 18 39 0
-18 62 0
-17 62 0
-19 62 0
-40 62 0
-62 18 17 19 40 0
-19 63 0
-18 63 0
-20 63 0
-41 63 0
-63 19 18 20 41 0
-20 64 0
-19 64 0
-21 64 0
-42 64 0
-64 20 19 21 42 0
-21 65 0
-20 65 0
-22 65 0
-43 65 0
-65 21 20 22 43 0
-22 66 0
-1 66 0
-21 66 0
-44 66 0
-66 22 1 21 44 0
-23 67 0
-1 67 0
-27 67 0
-41 67 0
-67 23 1 27 41 0
-24 68 0
-2 68 0
-28 68 0
-42 68 0
-68 24 2 28 42 0
-25 69 0
-3 69 0
-29 69 0
-43 69 0
-69 25 3 29 43 0
-26 70 0
-4 70 0
-30 70 0
-44 70 0
-70 26 4 30 44 0
-27 71 0
-5 71 0
-23 71 0
-31 71 0
-71 27 5 23 31 0
-28 72 0
-6 72 0
-24 72 0
-32 72 0
-72 28 6 24 32 0
-29 73 0
-7 73 0
-25 73 0
-33 73 0
-73 29 7 25 33 0
-30 74 0
-8 74 0
-26 74 0
-34 74 0
-74 30 8 26 34 0
-31 75 0
-9 75 0
-27 75 0
-35 75 0
-75 31 9 27 35 0
-32 76 0
-10 76 0
-28 76 0
-36 76 0
-76 32 10 28 36 0
-33 77 0
-11 77 0
-29 77 0
-37 77 0
-77 33 11 29 37 0
-34 78 0
-12 78 0
-30 78 0
-38 78 0
-78 34 12 30 38 0
-35 79 0
-13 79 0
-31 79 0
-39 79 0
-79 35 13 31 39 0
-36 80 0
-14 80 0
-32 80 0
-40 80 0
-80 36 14 32 40 0
-37 81 0
-15 81 0
-33 81 0
-41 81 0
-81 37 15 33 41 0
-38 82 0
-16 82 0
-34 82 0
-42 82 0
-82 38 16 34 42 0
-39 83 0
-17 83 0
-35 83 0
-43 83 0
-83 39 17 35 43 0
-40 84 0
-18 84 0
-36 84 0
-44 84 0
-84 40 18 36 44 0
-41 85 0
-19 85 0
-23 85 0
-37 85 0
-85 41 19 23 37 0
-42 86 0
-20 86 0
-24 86 0
-38 86 0
-86 42 20 24 38 0
-43 87 0
-21 87 0
-25 87 0
-39 87 0
-87 43 21 25 39 0
-44 88 0
-22 88 0
-26 88 0
-40 88 0
-88 44 22 26 40 0
1 89 0
-89 90 0
2 -89 91 0
-91 92 0
3 -91 93 0
-93 94 0
4 -93 95 0
-95 96 0
5 -95 97 0
-97 98 0
6 -97 99 0
-99 100 0
7 -99 101 0
-101 102 0
8 -101 103 0
-103 104 0
9 -103 105 0
-105 106 0
10 -105 107 0
-107 108 0
11 -107 109 0
-109 110 0
12 -109 111 0
-111 112 0
13 -111 113 0
-113 114 0
14 -113 115 0
-115 116 0
15 -115 117 0
-117 118 0
16 -117 119 0
-119 120 0
17 -119 121 0
-121 122 0
18 -121 123 0
-123 124 0
19 -123 125 0
-125 126 0
20 -125 127 0
-127 128 0
21 -127 129 0
-129 130 0
22 -129 131 0
-131 132 0
23 -131 133 0
-133 134 0
24 -133 135 0
-135 136 0
25 -135 137 0
-137 138 0
26 -137 139 0
-139 140 0
27 -139 141 0
-141 142 0
28 -141 143 0
-143 144 0
29 -143 0
2 90 0
-90 145 0
3 -90 92 0
-92 146 0
4 -92 94 0
-94 147 0
5 -94 96 0
-96 148 0
6 -96 98 0
-98 149 0
7 -98 100 0
-100 150 0
8 -100 102 0
-102 151 0
9 -102 104 0
-104 152 0
10 -104 106 0
-106 153 0
11 -106 108 0
-108 154 0
12 -108 110 0
-110 155 0
13 -110 112 0
-112 156 0
14 -112 114 0
-114 157 0
15 -114 116 0
-116 158 0
16 -116 118 0
-118 159 0
17 -118 120 0
-120 160 0
18 -120 122 0
-122 161 0
19 -122 124 0
-124 162 0
20 -124 126 0
-126 163 0
21 -126 128 0
-128 164 0
22 -128 130 0
-130 165 0
23 -130 132 0
-132 166 0
24 -132 134 0
-134 167 0
25 -134 136 0
-136 168 0
26 -136 138 0
-138 169 0
27 -138 140 0
-140 170 0
28 -140 142 0
-142 171 0
29 -142 144 0
-144 172 0
30 -144 0
3 145 0
-145 173 0
4 -145 146 0
-146 174 0
5 -146 147 0
-147 175 0
6 -147 148 0
-148 176 0
7 -148 149 0
-149 177 0
8 -149 150 0
-150 178 0
9 -150 151 0
-151 179 0
10 -151 152 0
-152 180 0
11 -152 153 0
-153 181 0
12 -153 154 0
-154 182 0
13 -154 155 0
-155 183 0
14 -155 156 0
-156 184 0
15 -156 157 0
-157 185 0
16 -157 158 0
-158 186 0
17 -158 159 0
-159 187 0
18 -159 160 0
-160 188 0
19 -160 161 0
-161 189 0
20 -161 162 0
-162 190 0
21 -162 163 0
-163 191 0
22 -163 164 0
-164 192 0
23 -164 165 0
-165 193 0
24 -165 166 0
-166 194 0
25 -166 167 0
-167 195 0
26 -167 168 0
-168 196 0
27 -168 169 0
-169 197 0
28 -169 170 0
-170 198 0
29 -170 171 0
-171 199 0
30 -171 172 0
-172 200 0
31 -172 0
4 173 0
-173 201 0
5 -173 174 0
-174 202 0
6 -174 175 0
-175 203 0
7 -175 176 0
-176 204 0
8 -176 177 0
-177 205 0
9 -177 178 0
-178 206 0
10 -178 179 0
-179 207 0
11 -179 180 0
-180 208 0
12 -180 181 0
-181 209 0
13 -181 182 0
-182 210 0
14 -182 183 0
-183 211 0
15 -183 184 0
-184 212 0
16 -184 185 0
-185 213 0
17 -185 186 0
-186 214 0
18 -186 187 0
-187 215 0
19 -187 188 0
-188 216 0
20 -188 189 0
-189 217 0
21 -189 190 0
-190 218 0
22 -190 191 0
-191 219 0
23 -191 192 0
-192 220 0
24 -192 193 0
-193 221 0
25 -193 194 0
-194 222 0
26 -194 195 0
-195 223 0
27 -195 196 0
-196 224 0
28 -196 197 0
-197 225 0
29 -197 198 0
-198 226 0
30 -198 199 0
-199 227 0
31 -199 200 0
-200 228 0
32 -200 0
5 201 0
-201 229 0
6 -201 202 0
-202 230 0
7 -202 203 0
-203 231 0
8 -203 204 0
-204 232 0
9 -204 205 0
-205 233 0
10 -205 206 0
-206 234 0
11 -206 207 0
-207 235 0
12 -207 208 0
-208 236 0
13 -208 209 0
-209 237 0
14 -209 210 0
-210 238 0
15 -210 211 0
-211 239 0
16 -211 212 0
-212 240 0
17 -212 213 0
-213 241 0
18 -213 214 0
-214 242 0
19 -214 215 0
-215 243 0
20 -215 216 0
-216 244 0
21 -216 217 0
-217 245 0
22 -217 218 0
-218 246 0
23 -218 219 0
-219 247 0
24 -219 220 0
-220 248 0
25 -220 221 0
-221 249 0
26 -221 222 0
-222 250 0
27 -222 223 0
-223 251 0
28 -223 224 0
-224 252 0
29 -224 225 0
-225 253 0
30 -225 226 0
-226 254 0
31 -226 227 0
-227 255 0
32 -227 228 0
-228 256 0
33 -228 0
6 229 0
-229 257 0
7 -229 230 0
-230 258 0
8 -230 231 0
-231 259 0
9 -231 232 0
-232 260 0
10 -232 233 0
-233 261 0
11 -233 234 0
-234 262 0
12 -234 235 0
-235 263 0
13 -235 236 0
-236 264 0
14 -236 237 0
-237 265 0
15 -237 238 0
-238 266 0
16 -238 239 0
-239 267 0
17 -239 240 0
-240 268 0
18 -240 241 0
-241 269 0
19 -241 242 0
-242 270 0
20 -242 243 0
-243 271 0
21 -243 244 0
-244 272 0
22 -244 245 0
-245 273 0
23 -245 246 0
-246 274 0
24 -246 247 0
-247 275 0
25 -247 248 0
-248 276 0
26 -248 249 0
-249 277 0
27 -249 250 0
-250 278 0
28 -250 251 0
-251 279 0
29 -251 252 0
-252 280 0
30 -252 253 0
-253 281 0
31 -253 254 0
-254 282 0
32 -254 255 0
-255 283 0
33 -255 256 0
-256 284 0
34 -256 0
7 257 0
-257 285 0
8 -257 258 0
-258 286 0
9 -258 259 0
-259 287 0
10 -259 260 0
-260 288 0
11 -260 261 0
-261 289 0
12 -261 262 0
-262 290 0
13 -262 263 0
-263 291 0
14 -263 264 0
-264 292 0
15 -264 265 0
-265 293 0
16 -265 266 0
-266 294 0
17 -266 267 0
-267 295 0
18 -267 268 0
-268 296 0
19 -268 269 0
-269 297 0
20 -269 270 0
-270 298 0
21 -270 271 0
-271 299 0
22 -271 272 0
-272 300 0
23 -272 273 0
-273 301 0
24 -273 274 0
-274 302 0
25 -274 275 0
-275 303 0
26 -275 276 0
-276 304 0
27 -276 277 0
-277 305 0
28 -277 278 0
-278 306 0
29 -278 279 0
-279 307 0
30 -279 280 0
-280 308 0
31 -280 281 0
-281 309 0
32 -281 282 0
-282 310 0
33 -282 283 0
-283 311 0
34 -283 284 0
-284 312 0
35 -284 0
8 285 0
-285 313 0
9 -285 286 0
-286 314 0
10 -286 287 0
-287 315 0
11 -287 288 0
-288 316 0
12 -288 289 0
-289 317 0
13 -289 290 0
-290 318 0
14 -290 291 0
-291 319 0
15 -291 292 0
-292 320 0
16 -292 293 0
-293 321 0
17 -293 294 0
-294 322 0
18 -294 295 0
-295 323 0
19 -295 296 0
-296 324 0
20 -296 297 0
-297 325 0
21 -297 298 0
-298 326 0
22 -298 299 0
-299 327 0
23 -299 300 0
-300 328 0
24 -300 301 0
-301 329 0
25 -301 302 0
-302 330 0
26 -302 303 0
-303 331 0
27 -303 304 0
-304 332 0
28 -304 305 0
-305 333 0
29 -305 306 0
-306 334 0
30 -306 307 0
-307 335 0
31 -307 308 0
-308 336 0
32 -308 309 0
-309 337 0
33 -309 310 0
-310 338 0
34 -310 311 0
-311 339 0
35 -311 312 0
-312 340 0
36 -312 0
9 313 0
-313 341 0
10 -313 314 0
-314 342 0
11 -314 315 0
-315 343 0
12 -315 316 0
-316 344 0
13 -316 317 0
-317 345 0
14 -317 318 0
-318 346 0
15 -318 319 0
-319 347 0
16 -319 320 0
-320 348 0
17 -320 321 0
-321 349 0
18 -321 322 0
-322 350 0
19 -322 323 0
-323 351 0
20 -323 324 0
-324 352 0
21 -324 325 0
-325 353 0
22 -325 326 0
-326 354 0
23 -326 327 0
-327 355 0
24 -327 328 0
-328 356 0
25 -328 329 0
-329 357 0
26 -329 330 0
-330 358 0
27 -330 331 0
-331 359 0
28 -331 332 0
-332 360 0
29 -332 333 0
-333 361 0
30 -333 334 0
-334 362 0
31 -334 335 0
-335 363 0
32 -335 336 0
-336 364 0
33 -336 337 0
-337 365 0
34 -337 338 0
-338 366 0
35 -338 339 0
-339 367 0
36 -339 340 0
-340 368 0
37 -340 0
10 341 0
-341 369 0
11 -341 342 0
-342 370 0
12 -342 343 0
-343 371 0
13 -343 344 0
-344 372 0
14 -344 345 0
-345 373 0
15 -345 346 0
-346 374 0
16 -346 347 0
-347 375 0
17 -347 348 0
-348 376 0
18 -348 349 0
-349 377 0
19 -349 350 0
-350 378 0
20 -350 351 0
-351 379 0
21 -351 352 0
-352 380 0
22 -352 353 0
-353 381 0
23 -353 354 0
-354 382 0
24 -354 355 0
-355 383 0
25 -355 356 0
-356 384 0
26 -356 357 0
-357 385 0
27 -357 358 0
-358 386 0
28 -358 359 0
-359 387 0
29 -359 360 0
-360 388 0
30 -360 361 0
-361 389 0
31 -361 362 0
-362 390 0
32 -362 363 0
-363 391 0
33 -363 364 0
-364 392 0
34 -364 365 0
-365 393 0
35 -365 366 0
-366 394 0
36 -366 367 0
-367 395 0
37 -367 368 0
-368 396 0
38 -368 0
11 369 0
-369 397 0
12 -369 370 0
-370 398 0
13 -370 371 0
-371 399 0
14 -371 372 0
-372 400 0
15 -372 373 0
-373 401 0
16 -373 374 0
-374 402 0
17 -374 375 0
-375 403 0
18 -375 376 0
-376 404 0
19 -376 377 0
-377 405 0
20 -377 378 0
-378 406 0
21 -378 379 0
-379 407 0
22 -379 380 0
-380 408 0
23 -380 381 0
-381 409 0
24 -381 382 0
-382 410 0
25 -382 383 0
-383 411 0
26 -383 384 0
-384 412 0
27 -384 385 0
-385 413 0
28 -385 386 0
-386 414 0
29 -386 387 0
-387 415 0
30 -387 388 0
-388 416 0
31 -388 389 0
-389 417 0
32 -389 390 0
-390 418 0
33 -390 391 0
-391 419 0
34 -391 392 0
-392 420 0
35 -392 393 0
-393 421 0
36 -393 394 0
-394 422 0
37 -394 395 0
-395 423 0
38 -395 396 0
-396 424 0
39 -396 0
12 397 0
-397 425 0
13 -397 398 0
-398 426 0
14 -398 399 0
-399 427 0
15 -399 400 0
-400 428 0
16 -400 401 0
-401 429 0
17 -401 402 0
-402 430 0
18 -402 403 0
-403 431 0
19 -403 404 0
-404 432 0
20 -404 405 0
-405 433 0
21 -405 406 0
-406 434 0
22 -406 407 0
-407 435 0
23 -407 408 0
-408 436 0
24 -408 409 0
-409 437 0
25 -409 410 0
-410 438 0
26 -410 411 0
-411 439 0
27 -411 412 0
-412 440 0
28 -412 413 0
-413 441 0
29 -413 414 0
-414 442 0
30 -414 415 0
-415 443 0
31 -415 416 0
-416 444 0
32 -416 417 0
-417 445 0
33 -417 418 0
-418 446 0
34 -418 419 0
-419 447 0
35 -419 420 0
-420 448 0
36 -420 421 0
-421 449 0
37 -421 422 0
-422 450 0
38 -422 423 0
-423 451 0
39 -423 424 0
-424 452 0
40 -424 0
13 425 0
-425 453 0
14 -425 426 0
-426 454 0
15 -426 427 0
-427 455 0
16 -427 428 0
-428 456 0
17 -428 429 0
-429 457 0
18 -429 430 0
-430 458 0
19 -430 431 0
-431 459 0
20 -431 432 0
-432 460 0
21 -432 433 0
-433 461 0
22 -433 434 0
-434 462 0
23 -434 435 0
-435 463 0
24 -435 436 0
-436 464 0
25 -436 437 0
-437 465 0
26 -437 438 0
-438 466 0
27 -438 439 0
-439 467 0
28 -439 440 0
-440 468 0
29 -440 441 0
-441 469 0
30 -441 442 0
-442 470 0
31 -442 443 0
-443 471 0
32 -443 444 0
-444 472 0
33 -444 445 0
-445 473 0
34 -445 446 0
-446 474 0
35 -446 447 0
-447 475 0
36 -447 448 0
-448 476 0
37 -448 449 0
-449 477 0
38 -449 450 0
-450 478 0
39 -450 451 0
-451 479 0
40 -451 452 0
-452 480 0
41 -452 0
14 453 0
-453 481 0
15 -453 454 0
-454 482 0
16 -454 455 0
-455 483 0
17 -455 456 0
-456 484 0
18 -456 457 0
-457 485 0
19 -457 458 0
-458 486 0
20 -458 459 0
-459 487 0
21 -459 460 0
-460 488 0
22 -460 461 0
-461 489 0
23 -461 462 0
-462 490 0
24 -462 463 0
-463 491 0
25 -463 464 0
-464 492 0
26 -464 465 0
-465 493 0
27 -465 466 0
-466 494 0
28 -466 467 0
-467 495 0
29 -467 468 0
-468 496 0
30 -468 469 0
-469 497 0
31 -469 470 0
-470 498 0
32 -470 471 0
-471 499 0
33 -471 472 0
-472 500 0
34 -472 473 0
-473 501 0
35 -473 474 0
-474 502 0
36 -474 475 0
-475 503 0
37 -475 476 0
-476 504 0
38 -476 477 0
-477 505 0
39 -477 478 0
-478 506 0
40 -478 479 0
-479 507 0
41 -479 480 0
-480 508 0
42 -480 0
15 481 0
-481 509 0
16 -481 482 0
-482 510 0
17 -482 483 0
-483 511 0
18 -483 484 0
-484 512 0
19 -484 485 0
-485 513 0
20 -485 486 0
-486 514 0
21 -486 487 0
-487 515 0
22 -487 488 0
-488 516 0
23 -488 489 0
-489 517 0
24 -489 490 0
-490 518 0
25 -490 491 0
-491 519 0
26 -491 492 0
-492 520 0
27 -492 493 0
-493 521 0
28 -493 494 0
-494 522 0
29 -494 495 0
-495 523 0
30 -495 496 0
-496 524 0
31 -496 497 0
-497 525 0
32 -497 498 0
-498 526 0
33 -498 499 0
-499 527 0
34 -499 500 0
-500 528 0
35 -500 501 0
-501 529 0
36 -501 502 0
-502 530 0
37 -502 503 0
-503 531 0
38 -503 504 0
-504 532 0
39 -504 505 0
-505 533 0
40 -505 506 0
-506 534 0
41 -506 507 0
-507 535 0
42 -507 508 0
-508 536 0
43 -508 0
16 509 0
17 -509 510 0
18 -510 511 0
19 -511 512 0
20 -512 513 0
21 -513 514 0
22 -514 515 0
23 -515 516 0
24 -516 517 0
25 -517 518 0
26 -518 519 0
27 -519 520 0
28 -520 521 0
29 -521 522 0
30 -522 523 0
31 -523 524 0
32 -524 525 0
33 -525 526 0
34 -526 527 0
35 -527 528 0
36 -528 529 0
37 -529 530 0
38 -530 531 0
39 -531 532 0
40 -532 533 0
41 -533 534 0
42 -534 535 0
43 -535 536 0
44 -536 0
-1 537 0
-537 538 0
-2 -537 539 0
-539 540 0
-3 -539 541 0
-541 542 0
-4 -541 543 0
-543 544 0
-5 -543 545 0
-545 546 0
-6 -545 547 0
-547 548 0
-7 -547 549 0
-549 550 0
-8 -549 551 0
-551 552 0
-9 -551 553 0
-553 554 0
-10 -553 555 0
-555 556 0
-11 -555 557 0
-557 558 0
-12 -557 559 0
-559 560 0
-13 -559 561 0
-561 562 0
-14 -561 563 0
-563 564 0
-15 -563 565 0
-565 566 0
-16 -565 567 0
-567 568 0
-17 -567 0
-2 538 0
-538 569 0
-3 -538 540 0
-540 570 0
-4 -540 542 0
-542 571 0
-5 -542 544 0
-544 572 0
-6 -544 546 0
-546 573 0
-7 -546 548 0
-548 574 0
-8 -548 550 0
-550 575 0
-9 -550 552 0
-552 576 0
-10 -552 554 0
-554 577 0
-11 -554 556 0
-556 578 0
-12 -556 558 0
-558 579 0
-13 -558 560 0
-560 580 0
-14 -560 562 0
-562 581 0
-15 -562 564 0
-564 582 0
-16 -564 566 0
-566 583 0
-17 -566 568 0
-568 584 0
-18 -568 0
-3 569 0
-569 585 0
-4 -569 570 0
-570 586 0
-5 -570 571 0
-571 587 0
-6 -571 572 0
-572 588 0
-7 -572 573 0
-573 589 0
-8 -573 574 0
-574 590 0
-9 -574 575 0
-575 591 0
-10 -575 576 0
-576 592 0
-11 -576 577 0
-577 593 0
-12 -577 578 0
-578 594 0
-13 -578 579 0
-579 595 0
-14 -579 580 0
-580 596 0
-15 -580 581 0
-581 597 0
-16 -581 582 0
-582 598 0
-17 -582 583 0
-583 599 0
-18 -583 584 0
-584 600 0
-19 -584 0
-4 585 0
-585 601 0
-5 -585 586 0
-586 602 0
-6 -586 587 0
-587 603 0
-7 -587 588 0
-588 604 0
-8 -588 589 0
-589 605 0
-9 -589 590 0
-590 606 0
-10 -590 591 0
-591 607 0
-11 -591 592 0
-592 608 0
-12 -592 593 0
-593 609 0
-13 -593 594 0
-594 610 0
-14 -594 595 0
-595 611 0
-15 -595 596 0
-596 612 0
-16 -596 597 0
-597 613 0
-17 -597 598 0
-598 614 0
-18 -598 599 0
-599 615 0
-19 -599 600 0
-600 616 0
-20 -600 0
-5 601 0
-601 617 0
-6 -601 602 0
-602 618 0
-7 -602 603 0
-603 619 0
-8 -603 604 0
-604 620 0
-9 -604 605 0
-605 621 0
-10 -605 606 0
-606 622 0
-11 -606 607 0
-607 623 0
-12 -607 608 0
-608 624 0
-13 -608 609 0
-609 625 0
-14 -609 610 0
-610 626 0
-15 -610 611 0
-611 627 0
-16 -611 612 0
-612 628 0
-17 -612 613 0
-613 629 0
-18 -613 614 0
-614 630 0
-19 -614 615 0
-615 631 0
-20 -615 616 0
-616 632 0
-21 -616 0
-6 617 0
-617 633 0
-7 -617 618 0
-618 634 0
-8 -618 619 0
-619 635 0
-9 -619 620 0
-620 636 0
-10 -620 621 0
-621 637 0
-11 -621 622 0
-622 638 0
-12 -622 623 0
-623 639 0
-13 -623 624 0
-624 640 0
-14 -624 625 0
-625 641 0
-15 -625 626 0
-626 642 0
-16 -626 627 0
-627 643 0
-17 -627 628 0
-628 644 0
-18 -628 629 0
-629 645 0
-19 -629 630 0
-630 646 0
-20 -630 631 0
-631 647 0
-21 -631 632 0
-632 648 0
-22 -632 0
-7 633 0
-633 649 0
-8 -633 634 0
-634 650 0
-9 -634 635 0
-635 651 0
-10 -635 636 0
-636 652 0
-11 -636 637 0
-637 653 0
-12 -637 638 0
-638 654 0
-13 -638 639 0
-639 655 0
-14 -639 640 0
-640 656 0
-15 -640 641 0
-641 657 0
-16 -641 642 0
-642 658 0
-17 -642 643 0
-643 659 0
-18 -643 644 0
-644 660 0
-19 -644 645 0
-645 661 0
-20 -645 646 0
-646 662 0
-21 -646 647 0
-647 663 0
-22 -647 648 0
-648 664 0
-23 -648 0
-8 649 0
-649 665 0
-9 -649 650 0
-650 666 0
-10 -650 651 0
-651 667 0
-11 -651 652 0
-652 668 0
-12 -652 653 0
-653 669 0
-13 -653 654 0
-654 670 0
-14 -654 655 0
-655 671 0
-15 -655 656 0
-656 672 0
-16 -656 657 0
-657 673 0
-17 -657 658 0
-658 674 0
-18 -658 659 0
-659 675 0
-19 -659 660 0
-660 676 0
-20 -660 661 0
-661 677 0
-21 -661 662 0
-662 678 0
-22 -662 663 0
-663 679 0
-23 -663 664 0
-664 680 0
-24 -664 0
-9 665 0
-665 681 0
-10 -665 666 0
-666 682 0
-11 -666 667 0
-667 683 0
-12 -667 668 0
-668 684 0
-13 -668 669 0
-669 685 0
-14 -669 670 0
-670 686 0
-15 -670 671 0
-671 687 0
-16 -671 672 0
-672 688 0
-17 -672 673 0
-673 689 0
-18 -673 674 0
-674 690 0
-19 -674 675 0
-675 691 0
-20 -675 676 0
-676 692 0
-21 -676 677 0
-677 693 0
-22 -677 678 0
-678 694 0
-23 -678 679 0
-679 695 0
-24 -679 680 0
-680 696 0
-25 -680 0
-10 681 0
-681 697 0
-11 -681 682 0
-682 698 0
-12 -682 683 0
-683 699 0
-13 -683 684 0
-684 700 0
-14 -684 685 0
-685 701 0
-15 -685 686 0
-686 702 0
-16 -686 687 0
-687 703 0
-17 -687 688 0
-688 704 0
-18 -688 689 0
-689 705 0
-19 -689 690 0
-690 706 0
-20 -690 691 0
-691 707 0
-21 -691 692 0
-692 708 0
-22 -692 693 0
-693 709 0
-23 -693 694 0
-694 710 0
-24 -694 695 0
-695 711 0
-25 -695 696 0
-696 712 0
-26 -696 0
-11 697 0
-697 713 0
-12 -697 698 0
-698 714 0
-13 -698 699 0
-699 715 0
-14 -699 700 0
-700 716 0
-15 -700 701 0
-701 717 0
-16 -701 702 0
-702 718 0
-17 -702 703 0
-703 719 0
-18 -703 704 0
-704 720 0
-19 -704 705 0
-705 721 0
-20 -705 706 0
-706 722 0
-21 -706 707 0
-707 723 0
-22 -707 708 0
-708 724 0
-23 -708 709 0
-709 725 0
-24 -709 710 0
-710 726 0
-25 -710 711 0
-711 727 0
-26 -711 712 0
-712 728 0
-27 -712 0
-12 713 0
-713 729 0
-13 -713 714 0
-714 730 0
-14 -714 715 0
-715 731 0
-15 -715 716 0
-716 732 0
-16 -716 717 0
-717 733 0
-17 -717 718 0
-718 734 0
-18 -718 719 0
-719 735 0
-19 -719 720 0
-720 736 0
-20 -720 721 0
-721 737 0
-21 -721 722 0
-722 738 0
-22 -722 723 0
-723 739 0
-23 -723 724 0
-724 740 0
-24 -724 725 0
-725 741 0
-25 -725 726 0
-726 742 0
-26 -726 727 0
-727 743 0
-27 -727 728 0
-728 744 0
-28 -728 0
-13 729 0
-729 745 0
-14 -729 730 0
-730 746 0
-15 -730 731 0
-731 747 0
-16 -731 732 0
-732 748 0
-17 -732 733 0
-733 749 0
-18 -733 734 0
-734 750 0
-19 -734 735 0
-735 751 0
-20 -735 736 0
-736 752 0
-21 -736 737 0
-737 753 0
-22 -737 738 0
-738 754 0
-23 -738 739 0
-739 755 0
-24 -739 740 0
-740 756 0
-25 -740 741 0
-741 757 0
-26 -741 742 0
-742 758 0
-27 -742 743 0
-743 759 0
-28 -743 744 0
-744 760 0
-29 -744 0
-14 745 0
-745 761 0
-15 -745 746 0
-746 762 0
-16 -746 747 0
-747 763 0
-17 -747 748 0
-748 764 0
-18 -748 749 0
-749 765 0
-19 -749 750 0
-750 766 0
-20 -750 751 0
-751 767 0
-21 -751 752 0
-752 768 0
-22 -752 753 0
-753 769 0
-23 -753 754 0
-754 770 0
-24 -754 755 0
-755 771 0
-25 -755 756 0
-756 772 0
-26 -756 757 0
-757 773 0
-27 -757 758 0
-758 774 0
-28 -758 759 0
-759 775 0
-29 -759 760 0
-760 776 0
-30 -760 0
-15 761 0
-761 777 0
-16 -761 762 0
-762 778 0
-17 -762 763 0
-763 779 0
-18 -763 764 0
-764 780 0
-19 -764 765 0
-765 781 0
-20 -765 766 0
-766 782 0
-21 -766 767 0
-767 783 0
-22 -767 768 0
-768 784 0
-23 -768 769 0
-769 785 0
-24 -769 770 0
-770 786 0
-25 -770 771 0
-771 787 0
-26 -771 772 0
-772 788 0
-27 -772 773 0
-773 789 0
-28 -773 774 0
-774 790 0
-29 -774 775 0
-775 791 0
-30 -775 776 0
-776 792 0
-31 -776 0
-16 777 0
-777 793 0
-17 -777 778 0
-778 794 0
-18 -778 779 0
-779 795 0
-19 -779 780 0
-780 796 0
-20 -780 781 0
-781 797 0
-21 -781 782 0
-782 798 0
-22 -782 783 0
-783 799 0
-23 -783 784 0
-784 800 0
-24 -784 785 0
-785 801 0
-25 -785 786 0
-786 802 0
-26 -786 787 0
-787 803 0
-27 -787 788 0
-788 804 0
-28 -788 789 0
-789 805 0
-29 -789 790 0
-790 806 0
-30 -790 791 0
-791 807 0
-31 -791 792 0
-792 808 0
-32 -792 0
-17 793 0
-793 809 0
-18 -793 794 0
-794 810 0
-19 -794 795 0
-795 811 0
-20 -795 796 0
-796 812 0
-21 -796 797 0
-797 813 0
-22 -797 798 0
-798 814 0
-23 -798 799 0
-799 815 0
-24 -799 800 0
-800 816 0
-25 -800 801 0
-801 817 0
-26 -801 802 0
-802 818 0
-27 -802 803 0
-803 819 0
-28 -803 804 0
-804 820 0
-29 -804 805 0
-805 821 0
-30 -805 806 0
-806 822 0
-31 -806 807 0
-807 823 0
-32 -807 808 0
-808 824 0
-33 -808 0
-18 809 0
-809 825 0
-19 -809 810 0
-810 826 0
-20 -810 811 0
-811 827 0
-21 -811 812 0
-812 828 0
-22 -812 813 0
-813 829 0
-23 -813 814 0
-814 830 0
-24 -814 815 0
-815 831 0
-25 -815 816 0
-816 832 0
-26 -816 817 0
-817 833 0
-27 -817 818 0
-818 834 0
-28 -818 819 0
-819 835 0
-29 -819 820 0
-820 836 0
-30 -820 821 0
-821 837 0
-31 -821 822 0
-822 838 0
-32 -822 823 0
-823 839 0
-33 -823 824 0
-824 840 0
-34 -824 0
-19 825 0
-825 841 0
-20 -825 826 0
-826 842 0
-21 -826 827 0
-827 843 0
-22 -827 828 0
-828 844 0
-23 -828 829 0
-829 845 0
-24 -829 830 0
-830 846 0
-25 -830 831 0
-831 847 0
-26 -831 832 0
-832 848 0
-27 -832 833 0
-833 849 0
-28 -833 834 0
-834 850 0
-29 -834 835 0
-835 851 0
-30 -835 836 0
-836 852 0
-31 -836 837 0
-837 853 0
-32 -837 838 0
-838 854 0
-33 -838 839 0
-839 855 0
-34 -839 840 0
-840 856 0
-35 -840 0
-20 841 0
-841 857 0
-21 -841 842 0
-842 858 0
-22 -842 843 0
-843 859 0
-23 -843 844 0
-844 860 0
-24 -844 845 0
-845 861 0
-25 -845 846 0
-846 862 0
-26 -846 847 0
-847 863 0
-27 -847 848 0
-848 864 0
-28 -848 849 0
-849 865 0
-29 -849 850 0
-850 866 0
-30 -850 851 0
-851 867 0
-31 -851 852 0
-852 868 0
-32 -852 853 0
-853 869 0
-33 -853 854 0
-854 870 0
-34 -854 855 0
-855 871 0
-35 -855 856 0
-856 872 0
-36 -856 0
-21 857 0
-857 873 0
-22 -857 858 0
-858 874 0
-23 -858 859 0
-859 875 0
-24 -859 860 0
-860 876 0
-25 -860 861 0
-861 877 0
-26 -861 862 0
-862 878 0
-27 -862 863 0
-863 879 0
-28 -863 864 0
-864 880 0
-29 -864 865 0
-865 881 0
-30 -865 866 0
-866 882 0
-31 -866 867 0
-867 883 0
-32 -867 868 0
-868 884 0
-33 -868 869 0
-869 885 0
-34 -869 870 0
-870 886 0
-35 -870 871 0
-871 887 0
-36 -871 872 0
-872 888 0
-37 -872 0
-22 873 0
-873 889 0
-23 -873 874 0
-874 890 0
-24 -874 875 0
-875 891 0
-25 -875 876 0
-876 892 0
-26 -876 877 0
-877 893 0
-27 -877 878 0
-878 894 0
-28 -878 879 0
-879 895 0
-29 -879 880 0
-880 896 0
-30 -880 881 0
-881 897 0
-31 -881 882 0
-882 898 0
-32 -882 883 0
-883 899 0
-33 -883 884 0
-884 900 0
-34 -884 885 0
-885 901 0
-35 -885 886 0
-886 902 0
-36 -886 887 0
-887 903 0
-37 -887 888 0
-888 904 0
-38 -888 0
-23 889 0
-889 905 0
-24 -889 890 0
-890 906 0
-25 -890 891 0
-891 907 0
-26 -891 892 0
-892 908 0
-27 -892 893 0
-893 909 0
-28 -893 894 0
-894 910 0
-29 -894 895 0
-895 911 0
-30 -895 896 0
-896 912 0
-31 -896 897 0
-897 913 0
-32 -897 898 0
-898 914 0
-33 -898 899 0
-899 915 0
-34 -899 900 0
-900 916 0
-35 -900 901 0
-901 917 0
-36 -901 902 0
-902 918 0
-37 -902 903 0
-903 919 0
-38 -903 904 0
-904 920 0
-39 -904 0
-24 905 0
-905 921 0
-25 -905 906 0
-906 922 0
-26 -906 907 0
-907 923 0
-27 -907 908 0
-908 924 0
-28 -908 909 0
-909 925 0
-29 -909 910 0
-910 926 0
-30 -910 911 0
-911 927 0
-31 -911 912 0
-912 928 0
-32 -912 913 0
-913 929 0
-33 -913 914 0
-914 930 0
-34 -914 915 0
-915 931 0
-35 -915 916 0
-916 932 0
-36 -916 917 0
-917 933 0
-37 -917 918 0
-918 934 0
-38 -918 919 0
-919 935 0
-39 -919 920 0
-920 936 0
-40 -920 0
-25 921 0
-921 937 0
-26 -921 922 0
-922 938 0
-27 -922 923 0
-923 939 0
-28 -923 924 0
-924 940 0
-29 -924 925 0
-925 941 0
-30 -925 926 0
-926 942 0
-31 -926 927 0
-927 943 0
-32 -927 928 0
-928 944 0
-33 -928 929 0
-929 945 0
-34 -929 930 0
-930 946 0
-35 -930 931 0
-931 947 0
-36 -931 932 0
-932 948 0
-37 -932 933 0
-933 949 0
-38 -933 934 0
-934 950 0
-39 -934 935 0
-935 951 0
-40 -935 936 0
-936 952 0
-41 -936 0
-26 937 0
-937 953 0
-27 -937 938 0
-938 954 0
-28 -938 939 0
-939 955 0
-29 -939 940 0
-940 956 0
-30 -940 941 0
-941 957 0
-31 -941 942 0
-942 958 0
-32 -942 943 0
-943 959 0
-33 -943 944 0
-944 960 0
-34 -944 945 0
-945 961 0
-35 -945 946 0
-946 962 0
-36 -946 947 0
-947 963 0
-37 -947 948 0
-948 964 0
-38 -948 949 0
-949 965 0
-39 -949 950 0
-950 966 0
-40 -950 951 0
-951 967 0
-41 -951 952 0
-952 968 0
-42 -952 0
-27 953 0
-953 969 0
-28 -953 954 0
-954 970 0
-29 -954 955 0
-955 971 0
-30 -955 956 0
-956 972 0
-31 -956 957 0
-957 973 0
-32 -957 958 0
-958 974 0
-33 -958 959 0
-959 975 0
-34 -959 960 0
-960 976 0
-35 -960 961 0
-961 977 0
-36 -961 962 0
-962 978 0
-37 -962 963 0
-963 979 0
-38 -963 964 0
-964 980 0
-39 -964 965 0
-965 981 0
-40 -965 966 0
-966 982 0
-41 -966 967 0
-967 983 0
-42 -967 968 0
-968 984 0
-43 -968 0
-28 969 0
-29 -969 970 0
-30 -970 971 0
-31 -971 972 0
-32 -972 973 0
-33 -973 974 0
-34 -974 975 0
-35 -975 976 0
-36 -976 977 0
-37 -977 978 0
-38 -978 979 0
-39 -979 980 0
-40 -980 981 0
-41 -981 982 0
-42 -982 983 0
-43 -983 984 0
-44 -984 0
-45 985 0
-985 986 0
-46 -985 987 0
-987 988 0
-47 -987 989 0
-989 990 0
-48 -989 991 0
-991 992 0
-49 -991 993 0
-993 994 0
-50 -993 995 0
-995 996 0
-51 -995 997 0
-997 998 0
-52 -997 999 0
-999 1000 0
-53 -999 1001 0
-1001 1002 0
-54 -1001 1003 0
-1003 1004 0
-55 -1003 1005 0
-1005 1006 0
-56 -1005 1007 0
-1007 1008 0
-57 -1007 1009 0
-1009 1010 0
-58 -1009 1011 0
-1011 1012 0
-59 -1011 1013 0
-1013 1014 0
-60 -1013 1015 0
-1015 1016 0
-61 -1015 1017 0
-1017 1018 0
-62 -1017 1019 0
-1019 1020 0
-63 -1019 1021 0
-1021 1022 0
-64 -1021 1023 0
-1023 1024 0
-65 -1023 1025 0
-1025 1026 0
-66 -1025 1027 0
-1027 1028 0
-67 -1027 1029 0
-1029 1030 0
-68 -1029 1031 0
-1031 1032 0
-69 -1031 1033 0
-1033 1034 0
-70 -1033 0
-46 986 0
-986 1035 0
-47 -986 988 0
-988 1036 0
-48 -988 990 0
-990 1037 0
-49 -990 992 0
-992 1038 0
-50 -992 994 0
-994 1039 0
-51 -994 996 0
-996 1040 0
-52 -996 998 0
-998 1041 0
-53 -998 1000 0
-1000 1042 0
-54 -1000 1002 0
-1002 1043 0
-55 -1002 1004 0
-1004 1044 0
-56 -1004 1006 0
-1006 1045 0
-57 -1006 1008 0
-1008 1046 0
-58 -1008 1010 0
-1010 1047 0
-59 -1010 1012 0
-1012 1048 0
-60 -1012 1014 0
-1014 1049 0
-61 -1014 1016 0
-1016 1050 0
-62 -1016 1018 0
-1018 1051 0
-63 -1018 1020 0
-1020 1052 0
-64 -1020 1022 0
-1022 1053 0
-65 -1022 1024 0
-1024 1054 0
-66 -1024 1026 0
-1026 1055 0
-67 -1026 1028 0
-1028 1056 0
-68 -1028 1030 0
-1030 1057 0
-69 -1030 1032 0
-1032 1058 0
-70 -1032 1034 0
-1034 1059 0
-71 -1034 0
-47 1035 0
-1035 1060 0
-48 -1035 1036 0
-1036 1061 0
-49 -1036 1037 0
-1037 1062 0
-50 -1037 1038 0
-1038 1063 0
-51 -1038 1039 0
-1039 1064 0
-52 -1039 1040 0
-1040 1065 0
-53 -1040 1041 0
-1041 1066 0
-54 -1041 1042 0
-1042 1067 0
-55 -1042 1043 0
-1043 1068 0
-56 -1043 1044 0
-1044 1069 0
-57 -1044 1045 0
-1045 1070 0
-58 -1045 1046 0
-1046 1071 0
-59 -1046 1047 0
-1047 1072 0
-60 -1047 1048 0
-1048 1073 0
-61 -1048 1049 0
-1049 1074 0
-62 -1049 1050 0
-1050 1075 0
-63 -1050 1051 0
-1051 1076 0
-64 -1051 1052 0
-1052 1077 0
-65 -1052 1053 0
-1053 1078 0
-66 -1053 1054 0
-1054 1079 0
-67 -1054 1055 0
-1055 1080 0
-68 -1055 1056 0
-1056 1081 0
-69 -1056 1057 0
-1057 1082 0
-70 -1057 1058 0
-1058 1083 0
-71 -1058 1059 0
-1059 1084 0
-72 -1059 0
-48 1060 0
-1060 1085 0
-49 -1060 1061 0
-1061 1086 0
-50 -1061 1062 0
-1062 1087 0
-51 -1062 1063 0
-1063 1088 0
-52 -1063 1064 0
-1064 1089 0
-53 -1064 1065 0
-1065 1090 0
-54 -1065 1066 0
-1066 1091 0
-55 -1066 1067 0
-1067 1092 0
-56 -1067 1068 0
-1068 1093 0
-57 -1068 1069 0
-1069 1094 0
-58 -1069 1070 0
-1070 1095 0
-59 -1070 1071 0
-1071 1096 0
-60 -1071 1072 0
-1072 1097 0
-61 -1072 1073 0
-1073 1098 0
-62 -1073 1074 0
-1074 1099 0
-63 -1074 1075 0
-1075 1100 0
-64 -1075 1076 0
-1076 1101 0
-65 -1076 1077 0
-1077 1102 0
-66 -1077 1078 0
-1078 1103 0
-67 -1078 1079 0
-1079 1104 0
-68 -1079 1080 0
-1080 1105 0
-69 -1080 1081 0
-1081 1106 0
-70 -1081 1082 0
-1082 1107 0
-71 -1082 1083 0
-1083 1108 0
-72 -1083 1084 0
-1084 1109 0
-73 -1084 0
-49 1085 0
-1085 1110 0
-50 -1085 1086 0
-1086 1111 0
-51 -1086 1087 0
-1087 1112 0
-52 -1087 1088 0
-1088 1113 0
-53 -1088 1089 0
-1089 1114 0
-54 -1089 1090 0
-1090 1115 0
-55 -1090 1091 0
-1091 1116 0
-56 -1091 1092 0
-1092 1117 0
-57 -1092 1093 0
-1093 1118 0
-58 -1093 1094 0
-1094 1119 0
-59 -1094 1095 0
-1095 1120 0
-60 -1095 1096 0
-1096 1121 0
-61 -1096 1097 0
-1097 1122 0
-62 -1097 1098 0
-1098 1123 0
-63 -1098 1099 0
-1099 1124 0
-64 -1099 1100 0
-1100 1125 0
-65 -1100 1101 0
-1101 1126 0
-66 -1101 1102 0
-1102 1127 0
-67 -1102 1103 0
-1103 1128 0
-68 -1103 1104 0
-1104 1129 0
-69 -1104 1105 0
-1105 1130 0
-70 -1105 1106 0
-1106 1131 0
-71 -1106 1107 0
-1107 1132 0
-72 -1107 1108 0
-1108 1133 0
-73 -1108 1109 0
-1109 1134 0
-74 -1109 0
-50 1110 0
-1110 1135 0
-51 -1110 1111 0
-1111 1136 0
-52 -1111 1112 0
-1112 1137 0
-53 -1112 1113 0
-1113 1138 0
-54 -1113 1114 0
-1114 1139 0
-55 -1114 1115 0
-1115 1140 0
-56 -1115 1116 0
-1116 1141 0
-57 -1116 1117 0
-1117 1142 0
-58 -1117 1118 0
-1118 1143 0
-59 -1118 1119 0
-1119 1144 0
-60 -1119 1120 0
-1120 1145 0
-61 -1120 1121 0
-1121 1146 0
-62 -1121 1122 0
-1122 1147 0
-63 -1122 1123 0
-1123 1148 0
-64 -1123 1124 0
-1124 1149 0
-65 -1124 1125 0
-1125 1150 0
-66 -1125 1126 0
-1126 1151 0
-67 -1126 1127 0
-1127 1152 0
-68 -1127 1128 0
-1128 1153 0
-69 -1128 1129 0
-1129 1154 0
-70 -1129 1130 0
-1130 1155 0
-71 -1130 1131 0
-1131 1156 0
-72 -1131 1132 0
-1132 1157 0
-73 -1132 1133 0
-1133 1158 0
-74 -1133 1134 0
-1134 1159 0
-75 -1134 0
-51 1135 0
-1135 1160 0
-52 -1135 1136 0
-1136 1161 0
-53 -1136 1137 0
-1137 1162 0
-54 -1137 1138 0
-1138 1163 0
-55 -1138 1139 0
-1139 1164 0
-56 -1139 1140 0
-1140 1165 0
-57 -1140 1141 0
-1141 1166 0
-58 -1141 1142 0
-1142 1167 0
-59 -1142 1143 0
-1143 1168 0
-60 -1143 1144 0
-1144 1169 0
-61 -1144 1145 0
-1145 1170 0
-62 -1145 1146 0
-1146 1171 0
-63 -1146 1147 0
-1147 1172 0
-64 -1147 1148 0
-1148 1173 0
-65 -1148 1149 0
-1149 1174 0
-66 -1149 1150 0
-1150 1175 0
-67 -1150 1151 0
-1151 1176 0
-68 -1151 1152 0
-1152 1177 0
-69 -1152 1153 0
-1153 1178 0
-70 -1153 1154 0
-1154 1179 0
-71 -1154 1155 0
-1155 1180 0
-72 -1155 1156 0
-1156 1181 0
-73 -1156 1157 0
-1157 1182 0
-74 -1157 1158 0
-1158 1183 0
-75 -1158 1159 0
-1159 1184 0
-76 -1159 0
-52 1160 0
-1160 1185 0
-53 -1160 1161 0
-1161 1186 0
-54 -1161 1162 0
-1162 1187 0
-55 -1162 1163 0
-1163 1188 0
-56 -1163 1164 0
-1164 1189 0
-57 -1164 1165 0
-1165 1190 0
-58 -1165 1166 0
-1166 1191 0
-59 -1166 1167 0
-1167 1192 0
-60 -1167 1168 0
-1168 1193 0
-61 -1168 1169 0
-1169 1194 0
-62 -1169 1170 0
-1170 1195 0
-63 -1170 1171 0
-1171 1196 0
-64 -1171 1172 0
-1172 1197 0
-65 -1172 1173 0
-1173 1198 0
-66 -1173 1174 0
-1174 1199 0
-67 -1174 1175 0
-1175 1200 0
-68 -1175 1176 0
-1176 1201 0
-69 -1176 1177 0
-1177 1202 0
-70 -1177 1178 0
-1178 1203 0
-71 -1178 1179 0
-1179 1204 0
-72 -1179 1180 0
-1180 1205 0
-73 -1180 1181 0
-1181 1206 0
-74 -1181 1182 0
-1182 1207 0
-75 -1182 1183 0
-1183 1208 0
-76 -1183 1184 0
-1184 1209 0
-77 -1184 0
-53 1185 0
-1185 1210 0
-54 -1185 1186 0
-1186 1211 0
-55 -1186 1187 0
-1187 1212 0
-56 -1187 1188 0
-1188 1213 0
-57 -1188 1189 0
-1189 1214 0
-58 -1189 1190 0
-1190 1215 0
-59 -1190 1191 0
-1191 1216 0
-60 -1191 1192 0
-1192 1217 0
-61 -1192 1193 0
-1193 1218 0
-62 -1193 1194 0
-1194 1219 0
-63 -1194 1195 0
-1195 1220 0
-64 -1195 1196 0
-1196 1221 0
-65 -1196 1197 0
-1197 1222 0
-66 -1197 1198 0
-1198 1223 0
-67 -1198 1199 0
-1199 1224 0
-68 -1199 1200 0
-1200 1225 0
-69 -1200 1201 0
-1201 1226 0
-70 -1201 1202 0
-1202 1227 0
-71 -1202 1203 0
-1203 1228 0
-72 -1203 1204 0
-1204 1229 0
-73 -1204 1205 0
-1205 1230 0
-74 -1205 1206 0
-1206 1231 0
-75 -1206 1207 0
-1207 1232 0
-76 -1207 1208 0
-1208 1233 0
-77 -1208 1209 0
-1209 1234 0
-78 -1209 0
-54 1210 0
-1210 1235 0
-55 -1210 1211 0
-1211 1236 0
-56 -1211 1212 0
-1212 1237 0
-57 -1212 1213 0
-1213 1238 0
-58 -1213 1214 0
-1214 1239 0
-59 -1214 1215 0
-1215 1240 0
-60 -1215 1216 0
-1216 1241 0
-61 -1216 1217 0
-1217 1242 0
-62 -1217 1218 0
-1218 1243 0
-63 -1218 1219 0
-1219 1244 0
-64 -1219 1220 0
-1220 1245 0
-65 -1220 1221 0
-1221 1246 0
-66 -1221 1222 0
-1222 1247 0
-67 -1222 1223 0
-1223 1248 0
-68 -1223 1224 0
-1224 1249 0
-69 -1224 1225 0
-1225 1250 0
-70 -1225 1226 0
-1226 1251 0
-71 -1226 1227 0
-1227 1252 0
-72 -1227 1228 0
-1228 1253 0
-73 -1228 1229 0
-1229 1254 0
-74 -1229 1230 0
-1230 1255 0
-75 -1230 1231 0
-1231 1256 0
-76 -1231 1232 0
-1232 1257 0
-77 -1232 1233 0
-1233 1258 0
-78 -1233 1234 0
-1234 1259 0
-79 -1234 0
-55 1235 0
-1235 1260 0
-56 -1235 1236 0
-1236 1261 0
-57 -1236 1237 0
-1237 1262 0
-58 -1237 1238 0
-1238 1263 0
-59 -1238 1239 0
-1239 1264 0
-60 -1239 1240 0
-1240 1265 0
-61 -1240 1241 0
-1241 1266 0
-62 -1241 1242 0
-1242 1267 0
-63 -1242 1243 0
-1243 1268 0
-64 -1243 1244 0
-1244 1269 0
-65 -1244 1245 0
-1245 1270 0
-66 -1245 1246 0
-1246 1271 0
-67 -1246 1247 0
-1247 1272 0
-68 -1247 1248 0
-1248 1273 0
-69 -1248 1249 0
-1249 1274 0
-70 -1249 1250 0
-1250 1275 0
-71 -1250 1251 0
-1251 1276 0
-72 -1251 1252 0
-1252 1277 0
-73 -1252 1253 0
-1253 1278 0
-74 -1253 1254 0
-1254 1279 0
-75 -1254 1255 0
-1255 1280 0
-76 -1255 1256 0
-1256 1281 0
-77 -1256 1257 0
-1257 1282 0
-78 -1257 1258 0
-1258 1283 0
-79 -1258 1259 0
-1259 1284 0
-80 -1259 0
-56 1260 0
-1260 1285 0
-57 -1260 1261 0
-1261 1286 0
-58 -1261 1262 0
-1262 1287 0
-59 -1262 1263 0
-1263 1288 0
-60 -1263 1264 0
-1264 1289 0
-61 -1264 1265 0
-1265 1290 0
-62 -1265 1266 0
-1266 1291 0
-63 -1266 1267 0
-1267 1292 0
-64 -1267 1268 0
-1268 1293 0
-65 -1268 1269 0
-1269 1294 0
-66 -1269 1270 0
-1270 1295 0
-67 -1270 1271 0
-1271 1296 0
-68 -1271 1272 0
-1272 1297 0
-69 -1272 1273 0
-1273 1298 0
-70 -1273 1274 0
-1274 1299 0
-71 -1274 1275 0
-1275 1300 0
-72 -1275 1276 0
-1276 1301 0
-73 -1276 1277 0
-1277 1302 0
-74 -1277 1278 0
-1278 1303 0
-75 -1278 1279 0
-1279 1304 0
-76 -1279 1280 0
-1280 1305 0
-77 -1280 1281 0
-1281 1306 0
-78 -1281 1282 0
-1282 1307 0
-79 -1282 1283 0
-1283 1308 0
-80 -1283 1284 0
-1284 1309 0
-81 -1284 0
-57 1285 0
-1285 1310 0
-58 -1285 1286 0
-1286 1311 0
-59 -1286 1287 0
-1287 1312 0
-60 -1287 1288 0
-1288 1313 0
-61 -1288 1289 0
-1289 1314 0
-62 -1289 1290 0
-1290 1315 0
-63 -1290 1291 0
-1291 1316 0
-64 -1291 1292 0
-1292 1317 0
-65 -1292 1293 0
-1293 1318 0
-66 -1293 1294 0
-1294 1319 0
-67 -1294 1295 0
-1295 1320 0
-68 -1295 1296 0
-1296 1321 0
-69 -1296 1297 0
-1297 1322 0
-70 -1297 1298 0
-1298 1323 0
-71 -1298 1299 0
-1299 1324 0
-72 -1299 1300 0
-1300 1325 0
-73 -1300 1301 0
-1301 1326 0
-74 -1301 1302 0
-1302 1327 0
-75 -1302 1303 0
-1303 1328 0
-76 -1303 1304 0
-1304 1329 0
-77 -1304 1305 0
-1305 1330 0
-78 -1305 1306 0
-1306 1331 0
-79 -1306 1307 0
-1307 1332 0
-80 -1307 1308 0
-1308 1333 0
-81 -1308 1309 0
-1309 1334 0
-82 -1309 0
-58 1310 0
-1310 1335 0
-59 -1310 1311 0
-1311 1336 0
-60 -1311 1312 0
-1312 1337 0
-61 -1312 1313 0
-1313 1338 0
-62 -1313 1314 0
-1314 1339 0
-63 -1314 1315 0
-1315 1340 0
-64 -1315 1316 0
-1316 1341 0
-65 -1316 1317 0
-1317 1342 0
-66 -1317 1318 0
-1318 1343 0
-67 -1318 1319 0
-1319 1344 0
-68 -1319 1320 0
-1320 1345 0
-69 -1320 1321 0
-1321 1346 0
-70 -1321 1322 0
-1322 1347 0
-71 -1322 1323 0
-1323 1348 0
-72 -1323 1324 0
-1324 1349 0
-73 -1324 1325 0
-1325 1350 0
-74 -1325 1326 0
-1326 1351 0
-75 -1326 1327 0
-1327 1352 0
-76 -1327 1328 0
-1328 1353 0
-77 -1328 1329 0
-1329 1354 0
-78 -1329 1330 0
-1330 1355 0
-79 -1330 1331 0
-1331 1356 0
-80 -1331 1332 0
-1332 1357 0
-81 -1332 1333 0
-1333 1358 0
-82 -1333 1334 0
-1334 1359 0
-83 -1334 0
-59 1335 0
-1335 1360 0
-60 -1335 1336 0
-1336 1361 0
-61 -1336 1337 0
-1337 1362 0
-62 -1337 1338 0
-1338 1363 0
-63 -1338 1339 0
-1339 1364 0
-64 -1339 1340 0
-1340 1365 0
-65 -1340 1341 0
-1341 1366 0
-66 -1341 1342 0
-1342 1367 0
-67 -1342 1343 0
-1343 1368 0
-68 -1343 1344 0
-1344 1369 0
-69 -1344 1345 0
-1345 1370 0
-70 -1345 1346 0
-1346 1371 0
-71 -1346 1347 0
-1347 1372 0
-72 -1347 1348 0
-1348 1373 0
-73 -1348 1349 0
-1349 1374 0
-74 -1349 1350 0
-1350 1375 0
-75 -1350 1351 0
-1351 1376 0
-76 -1351 1352 0
-1352 1377 0
-77 -1352 1353 0
-1353 1378 0
-78 -1353 1354 0
-1354 1379 0
-79 -1354 1355 0
-1355 1380 0
-80 -1355 1356 0
-1356 1381 0
-81 -1356 1357 0
-1357 1382 0
-82 -1357 1358 0
-1358 1383 0
-83 -1358 1359 0
-1359 1384 0
-84 -1359 0
-60 1360 0
-1360 1385 0
-61 -1360 1361 0
-1361 1386 0
-62 -1361 1362 0
-1362 1387 0
-63 -1362 1363 0
-1363 1388 0
-64 -1363 1364 0
-1364 1389 0
-65 -1364 1365 0
-1365 1390 0
-66 -1365 1366 0
-1366 1391 0
-67 -1366 1367 0
-1367 1392 0
-68 -1367 1368 0
-1368 1393 0
-69 -1368 1369 0
-1369 1394 0
-70 -1369 1370 0
-1370 1395 0
-71 -1370 1371 0
-1371 1396 0
-72 -1371 1372 0
-1372 1397 0
-73 -1372 1373 0
-1373 1398 0
-74 -1373 1374 0
-1374 1399 0
-75 -1374 1375 0
-1375 1400 0
-76 -1375 1376 0
-1376 1401 0
-77 -1376 1377 0
-1377 1402 0
-78 -1377 1378 0
-1378 1403 0
-79 -1378 1379 0
-1379 1404 0
-80 -1379 1380 0
-1380 1405 0
-81 -1380 1381 0
-1381 1406 0
-82 -1381 1382 0
-1382 1407 0
-83 -1382 1383 0
-1383 1408 0
-84 -1383 1384 0
-1384 1409 0
-85 -1384 0
-61 1385 0
-1385 1410 0
-62 -1385 1386 0
-1386 1411 0
-63 -1386 1387 0
-1387 1412 0
-64 -1387 1388 0
-1388 1413 0
-65 -1388 1389 0
-1389 1414 0
-66 -1389 1390 0
-1390 1415 0
-67 -1390 1391 0
-1391 1416 0
-68 -1391 1392 0
-1392 1417 0
-69 -1392 1393 0
-1393 1418 0
-70 -1393 1394 0
-1394 1419 0
-71 -1394 1395 0
-1395 1420 0
-72 -1395 1396 0
-1396 1421 0
-73 -1396 1397 0
-1397 1422 0
-74 -1397 1398 0
-1398 1423 0
-75 -1398 1399 0
-1399 1424 0
-76 -1399 1400 0
-1400 1425 0
-77 -1400 1401 0
-1401 1426 0
-78 -1401 1402 0
-1402 1427 0
-79 -1402 1403 0
-1403 1428 0
-80 -1403 1404 0
-1404 1429 0
-81 -1404 1405 0
-1405 1430 0
-82 -1405 1406 0
-1406 1431 0
-83 -1406 1407 0
-1407 1432 0
-84 -1407 1408 0
-1408 1433 0
-85 -1408 1409 0
-1409 1434 0
-86 -1409 0
-62 1410 0
-1410 1435 0
-63 -1410 1411 0
-1411 1436 0
-64 -1411 1412 0
-1412 1437 0
-65 -1412 1413 0
-1413 1438 0
-66 -1413 1414 0
-1414 1439 0
-67 -1414 1415 0
-1415 1440 0
-68 -1415 1416 0
-1416 1441 0
-69 -1416 1417 0
-1417 1442 0
-70 -1417 1418 0
-1418 1443 0
-71 -1418 1419 0
-1419 1444 0
-72 -1419 1420 0
-1420 1445 0
-73 -1420 1421 0
-1421 1446 0
-74 -1421 1422 0
-1422 1447 0
-75 -1422 1423 0
-1423 1448 0
-76 -1423 1424 0
-1424 1449 0
-77 -1424 1425 0
-1425 1450 0
-78 -1425 1426 0
-1426 1451 0
-79 -1426 1427 0
-1427 1452 0
-80 -1427 1428 0
-1428 1453 0
-81 -1428 1429 0
-1429 1454 0
-82 -1429 1430 0
-1430 1455 0
-83 -1430 1431 0
-1431 1456 0
-84 -1431 1432 0
-1432 1457 0
-85 -1432 1433 0
-1433 1458 0
-86 -1433 1434 0
-1434 1459 0
-87 -1434 0
-63 1435 0
-64 -1435 1436 0
-65 -1436 1437 0
-66 -1437 1438 0
-67 -1438 1439 0
-68 -1439 1440 0
-69 -1440 1441 0
-70 -1441 1442 0
-71 -1442 1443 0
-72 -1443 1444 0
-73 -1444 1445 0
-74 -1445 1446 0
-75 -1446 1447 0
-76 -1447 1448 0
-77 -1448 1449 0
-78 -1449 1450 0
-79 -1450 1451 0
-80 -1451 1452 0
-81 -1452 1453 0
-82 -1453 1454 0
-83 -1454 1455 0
-84 -1455 1456 0
-85 -1456 1457 0
-86 -1457 1458 0
-87 -1458 1459 0
-88 -1459 0
1 23 0
