p cnf 1341 2717
-1 43 0
-2 43 0
-21 43 0
-22 43 0
-43 1 2 21 22 0
-2 44 0
-1 44 0
-3 44 0
-23 44 0
-44 2 1 3 23 0
-3 45 0
-2 45 0
-4 45 0
-24 45 0
-45 3 2 4 24 0
-4 46 0
-3 46 0
-5 46 0
-25 46 0
-46 4 3 5 25 0
-5 47 0
-4 47 0
-6 47 0
-26 47 0
-47 5 4 6 26 0
-6 48 0
-5 48 0
-7 48 0
-27 48 0
-48 6 5 7 27 0
-7 49 0
-6 49 0
-8 49 0
-28 49 0
-49 7 6 8 28 0
-8 50 0
-7 50 0
-9 50 0
-29 50 0
-50 8 7 9 29 0
-9 51 0
-8 51 0
-10 51 0
-30 51 0
-51 9 8 10 30 0
-10 52 0
-9 52 0
-11 52 0
-31 52 0
-52 10 9 11 31 0
-11 53 0
-10 53 0
-12 53 0
-32 53 0
-53 11 10 12 32 0
-12 54 0
-11 54 0
-13 54 0
-33 54 0
-54 12 11 13 33 0
-13 55 0
-12 55 0
-14 55 0
-34 55 0
-55 13 12 14 34 0
-14 56 0
-13 56 0
-15 56 0
-35 56 0
-56 14 13 15 35 0
-15 57 0
-14 57 0
-16 57 0
-36 57 0
-57 15 14 16 36 0
-16 58 0
-15 58 0
-17 58 0
-37 58 0
-58 16 15 17 37 0
-17 59 0
-16 59 0
-18 59 0
-38 59 0
-59 17 16 18 38 0
-18 60 0
-17 60 0
-19 60 0
-39 60 0
-60 18 17 19 39 0
-19 61 0
-18 61 0
-20 61 0
-40 61 0
-61 19 18 20 40 0
-20 62 0
-19 62 0
-21 62 0
-41 62 0
-62 20 19 21 41 0
-21 63 0
-1 63 0
-20 63 0
-42 63 0
-63 21 1 20 42 0
-22 64 0
-1 64 0
-26 64 0
-39 64 0
-64 22 1 26 39 0
-23 65 0
-2 65 0
-27 65 0
-40 65 0
-65 23 2 27 40 0
-24 66 0
-3 66 0
-28 66 0
-41 66 0
-66 24 3 28 41 0
-25 67 0
-4 67 0
-29 67 0
-42 67 0
-67 25 4 29 42 0
-26 68 0
-5 68 0
-22 68 0
-30 68 0
-68 26 5 22 30 0
-27 69 0
-6 69 0
-23 69 0
-31 69 0
-69 27 6 23 31 0
-28 70 0
-7 70 0
-24 70 0
-32 70 0
-70 28 7 24 32 0
-29 71 0
-8 71 0
-25 71 0
-33 71 0
-71 29 8 25 33 0
-30 72 0
-9 72 0
-26 72 0
-34 72 0
-72 30 9 26 34 0
-31 73 0
-10 73 0
-27 73 0
-35 73 0
-73 31 10 27 35 0
-32 74 0
-11 74 0
-28 74 0
-36 74 0
-74 32 11 28 36 0
-33 75 0
-12 75 0
-29 75 0
-37 75 0
-75 33 12 29 37 0
-34 76 0
-13 76 0
-30 76 0
-38 76 0
-76 34 13 30 38 0
-35 77 0
-14 77 0
-31 77 0
-39 77 0
-77 35 14 31 39 0
-36 78 0
-15 78 0
-32 78 0
-40 78 0
-78 36 15 32 40 0
-37 79 0
-16 79 0
-33 79 0
-41 79 0
-79 37 16 33 41 0
-38 80 0
-17 80 0
-34 80 0
-42 80 0
-80 38 17 34 42 0
-39 81 0
-18 81 0
-22 81 0
-35 81 0
-81 39 18 22 35 0
-40 82 0
-19 82 0
-23 82 0
-36 82 0
-82 40 19 23 36 0
-41 83 0
-20 83 0
-24 83 0
-37 83 0
-83 41 20 24 37 0
-42 84 0
-21 84 0
-25 84 0
-38 84 0
-84 42 21 25 38 0
1 85 0
-85 86 0
2 -85 87 0
-87 88 0
3 -87 89 0
-89 90 0
4 -89 91 0
-91 92 0
5 -91 93 0
-93 94 0
6 -93 95 0
-95 96 0
7 -95 97 0
-97 98 0
8 -97 99 0
-99 100 0
9 -99 101 0
-101 102 0
10 -101 103 0
-103 104 0
11 -103 105 0
-105 106 0
12 -105 107 0
-107 108 0
13 -107 109 0
-109 110 0
14 -109 111 0
-111 112 0
15 -111 113 0
-113 114 0
16 -113 115 0
-115 116 0
17 -115 117 0
-117 118 0
18 -117 119 0
-119 120 0
19 -119 121 0
-121 122 0
20 -121 123 0
-123 124 0
21 -123 125 0
-125 126 0
22 -125 127 0
-127 128 0
23 -127 129 0
-129 130 0
24 -129 131 0
-131 132 0
25 -131 133 0
-133 134 0
26 -133 135 0
-135 136 0
27 -135 0
2 86 0
-86 137 0
3 -86 88 0
-88 138 0
4 -88 90 0
-90 139 0
5 -90 92 0
-92 140 0
6 -92 94 0
-94 141 0
7 -94 96 0
-96 142 0
8 -96 98 0
-98 143 0
9 -98 100 0
-100 144 0
10 -100 102 0
-102 145 0
11 -102 104 0
-104 146 0
12 -104 106 0
-106 147 0
13 -106 108 0
-108 148 0
14 -108 110 0
-110 149 0
15 -110 112 0
-112 150 0
16 -112 114 0
-114 151 0
17 -114 116 0
-116 152 0
18 -116 118 0
-118 153 0
19 -118 120 0
-120 154 0
20 -120 122 0
-122 155 0
21 -122 124 0
-124 156 0
22 -124 126 0
-126 157 0
23 -126 128 0
-128 158 0
24 -128 130 0
-130 159 0
25 -130 132 0
-132 160 0
26 -132 134 0
-134 161 0
27 -134 136 0
-136 162 0
28 -136 0
3 137 0
-137 163 0
4 -137 138 0
-138 164 0
5 -138 139 0
-139 165 0
6 -139 140 0
-140 166 0
7 -140 141 0
-141 167 0
8 -141 142 0
-142 168 0
9 -142 143 0
-143 169 0
10 -143 144 0
-144 170 0
11 -144 145 0
-145 171 0
12 -145 146 0
-146 172 0
13 -146 147 0
-147 173 0
14 -147 148 0
-148 174 0
15 -148 149 0
-149 175 0
16 -149 150 0
-150 176 0
17 -150 151 0
-151 177 0
18 -151 152 0
-152 178 0
19 -152 153 0
-153 179 0
20 -153 154 0
-154 180 0
21 -154 155 0
-155 181 0
22 -155 156 0
-156 182 0
23 -156 157 0
-157 183 0
24 -157 158 0
-158 184 0
25 -158 159 0
-159 185 0
26 -159 160 0
-160 186 0
27 -160 161 0
-161 187 0
28 -161 162 0
-162 188 0
29 -162 0
4 163 0
-163 189 0
5 -163 164 0
-164 190 0
6 -164 165 0
-165 191 0
7 -165 166 0
-166 192 0
8 -166 167 0
-167 193 0
9 -167 168 0
-168 194 0
10 -168 169 0
-169 195 0
11 -169 170 0
-170 196 0
12 -170 171 0
-171 197 0
13 -171 172 0
-172 198 0
14 -172 173 0
-173 199 0
15 -173 174 0
-174 200 0
16 -174 175 0
-175 201 0
17 -175 176 0
-176 202 0
18 -176 177 0
-177 203 0
19 -177 178 0
-178 204 0
20 -178 179 0
-179 205 0
21 -179 180 0
-180 206 0
22 -180 181 0
-181 207 0
23 -181 182 0
-182 208 0
24 -182 183 0
-183 209 0
25 -183 184 0
-184 210 0
26 -184 185 0
-185 211 0
27 -185 186 0
-186 212 0
28 -186 187 0
-187 213 0
29 -187 188 0
-188 214 0
30 -188 0
5 189 0
-189 215 0
6 -189 190 0
-190 216 0
7 -190 191 0
-191 217 0
8 -191 192 0
-192 218 0
9 -192 193 0
-193 219 0
10 -193 194 0
-194 220 0
11 -194 195 0
-195 221 0
12 -195 196 0
-196 222 0
13 -196 197 0
-197 223 0
14 -197 198 0
-198 224 0
15 -198 199 0
-199 225 0
16 -199 200 0
-200 226 0
17 -200 201 0
-201 227 0
18 -201 202 0
-202 228 0
19 -202 203 0
-203 229 0
20 -203 204 0
-204 230 0
21 -204 205 0
-205 231 0
22 -205 206 0
-206 232 0
23 -206 207 0
-207 233 0
24 -207 208 0
-208 234 0
25 -208 209 0
-209 235 0
26 -209 210 0
-210 236 0
27 -210 211 0
-211 237 0
28 -211 212 0
-212 238 0
29 -212 213 0
-213 239 0
30 -213 214 0
-214 240 0
31 -214 0
6 215 0
-215 241 0
7 -215 216 0
-216 242 0
8 -216 217 0
-217 243 0
9 -217 218 0
-218 244 0
10 -218 219 0
-219 245 0
11 -219 220 0
-220 246 0
12 -220 221 0
-221 247 0
13 -221 222 0
-222 248 0
14 -222 223 0
-223 249 0
15 -223 224 0
-224 250 0
16 -224 225 0
-225 251 0
17 -225 226 0
-226 252 0
18 -226 227 0
-227 253 0
19 -227 228 0
-228 254 0
20 -228 229 0
-229 255 0
21 -229 230 0
-230 256 0
22 -230 231 0
-231 257 0
23 -231 232 0
-232 258 0
24 -232 233 0
-233 259 0
25 -233 234 0
-234 260 0
26 -234 235 0
-235 261 0
27 -235 236 0
-236 262 0
28 -236 237 0
-237 263 0
29 -237 238 0
-238 264 0
30 -238 239 0
-239 265 0
31 -239 240 0
-240 266 0
32 -240 0
7 241 0
-241 267 0
8 -241 242 0
-242 268 0
9 -242 243 0
-243 269 0
10 -243 244 0
-244 270 0
11 -244 245 0
-245 271 0
12 -245 246 0
-246 272 0
13 -246 247 0
-247 273 0
14 -247 248 0
-248 274 0
15 -248 249 0
-249 275 0
16 -249 250 0
-250 276 0
17 -250 251 0
-251 277 0
18 -251 252 0
-252 278 0
19 -252 253 0
-253 279 0
20 -253 254 0
-254 280 0
21 -254 255 0
-255 281 0
22 -255 256 0
-256 282 0
23 -256 257 0
-257 283 0
24 -257 258 0
-258 284 0
25 -258 259 0
-259 285 0
26 -259 260 0
-260 286 0
27 -260 261 0
-261 287 0
28 -261 262 0
-262 288 0
29 -262 263 0
-263 289 0
30 -263 264 0
-264 290 0
31 -264 265 0
-265 291 0
32 -265 266 0
-266 292 0
33 -266 0
8 267 0
-267 293 0
9 -267 268 0
-268 294 0
10 -268 269 0
-269 295 0
11 -269 270 0
-270 296 0
12 -270 271 0
-271 297 0
13 -271 272 0
-272 298 0
14 -272 273 0
-273 299 0
15 -273 274 0
-274 300 0
16 -274 275 0
-275 301 0
17 -275 276 0
-276 302 0
18 -276 277 0
-277 303 0
19 -277 278 0
-278 304 0
20 -278 279 0
-279 305 0
21 -279 280 0
-280 306 0
22 -280 281 0
-281 307 0
23 -281 282 0
-282 308 0
24 -282 283 0
-283 309 0
25 -283 284 0
-284 310 0
26 -284 285 0
-285 311 0
27 -285 286 0
-286 312 0
28 -286 287 0
-287 313 0
29 -287 288 0
-288 314 0
30 -288 289 0
-289 315 0
31 -289 290 0
-290 316 0
32 -290 291 0
-291 317 0
33 -291 292 0
-292 318 0
34 -292 0
9 293 0
-293 319 0
10 -293 294 0
-294 320 0
11 -294 295 0
-295 321 0
12 -295 296 0
-296 322 0
13 -296 297 0
-297 323 0
14 -297 298 0
-298 324 0
15 -298 299 0
-299 325 0
16 -299 300 0
-300 326 0
17 -300 301 0
-301 327 0
18 -301 302 0
-302 328 0
19 -302 303 0
-303 329 0
20 -303 304 0
-304 330 0
21 -304 305 0
-305 331 0
22 -305 306 0
-306 332 0
23 -306 307 0
-307 333 0
24 -307 308 0
-308 334 0
25 -308 309 0
-309 335 0
26 -309 310 0
-310 336 0
27 -310 311 0
-311 337 0
28 -311 312 0
-312 338 0
29 -312 313 0
-313 339 0
30 -313 314 0
-314 340 0
31 -314 315 0
-315 341 0
32 -315 316 0
-316 342 0
33 -316 317 0
-317 343 0
34 -317 318 0
-318 344 0
35 -318 0
10 319 0
-319 345 0
11 -319 320 0
-320 346 0
12 -320 321 0
-321 347 0
13 -321 322 0
-322 348 0
14 -322 323 0
-323 349 0
15 -323 324 0
-324 350 0
16 -324 325 0
-325 351 0
17 -325 326 0
-326 352 0
18 -326 327 0
-327 353 0
19 -327 328 0
-328 354 0
20 -328 329 0
-329 355 0
21 -329 330 0
-330 356 0
22 -330 331 0
-331 357 0
23 -331 332 0
-332 358 0
24 -332 333 0
-333 359 0
25 -333 334 0
-334 360 0
26 -334 335 0
-335 361 0
27 -335 336 0
-336 362 0
28 -336 337 0
-337 363 0
29 -337 338 0
-338 364 0
30 -338 339 0
-339 365 0
31 -339 340 0
-340 366 0
32 -340 341 0
-341 367 0
33 -341 342 0
-342 368 0
34 -342 343 0
-343 369 0
35 -343 344 0
-344 370 0
36 -344 0
11 345 0
-345 371 0
12 -345 346 0
-346 372 0
13 -346 347 0
-347 373 0
14 -347 348 0
-348 374 0
15 -348 349 0
-349 375 0
16 -349 350 0
-350 376 0
17 -350 351 0
-351 377 0
18 -351 352 0
-352 378 0
19 -352 353 0
-353 379 0
20 -353 354 0
-354 380 0
21 -354 355 0
-355 381 0
22 -355 356 0
-356 382 0
23 -356 357 0
-357 383 0
24 -357 358 0
-358 384 0
25 -358 359 0
-359 385 0
26 -359 360 0
-360 386 0
27 -360 361 0
-361 387 0
28 -361 362 0
-362 388 0
29 -362 363 0
-363 389 0
30 -363 364 0
-364 390 0
31 -364 365 0
-365 391 0
32 -365 366 0
-366 392 0
33 -366 367 0
-367 393 0
34 -367 368 0
-368 394 0
35 -368 369 0
-369 395 0
36 -369 370 0
-370 396 0
37 -370 0
12 371 0
-371 397 0
13 -371 372 0
-372 398 0
14 -372 373 0
-373 399 0
15 -373 374 0
-374 400 0
16 -374 375 0
-375 401 0
17 -375 376 0
-376 402 0
18 -376 377 0
-377 403 0
19 -377 378 0
-378 404 0
20 -378 379 0
-379 405 0
21 -379 380 0
-380 406 0
22 -380 381 0
-381 407 0
23 -381 382 0
-382 408 0
24 -382 383 0
-383 409 0
25 -383 384 0
-384 410 0
26 -384 385 0
-385 411 0
27 -385 386 0
-386 412 0
28 -386 387 0
-387 413 0
29 -387 388 0
-388 414 0
30 -388 389 0
-389 415 0
31 -389 390 0
-390 416 0
32 -390 391 0
-391 417 0
33 -391 392 0
-392 418 0
34 -392 393 0
-393 419 0
35 -393 394 0
-394 420 0
36 -394 395 0
-395 421 0
37 -395 396 0
-396 422 0
38 -396 0
13 397 0
-397 423 0
14 -397 398 0
-398 424 0
15 -398 399 0
-399 425 0
16 -399 400 0
-400 426 0
17 -400 401 0
-401 427 0
18 -401 402 0
-402 428 0
19 -402 403 0
-403 429 0
20 -403 404 0
-404 430 0
21 -404 405 0
-405 431 0
22 -405 406 0
-406 432 0
23 -406 407 0
-407 433 0
24 -407 408 0
-408 434 0
25 -408 409 0
-409 435 0
26 -409 410 0
-410 436 0
27 -410 411 0
-411 437 0
28 -411 412 0
-412 438 0
29 -412 413 0
-413 439 0
30 -413 414 0
-414 440 0
31 -414 415 0
-415 441 0
32 -415 416 0
-416 442 0
33 -416 417 0
-417 443 0
34 -417 418 0
-418 444 0
35 -418 419 0
-419 445 0
36 -419 420 0
-420 446 0
37 -420 421 0
-421 447 0
38 -421 422 0
-422 448 0
39 -422 0
14 423 0
-423 449 0
15 -423 424 0
-424 450 0
16 -424 425 0
-425 451 0
17 -425 426 0
-426 452 0
18 -426 427 0
-427 453 0
19 -427 428 0
-428 454 0
20 -428 429 0
-429 455 0
21 -429 430 0
-430 456 0
22 -430 431 0
-431 457 0
23 -431 432 0
-432 458 0
24 -432 433 0
-433 459 0
25 -433 434 0
-434 460 0
26 -434 435 0
-435 461 0
27 -435 436 0
-436 462 0
28 -436 437 0
-437 463 0
29 -437 438 0
-438 464 0
30 -438 439 0
-439 465 0
31 -439 440 0
-440 466 0
32 -440 441 0
-441 467 0
33 -441 442 0
-442 468 0
34 -442 443 0
-443 469 0
35 -443 444 0
-444 470 0
36 -444 445 0
-445 471 0
37 -445 446 0
-446 472 0
38 -446 447 0
-447 473 0
39 -447 448 0
-448 474 0
40 -448 0
15 449 0
-449 475 0
16 -449 450 0
-450 476 0
17 -450 451 0
-451 477 0
18 -451 452 0
-452 478 0
19 -452 453 0
-453 479 0
20 -453 454 0
-454 480 0
21 -454 455 0
-455 481 0
22 -455 456 0
-456 482 0
23 -456 457 0
-457 483 0
24 -457 458 0
-458 484 0
25 -458 459 0
-459 485 0
26 -459 460 0
-460 486 0
27 -460 461 0
-461 487 0
28 -461 462 0
-462 488 0
29 -462 463 0
-463 489 0
30 -463 464 0
-464 490 0
31 -464 465 0
-465 491 0
32 -465 466 0
-466 492 0
33 -466 467 0
-467 493 0
34 -467 468 0
-468 494 0
35 -468 469 0
-469 495 0
36 -469 470 0
-470 496 0
37 -470 471 0
-471 497 0
38 -471 472 0
-472 498 0
39 -472 473 0
-473 499 0
40 -473 474 0
-474 500 0
41 -474 0
16 475 0
17 -475 476 0
18 -476 477 0
19 -477 478 0
20 -478 479 0
21 -479 480 0
22 -480 481 0
23 -481 482 0
24 -482 483 0
25 -483 484 0
26 -484 485 0
27 -485 486 0
28 -486 487 0
29 -487 488 0
30 -488 489 0
31 -489 490 0
32 -490 491 0
33 -491 492 0
34 -492 493 0
35 -493 494 0
36 -494 495 0
37 -495 496 0
38 -496 497 0
39 -497 498 0
40 -498 499 0
41 -499 500 0
42 -500 0
-1 501 0
-501 502 0
-2 -501 503 0
-503 504 0
-3 -503 505 0
-505 506 0
-4 -505 507 0
-507 508 0
-5 -507 509 0
-509 510 0
-6 -509 511 0
-511 512 0
-7 -511 513 0
-513 514 0
-8 -513 515 0
-515 516 0
-9 -515 517 0
-517 518 0
-10 -517 519 0
-519 520 0
-11 -519 521 0
-521 522 0
-12 -521 523 0
-523 524 0
-13 -523 525 0
-525 526 0
-14 -525 527 0
-527 528 0
-15 -527 529 0
-529 530 0
-16 -529 531 0
-531 532 0
-17 -531 0
-2 502 0
-502 533 0
-3 -502 504 0
-504 534 0
-4 -504 506 0
-506 535 0
-5 -506 508 0
-508 536 0
-6 -508 510 0
-510 537 0
-7 -510 512 0
-512 538 0
-8 -512 514 0
-514 539 0
-9 -514 516 0
-516 540 0
-10 -516 518 0
-518 541 0
-11 -518 520 0
-520 542 0
-12 -520 522 0
-522 543 0
-13 -522 524 0
-524 544 0
-14 -524 526 0
-526 545 0
-15 -526 528 0
-528 546 0
-16 -528 530 0
-530 547 0
-17 -530 532 0
-532 548 0
-18 -532 0
-3 533 0
-533 549 0
-4 -533 534 0
-534 550 0
-5 -534 535 0
-535 551 0
-6 -535 536 0
-536 552 0
-7 -536 537 0
-537 553 0
-8 -537 538 0
-538 554 0
-9 -538 539 0
-539 555 0
-10 -539 540 0
-540 556 0
-11 -540 541 0
-541 557 0
-12 -541 542 0
-542 558 0
-13 -542 543 0
-543 559 0
-14 -543 544 0
-544 560 0
-15 -544 545 0
-545 561 0
-16 -545 546 0
-546 562 0
-17 -546 547 0
-547 563 0
-18 -547 548 0
-548 564 0
-19 -548 0
-4 549 0
-549 565 0
-5 -549 550 0
-550 566 0
-6 -550 551 0
-551 567 0
-7 -551 552 0
-552 568 0
-8 -552 553 0
-553 569 0
-9 -553 554 0
-554 570 0
-10 -554 555 0
-555 571 0
-11 -555 556 0
-556 572 0
-12 -556 557 0
-557 573 0
-13 -557 558 0
-558 574 0
-14 -558 559 0
-559 575 0
-15 -559 560 0
-560 576 0
-16 -560 561 0
-561 577 0
-17 -561 562 0
-562 578 0
-18 -562 563 0
-563 579 0
-19 -563 564 0
-564 580 0
-20 -564 0
-5 565 0
-565 581 0
-6 -565 566 0
-566 582 0
-7 -566 567 0
-567 583 0
-8 -567 568 0
-568 584 0
-9 -568 569 0
-569 585 0
-10 -569 570 0
-570 586 0
-11 -570 571 0
-571 587 0
-12 -571 572 0
-572 588 0
-13 -572 573 0
-573 589 0
-14 -573 574 0
-574 590 0
-15 -574 575 0
-575 591 0
-16 -575 576 0
-576 592 0
-17 -576 577 0
-577 593 0
-18 -577 578 0
-578 594 0
-19 -578 579 0
-579 595 0
-20 -579 580 0
-580 596 0
-21 -580 0
-6 581 0
-581 597 0
-7 -581 582 0
-582 598 0
-8 -582 583 0
-583 599 0
-9 -583 584 0
-584 600 0
-10 -584 585 0
-585 601 0
-11 -585 586 0
-586 602 0
-12 -586 587 0
-587 603 0
-13 -587 588 0
-588 604 0
-14 -588 589 0
-589 605 0
-15 -589 590 0
-590 606 0
-16 -590 591 0
-591 607 0
-17 -591 592 0
-592 608 0
-18 -592 593 0
-593 609 0
-19 -593 594 0
-594 610 0
-20 -594 595 0
-595 611 0
-21 -595 596 0
-596 612 0
-22 -596 0
-7 597 0
-597 613 0
-8 -597 598 0
-598 614 0
-9 -598 599 0
-599 615 0
-10 -599 600 0
-600 616 0
-11 -600 601 0
-601 617 0
-12 -601 602 0
-602 618 0
-13 -602 603 0
-603 619 0
-14 -603 604 0
-604 620 0
-15 -604 605 0
-605 621 0
-16 -605 606 0
-606 622 0
-17 -606 607 0
-607 623 0
-18 -607 608 0
-608 624 0
-19 -608 609 0
-609 625 0
-20 -609 610 0
-610 626 0
-21 -610 611 0
-611 627 0
-22 -611 612 0
-612 628 0
-23 -612 0
-8 613 0
-613 629 0
-9 -613 614 0
-614 630 0
-10 -614 615 0
-615 631 0
-11 -615 616 0
-616 632 0
-12 -616 617 0
-617 633 0
-13 -617 618 0
-618 634 0
-14 -618 619 0
-619 635 0
-15 -619 620 0
-620 636 0
-16 -620 621 0
-621 637 0
-17 -621 622 0
-622 638 0
-18 -622 623 0
-623 639 0
-19 -623 624 0
-624 640 0
-20 -624 625 0
-625 641 0
-21 -625 626 0
-626 642 0
-22 -626 627 0
-627 643 0
-23 -627 628 0
-628 644 0
-24 -628 0
-9 629 0
-629 645 0
-10 -629 630 0
-630 646 0
-11 -630 631 0
-631 647 0
-12 -631 632 0
-632 648 0
-13 -632 633 0
-633 649 0
-14 -633 634 0
-634 650 0
-15 -634 635 0
-635 651 0
-16 -635 636 0
-636 652 0
-17 -636 637 0
-637 653 0
-18 -637 638 0
-638 654 0
-19 -638 639 0
-639 655 0
-20 -639 640 0
-640 656 0
-21 -640 641 0
-641 657 0
-22 -641 642 0
-642 658 0
-23 -642 643 0
-643 659 0
-24 -643 644 0
-644 660 0
-25 -644 0
-10 645 0
-645 661 0
-11 -645 646 0
-646 662 0
-12 -646 647 0
-647 663 0
-13 -647 648 0
-648 664 0
-14 -648 649 0
-649 665 0
-15 -649 650 0
-650 666 0
-16 -650 651 0
-651 667 0
-17 -651 652 0
-652 668 0
-18 -652 653 0
-653 669 0
-19 -653 654 0
-654 670 0
-20 -654 655 0
-655 671 0
-21 -655 656 0
-656 672 0
-22 -656 657 0
-657 673 0
-23 -657 658 0
-658 674 0
-24 -658 659 0
-659 675 0
-25 -659 660 0
-660 676 0
-26 -660 0
-11 661 0
-661 677 0
-12 -661 662 0
-662 678 0
-13 -662 663 0
-663 679 0
-14 -663 664 0
-664 680 0
-15 -664 665 0
-665 681 0
-16 -665 666 0
-666 682 0
-17 -666 667 0
-667 683 0
-18 -667 668 0
-668 684 0
-19 -668 669 0
-669 685 0
-20 -669 670 0
-670 686 0
-21 -670 671 0
-671 687 0
-22 -671 672 0
-672 688 0
-23 -672 673 0
-673 689 0
-24 -673 674 0
-674 690 0
-25 -674 675 0
-675 691 0
-26 -675 676 0
-676 692 0
-27 -676 0
-12 677 0
-677 693 0
-13 -677 678 0
-678 694 0
-14 -678 679 0
-679 695 0
-15 -679 680 0
-680 696 0
-16 -680 681 0
-681 697 0
-17 -681 682 0
-682 698 0
-18 -682 683 0
-683 699 0
-19 -683 684 0
-684 700 0
-20 -684 685 0
-685 701 0
-21 -685 686 0
-686 702 0
-22 -686 687 0
-687 703 0
-23 -687 688 0
-688 704 0
-24 -688 689 0
-689 705 0
-25 -689 690 0
-690 706 0
-26 -690 691 0
-691 707 0
-27 -691 692 0
-692 708 0
-28 -692 0
-13 693 0
-693 709 0
-14 -693 694 0
-694 710 0
-15 -694 695 0
-695 711 0
-16 -695 696 0
-696 712 0
-17 -696 697 0
-697 713 0
-18 -697 698 0
-698 714 0
-19 -698 699 0
-699 715 0
-20 -699 700 0
-700 716 0
-21 -700 701 0
-701 717 0
-22 -701 702 0
-702 718 0
-23 -702 703 0
-703 719 0
-24 -703 704 0
-704 720 0
-25 -704 705 0
-705 721 0
-26 -705 706 0
-706 722 0
-27 -706 707 0
-707 723 0
-28 -707 708 0
-708 724 0
-29 -708 0
-14 709 0
-709 725 0
-15 -709 710 0
-710 726 0
-16 -710 711 0
-711 727 0
-17 -711 712 0
-712 728 0
-18 -712 713 0
-713 729 0
-19 -713 714 0
-714 730 0
-20 -714 715 0
-715 731 0
-21 -715 716 0
-716 732 0
-22 -716 717 0
-717 733 0
-23 -717 718 0
-718 734 0
-24 -718 719 0
-719 735 0
-25 -719 720 0
-720 736 0
-26 -720 721 0
-721 737 0
-27 -721 722 0
-722 738 0
-28 -722 723 0
-723 739 0
-29 -723 724 0
-724 740 0
-30 -724 0
-15 725 0
-725 741 0
-16 -725 726 0
-726 742 0
-17 -726 727 0
-727 743 0
-18 -727 728 0
-728 744 0
-19 -728 729 0
-729 745 0
-20 -729 730 0
-730 746 0
-21 -730 731 0
-731 747 0
-22 -731 732 0
-732 748 0
-23 -732 733 0
-733 749 0
-24 -733 734 0
-734 750 0
-25 -734 735 0
-735 751 0
-26 -735 736 0
-736 752 0
-27 -736 737 0
-737 753 0
-28 -737 738 0
-738 754 0
-29 -738 739 0
-739 755 0
-30 -739 740 0
-740 756 0
-31 -740 0
-16 741 0
-741 757 0
-17 -741 742 0
-742 758 0
-18 -742 743 0
-743 759 0
-19 -743 744 0
-744 760 0
-20 -744 745 0
-745 761 0
-21 -745 746 0
-746 762 0
-22 -746 747 0
-747 763 0
-23 -747 748 0
-748 764 0
-24 -748 749 0
-749 765 0
-25 -749 750 0
-750 766 0
-26 -750 751 0
-751 767 0
-27 -751 752 0
-752 768 0
-28 -752 753 0
-753 769 0
-29 -753 754 0
-754 770 0
-30 -754 755 0
-755 771 0
-31 -755 756 0
-756 772 0
-32 -756 0
-17 757 0
-757 773 0
-18 -757 758 0
-758 774 0
-19 -758 759 0
-759 775 0
-20 -759 760 0
-760 776 0
-21 -760 761 0
-761 777 0
-22 -761 762 0
-762 778 0
-23 -762 763 0
-763 779 0
-24 -763 764 0
-764 780 0
-25 -764 765 0
-765 781 0
-26 -765 766 0
-766 782 0
-27 -766 767 0
-767 783 0
-28 -767 768 0
-768 784 0
-29 -768 769 0
-769 785 0
-30 -769 770 0
-770 786 0
-31 -770 771 0
-771 787 0
-32 -771 772 0
-772 788 0
-33 -772 0
-18 773 0
-773 789 0
-19 -773 774 0
-774 790 0
-20 -774 775 0
-775 791 0
-21 -775 776 0
-776 792 0
-22 -776 777 0
-777 793 0
-23 -777 778 0
-778 794 0
-24 -778 779 0
-779 795 0
-25 -779 780 0
-780 796 0
-26 -780 781 0
-781 797 0
-27 -781 782 0
-782 798 0
-28 -782 783 0
-783 799 0
-29 -783 784 0
-784 800 0
-30 -784 785 0
-785 801 0
-31 -785 786 0
-786 802 0
-32 -786 787 0
-787 803 0
-33 -787 788 0
-788 804 0
-34 -788 0
-19 789 0
-789 805 0
-20 -789 790 0
-790 806 0
-21 -790 791 0
-791 807 0
-22 -791 792 0
-792 808 0
-23 -792 793 0
-793 809 0
-24 -793 794 0
-794 810 0
-25 -794 795 0
-795 811 0
-26 -795 796 0
-796 812 0
-27 -796 797 0
-797 813 0
-28 -797 798 0
-798 814 0
-29 -798 799 0
-799 815 0
-30 -799 800 0
-800 816 0
-31 -800 801 0
-801 817 0
-32 -801 802 0
-802 818 0
-33 -802 803 0
-803 819 0
-34 -803 804 0
-804 820 0
-35 -804 0
-20 805 0
-805 821 0
-21 -805 806 0
-806 822 0
-22 -806 807 0
-807 823 0
-23 -807 808 0
-808 824 0
-24 -808 809 0
-809 825 0
-25 -809 810 0
-810 826 0
-26 -810 811 0
-811 827 0
-27 -811 812 0
-812 828 0
-28 -812 813 0
-813 829 0
-29 -813 814 0
-814 830 0
-30 -814 815 0
-815 831 0
-31 -815 816 0
-816 832 0
-32 -816 817 0
-817 833 0
-33 -817 818 0
-818 834 0
-34 -818 819 0
-819 835 0
-35 -819 820 0
-820 836 0
-36 -820 0
-21 821 0
-821 837 0
-22 -821 822 0
-822 838 0
-23 -822 823 0
-823 839 0
-24 -823 824 0
-824 840 0
-25 -824 825 0
-825 841 0
-26 -825 826 0
-826 842 0
-27 -826 827 0
-827 843 0
-28 -827 828 0
-828 844 0
-29 -828 829 0
-829 845 0
-30 -829 830 0
-830 846 0
-31 -830 831 0
-831 847 0
-32 -831 832 0
-832 848 0
-33 -832 833 0
-833 849 0
-34 -833 834 0
-834 850 0
-35 -834 835 0
-835 851 0
-36 -835 836 0
-836 852 0
-37 -836 0
-22 837 0
-837 853 0
-23 -837 838 0
-838 854 0
-24 -838 839 0
-839 855 0
-25 -839 840 0
-840 856 0
-26 -840 841 0
-841 857 0
-27 -841 842 0
-842 858 0
-28 -842 843 0
-843 859 0
-29 -843 844 0
-844 860 0
-30 -844 845 0
-845 861 0
-31 -845 846 0
-846 862 0
-32 -846 847 0
-847 863 0
-33 -847 848 0
-848 864 0
-34 -848 849 0
-849 865 0
-35 -849 850 0
-850 866 0
-36 -850 851 0
-851 867 0
-37 -851 852 0
-852 868 0
-38 -852 0
-23 853 0
-853 869 0
-24 -853 854 0
-854 870 0
-25 -854 855 0
-855 871 0
-26 -855 856 0
-856 872 0
-27 -856 857 0
-857 873 0
-28 -857 858 0
-858 874 0
-29 -858 859 0
-859 875 0
-30 -859 860 0
-860 876 0
-31 -860 861 0
-861 877 0
-32 -861 862 0
-862 878 0
-33 -862 863 0
-863 879 0
-34 -863 864 0
-864 880 0
-35 -864 865 0
-865 881 0
-36 -865 866 0
-866 882 0
-37 -866 867 0
-867 883 0
-38 -867 868 0
-868 884 0
-39 -868 0
-24 869 0
-869 885 0
-25 -869 870 0
-870 886 0
-26 -870 871 0
-871 887 0
-27 -871 872 0
-872 888 0
-28 -872 873 0
-873 889 0
-29 -873 874 0
-874 890 0
-30 -874 875 0
-875 891 0
-31 -875 876 0
-876 892 0
-32 -876 877 0
-877 893 0
-33 -877 878 0
-878 894 0
-34 -878 879 0
-879 895 0
-35 -879 880 0
-880 896 0
-36 -880 881 0
-881 897 0
-37 -881 882 0
-882 898 0
-38 -882 883 0
-883 899 0
-39 -883 884 0
-884 900 0
-40 -884 0
-25 885 0
-885 901 0
-26 -885 886 0
-886 902 0
-27 -886 887 0
-887 903 0
-28 -887 888 0
-888 904 0
-29 -888 889 0
-889 905 0
-30 -889 890 0
-890 906 0
-31 -890 891 0
-891 907 0
-32 -891 892 0
-892 908 0
-33 -892 893 0
-893 909 0
-34 -893 894 0
-894 910 0
-35 -894 895 0
-895 911 0
-36 -895 896 0
-896 912 0
-37 -896 897 0
-897 913 0
-38 -897 898 0
-898 914 0
-39 -898 899 0
-899 915 0
-40 -899 900 0
-900 916 0
-41 -900 0
-26 901 0
-27 -901 902 0
-28 -902 903 0
-29 -903 904 0
-30 -904 905 0
-31 -905 906 0
-32 -906 907 0
-33 -907 908 0
-34 -908 909 0
-35 -909 910 0
-36 -910 911 0
-37 -911 912 0
-38 -912 913 0
-39 -913 914 0
-40 -914 915 0
-41 -915 916 0
-42 -916 0
-43 917 0
-917 918 0
-44 -917 919 0
-919 920 0
-45 -919 921 0
-921 922 0
-46 -921 923 0
-923 924 0
-47 -923 925 0
-925 926 0
-48 -925 927 0
-927 928 0
-49 -927 929 0
-929 930 0
-50 -929 931 0
-931 932 0
-51 -931 933 0
-933 934 0
-52 -933 935 0
-935 936 0
-53 -935 937 0
-937 938 0
-54 -937 939 0
-939 940 0
-55 -939 941 0
-941 942 0
-56 -941 943 0
-943 944 0
-57 -943 945 0
-945 946 0
-58 -945 947 0
-947 948 0
-59 -947 949 0
-949 950 0
-60 -949 951 0
-951 952 0
-61 -951 953 0
-953 954 0
-62 -953 955 0
-955 956 0
-63 -955 957 0
-957 958 0
-64 -957 959 0
-959 960 0
-65 -959 961 0
-961 962 0
-66 -961 963 0
-963 964 0
-67 -963 965 0
-965 966 0
-68 -965 0
-44 918 0
-918 967 0
-45 -918 920 0
-920 968 0
-46 -920 922 0
-922 969 0
-47 -922 924 0
-924 970 0
-48 -924 926 0
-926 971 0
-49 -926 928 0
-928 972 0
-50 -928 930 0
-930 973 0
-51 -930 932 0
-932 974 0
-52 -932 934 0
-934 975 0
-53 -934 936 0
-936 976 0
-54 -936 938 0
-938 977 0
-55 -938 940 0
-940 978 0
-56 -940 942 0
-942 979 0
-57 -942 944 0
-944 980 0
-58 -944 946 0
-946 981 0
-59 -946 948 0
-948 982 0
-60 -948 950 0
-950 983 0
-61 -950 952 0
-952 984 0
-62 -952 954 0
-954 985 0
-63 -954 956 0
-956 986 0
-64 -956 958 0
-958 987 0
-65 -958 960 0
-960 988 0
-66 -960 962 0
-962 989 0
-67 -962 964 0
-964 990 0
-68 -964 966 0
-966 991 0
-69 -966 0
-45 967 0
-967 992 0
-46 -967 968 0
-968 993 0
-47 -968 969 0
-969 994 0
-48 -969 970 0
-970 995 0
-49 -970 971 0
-971 996 0
-50 -971 972 0
-972 997 0
-51 -972 973 0
-973 998 0
-52 -973 974 0
-974 999 0
-53 -974 975 0
-975 1000 0
-54 -975 976 0
-976 1001 0
-55 -976 977 0
-977 1002 0
-56 -977 978 0
-978 1003 0
-57 -978 979 0
-979 1004 0
-58 -979 980 0
-980 1005 0
-59 -980 981 0
-981 1006 0
-60 -981 982 0
-982 1007 0
-61 -982 983 0
-983 1008 0
-62 -983 984 0
-984 1009 0
-63 -984 985 0
-985 1010 0
-64 -985 986 0
-986 1011 0
-65 -986 987 0
-987 1012 0
-66 -987 988 0
-988 1013 0
-67 -988 989 0
-989 1014 0
-68 -989 990 0
-990 1015 0
-69 -990 991 0
-991 1016 0
-70 -991 0
-46 992 0
-992 1017 0
-47 -992 993 0
-993 1018 0
-48 -993 994 0
-994 1019 0
-49 -994 995 0
-995 1020 0
-50 -995 996 0
-996 1021 0
-51 -996 997 0
-997 1022 0
-52 -997 998 0
-998 1023 0
-53 -998 999 0
-999 1024 0
-54 -999 1000 0
-1000 1025 0
-55 -1000 1001 0
-1001 1026 0
-56 -1001 1002 0
-1002 1027 0
-57 -1002 1003 0
-1003 1028 0
-58 -1003 1004 0
-1004 1029 0
-59 -1004 1005 0
-1005 1030 0
-60 -1005 1006 0
-1006 1031 0
-61 -1006 1007 0
-1007 1032 0
-62 -1007 1008 0
-1008 1033 0
-63 -1008 1009 0
-1009 1034 0
-64 -1009 1010 0
-1010 1035 0
-65 -1010 1011 0
-1011 1036 0
-66 -1011 1012 0
-1012 1037 0
-67 -1012 1013 0
-1013 1038 0
-68 -1013 1014 0
-1014 1039 0
-69 -1014 1015 0
-1015 1040 0
-70 -1015 1016 0
-1016 1041 0
-71 -1016 0
-47 1017 0
-1017 1042 0
-48 -1017 1018 0
-1018 1043 0
-49 -1018 1019 0
-1019 1044 0
-50 -1019 1020 0
-1020 1045 0
-51 -1020 1021 0
-1021 1046 0
-52 -1021 1022 0
-1022 1047 0
-53 -1022 1023 0
-1023 1048 0
-54 -1023 1024 0
-1024 1049 0
-55 -1024 1025 0
-1025 1050 0
-56 -1025 1026 0
-1026 1051 0
-57 -1026 1027 0
-1027 1052 0
-58 -1027 1028 0
-1028 1053 0
-59 -1028 1029 0
-1029 1054 0
-60 -1029 1030 0
-1030 1055 0
-61 -1030 1031 0
-1031 1056 0
-62 -1031 1032 0
-1032 1057 0
-63 -1032 1033 0
-1033 1058 0
-64 -1033 1034 0
-1034 1059 0
-65 -1034 1035 0
-1035 1060 0
-66 -1035 1036 0
-1036 1061 0
-67 -1036 1037 0
-1037 1062 0
-68 -1037 1038 0
-1038 1063 0
-69 -1038 1039 0
-1039 1064 0
-70 -1039 1040 0
-1040 1065 0
-71 -1040 1041 0
-1041 1066 0
-72 -1041 0
-48 1042 0
-1042 1067 0
-49 -1042 1043 0
-1043 1068 0
-50 -1043 1044 0
-1044 1069 0
-51 -1044 1045 0
-1045 1070 0
-52 -1045 1046 0
-1046 1071 0
-53 -1046 1047 0
-1047 1072 0
-54 -1047 1048 0
-1048 1073 0
-55 -1048 1049 0
-1049 1074 0
-56 -1049 1050 0
-1050 1075 0
-57 -1050 1051 0
-1051 1076 0
-58 -1051 1052 0
-1052 1077 0
-59 -1052 1053 0
-1053 1078 0
-60 -1053 1054 0
-1054 1079 0
-61 -1054 1055 0
-1055 1080 0
-62 -1055 1056 0
-1056 1081 0
-63 -1056 1057 0
-1057 1082 0
-64 -1057 1058 0
-1058 1083 0
-65 -1058 1059 0
-1059 1084 0
-66 -1059 1060 0
-1060 1085 0
-67 -1060 1061 0
-1061 1086 0
-68 -1061 1062 0
-1062 1087 0
-69 -1062 1063 0
-1063 1088 0
-70 -1063 1064 0
-1064 1089 0
-71 -1064 1065 0
-1065 1090 0
-72 -1065 1066 0
-1066 1091 0
-73 -1066 0
-49 1067 0
-1067 1092 0
-50 -1067 1068 0
-1068 1093 0
-51 -1068 1069 0
-1069 1094 0
-52 -1069 1070 0
-1070 1095 0
-53 -1070 1071 0
-1071 1096 0
-54 -1071 1072 0
-1072 1097 0
-55 -1072 1073 0
-1073 1098 0
-56 -1073 1074 0
-1074 1099 0
-57 -1074 1075 0
-1075 1100 0
-58 -1075 1076 0
-1076 1101 0
-59 -1076 1077 0
-1077 1102 0
-60 -1077 1078 0
-1078 1103 0
-61 -1078 1079 0
-1079 1104 0
-62 -1079 1080 0
-1080 1105 0
-63 -1080 1081 0
-1081 1106 0
-64 -1081 1082 0
-1082 1107 0
-65 -1082 1083 0
-1083 1108 0
-66 -1083 1084 0
-1084 1109 0
-67 -1084 1085 0
-1085 1110 0
-68 -1085 1086 0
-1086 1111 0
-69 -1086 1087 0
-1087 1112 0
-70 -1087 1088 0
-1088 1113 0
-71 -1088 1089 0
-1089 1114 0
-72 -1089 1090 0
-1090 1115 0
-73 -1090 1091 0
-1091 1116 0
-74 -1091 0
-50 1092 0
-1092 1117 0
-51 -1092 1093 0
-1093 1118 0
-52 -1093 1094 0
-1094 1119 0
-53 -1094 1095 0
-1095 1120 0
-54 -1095 1096 0
-1096 1121 0
-55 -1096 1097 0
-1097 1122 0
-56 -1097 1098 0
-1098 1123 0
-57 -1098 1099 0
-1099 1124 0
-58 -1099 1100 0
-1100 1125 0
-59 -1100 1101 0
-1101 1126 0
-60 -1101 1102 0
-1102 1127 0
-61 -1102 1103 0
-1103 1128 0
-62 -1103 1104 0
-1104 1129 0
-63 -1104 1105 0
-1105 1130 0
-64 -1105 1106 0
-1106 1131 0
-65 -1106 1107 0
-1107 1132 0
-66 -1107 1108 0
-1108 1133 0
-67 -1108 1109 0
-1109 1134 0
-68 -1109 1110 0
-1110 1135 0
-69 -1110 1111 0
-1111 1136 0
-70 -1111 1112 0
-1112 1137 0
-71 -1112 1113 0
-1113 1138 0
-72 -1113 1114 0
-1114 1139 0
-73 -1114 1115 0
-1115 1140 0
-74 -1115 1116 0
-1116 1141 0
-75 -1116 0
-51 1117 0
-1117 1142 0
-52 -1117 1118 0
-1118 1143 0
-53 -1118 1119 0
-1119 1144 0
-54 -1119 1120 0
-1120 1145 0
-55 -1120 1121 0
-1121 1146 0
-56 -1121 1122 0
-1122 1147 0
-57 -1122 1123 0
-1123 1148 0
-58 -1123 1124 0
-1124 1149 0
-59 -1124 1125 0
-1125 1150 0
-60 -1125 1126 0
-1126 1151 0
-61 -1126 1127 0
-1127 1152 0
-62 -1127 1128 0
-1128 1153 0
-63 -1128 1129 0
-1129 1154 0
-64 -1129 1130 0
-1130 1155 0
-65 -1130 1131 0
-1131 1156 0
-66 -1131 1132 0
-1132 1157 0
-67 -1132 1133 0
-1133 1158 0
-68 -1133 1134 0
-1134 1159 0
-69 -1134 1135 0
-1135 1160 0
-70 -1135 1136 0
-1136 1161 0
-71 -1136 1137 0
-1137 1162 0
-72 -1137 1138 0
-1138 1163 0
-73 -1138 1139 0
-1139 1164 0
-74 -1139 1140 0
-1140 1165 0
-75 -1140 1141 0
-1141 1166 0
-76 -1141 0
-52 1142 0
-1142 1167 0
-53 -1142 1143 0
-1143 1168 0
-54 -1143 1144 0
-1144 1169 0
-55 -1144 1145 0
-1145 1170 0
-56 -1145 1146 0
-1146 1171 0
-57 -1146 1147 0
-1147 1172 0
-58 -1147 1148 0
-1148 1173 0
-59 -1148 1149 0
-1149 1174 0
-60 -1149 1150 0
-1150 1175 0
-61 -1150 1151 0
-1151 1176 0
-62 -1151 1152 0
-1152 1177 0
-63 -1152 1153 0
-1153 1178 0
-64 -1153 1154 0
-1154 1179 0
-65 -1154 1155 0
-1155 1180 0
-66 -1155 1156 0
-1156 1181 0
-67 -1156 1157 0
-1157 1182 0
-68 -1157 1158 0
-1158 1183 0
-69 -1158 1159 0
-1159 1184 0
-70 -1159 1160 0
-1160 1185 0
-71 -1160 1161 0
-1161 1186 0
-72 -1161 1162 0
-1162 1187 0
-73 -1162 1163 0
-1163 1188 0
-74 -1163 1164 0
-1164 1189 0
-75 -1164 1165 0
-1165 1190 0
-76 -1165 1166 0
-1166 1191 0
-77 -1166 0
-53 1167 0
-1167 1192 0
-54 -1167 1168 0
-1168 1193 0
-55 -1168 1169 0
-1169 1194 0
-56 -1169 1170 0
-1170 1195 0
-57 -1170 1171 0
-1171 1196 0
-58 -1171 1172 0
-1172 1197 0
-59 -1172 1173 0
-1173 1198 0
-60 -1173 1174 0
-1174 1199 0
-61 -1174 1175 0
-1175 1200 0
-62 -1175 1176 0
-1176 1201 0
-63 -1176 1177 0
-1177 1202 0
-64 -1177 1178 0
-1178 1203 0
-65 -1178 1179 0
-1179 1204 0
-66 -1179 1180 0
-1180 1205 0
-67 -1180 1181 0
-1181 1206 0
-68 -1181 1182 0
-1182 1207 0
-69 -1182 1183 0
-1183 1208 0
-70 -1183 1184 0
-1184 1209 0
-71 -1184 1185 0
-1185 1210 0
-72 -1185 1186 0
-1186 1211 0
-73 -1186 1187 0
-1187 1212 0
-74 -1187 1188 0
-1188 1213 0
-75 -1188 1189 0
-1189 1214 0
-76 -1189 1190 0
-1190 1215 0
-77 -1190 1191 0
-1191 1216 0
-78 -1191 0
-54 1192 0
-1192 1217 0
-55 -1192 1193 0
-1193 1218 0
-56 -1193 1194 0
-1194 1219 0
-57 -1194 1195 0
-1195 1220 0
-58 -1195 1196 0
-1196 1221 0
-59 -1196 1197 0
-1197 1222 0
-60 -1197 1198 0
-1198 1223 0
-61 -1198 1199 0
-1199 1224 0
-62 -1199 1200 0
-1200 1225 0
-63 -1200 1201 0
-1201 1226 0
-64 -1201 1202 0
-1202 1227 0
-65 -1202 1203 0
-1203 1228 0
-66 -1203 1204 0
-1204 1229 0
-67 -1204 1205 0
-1205 1230 0
-68 -1205 1206 0
-1206 1231 0
-69 -1206 1207 0
-1207 1232 0
-70 -1207 1208 0
-1208 1233 0
-71 -1208 1209 0
-1209 1234 0
-72 -1209 1210 0
-1210 1235 0
-73 -1210 1211 0
-1211 1236 0
-74 -1211 1212 0
-1212 1237 0
-75 -1212 1213 0
-1213 1238 0
-76 -1213 1214 0
-1214 1239 0
-77 -1214 1215 0
-1215 1240 0
-78 -1215 1216 0
-1216 1241 0
-79 -1216 0
-55 1217 0
-1217 1242 0
-56 -1217 1218 0
-1218 1243 0
-57 -1218 1219 0
-1219 1244 0
-58 -1219 1220 0
-1220 1245 0
-59 -1220 1221 0
-1221 1246 0
-60 -1221 1222 0
-1222 1247 0
-61 -1222 1223 0
-1223 1248 0
-62 -1223 1224 0
-1224 1249 0
-63 -1224 1225 0
-1225 1250 0
-64 -1225 1226 0
-1226 1251 0
-65 -1226 1227 0
-1227 1252 0
-66 -1227 1228 0
-1228 1253 0
-67 -1228 1229 0
-1229 1254 0
-68 -1229 1230 0
-1230 1255 0
-69 -1230 1231 0
-1231 1256 0
-70 -1231 1232 0
-1232 1257 0
-71 -1232 1233 0
-1233 1258 0
-72 -1233 1234 0
-1234 1259 0
-73 -1234 1235 0
-1235 1260 0
-74 -1235 1236 0
-1236 1261 0
-75 -1236 1237 0
-1237 1262 0
-76 -1237 1238 0
-1238 1263 0
-77 -1238 1239 0
-1239 1264 0
-78 -1239 1240 0
-1240 1265 0
-79 -1240 1241 0
-1241 1266 0
-80 -1241 0
-56 1242 0
-1242 1267 0
-57 -1242 1243 0
-1243 1268 0
-58 -1243 1244 0
-1244 1269 0
-59 -1244 1245 0
-1245 1270 0
-60 -1245 1246 0
-1246 1271 0
-61 -1246 1247 0
-1247 1272 0
-62 -1247 1248 0
-1248 1273 0
-63 -1248 1249 0
-1249 1274 0
-64 -1249 1250 0
-1250 1275 0
-65 -1250 1251 0
-1251 1276 0
-66 -1251 1252 0
-1252 1277 0
-67 -1252 1253 0
-1253 1278 0
-68 -1253 1254 0
-1254 1279 0
-69 -1254 1255 0
-1255 1280 0
-70 -1255 1256 0
-1256 1281 0
-71 -1256 1257 0
-1257 1282 0
-72 -1257 1258 0
-1258 1283 0
-73 -1258 1259 0
-1259 1284 0
-74 -1259 1260 0
-1260 1285 0
-75 -1260 1261 0
-1261 1286 0
-76 -1261 1262 0
-1262 1287 0
-77 -1262 1263 0
-1263 1288 0
-78 -1263 1264 0
-1264 1289 0
-79 -1264 1265 0
-1265 1290 0
-80 -1265 1266 0
-1266 1291 0
-81 -1266 0
-57 1267 0
-1267 1292 0
-58 -1267 1268 0
-1268 1293 0
-59 -1268 1269 0
-1269 1294 0
-60 -1269 1270 0
-1270 1295 0
-61 -1270 1271 0
-1271 1296 0
-62 -1271 1272 0
-1272 1297 0
-63 -1272 1273 0
-1273 1298 0
-64 -1273 1274 0
-1274 1299 0
-65 -1274 1275 0
-1275 1300 0
-66 -1275 1276 0
-1276 1301 0
-67 -1276 1277 0
-1277 1302 0
-68 -1277 1278 0
-1278 1303 0
-69 -1278 1279 0
-1279 1304 0
-70 -1279 1280 0
-1280 1305 0
-71 -1280 1281 0
-1281 1306 0
-72 -1281 1282 0
-1282 1307 0
-73 -1282 1283 0
-1283 1308 0
-74 -1283 1284 0
-1284 1309 0
-75 -1284 1285 0
-1285 1310 0
-76 -1285 1286 0
-1286 1311 0
-77 -1286 1287 0
-1287 1312 0
-78 -1287 1288 0
-1288 1313 0
-79 -1288 1289 0
-1289 1314 0
-80 -1289 1290 0
-1290 1315 0
-81 -1290 1291 0
-1291 1316 0
-82 -1291 0
-58 1292 0
-1292 1317 0
-59 -1292 1293 0
-1293 1318 0
-60 -1293 1294 0
-1294 1319 0
-61 -1294 1295 0
-1295 1320 0
-62 -1295 1296 0
-1296 1321 0
-63 -1296 1297 0
-1297 1322 0
-64 -1297 1298 0
-1298 1323 0
-65 -1298 1299 0
-1299 1324 0
-66 -1299 1300 0
-1300 1325 0
-67 -1300 1301 0
-1301 1326 0
-68 -1301 1302 0
-1302 1327 0
-69 -1302 1303 0
-1303 1328 0
-70 -1303 1304 0
-1304 1329 0
-71 -1304 1305 0
-1305 1330 0
-72 -1305 1306 0
-1306 1331 0
-73 -1306 1307 0
-1307 1332 0
-74 -1307 1308 0
-1308 1333 0
-75 -1308 1309 0
-1309 1334 0
-76 -1309 1310 0
-1310 1335 0
-77 -1310 1311 0
-1311 1336 0
-78 -1311 1312 0
-1312 1337 0
-79 -1312 1313 0
-1313 1338 0
-80 -1313 1314 0
-1314 1339 0
-81 -1314 1315 0
-1315 1340 0
-82 -1315 1316 0
-1316 1341 0
-83 -1316 0
-59 1317 0
-60 -1317 1318 0
-61 -1318 1319 0
-62 -1319 1320 0
-63 -1320 1321 0
-64 -1321 1322 0
-65 -1322 1323 0
-66 -1323 1324 0
-67 -1324 1325 0
-68 -1325 1326 0
-69 -1326 1327 0
-70 -1327 1328 0
-71 -1328 1329 0
-72 -1329 1330 0
-73 -1330 1331 0
-74 -1331 1332 0
-75 -1332 1333 0
-76 -1333 1334 0
-77 -1334 1335 0
-78 -1335 1336 0
-79 -1336 1337 0
-80 -1337 1338 0
-81 -1338 1339 0
-82 -1339 1340 0
-83 -1340 1341 0
-84 -1341 0
1 22 0
