p cnf 5943 12173
-153 -1 0
-153 2 76 77 0
-2 1 153 0
-76 1 153 0
-77 1 153 0
-154 -2 0
-154 1 3 78 0
-1 2 154 0
-3 2 154 0
-78 2 154 0
-155 -3 0
-155 2 4 79 0
-2 3 155 0
-4 3 155 0
-79 3 155 0
-156 -4 0
-156 3 5 80 0
-3 4 156 0
-5 4 156 0
-80 4 156 0
-157 -5 0
-157 4 6 81 0
-4 5 157 0
-6 5 157 0
-81 5 157 0
-158 -6 0
-158 5 7 82 0
-5 6 158 0
-7 6 158 0
-82 6 158 0
-159 -7 0
-159 6 8 83 0
-6 7 159 0
-8 7 159 0
-83 7 159 0
-160 -8 0
-160 7 9 84 0
-7 8 160 0
-9 8 160 0
-84 8 160 0
-161 -9 0
-161 8 10 85 0
-8 9 161 0
-10 9 161 0
-85 9 161 0
-162 -10 0
-162 9 11 86 0
-9 10 162 0
-11 10 162 0
-86 10 162 0
-163 -11 0
-163 10 12 87 0
-10 11 163 0
-12 11 163 0
-87 11 163 0
-164 -12 0
-164 11 13 88 0
-11 12 164 0
-13 12 164 0
-88 12 164 0
-165 -13 0
-165 12 14 89 0
-12 13 165 0
-14 13 165 0
-89 13 165 0
-166 -14 0
-166 13 15 90 0
-13 14 166 0
-15 14 166 0
-90 14 166 0
-167 -15 0
-167 14 16 91 0
-14 15 167 0
-16 15 167 0
-91 15 167 0
-168 -16 0
-168 15 17 92 0
-15 16 168 0
-17 16 168 0
-92 16 168 0
-169 -17 0
-169 16 18 93 0
-16 17 169 0
-18 17 169 0
-93 17 169 0
-170 -18 0
-170 17 19 94 0
-17 18 170 0
-19 18 170 0
-94 18 170 0
-171 -19 0
-171 18 20 95 0
-18 19 171 0
-20 19 171 0
-95 19 171 0
-172 -20 0
-172 19 21 96 0
-19 20 172 0
-21 20 172 0
-96 20 172 0
-173 -21 0
-173 20 22 97 0
-20 21 173 0
-22 21 173 0
-97 21 173 0
-174 -22 0
-174 21 23 98 0
-21 22 174 0
-23 22 174 0
-98 22 174 0
-175 -23 0
-175 22 24 99 0
-22 23 175 0
-24 23 175 0
-99 23 175 0
-176 -24 0
-176 23 25 100 0
-23 24 176 0
-25 24 176 0
-100 24 176 0
-177 -25 0
-177 24 26 101 0
-24 25 177 0
-26 25 177 0
-101 25 177 0
-178 -26 0
-178 25 27 102 0
-25 26 178 0
-27 26 178 0
-102 26 178 0
-179 -27 0
-179 26 28 103 0
-26 27 179 0
-28 27 179 0
-103 27 179 0
-180 -28 0
-180 27 29 104 0
-27 28 180 0
-29 28 180 0
-104 28 180 0
-181 -29 0
-181 28 30 105 0
-28 29 181 0
-30 29 181 0
-105 29 181 0
-182 -30 0
-182 29 31 106 0
-29 30 182 0
-31 30 182 0
-106 30 182 0
-183 -31 0
-183 30 32 107 0
-30 31 183 0
-32 31 183 0
-107 31 183 0
-184 -32 0
-184 31 33 108 0
-31 32 184 0
-33 32 184 0
-108 32 184 0
-185 -33 0
-185 32 34 109 0
-32 33 185 0
-34 33 185 0
-109 33 185 0
-186 -34 0
-186 33 35 110 0
-33 34 186 0
-35 34 186 0
-110 34 186 0
-187 -35 0
-187 34 36 111 0
-34 35 187 0
-36 35 187 0
-111 35 187 0
-188 -36 0
-188 35 37 112 0
-35 36 188 0
-37 36 188 0
-112 36 188 0
-189 -37 0
-189 36 38 113 0
-36 37 189 0
-38 37 189 0
-113 37 189 0
-190 -38 0
-190 37 39 114 0
-37 38 190 0
-39 38 190 0
-114 38 190 0
-191 -39 0
-191 38 40 115 0
-38 39 191 0
-40 39 191 0
-115 39 191 0
-192 -40 0
-192 39 41 116 0
-39 40 192 0
-41 40 192 0
-116 40 192 0
-193 -41 0
-193 40 42 117 0
-40 41 193 0
-42 41 193 0
-117 41 193 0
-194 -42 0
-194 41 43 118 0
-41 42 194 0
-43 42 194 0
-118 42 194 0
-195 -43 0
-195 42 44 119 0
-42 43 195 0
-44 43 195 0
-119 43 195 0
-196 -44 0
-196 43 45 120 0
-43 44 196 0
-45 44 196 0
-120 44 196 0
-197 -45 0
-197 44 46 121 0
-44 45 197 0
-46 45 197 0
-121 45 197 0
-198 -46 0
-198 45 47 122 0
-45 46 198 0
-47 46 198 0
-122 46 198 0
-199 -47 0
-199 46 48 123 0
-46 47 199 0
-48 47 199 0
-123 47 199 0
-200 -48 0
-200 47 49 124 0
-47 48 200 0
-49 48 200 0
-124 48 200 0
-201 -49 0
-201 48 50 125 0
-48 49 201 0
-50 49 201 0
-125 49 201 0
-202 -50 0
-202 49 51 126 0
-49 50 202 0
-51 50 202 0
-126 50 202 0
-203 -51 0
-203 50 52 127 0
-50 51 203 0
-52 51 203 0
-127 51 203 0
-204 -52 0
-204 51 53 128 0
-51 52 204 0
-53 52 204 0
-128 52 204 0
-205 -53 0
-205 52 54 129 0
-52 53 205 0
-54 53 205 0
-129 53 205 0
-206 -54 0
-206 53 55 130 0
-53 54 206 0
-55 54 206 0
-130 54 206 0
-207 -55 0
-207 54 56 131 0
-54 55 207 0
-56 55 207 0
-131 55 207 0
-208 -56 0
-208 55 57 132 0
-55 56 208 0
-57 56 208 0
-132 56 208 0
-209 -57 0
-209 56 58 133 0
-56 57 209 0
-58 57 209 0
-133 57 209 0
-210 -58 0
-210 57 59 134 0
-57 58 210 0
-59 58 210 0
-134 58 210 0
-211 -59 0
-211 58 60 135 0
-58 59 211 0
-60 59 211 0
-135 59 211 0
-212 -60 0
-212 59 61 136 0
-59 60 212 0
-61 60 212 0
-136 60 212 0
-213 -61 0
-213 60 62 137 0
-60 61 213 0
-62 61 213 0
-137 61 213 0
-214 -62 0
-214 61 63 138 0
-61 62 214 0
-63 62 214 0
-138 62 214 0
-215 -63 0
-215 62 64 139 0
-62 63 215 0
-64 63 215 0
-139 63 215 0
-216 -64 0
-216 63 65 140 0
-63 64 216 0
-65 64 216 0
-140 64 216 0
-217 -65 0
-217 64 66 141 0
-64 65 217 0
-66 65 217 0
-141 65 217 0
-218 -66 0
-218 65 67 142 0
-65 66 218 0
-67 66 218 0
-142 66 218 0
-219 -67 0
-219 66 68 143 0
-66 67 219 0
-68 67 219 0
-143 67 219 0
-220 -68 0
-220 67 69 144 0
-67 68 220 0
-69 68 220 0
-144 68 220 0
-221 -69 0
-221 68 70 145 0
-68 69 221 0
-70 69 221 0
-145 69 221 0
-222 -70 0
-222 69 71 146 0
-69 70 222 0
-71 70 222 0
-146 70 222 0
-223 -71 0
-223 70 72 147 0
-70 71 223 0
-72 71 223 0
-147 71 223 0
-224 -72 0
-224 71 73 148 0
-71 72 224 0
-73 72 224 0
-148 72 224 0
-225 -73 0
-225 72 74 149 0
-72 73 225 0
-74 73 225 0
-149 73 225 0
-226 -74 0
-226 73 75 150 0
-73 74 226 0
-75 74 226 0
-150 74 226 0
-227 -75 0
-227 74 76 151 0
-74 75 227 0
-76 75 227 0
-151 75 227 0
-228 -76 0
-228 1 75 152 0
-1 76 228 0
-75 76 228 0
-152 76 228 0
-229 -77 0
-229 1 81 149 0
-1 77 229 0
-81 77 229 0
-149 77 229 0
-230 -78 0
-230 2 82 150 0
-2 78 230 0
-82 78 230 0
-150 78 230 0
-231 -79 0
-231 3 83 151 0
-3 79 231 0
-83 79 231 0
-151 79 231 0
-232 -80 0
-232 4 84 152 0
-4 80 232 0
-84 80 232 0
-152 80 232 0
-233 -81 0
-233 5 77 85 0
-5 81 233 0
-77 81 233 0
-85 81 233 0
-234 -82 0
-234 6 78 86 0
-6 82 234 0
-78 82 234 0
-86 82 234 0
-235 -83 0
-235 7 79 87 0
-7 83 235 0
-79 83 235 0
-87 83 235 0
-236 -84 0
-236 8 80 88 0
-8 84 236 0
-80 84 236 0
-88 84 236 0
-237 -85 0
-237 9 81 89 0
-9 85 237 0
-81 85 237 0
-89 85 237 0
-238 -86 0
-238 10 82 90 0
-10 86 238 0
-82 86 238 0
-90 86 238 0
-239 -87 0
-239 11 83 91 0
-11 87 239 0
-83 87 239 0
-91 87 239 0
-240 -88 0
-240 12 84 92 0
-12 88 240 0
-84 88 240 0
-92 88 240 0
-241 -89 0
-241 13 85 93 0
-13 89 241 0
-85 89 241 0
-93 89 241 0
-242 -90 0
-242 14 86 94 0
-14 90 242 0
-86 90 242 0
-94 90 242 0
-243 -91 0
-243 15 87 95 0
-15 91 243 0
-87 91 243 0
-95 91 243 0
-244 -92 0
-244 16 88 96 0
-16 92 244 0
-88 92 244 0
-96 92 244 0
-245 -93 0
-245 17 89 97 0
-17 93 245 0
-89 93 245 0
-97 93 245 0
-246 -94 0
-246 18 90 98 0
-18 94 246 0
-90 94 246 0
-98 94 246 0
-247 -95 0
-247 19 91 99 0
-19 95 247 0
-91 95 247 0
-99 95 247 0
-248 -96 0
-248 20 92 100 0
-20 96 248 0
-92 96 248 0
-100 96 248 0
-249 -97 0
-249 21 93 101 0
-21 97 249 0
-93 97 249 0
-101 97 249 0
-250 -98 0
-250 22 94 102 0
-22 98 250 0
-94 98 250 0
-102 98 250 0
-251 -99 0
-251 23 95 103 0
-23 99 251 0
-95 99 251 0
-103 99 251 0
-252 -100 0
-252 24 96 104 0
-24 100 252 0
-96 100 252 0
-104 100 252 0
-253 -101 0
-253 25 97 105 0
-25 101 253 0
-97 101 253 0
-105 101 253 0
-254 -102 0
-254 26 98 106 0
-26 102 254 0
-98 102 254 0
-106 102 254 0
-255 -103 0
-255 27 99 107 0
-27 103 255 0
-99 103 255 0
-107 103 255 0
-256 -104 0
-256 28 100 108 0
-28 104 256 0
-100 104 256 0
-108 104 256 0
-257 -105 0
-257 29 101 109 0
-29 105 257 0
-101 105 257 0
-109 105 257 0
-258 -106 0
-258 30 102 110 0
-30 106 258 0
-102 106 258 0
-110 106 258 0
-259 -107 0
-259 31 103 111 0
-31 107 259 0
-103 107 259 0
-111 107 259 0
-260 -108 0
-260 32 104 112 0
-32 108 260 0
-104 108 260 0
-112 108 260 0
-261 -109 0
-261 33 105 113 0
-33 109 261 0
-105 109 261 0
-113 109 261 0
-262 -110 0
-262 34 106 114 0
-34 110 262 0
-106 110 262 0
-114 110 262 0
-263 -111 0
-263 35 107 115 0
-35 111 263 0
-107 111 263 0
-115 111 263 0
-264 -112 0
-264 36 108 116 0
-36 112 264 0
-108 112 264 0
-116 112 264 0
-265 -113 0
-265 37 109 117 0
-37 113 265 0
-109 113 265 0
-117 113 265 0
-266 -114 0
-266 38 110 118 0
-38 114 266 0
-110 114 266 0
-118 114 266 0
-267 -115 0
-267 39 111 119 0
-39 115 267 0
-111 115 267 0
-119 115 267 0
-268 -116 0
-268 40 112 120 0
-40 116 268 0
-112 116 268 0
-120 116 268 0
-269 -117 0
-269 41 113 121 0
-41 117 269 0
-113 117 269 0
-121 117 269 0
-270 -118 0
-270 42 114 122 0
-42 118 270 0
-114 118 270 0
-122 118 270 0
-271 -119 0
-271 43 115 123 0
-43 119 271 0
-115 119 271 0
-123 119 271 0
-272 -120 0
-272 44 116 124 0
-44 120 272 0
-116 120 272 0
-124 120 272 0
-273 -121 0
-273 45 117 125 0
-45 121 273 0
-117 121 273 0
-125 121 273 0
-274 -122 0
-274 46 118 126 0
-46 122 274 0
-118 122 274 0
-126 122 274 0
-275 -123 0
-275 47 119 127 0
-47 123 275 0
-119 123 275 0
-127 123 275 0
-276 -124 0
-276 48 120 128 0
-48 124 276 0
-120 124 276 0
-128 124 276 0
-277 -125 0
-277 49 121 129 0
-49 125 277 0
-121 125 277 0
-129 125 277 0
-278 -126 0
-278 50 122 130 0
-50 126 278 0
-122 126 278 0
-130 126 278 0
-279 -127 0
-279 51 123 131 0
-51 127 279 0
-123 127 279 0
-131 127 279 0
-280 -128 0
-280 52 124 132 0
-52 128 280 0
-124 128 280 0
-132 128 280 0
-281 -129 0
-281 53 125 133 0
-53 129 281 0
-125 129 281 0
-133 129 281 0
-282 -130 0
-282 54 126 134 0
-54 130 282 0
-126 130 282 0
-134 130 282 0
-283 -131 0
-283 55 127 135 0
-55 131 283 0
-127 131 283 0
-135 131 283 0
-284 -132 0
-284 56 128 136 0
-56 132 284 0
-128 132 284 0
-136 132 284 0
-285 -133 0
-285 57 129 137 0
-57 133 285 0
-129 133 285 0
-137 133 285 0
-286 -134 0
-286 58 130 138 0
-58 134 286 0
-130 134 286 0
-138 134 286 0
-287 -135 0
-287 59 131 139 0
-59 135 287 0
-131 135 287 0
-139 135 287 0
-288 -136 0
-288 60 132 140 0
-60 136 288 0
-132 136 288 0
-140 136 288 0
-289 -137 0
-289 61 133 141 0
-61 137 289 0
-133 137 289 0
-141 137 289 0
-290 -138 0
-290 62 134 142 0
-62 138 290 0
-134 138 290 0
-142 138 290 0
-291 -139 0
-291 63 135 143 0
-63 139 291 0
-135 139 291 0
-143 139 291 0
-292 -140 0
-292 64 136 144 0
-64 140 292 0
-136 140 292 0
-144 140 292 0
-293 -141 0
-293 65 137 145 0
-65 141 293 0
-137 141 293 0
-145 141 293 0
-294 -142 0
-294 66 138 146 0
-66 142 294 0
-138 142 294 0
-146 142 294 0
-295 -143 0
-295 67 139 147 0
-67 143 295 0
-139 143 295 0
-147 143 295 0
-296 -144 0
-296 68 140 148 0
-68 144 296 0
-140 144 296 0
-148 144 296 0
-297 -145 0
-297 69 141 149 0
-69 145 297 0
-141 145 297 0
-149 145 297 0
-298 -146 0
-298 70 142 150 0
-70 146 298 0
-142 146 298 0
-150 146 298 0
-299 -147 0
-299 71 143 151 0
-71 147 299 0
-143 147 299 0
-151 147 299 0
-300 -148 0
-300 72 144 152 0
-72 148 300 0
-144 148 300 0
-152 148 300 0
-301 -149 0
-301 73 77 145 0
-73 149 301 0
-77 149 301 0
-145 149 301 0
-302 -150 0
-302 74 78 146 0
-74 150 302 0
-78 150 302 0
-146 150 302 0
-303 -151 0
-303 75 79 147 0
-75 151 303 0
-79 151 303 0
-147 151 303 0
-304 -152 0
-304 76 80 148 0
-76 152 304 0
-80 152 304 0
-148 152 304 0
1 305 0
-305 306 0
2 -305 307 0
-307 308 0
3 -307 309 0
-309 310 0
4 -309 311 0
-311 312 0
5 -311 313 0
-313 314 0
6 -313 315 0
-315 316 0
7 -315 317 0
-317 318 0
8 -317 319 0
-319 320 0
9 -319 321 0
-321 322 0
10 -321 323 0
-323 324 0
11 -323 325 0
-325 326 0
12 -325 327 0
-327 328 0
13 -327 329 0
-329 330 0
14 -329 331 0
-331 332 0
15 -331 333 0
-333 334 0
16 -333 335 0
-335 336 0
17 -335 337 0
-337 338 0
18 -337 339 0
-339 340 0
19 -339 341 0
-341 342 0
20 -341 343 0
-343 344 0
21 -343 345 0
-345 346 0
22 -345 347 0
-347 348 0
23 -347 349 0
-349 350 0
24 -349 351 0
-351 352 0
25 -351 353 0
-353 354 0
26 -353 355 0
-355 356 0
27 -355 357 0
-357 358 0
28 -357 359 0
-359 360 0
29 -359 361 0
-361 362 0
30 -361 363 0
-363 364 0
31 -363 365 0
-365 366 0
32 -365 367 0
-367 368 0
33 -367 369 0
-369 370 0
34 -369 371 0
-371 372 0
35 -371 373 0
-373 374 0
36 -373 375 0
-375 376 0
37 -375 377 0
-377 378 0
38 -377 379 0
-379 380 0
39 -379 381 0
-381 382 0
40 -381 383 0
-383 384 0
41 -383 385 0
-385 386 0
42 -385 387 0
-387 388 0
43 -387 389 0
-389 390 0
44 -389 391 0
-391 392 0
45 -391 393 0
-393 394 0
46 -393 395 0
-395 396 0
47 -395 397 0
-397 398 0
48 -397 399 0
-399 400 0
49 -399 401 0
-401 402 0
50 -401 403 0
-403 404 0
51 -403 405 0
-405 406 0
52 -405 407 0
-407 408 0
53 -407 409 0
-409 410 0
54 -409 411 0
-411 412 0
55 -411 413 0
-413 414 0
56 -413 415 0
-415 416 0
57 -415 417 0
-417 418 0
58 -417 419 0
-419 420 0
59 -419 421 0
-421 422 0
60 -421 423 0
-423 424 0
61 -423 425 0
-425 426 0
62 -425 427 0
-427 428 0
63 -427 429 0
-429 430 0
64 -429 431 0
-431 432 0
65 -431 433 0
-433 434 0
66 -433 435 0
-435 436 0
67 -435 437 0
-437 438 0
68 -437 439 0
-439 440 0
69 -439 441 0
-441 442 0
70 -441 443 0
-443 444 0
71 -443 445 0
-445 446 0
72 -445 447 0
-447 448 0
73 -447 449 0
-449 450 0
74 -449 451 0
-451 452 0
75 -451 453 0
-453 454 0
76 -453 455 0
-455 456 0
77 -455 457 0
-457 458 0
78 -457 459 0
-459 460 0
79 -459 461 0
-461 462 0
80 -461 463 0
-463 464 0
81 -463 465 0
-465 466 0
82 -465 467 0
-467 468 0
83 -467 469 0
-469 470 0
84 -469 471 0
-471 472 0
85 -471 473 0
-473 474 0
86 -473 475 0
-475 476 0
87 -475 477 0
-477 478 0
88 -477 479 0
-479 480 0
89 -479 481 0
-481 482 0
90 -481 483 0
-483 484 0
91 -483 485 0
-485 486 0
92 -485 487 0
-487 488 0
93 -487 489 0
-489 490 0
94 -489 491 0
-491 492 0
95 -491 493 0
-493 494 0
96 -493 495 0
-495 496 0
97 -495 497 0
-497 498 0
98 -497 499 0
-499 500 0
99 -499 501 0
-501 502 0
100 -501 503 0
-503 504 0
101 -503 505 0
-505 506 0
102 -505 507 0
-507 508 0
103 -507 509 0
-509 510 0
104 -509 511 0
-511 512 0
105 -511 513 0
-513 514 0
106 -513 515 0
-515 516 0
107 -515 517 0
-517 518 0
108 -517 519 0
-519 520 0
109 -519 521 0
-521 522 0
110 -521 523 0
-523 524 0
111 -523 525 0
-525 526 0
112 -525 527 0
-527 528 0
113 -527 529 0
-529 530 0
114 -529 531 0
-531 532 0
115 -531 533 0
-533 534 0
116 -533 535 0
-535 536 0
117 -535 537 0
-537 538 0
118 -537 539 0
-539 540 0
119 -539 541 0
-541 542 0
120 -541 543 0
-543 544 0
121 -543 545 0
-545 546 0
122 -545 547 0
-547 548 0
123 -547 549 0
-549 550 0
124 -549 551 0
-551 552 0
125 -551 553 0
-553 554 0
126 -553 555 0
-555 556 0
127 -555 557 0
-557 558 0
128 -557 559 0
-559 560 0
129 -559 561 0
-561 562 0
130 -561 563 0
-563 564 0
131 -563 565 0
-565 566 0
132 -565 567 0
-567 568 0
133 -567 569 0
-569 570 0
134 -569 571 0
-571 572 0
135 -571 573 0
-573 574 0
136 -573 575 0
-575 576 0
137 -575 0
2 306 0
-306 577 0
3 -306 308 0
-308 578 0
4 -308 310 0
-310 579 0
5 -310 312 0
-312 580 0
6 -312 314 0
-314 581 0
7 -314 316 0
-316 582 0
8 -316 318 0
-318 583 0
9 -318 320 0
-320 584 0
10 -320 322 0
-322 585 0
11 -322 324 0
-324 586 0
12 -324 326 0
-326 587 0
13 -326 328 0
-328 588 0
14 -328 330 0
-330 589 0
15 -330 332 0
-332 590 0
16 -332 334 0
-334 591 0
17 -334 336 0
-336 592 0
18 -336 338 0
-338 593 0
19 -338 340 0
-340 594 0
20 -340 342 0
-342 595 0
21 -342 344 0
-344 596 0
22 -344 346 0
-346 597 0
23 -346 348 0
-348 598 0
24 -348 350 0
-350 599 0
25 -350 352 0
-352 600 0
26 -352 354 0
-354 601 0
27 -354 356 0
-356 602 0
28 -356 358 0
-358 603 0
29 -358 360 0
-360 604 0
30 -360 362 0
-362 605 0
31 -362 364 0
-364 606 0
32 -364 366 0
-366 607 0
33 -366 368 0
-368 608 0
34 -368 370 0
-370 609 0
35 -370 372 0
-372 610 0
36 -372 374 0
-374 611 0
37 -374 376 0
-376 612 0
38 -376 378 0
-378 613 0
39 -378 380 0
-380 614 0
40 -380 382 0
-382 615 0
41 -382 384 0
-384 616 0
42 -384 386 0
-386 617 0
43 -386 388 0
-388 618 0
44 -388 390 0
-390 619 0
45 -390 392 0
-392 620 0
46 -392 394 0
-394 621 0
47 -394 396 0
-396 622 0
48 -396 398 0
-398 623 0
49 -398 400 0
-400 624 0
50 -400 402 0
-402 625 0
51 -402 404 0
-404 626 0
52 -404 406 0
-406 627 0
53 -406 408 0
-408 628 0
54 -408 410 0
-410 629 0
55 -410 412 0
-412 630 0
56 -412 414 0
-414 631 0
57 -414 416 0
-416 632 0
58 -416 418 0
-418 633 0
59 -418 420 0
-420 634 0
60 -420 422 0
-422 635 0
61 -422 424 0
-424 636 0
62 -424 426 0
-426 637 0
63 -426 428 0
-428 638 0
64 -428 430 0
-430 639 0
65 -430 432 0
-432 640 0
66 -432 434 0
-434 641 0
67 -434 436 0
-436 642 0
68 -436 438 0
-438 643 0
69 -438 440 0
-440 644 0
70 -440 442 0
-442 645 0
71 -442 444 0
-444 646 0
72 -444 446 0
-446 647 0
73 -446 448 0
-448 648 0
74 -448 450 0
-450 649 0
75 -450 452 0
-452 650 0
76 -452 454 0
-454 651 0
77 -454 456 0
-456 652 0
78 -456 458 0
-458 653 0
79 -458 460 0
-460 654 0
80 -460 462 0
-462 655 0
81 -462 464 0
-464 656 0
82 -464 466 0
-466 657 0
83 -466 468 0
-468 658 0
84 -468 470 0
-470 659 0
85 -470 472 0
-472 660 0
86 -472 474 0
-474 661 0
87 -474 476 0
-476 662 0
88 -476 478 0
-478 663 0
89 -478 480 0
-480 664 0
90 -480 482 0
-482 665 0
91 -482 484 0
-484 666 0
92 -484 486 0
-486 667 0
93 -486 488 0
-488 668 0
94 -488 490 0
-490 669 0
95 -490 492 0
-492 670 0
96 -492 494 0
-494 671 0
97 -494 496 0
-496 672 0
98 -496 498 0
-498 673 0
99 -498 500 0
-500 674 0
100 -500 502 0
-502 675 0
101 -502 504 0
-504 676 0
102 -504 506 0
-506 677 0
103 -506 508 0
-508 678 0
104 -508 510 0
-510 679 0
105 -510 512 0
-512 680 0
106 -512 514 0
-514 681 0
107 -514 516 0
-516 682 0
108 -516 518 0
-518 683 0
109 -518 520 0
-520 684 0
110 -520 522 0
-522 685 0
111 -522 524 0
-524 686 0
112 -524 526 0
-526 687 0
113 -526 528 0
-528 688 0
114 -528 530 0
-530 689 0
115 -530 532 0
-532 690 0
116 -532 534 0
-534 691 0
117 -534 536 0
-536 692 0
118 -536 538 0
-538 693 0
119 -538 540 0
-540 694 0
120 -540 542 0
-542 695 0
121 -542 544 0
-544 696 0
122 -544 546 0
-546 697 0
123 -546 548 0
-548 698 0
124 -548 550 0
-550 699 0
125 -550 552 0
-552 700 0
126 -552 554 0
-554 701 0
127 -554 556 0
-556 702 0
128 -556 558 0
-558 703 0
129 -558 560 0
-560 704 0
130 -560 562 0
-562 705 0
131 -562 564 0
-564 706 0
132 -564 566 0
-566 707 0
133 -566 568 0
-568 708 0
134 -568 570 0
-570 709 0
135 -570 572 0
-572 710 0
136 -572 574 0
-574 711 0
137 -574 576 0
-576 712 0
138 -576 0
3 577 0
-577 713 0
4 -577 578 0
-578 714 0
5 -578 579 0
-579 715 0
6 -579 580 0
-580 716 0
7 -580 581 0
-581 717 0
8 -581 582 0
-582 718 0
9 -582 583 0
-583 719 0
10 -583 584 0
-584 720 0
11 -584 585 0
-585 721 0
12 -585 586 0
-586 722 0
13 -586 587 0
-587 723 0
14 -587 588 0
-588 724 0
15 -588 589 0
-589 725 0
16 -589 590 0
-590 726 0
17 -590 591 0
-591 727 0
18 -591 592 0
-592 728 0
19 -592 593 0
-593 729 0
20 -593 594 0
-594 730 0
21 -594 595 0
-595 731 0
22 -595 596 0
-596 732 0
23 -596 597 0
-597 733 0
24 -597 598 0
-598 734 0
25 -598 599 0
-599 735 0
26 -599 600 0
-600 736 0
27 -600 601 0
-601 737 0
28 -601 602 0
-602 738 0
29 -602 603 0
-603 739 0
30 -603 604 0
-604 740 0
31 -604 605 0
-605 741 0
32 -605 606 0
-606 742 0
33 -606 607 0
-607 743 0
34 -607 608 0
-608 744 0
35 -608 609 0
-609 745 0
36 -609 610 0
-610 746 0
37 -610 611 0
-611 747 0
38 -611 612 0
-612 748 0
39 -612 613 0
-613 749 0
40 -613 614 0
-614 750 0
41 -614 615 0
-615 751 0
42 -615 616 0
-616 752 0
43 -616 617 0
-617 753 0
44 -617 618 0
-618 754 0
45 -618 619 0
-619 755 0
46 -619 620 0
-620 756 0
47 -620 621 0
-621 757 0
48 -621 622 0
-622 758 0
49 -622 623 0
-623 759 0
50 -623 624 0
-624 760 0
51 -624 625 0
-625 761 0
52 -625 626 0
-626 762 0
53 -626 627 0
-627 763 0
54 -627 628 0
-628 764 0
55 -628 629 0
-629 765 0
56 -629 630 0
-630 766 0
57 -630 631 0
-631 767 0
58 -631 632 0
-632 768 0
59 -632 633 0
-633 769 0
60 -633 634 0
-634 770 0
61 -634 635 0
-635 771 0
62 -635 636 0
-636 772 0
63 -636 637 0
-637 773 0
64 -637 638 0
-638 774 0
65 -638 639 0
-639 775 0
66 -639 640 0
-640 776 0
67 -640 641 0
-641 777 0
68 -641 642 0
-642 778 0
69 -642 643 0
-643 779 0
70 -643 644 0
-644 780 0
71 -644 645 0
-645 781 0
72 -645 646 0
-646 782 0
73 -646 647 0
-647 783 0
74 -647 648 0
-648 784 0
75 -648 649 0
-649 785 0
76 -649 650 0
-650 786 0
77 -650 651 0
-651 787 0
78 -651 652 0
-652 788 0
79 -652 653 0
-653 789 0
80 -653 654 0
-654 790 0
81 -654 655 0
-655 791 0
82 -655 656 0
-656 792 0
83 -656 657 0
-657 793 0
84 -657 658 0
-658 794 0
85 -658 659 0
-659 795 0
86 -659 660 0
-660 796 0
87 -660 661 0
-661 797 0
88 -661 662 0
-662 798 0
89 -662 663 0
-663 799 0
90 -663 664 0
-664 800 0
91 -664 665 0
-665 801 0
92 -665 666 0
-666 802 0
93 -666 667 0
-667 803 0
94 -667 668 0
-668 804 0
95 -668 669 0
-669 805 0
96 -669 670 0
-670 806 0
97 -670 671 0
-671 807 0
98 -671 672 0
-672 808 0
99 -672 673 0
-673 809 0
100 -673 674 0
-674 810 0
101 -674 675 0
-675 811 0
102 -675 676 0
-676 812 0
103 -676 677 0
-677 813 0
104 -677 678 0
-678 814 0
105 -678 679 0
-679 815 0
106 -679 680 0
-680 816 0
107 -680 681 0
-681 817 0
108 -681 682 0
-682 818 0
109 -682 683 0
-683 819 0
110 -683 684 0
-684 820 0
111 -684 685 0
-685 821 0
112 -685 686 0
-686 822 0
113 -686 687 0
-687 823 0
114 -687 688 0
-688 824 0
115 -688 689 0
-689 825 0
116 -689 690 0
-690 826 0
117 -690 691 0
-691 827 0
118 -691 692 0
-692 828 0
119 -692 693 0
-693 829 0
120 -693 694 0
-694 830 0
121 -694 695 0
-695 831 0
122 -695 696 0
-696 832 0
123 -696 697 0
-697 833 0
124 -697 698 0
-698 834 0
125 -698 699 0
-699 835 0
126 -699 700 0
-700 836 0
127 -700 701 0
-701 837 0
128 -701 702 0
-702 838 0
129 -702 703 0
-703 839 0
130 -703 704 0
-704 840 0
131 -704 705 0
-705 841 0
132 -705 706 0
-706 842 0
133 -706 707 0
-707 843 0
134 -707 708 0
-708 844 0
135 -708 709 0
-709 845 0
136 -709 710 0
-710 846 0
137 -710 711 0
-711 847 0
138 -711 712 0
-712 848 0
139 -712 0
4 713 0
-713 849 0
5 -713 714 0
-714 850 0
6 -714 715 0
-715 851 0
7 -715 716 0
-716 852 0
8 -716 717 0
-717 853 0
9 -717 718 0
-718 854 0
10 -718 719 0
-719 855 0
11 -719 720 0
-720 856 0
12 -720 721 0
-721 857 0
13 -721 722 0
-722 858 0
14 -722 723 0
-723 859 0
15 -723 724 0
-724 860 0
16 -724 725 0
-725 861 0
17 -725 726 0
-726 862 0
18 -726 727 0
-727 863 0
19 -727 728 0
-728 864 0
20 -728 729 0
-729 865 0
21 -729 730 0
-730 866 0
22 -730 731 0
-731 867 0
23 -731 732 0
-732 868 0
24 -732 733 0
-733 869 0
25 -733 734 0
-734 870 0
26 -734 735 0
-735 871 0
27 -735 736 0
-736 872 0
28 -736 737 0
-737 873 0
29 -737 738 0
-738 874 0
30 -738 739 0
-739 875 0
31 -739 740 0
-740 876 0
32 -740 741 0
-741 877 0
33 -741 742 0
-742 878 0
34 -742 743 0
-743 879 0
35 -743 744 0
-744 880 0
36 -744 745 0
-745 881 0
37 -745 746 0
-746 882 0
38 -746 747 0
-747 883 0
39 -747 748 0
-748 884 0
40 -748 749 0
-749 885 0
41 -749 750 0
-750 886 0
42 -750 751 0
-751 887 0
43 -751 752 0
-752 888 0
44 -752 753 0
-753 889 0
45 -753 754 0
-754 890 0
46 -754 755 0
-755 891 0
47 -755 756 0
-756 892 0
48 -756 757 0
-757 893 0
49 -757 758 0
-758 894 0
50 -758 759 0
-759 895 0
51 -759 760 0
-760 896 0
52 -760 761 0
-761 897 0
53 -761 762 0
-762 898 0
54 -762 763 0
-763 899 0
55 -763 764 0
-764 900 0
56 -764 765 0
-765 901 0
57 -765 766 0
-766 902 0
58 -766 767 0
-767 903 0
59 -767 768 0
-768 904 0
60 -768 769 0
-769 905 0
61 -769 770 0
-770 906 0
62 -770 771 0
-771 907 0
63 -771 772 0
-772 908 0
64 -772 773 0
-773 909 0
65 -773 774 0
-774 910 0
66 -774 775 0
-775 911 0
67 -775 776 0
-776 912 0
68 -776 777 0
-777 913 0
69 -777 778 0
-778 914 0
70 -778 779 0
-779 915 0
71 -779 780 0
-780 916 0
72 -780 781 0
-781 917 0
73 -781 782 0
-782 918 0
74 -782 783 0
-783 919 0
75 -783 784 0
-784 920 0
76 -784 785 0
-785 921 0
77 -785 786 0
-786 922 0
78 -786 787 0
-787 923 0
79 -787 788 0
-788 924 0
80 -788 789 0
-789 925 0
81 -789 790 0
-790 926 0
82 -790 791 0
-791 927 0
83 -791 792 0
-792 928 0
84 -792 793 0
-793 929 0
85 -793 794 0
-794 930 0
86 -794 795 0
-795 931 0
87 -795 796 0
-796 932 0
88 -796 797 0
-797 933 0
89 -797 798 0
-798 934 0
90 -798 799 0
-799 935 0
91 -799 800 0
-800 936 0
92 -800 801 0
-801 937 0
93 -801 802 0
-802 938 0
94 -802 803 0
-803 939 0
95 -803 804 0
-804 940 0
96 -804 805 0
-805 941 0
97 -805 806 0
-806 942 0
98 -806 807 0
-807 943 0
99 -807 808 0
-808 944 0
100 -808 809 0
-809 945 0
101 -809 810 0
-810 946 0
102 -810 811 0
-811 947 0
103 -811 812 0
-812 948 0
104 -812 813 0
-813 949 0
105 -813 814 0
-814 950 0
106 -814 815 0
-815 951 0
107 -815 816 0
-816 952 0
108 -816 817 0
-817 953 0
109 -817 818 0
-818 954 0
110 -818 819 0
-819 955 0
111 -819 820 0
-820 956 0
112 -820 821 0
-821 957 0
113 -821 822 0
-822 958 0
114 -822 823 0
-823 959 0
115 -823 824 0
-824 960 0
116 -824 825 0
-825 961 0
117 -825 826 0
-826 962 0
118 -826 827 0
-827 963 0
119 -827 828 0
-828 964 0
120 -828 829 0
-829 965 0
121 -829 830 0
-830 966 0
122 -830 831 0
-831 967 0
123 -831 832 0
-832 968 0
124 -832 833 0
-833 969 0
125 -833 834 0
-834 970 0
126 -834 835 0
-835 971 0
127 -835 836 0
-836 972 0
128 -836 837 0
-837 973 0
129 -837 838 0
-838 974 0
130 -838 839 0
-839 975 0
131 -839 840 0
-840 976 0
132 -840 841 0
-841 977 0
133 -841 842 0
-842 978 0
134 -842 843 0
-843 979 0
135 -843 844 0
-844 980 0
136 -844 845 0
-845 981 0
137 -845 846 0
-846 982 0
138 -846 847 0
-847 983 0
139 -847 848 0
-848 984 0
140 -848 0
5 849 0
-849 985 0
6 -849 850 0
-850 986 0
7 -850 851 0
-851 987 0
8 -851 852 0
-852 988 0
9 -852 853 0
-853 989 0
10 -853 854 0
-854 990 0
11 -854 855 0
-855 991 0
12 -855 856 0
-856 992 0
13 -856 857 0
-857 993 0
14 -857 858 0
-858 994 0
15 -858 859 0
-859 995 0
16 -859 860 0
-860 996 0
17 -860 861 0
-861 997 0
18 -861 862 0
-862 998 0
19 -862 863 0
-863 999 0
20 -863 864 0
-864 1000 0
21 -864 865 0
-865 1001 0
22 -865 866 0
-866 1002 0
23 -866 867 0
-867 1003 0
24 -867 868 0
-868 1004 0
25 -868 869 0
-869 1005 0
26 -869 870 0
-870 1006 0
27 -870 871 0
-871 1007 0
28 -871 872 0
-872 1008 0
29 -872 873 0
-873 1009 0
30 -873 874 0
-874 1010 0
31 -874 875 0
-875 1011 0
32 -875 876 0
-876 1012 0
33 -876 877 0
-877 1013 0
34 -877 878 0
-878 1014 0
35 -878 879 0
-879 1015 0
36 -879 880 0
-880 1016 0
37 -880 881 0
-881 1017 0
38 -881 882 0
-882 1018 0
39 -882 883 0
-883 1019 0
40 -883 884 0
-884 1020 0
41 -884 885 0
-885 1021 0
42 -885 886 0
-886 1022 0
43 -886 887 0
-887 1023 0
44 -887 888 0
-888 1024 0
45 -888 889 0
-889 1025 0
46 -889 890 0
-890 1026 0
47 -890 891 0
-891 1027 0
48 -891 892 0
-892 1028 0
49 -892 893 0
-893 1029 0
50 -893 894 0
-894 1030 0
51 -894 895 0
-895 1031 0
52 -895 896 0
-896 1032 0
53 -896 897 0
-897 1033 0
54 -897 898 0
-898 1034 0
55 -898 899 0
-899 1035 0
56 -899 900 0
-900 1036 0
57 -900 901 0
-901 1037 0
58 -901 902 0
-902 1038 0
59 -902 903 0
-903 1039 0
60 -903 904 0
-904 1040 0
61 -904 905 0
-905 1041 0
62 -905 906 0
-906 1042 0
63 -906 907 0
-907 1043 0
64 -907 908 0
-908 1044 0
65 -908 909 0
-909 1045 0
66 -909 910 0
-910 1046 0
67 -910 911 0
-911 1047 0
68 -911 912 0
-912 1048 0
69 -912 913 0
-913 1049 0
70 -913 914 0
-914 1050 0
71 -914 915 0
-915 1051 0
72 -915 916 0
-916 1052 0
73 -916 917 0
-917 1053 0
74 -917 918 0
-918 1054 0
75 -918 919 0
-919 1055 0
76 -919 920 0
-920 1056 0
77 -920 921 0
-921 1057 0
78 -921 922 0
-922 1058 0
79 -922 923 0
-923 1059 0
80 -923 924 0
-924 1060 0
81 -924 925 0
-925 1061 0
82 -925 926 0
-926 1062 0
83 -926 927 0
-927 1063 0
84 -927 928 0
-928 1064 0
85 -928 929 0
-929 1065 0
86 -929 930 0
-930 1066 0
87 -930 931 0
-931 1067 0
88 -931 932 0
-932 1068 0
89 -932 933 0
-933 1069 0
90 -933 934 0
-934 1070 0
91 -934 935 0
-935 1071 0
92 -935 936 0
-936 1072 0
93 -936 937 0
-937 1073 0
94 -937 938 0
-938 1074 0
95 -938 939 0
-939 1075 0
96 -939 940 0
-940 1076 0
97 -940 941 0
-941 1077 0
98 -941 942 0
-942 1078 0
99 -942 943 0
-943 1079 0
100 -943 944 0
-944 1080 0
101 -944 945 0
-945 1081 0
102 -945 946 0
-946 1082 0
103 -946 947 0
-947 1083 0
104 -947 948 0
-948 1084 0
105 -948 949 0
-949 1085 0
106 -949 950 0
-950 1086 0
107 -950 951 0
-951 1087 0
108 -951 952 0
-952 1088 0
109 -952 953 0
-953 1089 0
110 -953 954 0
-954 1090 0
111 -954 955 0
-955 1091 0
112 -955 956 0
-956 1092 0
113 -956 957 0
-957 1093 0
114 -957 958 0
-958 1094 0
115 -958 959 0
-959 1095 0
116 -959 960 0
-960 1096 0
117 -960 961 0
-961 1097 0
118 -961 962 0
-962 1098 0
119 -962 963 0
-963 1099 0
120 -963 964 0
-964 1100 0
121 -964 965 0
-965 1101 0
122 -965 966 0
-966 1102 0
123 -966 967 0
-967 1103 0
124 -967 968 0
-968 1104 0
125 -968 969 0
-969 1105 0
126 -969 970 0
-970 1106 0
127 -970 971 0
-971 1107 0
128 -971 972 0
-972 1108 0
129 -972 973 0
-973 1109 0
130 -973 974 0
-974 1110 0
131 -974 975 0
-975 1111 0
132 -975 976 0
-976 1112 0
133 -976 977 0
-977 1113 0
134 -977 978 0
-978 1114 0
135 -978 979 0
-979 1115 0
136 -979 980 0
-980 1116 0
137 -980 981 0
-981 1117 0
138 -981 982 0
-982 1118 0
139 -982 983 0
-983 1119 0
140 -983 984 0
-984 1120 0
141 -984 0
6 985 0
-985 1121 0
7 -985 986 0
-986 1122 0
8 -986 987 0
-987 1123 0
9 -987 988 0
-988 1124 0
10 -988 989 0
-989 1125 0
11 -989 990 0
-990 1126 0
12 -990 991 0
-991 1127 0
13 -991 992 0
-992 1128 0
14 -992 993 0
-993 1129 0
15 -993 994 0
-994 1130 0
16 -994 995 0
-995 1131 0
17 -995 996 0
-996 1132 0
18 -996 997 0
-997 1133 0
19 -997 998 0
-998 1134 0
20 -998 999 0
-999 1135 0
21 -999 1000 0
-1000 1136 0
22 -1000 1001 0
-1001 1137 0
23 -1001 1002 0
-1002 1138 0
24 -1002 1003 0
-1003 1139 0
25 -1003 1004 0
-1004 1140 0
26 -1004 1005 0
-1005 1141 0
27 -1005 1006 0
-1006 1142 0
28 -1006 1007 0
-1007 1143 0
29 -1007 1008 0
-1008 1144 0
30 -1008 1009 0
-1009 1145 0
31 -1009 1010 0
-1010 1146 0
32 -1010 1011 0
-1011 1147 0
33 -1011 1012 0
-1012 1148 0
34 -1012 1013 0
-1013 1149 0
35 -1013 1014 0
-1014 1150 0
36 -1014 1015 0
-1015 1151 0
37 -1015 1016 0
-1016 1152 0
38 -1016 1017 0
-1017 1153 0
39 -1017 1018 0
-1018 1154 0
40 -1018 1019 0
-1019 1155 0
41 -1019 1020 0
-1020 1156 0
42 -1020 1021 0
-1021 1157 0
43 -1021 1022 0
-1022 1158 0
44 -1022 1023 0
-1023 1159 0
45 -1023 1024 0
-1024 1160 0
46 -1024 1025 0
-1025 1161 0
47 -1025 1026 0
-1026 1162 0
48 -1026 1027 0
-1027 1163 0
49 -1027 1028 0
-1028 1164 0
50 -1028 1029 0
-1029 1165 0
51 -1029 1030 0
-1030 1166 0
52 -1030 1031 0
-1031 1167 0
53 -1031 1032 0
-1032 1168 0
54 -1032 1033 0
-1033 1169 0
55 -1033 1034 0
-1034 1170 0
56 -1034 1035 0
-1035 1171 0
57 -1035 1036 0
-1036 1172 0
58 -1036 1037 0
-1037 1173 0
59 -1037 1038 0
-1038 1174 0
60 -1038 1039 0
-1039 1175 0
61 -1039 1040 0
-1040 1176 0
62 -1040 1041 0
-1041 1177 0
63 -1041 1042 0
-1042 1178 0
64 -1042 1043 0
-1043 1179 0
65 -1043 1044 0
-1044 1180 0
66 -1044 1045 0
-1045 1181 0
67 -1045 1046 0
-1046 1182 0
68 -1046 1047 0
-1047 1183 0
69 -1047 1048 0
-1048 1184 0
70 -1048 1049 0
-1049 1185 0
71 -1049 1050 0
-1050 1186 0
72 -1050 1051 0
-1051 1187 0
73 -1051 1052 0
-1052 1188 0
74 -1052 1053 0
-1053 1189 0
75 -1053 1054 0
-1054 1190 0
76 -1054 1055 0
-1055 1191 0
77 -1055 1056 0
-1056 1192 0
78 -1056 1057 0
-1057 1193 0
79 -1057 1058 0
-1058 1194 0
80 -1058 1059 0
-1059 1195 0
81 -1059 1060 0
-1060 1196 0
82 -1060 1061 0
-1061 1197 0
83 -1061 1062 0
-1062 1198 0
84 -1062 1063 0
-1063 1199 0
85 -1063 1064 0
-1064 1200 0
86 -1064 1065 0
-1065 1201 0
87 -1065 1066 0
-1066 1202 0
88 -1066 1067 0
-1067 1203 0
89 -1067 1068 0
-1068 1204 0
90 -1068 1069 0
-1069 1205 0
91 -1069 1070 0
-1070 1206 0
92 -1070 1071 0
-1071 1207 0
93 -1071 1072 0
-1072 1208 0
94 -1072 1073 0
-1073 1209 0
95 -1073 1074 0
-1074 1210 0
96 -1074 1075 0
-1075 1211 0
97 -1075 1076 0
-1076 1212 0
98 -1076 1077 0
-1077 1213 0
99 -1077 1078 0
-1078 1214 0
100 -1078 1079 0
-1079 1215 0
101 -1079 1080 0
-1080 1216 0
102 -1080 1081 0
-1081 1217 0
103 -1081 1082 0
-1082 1218 0
104 -1082 1083 0
-1083 1219 0
105 -1083 1084 0
-1084 1220 0
106 -1084 1085 0
-1085 1221 0
107 -1085 1086 0
-1086 1222 0
108 -1086 1087 0
-1087 1223 0
109 -1087 1088 0
-1088 1224 0
110 -1088 1089 0
-1089 1225 0
111 -1089 1090 0
-1090 1226 0
112 -1090 1091 0
-1091 1227 0
113 -1091 1092 0
-1092 1228 0
114 -1092 1093 0
-1093 1229 0
115 -1093 1094 0
-1094 1230 0
116 -1094 1095 0
-1095 1231 0
117 -1095 1096 0
-1096 1232 0
118 -1096 1097 0
-1097 1233 0
119 -1097 1098 0
-1098 1234 0
120 -1098 1099 0
-1099 1235 0
121 -1099 1100 0
-1100 1236 0
122 -1100 1101 0
-1101 1237 0
123 -1101 1102 0
-1102 1238 0
124 -1102 1103 0
-1103 1239 0
125 -1103 1104 0
-1104 1240 0
126 -1104 1105 0
-1105 1241 0
127 -1105 1106 0
-1106 1242 0
128 -1106 1107 0
-1107 1243 0
129 -1107 1108 0
-1108 1244 0
130 -1108 1109 0
-1109 1245 0
131 -1109 1110 0
-1110 1246 0
132 -1110 1111 0
-1111 1247 0
133 -1111 1112 0
-1112 1248 0
134 -1112 1113 0
-1113 1249 0
135 -1113 1114 0
-1114 1250 0
136 -1114 1115 0
-1115 1251 0
137 -1115 1116 0
-1116 1252 0
138 -1116 1117 0
-1117 1253 0
139 -1117 1118 0
-1118 1254 0
140 -1118 1119 0
-1119 1255 0
141 -1119 1120 0
-1120 1256 0
142 -1120 0
7 1121 0
-1121 1257 0
8 -1121 1122 0
-1122 1258 0
9 -1122 1123 0
-1123 1259 0
10 -1123 1124 0
-1124 1260 0
11 -1124 1125 0
-1125 1261 0
12 -1125 1126 0
-1126 1262 0
13 -1126 1127 0
-1127 1263 0
14 -1127 1128 0
-1128 1264 0
15 -1128 1129 0
-1129 1265 0
16 -1129 1130 0
-1130 1266 0
17 -1130 1131 0
-1131 1267 0
18 -1131 1132 0
-1132 1268 0
19 -1132 1133 0
-1133 1269 0
20 -1133 1134 0
-1134 1270 0
21 -1134 1135 0
-1135 1271 0
22 -1135 1136 0
-1136 1272 0
23 -1136 1137 0
-1137 1273 0
24 -1137 1138 0
-1138 1274 0
25 -1138 1139 0
-1139 1275 0
26 -1139 1140 0
-1140 1276 0
27 -1140 1141 0
-1141 1277 0
28 -1141 1142 0
-1142 1278 0
29 -1142 1143 0
-1143 1279 0
30 -1143 1144 0
-1144 1280 0
31 -1144 1145 0
-1145 1281 0
32 -1145 1146 0
-1146 1282 0
33 -1146 1147 0
-1147 1283 0
34 -1147 1148 0
-1148 1284 0
35 -1148 1149 0
-1149 1285 0
36 -1149 1150 0
-1150 1286 0
37 -1150 1151 0
-1151 1287 0
38 -1151 1152 0
-1152 1288 0
39 -1152 1153 0
-1153 1289 0
40 -1153 1154 0
-1154 1290 0
41 -1154 1155 0
-1155 1291 0
42 -1155 1156 0
-1156 1292 0
43 -1156 1157 0
-1157 1293 0
44 -1157 1158 0
-1158 1294 0
45 -1158 1159 0
-1159 1295 0
46 -1159 1160 0
-1160 1296 0
47 -1160 1161 0
-1161 1297 0
48 -1161 1162 0
-1162 1298 0
49 -1162 1163 0
-1163 1299 0
50 -1163 1164 0
-1164 1300 0
51 -1164 1165 0
-1165 1301 0
52 -1165 1166 0
-1166 1302 0
53 -1166 1167 0
-1167 1303 0
54 -1167 1168 0
-1168 1304 0
55 -1168 1169 0
-1169 1305 0
56 -1169 1170 0
-1170 1306 0
57 -1170 1171 0
-1171 1307 0
58 -1171 1172 0
-1172 1308 0
59 -1172 1173 0
-1173 1309 0
60 -1173 1174 0
-1174 1310 0
61 -1174 1175 0
-1175 1311 0
62 -1175 1176 0
-1176 1312 0
63 -1176 1177 0
-1177 1313 0
64 -1177 1178 0
-1178 1314 0
65 -1178 1179 0
-1179 1315 0
66 -1179 1180 0
-1180 1316 0
67 -1180 1181 0
-1181 1317 0
68 -1181 1182 0
-1182 1318 0
69 -1182 1183 0
-1183 1319 0
70 -1183 1184 0
-1184 1320 0
71 -1184 1185 0
-1185 1321 0
72 -1185 1186 0
-1186 1322 0
73 -1186 1187 0
-1187 1323 0
74 -1187 1188 0
-1188 1324 0
75 -1188 1189 0
-1189 1325 0
76 -1189 1190 0
-1190 1326 0
77 -1190 1191 0
-1191 1327 0
78 -1191 1192 0
-1192 1328 0
79 -1192 1193 0
-1193 1329 0
80 -1193 1194 0
-1194 1330 0
81 -1194 1195 0
-1195 1331 0
82 -1195 1196 0
-1196 1332 0
83 -1196 1197 0
-1197 1333 0
84 -1197 1198 0
-1198 1334 0
85 -1198 1199 0
-1199 1335 0
86 -1199 1200 0
-1200 1336 0
87 -1200 1201 0
-1201 1337 0
88 -1201 1202 0
-1202 1338 0
89 -1202 1203 0
-1203 1339 0
90 -1203 1204 0
-1204 1340 0
91 -1204 1205 0
-1205 1341 0
92 -1205 1206 0
-1206 1342 0
93 -1206 1207 0
-1207 1343 0
94 -1207 1208 0
-1208 1344 0
95 -1208 1209 0
-1209 1345 0
96 -1209 1210 0
-1210 1346 0
97 -1210 1211 0
-1211 1347 0
98 -1211 1212 0
-1212 1348 0
99 -1212 1213 0
-1213 1349 0
100 -1213 1214 0
-1214 1350 0
101 -1214 1215 0
-1215 1351 0
102 -1215 1216 0
-1216 1352 0
103 -1216 1217 0
-1217 1353 0
104 -1217 1218 0
-1218 1354 0
105 -1218 1219 0
-1219 1355 0
106 -1219 1220 0
-1220 1356 0
107 -1220 1221 0
-1221 1357 0
108 -1221 1222 0
-1222 1358 0
109 -1222 1223 0
-1223 1359 0
110 -1223 1224 0
-1224 1360 0
111 -1224 1225 0
-1225 1361 0
112 -1225 1226 0
-1226 1362 0
113 -1226 1227 0
-1227 1363 0
114 -1227 1228 0
-1228 1364 0
115 -1228 1229 0
-1229 1365 0
116 -1229 1230 0
-1230 1366 0
117 -1230 1231 0
-1231 1367 0
118 -1231 1232 0
-1232 1368 0
119 -1232 1233 0
-1233 1369 0
120 -1233 1234 0
-1234 1370 0
121 -1234 1235 0
-1235 1371 0
122 -1235 1236 0
-1236 1372 0
123 -1236 1237 0
-1237 1373 0
124 -1237 1238 0
-1238 1374 0
125 -1238 1239 0
-1239 1375 0
126 -1239 1240 0
-1240 1376 0
127 -1240 1241 0
-1241 1377 0
128 -1241 1242 0
-1242 1378 0
129 -1242 1243 0
-1243 1379 0
130 -1243 1244 0
-1244 1380 0
131 -1244 1245 0
-1245 1381 0
132 -1245 1246 0
-1246 1382 0
133 -1246 1247 0
-1247 1383 0
134 -1247 1248 0
-1248 1384 0
135 -1248 1249 0
-1249 1385 0
136 -1249 1250 0
-1250 1386 0
137 -1250 1251 0
-1251 1387 0
138 -1251 1252 0
-1252 1388 0
139 -1252 1253 0
-1253 1389 0
140 -1253 1254 0
-1254 1390 0
141 -1254 1255 0
-1255 1391 0
142 -1255 1256 0
-1256 1392 0
143 -1256 0
8 1257 0
-1257 1393 0
9 -1257 1258 0
-1258 1394 0
10 -1258 1259 0
-1259 1395 0
11 -1259 1260 0
-1260 1396 0
12 -1260 1261 0
-1261 1397 0
13 -1261 1262 0
-1262 1398 0
14 -1262 1263 0
-1263 1399 0
15 -1263 1264 0
-1264 1400 0
16 -1264 1265 0
-1265 1401 0
17 -1265 1266 0
-1266 1402 0
18 -1266 1267 0
-1267 1403 0
19 -1267 1268 0
-1268 1404 0
20 -1268 1269 0
-1269 1405 0
21 -1269 1270 0
-1270 1406 0
22 -1270 1271 0
-1271 1407 0
23 -1271 1272 0
-1272 1408 0
24 -1272 1273 0
-1273 1409 0
25 -1273 1274 0
-1274 1410 0
26 -1274 1275 0
-1275 1411 0
27 -1275 1276 0
-1276 1412 0
28 -1276 1277 0
-1277 1413 0
29 -1277 1278 0
-1278 1414 0
30 -1278 1279 0
-1279 1415 0
31 -1279 1280 0
-1280 1416 0
32 -1280 1281 0
-1281 1417 0
33 -1281 1282 0
-1282 1418 0
34 -1282 1283 0
-1283 1419 0
35 -1283 1284 0
-1284 1420 0
36 -1284 1285 0
-1285 1421 0
37 -1285 1286 0
-1286 1422 0
38 -1286 1287 0
-1287 1423 0
39 -1287 1288 0
-1288 1424 0
40 -1288 1289 0
-1289 1425 0
41 -1289 1290 0
-1290 1426 0
42 -1290 1291 0
-1291 1427 0
43 -1291 1292 0
-1292 1428 0
44 -1292 1293 0
-1293 1429 0
45 -1293 1294 0
-1294 1430 0
46 -1294 1295 0
-1295 1431 0
47 -1295 1296 0
-1296 1432 0
48 -1296 1297 0
-1297 1433 0
49 -1297 1298 0
-1298 1434 0
50 -1298 1299 0
-1299 1435 0
51 -1299 1300 0
-1300 1436 0
52 -1300 1301 0
-1301 1437 0
53 -1301 1302 0
-1302 1438 0
54 -1302 1303 0
-1303 1439 0
55 -1303 1304 0
-1304 1440 0
56 -1304 1305 0
-1305 1441 0
57 -1305 1306 0
-1306 1442 0
58 -1306 1307 0
-1307 1443 0
59 -1307 1308 0
-1308 1444 0
60 -1308 1309 0
-1309 1445 0
61 -1309 1310 0
-1310 1446 0
62 -1310 1311 0
-1311 1447 0
63 -1311 1312 0
-1312 1448 0
64 -1312 1313 0
-1313 1449 0
65 -1313 1314 0
-1314 1450 0
66 -1314 1315 0
-1315 1451 0
67 -1315 1316 0
-1316 1452 0
68 -1316 1317 0
-1317 1453 0
69 -1317 1318 0
-1318 1454 0
70 -1318 1319 0
-1319 1455 0
71 -1319 1320 0
-1320 1456 0
72 -1320 1321 0
-1321 1457 0
73 -1321 1322 0
-1322 1458 0
74 -1322 1323 0
-1323 1459 0
75 -1323 1324 0
-1324 1460 0
76 -1324 1325 0
-1325 1461 0
77 -1325 1326 0
-1326 1462 0
78 -1326 1327 0
-1327 1463 0
79 -1327 1328 0
-1328 1464 0
80 -1328 1329 0
-1329 1465 0
81 -1329 1330 0
-1330 1466 0
82 -1330 1331 0
-1331 1467 0
83 -1331 1332 0
-1332 1468 0
84 -1332 1333 0
-1333 1469 0
85 -1333 1334 0
-1334 1470 0
86 -1334 1335 0
-1335 1471 0
87 -1335 1336 0
-1336 1472 0
88 -1336 1337 0
-1337 1473 0
89 -1337 1338 0
-1338 1474 0
90 -1338 1339 0
-1339 1475 0
91 -1339 1340 0
-1340 1476 0
92 -1340 1341 0
-1341 1477 0
93 -1341 1342 0
-1342 1478 0
94 -1342 1343 0
-1343 1479 0
95 -1343 1344 0
-1344 1480 0
96 -1344 1345 0
-1345 1481 0
97 -1345 1346 0
-1346 1482 0
98 -1346 1347 0
-1347 1483 0
99 -1347 1348 0
-1348 1484 0
100 -1348 1349 0
-1349 1485 0
101 -1349 1350 0
-1350 1486 0
102 -1350 1351 0
-1351 1487 0
103 -1351 1352 0
-1352 1488 0
104 -1352 1353 0
-1353 1489 0
105 -1353 1354 0
-1354 1490 0
106 -1354 1355 0
-1355 1491 0
107 -1355 1356 0
-1356 1492 0
108 -1356 1357 0
-1357 1493 0
109 -1357 1358 0
-1358 1494 0
110 -1358 1359 0
-1359 1495 0
111 -1359 1360 0
-1360 1496 0
112 -1360 1361 0
-1361 1497 0
113 -1361 1362 0
-1362 1498 0
114 -1362 1363 0
-1363 1499 0
115 -1363 1364 0
-1364 1500 0
116 -1364 1365 0
-1365 1501 0
117 -1365 1366 0
-1366 1502 0
118 -1366 1367 0
-1367 1503 0
119 -1367 1368 0
-1368 1504 0
120 -1368 1369 0
-1369 1505 0
121 -1369 1370 0
-1370 1506 0
122 -1370 1371 0
-1371 1507 0
123 -1371 1372 0
-1372 1508 0
124 -1372 1373 0
-1373 1509 0
125 -1373 1374 0
-1374 1510 0
126 -1374 1375 0
-1375 1511 0
127 -1375 1376 0
-1376 1512 0
128 -1376 1377 0
-1377 1513 0
129 -1377 1378 0
-1378 1514 0
130 -1378 1379 0
-1379 1515 0
131 -1379 1380 0
-1380 1516 0
132 -1380 1381 0
-1381 1517 0
133 -1381 1382 0
-1382 1518 0
134 -1382 1383 0
-1383 1519 0
135 -1383 1384 0
-1384 1520 0
136 -1384 1385 0
-1385 1521 0
137 -1385 1386 0
-1386 1522 0
138 -1386 1387 0
-1387 1523 0
139 -1387 1388 0
-1388 1524 0
140 -1388 1389 0
-1389 1525 0
141 -1389 1390 0
-1390 1526 0
142 -1390 1391 0
-1391 1527 0
143 -1391 1392 0
-1392 1528 0
144 -1392 0
9 1393 0
-1393 1529 0
10 -1393 1394 0
-1394 1530 0
11 -1394 1395 0
-1395 1531 0
12 -1395 1396 0
-1396 1532 0
13 -1396 1397 0
-1397 1533 0
14 -1397 1398 0
-1398 1534 0
15 -1398 1399 0
-1399 1535 0
16 -1399 1400 0
-1400 1536 0
17 -1400 1401 0
-1401 1537 0
18 -1401 1402 0
-1402 1538 0
19 -1402 1403 0
-1403 1539 0
20 -1403 1404 0
-1404 1540 0
21 -1404 1405 0
-1405 1541 0
22 -1405 1406 0
-1406 1542 0
23 -1406 1407 0
-1407 1543 0
24 -1407 1408 0
-1408 1544 0
25 -1408 1409 0
-1409 1545 0
26 -1409 1410 0
-1410 1546 0
27 -1410 1411 0
-1411 1547 0
28 -1411 1412 0
-1412 1548 0
29 -1412 1413 0
-1413 1549 0
30 -1413 1414 0
-1414 1550 0
31 -1414 1415 0
-1415 1551 0
32 -1415 1416 0
-1416 1552 0
33 -1416 1417 0
-1417 1553 0
34 -1417 1418 0
-1418 1554 0
35 -1418 1419 0
-1419 1555 0
36 -1419 1420 0
-1420 1556 0
37 -1420 1421 0
-1421 1557 0
38 -1421 1422 0
-1422 1558 0
39 -1422 1423 0
-1423 1559 0
40 -1423 1424 0
-1424 1560 0
41 -1424 1425 0
-1425 1561 0
42 -1425 1426 0
-1426 1562 0
43 -1426 1427 0
-1427 1563 0
44 -1427 1428 0
-1428 1564 0
45 -1428 1429 0
-1429 1565 0
46 -1429 1430 0
-1430 1566 0
47 -1430 1431 0
-1431 1567 0
48 -1431 1432 0
-1432 1568 0
49 -1432 1433 0
-1433 1569 0
50 -1433 1434 0
-1434 1570 0
51 -1434 1435 0
-1435 1571 0
52 -1435 1436 0
-1436 1572 0
53 -1436 1437 0
-1437 1573 0
54 -1437 1438 0
-1438 1574 0
55 -1438 1439 0
-1439 1575 0
56 -1439 1440 0
-1440 1576 0
57 -1440 1441 0
-1441 1577 0
58 -1441 1442 0
-1442 1578 0
59 -1442 1443 0
-1443 1579 0
60 -1443 1444 0
-1444 1580 0
61 -1444 1445 0
-1445 1581 0
62 -1445 1446 0
-1446 1582 0
63 -1446 1447 0
-1447 1583 0
64 -1447 1448 0
-1448 1584 0
65 -1448 1449 0
-1449 1585 0
66 -1449 1450 0
-1450 1586 0
67 -1450 1451 0
-1451 1587 0
68 -1451 1452 0
-1452 1588 0
69 -1452 1453 0
-1453 1589 0
70 -1453 1454 0
-1454 1590 0
71 -1454 1455 0
-1455 1591 0
72 -1455 1456 0
-1456 1592 0
73 -1456 1457 0
-1457 1593 0
74 -1457 1458 0
-1458 1594 0
75 -1458 1459 0
-1459 1595 0
76 -1459 1460 0
-1460 1596 0
77 -1460 1461 0
-1461 1597 0
78 -1461 1462 0
-1462 1598 0
79 -1462 1463 0
-1463 1599 0
80 -1463 1464 0
-1464 1600 0
81 -1464 1465 0
-1465 1601 0
82 -1465 1466 0
-1466 1602 0
83 -1466 1467 0
-1467 1603 0
84 -1467 1468 0
-1468 1604 0
85 -1468 1469 0
-1469 1605 0
86 -1469 1470 0
-1470 1606 0
87 -1470 1471 0
-1471 1607 0
88 -1471 1472 0
-1472 1608 0
89 -1472 1473 0
-1473 1609 0
90 -1473 1474 0
-1474 1610 0
91 -1474 1475 0
-1475 1611 0
92 -1475 1476 0
-1476 1612 0
93 -1476 1477 0
-1477 1613 0
94 -1477 1478 0
-1478 1614 0
95 -1478 1479 0
-1479 1615 0
96 -1479 1480 0
-1480 1616 0
97 -1480 1481 0
-1481 1617 0
98 -1481 1482 0
-1482 1618 0
99 -1482 1483 0
-1483 1619 0
100 -1483 1484 0
-1484 1620 0
101 -1484 1485 0
-1485 1621 0
102 -1485 1486 0
-1486 1622 0
103 -1486 1487 0
-1487 1623 0
104 -1487 1488 0
-1488 1624 0
105 -1488 1489 0
-1489 1625 0
106 -1489 1490 0
-1490 1626 0
107 -1490 1491 0
-1491 1627 0
108 -1491 1492 0
-1492 1628 0
109 -1492 1493 0
-1493 1629 0
110 -1493 1494 0
-1494 1630 0
111 -1494 1495 0
-1495 1631 0
112 -1495 1496 0
-1496 1632 0
113 -1496 1497 0
-1497 1633 0
114 -1497 1498 0
-1498 1634 0
115 -1498 1499 0
-1499 1635 0
116 -1499 1500 0
-1500 1636 0
117 -1500 1501 0
-1501 1637 0
118 -1501 1502 0
-1502 1638 0
119 -1502 1503 0
-1503 1639 0
120 -1503 1504 0
-1504 1640 0
121 -1504 1505 0
-1505 1641 0
122 -1505 1506 0
-1506 1642 0
123 -1506 1507 0
-1507 1643 0
124 -1507 1508 0
-1508 1644 0
125 -1508 1509 0
-1509 1645 0
126 -1509 1510 0
-1510 1646 0
127 -1510 1511 0
-1511 1647 0
128 -1511 1512 0
-1512 1648 0
129 -1512 1513 0
-1513 1649 0
130 -1513 1514 0
-1514 1650 0
131 -1514 1515 0
-1515 1651 0
132 -1515 1516 0
-1516 1652 0
133 -1516 1517 0
-1517 1653 0
134 -1517 1518 0
-1518 1654 0
135 -1518 1519 0
-1519 1655 0
136 -1519 1520 0
-1520 1656 0
137 -1520 1521 0
-1521 1657 0
138 -1521 1522 0
-1522 1658 0
139 -1522 1523 0
-1523 1659 0
140 -1523 1524 0
-1524 1660 0
141 -1524 1525 0
-1525 1661 0
142 -1525 1526 0
-1526 1662 0
143 -1526 1527 0
-1527 1663 0
144 -1527 1528 0
-1528 1664 0
145 -1528 0
10 1529 0
-1529 1665 0
11 -1529 1530 0
-1530 1666 0
12 -1530 1531 0
-1531 1667 0
13 -1531 1532 0
-1532 1668 0
14 -1532 1533 0
-1533 1669 0
15 -1533 1534 0
-1534 1670 0
16 -1534 1535 0
-1535 1671 0
17 -1535 1536 0
-1536 1672 0
18 -1536 1537 0
-1537 1673 0
19 -1537 1538 0
-1538 1674 0
20 -1538 1539 0
-1539 1675 0
21 -1539 1540 0
-1540 1676 0
22 -1540 1541 0
-1541 1677 0
23 -1541 1542 0
-1542 1678 0
24 -1542 1543 0
-1543 1679 0
25 -1543 1544 0
-1544 1680 0
26 -1544 1545 0
-1545 1681 0
27 -1545 1546 0
-1546 1682 0
28 -1546 1547 0
-1547 1683 0
29 -1547 1548 0
-1548 1684 0
30 -1548 1549 0
-1549 1685 0
31 -1549 1550 0
-1550 1686 0
32 -1550 1551 0
-1551 1687 0
33 -1551 1552 0
-1552 1688 0
34 -1552 1553 0
-1553 1689 0
35 -1553 1554 0
-1554 1690 0
36 -1554 1555 0
-1555 1691 0
37 -1555 1556 0
-1556 1692 0
38 -1556 1557 0
-1557 1693 0
39 -1557 1558 0
-1558 1694 0
40 -1558 1559 0
-1559 1695 0
41 -1559 1560 0
-1560 1696 0
42 -1560 1561 0
-1561 1697 0
43 -1561 1562 0
-1562 1698 0
44 -1562 1563 0
-1563 1699 0
45 -1563 1564 0
-1564 1700 0
46 -1564 1565 0
-1565 1701 0
47 -1565 1566 0
-1566 1702 0
48 -1566 1567 0
-1567 1703 0
49 -1567 1568 0
-1568 1704 0
50 -1568 1569 0
-1569 1705 0
51 -1569 1570 0
-1570 1706 0
52 -1570 1571 0
-1571 1707 0
53 -1571 1572 0
-1572 1708 0
54 -1572 1573 0
-1573 1709 0
55 -1573 1574 0
-1574 1710 0
56 -1574 1575 0
-1575 1711 0
57 -1575 1576 0
-1576 1712 0
58 -1576 1577 0
-1577 1713 0
59 -1577 1578 0
-1578 1714 0
60 -1578 1579 0
-1579 1715 0
61 -1579 1580 0
-1580 1716 0
62 -1580 1581 0
-1581 1717 0
63 -1581 1582 0
-1582 1718 0
64 -1582 1583 0
-1583 1719 0
65 -1583 1584 0
-1584 1720 0
66 -1584 1585 0
-1585 1721 0
67 -1585 1586 0
-1586 1722 0
68 -1586 1587 0
-1587 1723 0
69 -1587 1588 0
-1588 1724 0
70 -1588 1589 0
-1589 1725 0
71 -1589 1590 0
-1590 1726 0
72 -1590 1591 0
-1591 1727 0
73 -1591 1592 0
-1592 1728 0
74 -1592 1593 0
-1593 1729 0
75 -1593 1594 0
-1594 1730 0
76 -1594 1595 0
-1595 1731 0
77 -1595 1596 0
-1596 1732 0
78 -1596 1597 0
-1597 1733 0
79 -1597 1598 0
-1598 1734 0
80 -1598 1599 0
-1599 1735 0
81 -1599 1600 0
-1600 1736 0
82 -1600 1601 0
-1601 1737 0
83 -1601 1602 0
-1602 1738 0
84 -1602 1603 0
-1603 1739 0
85 -1603 1604 0
-1604 1740 0
86 -1604 1605 0
-1605 1741 0
87 -1605 1606 0
-1606 1742 0
88 -1606 1607 0
-1607 1743 0
89 -1607 1608 0
-1608 1744 0
90 -1608 1609 0
-1609 1745 0
91 -1609 1610 0
-1610 1746 0
92 -1610 1611 0
-1611 1747 0
93 -1611 1612 0
-1612 1748 0
94 -1612 1613 0
-1613 1749 0
95 -1613 1614 0
-1614 1750 0
96 -1614 1615 0
-1615 1751 0
97 -1615 1616 0
-1616 1752 0
98 -1616 1617 0
-1617 1753 0
99 -1617 1618 0
-1618 1754 0
100 -1618 1619 0
-1619 1755 0
101 -1619 1620 0
-1620 1756 0
102 -1620 1621 0
-1621 1757 0
103 -1621 1622 0
-1622 1758 0
104 -1622 1623 0
-1623 1759 0
105 -1623 1624 0
-1624 1760 0
106 -1624 1625 0
-1625 1761 0
107 -1625 1626 0
-1626 1762 0
108 -1626 1627 0
-1627 1763 0
109 -1627 1628 0
-1628 1764 0
110 -1628 1629 0
-1629 1765 0
111 -1629 1630 0
-1630 1766 0
112 -1630 1631 0
-1631 1767 0
113 -1631 1632 0
-1632 1768 0
114 -1632 1633 0
-1633 1769 0
115 -1633 1634 0
-1634 1770 0
116 -1634 1635 0
-1635 1771 0
117 -1635 1636 0
-1636 1772 0
118 -1636 1637 0
-1637 1773 0
119 -1637 1638 0
-1638 1774 0
120 -1638 1639 0
-1639 1775 0
121 -1639 1640 0
-1640 1776 0
122 -1640 1641 0
-1641 1777 0
123 -1641 1642 0
-1642 1778 0
124 -1642 1643 0
-1643 1779 0
125 -1643 1644 0
-1644 1780 0
126 -1644 1645 0
-1645 1781 0
127 -1645 1646 0
-1646 1782 0
128 -1646 1647 0
-1647 1783 0
129 -1647 1648 0
-1648 1784 0
130 -1648 1649 0
-1649 1785 0
131 -1649 1650 0
-1650 1786 0
132 -1650 1651 0
-1651 1787 0
133 -1651 1652 0
-1652 1788 0
134 -1652 1653 0
-1653 1789 0
135 -1653 1654 0
-1654 1790 0
136 -1654 1655 0
-1655 1791 0
137 -1655 1656 0
-1656 1792 0
138 -1656 1657 0
-1657 1793 0
139 -1657 1658 0
-1658 1794 0
140 -1658 1659 0
-1659 1795 0
141 -1659 1660 0
-1660 1796 0
142 -1660 1661 0
-1661 1797 0
143 -1661 1662 0
-1662 1798 0
144 -1662 1663 0
-1663 1799 0
145 -1663 1664 0
-1664 1800 0
146 -1664 0
11 1665 0
-1665 1801 0
12 -1665 1666 0
-1666 1802 0
13 -1666 1667 0
-1667 1803 0
14 -1667 1668 0
-1668 1804 0
15 -1668 1669 0
-1669 1805 0
16 -1669 1670 0
-1670 1806 0
17 -1670 1671 0
-1671 1807 0
18 -1671 1672 0
-1672 1808 0
19 -1672 1673 0
-1673 1809 0
20 -1673 1674 0
-1674 1810 0
21 -1674 1675 0
-1675 1811 0
22 -1675 1676 0
-1676 1812 0
23 -1676 1677 0
-1677 1813 0
24 -1677 1678 0
-1678 1814 0
25 -1678 1679 0
-1679 1815 0
26 -1679 1680 0
-1680 1816 0
27 -1680 1681 0
-1681 1817 0
28 -1681 1682 0
-1682 1818 0
29 -1682 1683 0
-1683 1819 0
30 -1683 1684 0
-1684 1820 0
31 -1684 1685 0
-1685 1821 0
32 -1685 1686 0
-1686 1822 0
33 -1686 1687 0
-1687 1823 0
34 -1687 1688 0
-1688 1824 0
35 -1688 1689 0
-1689 1825 0
36 -1689 1690 0
-1690 1826 0
37 -1690 1691 0
-1691 1827 0
38 -1691 1692 0
-1692 1828 0
39 -1692 1693 0
-1693 1829 0
40 -1693 1694 0
-1694 1830 0
41 -1694 1695 0
-1695 1831 0
42 -1695 1696 0
-1696 1832 0
43 -1696 1697 0
-1697 1833 0
44 -1697 1698 0
-1698 1834 0
45 -1698 1699 0
-1699 1835 0
46 -1699 1700 0
-1700 1836 0
47 -1700 1701 0
-1701 1837 0
48 -1701 1702 0
-1702 1838 0
49 -1702 1703 0
-1703 1839 0
50 -1703 1704 0
-1704 1840 0
51 -1704 1705 0
-1705 1841 0
52 -1705 1706 0
-1706 1842 0
53 -1706 1707 0
-1707 1843 0
54 -1707 1708 0
-1708 1844 0
55 -1708 1709 0
-1709 1845 0
56 -1709 1710 0
-1710 1846 0
57 -1710 1711 0
-1711 1847 0
58 -1711 1712 0
-1712 1848 0
59 -1712 1713 0
-1713 1849 0
60 -1713 1714 0
-1714 1850 0
61 -1714 1715 0
-1715 1851 0
62 -1715 1716 0
-1716 1852 0
63 -1716 1717 0
-1717 1853 0
64 -1717 1718 0
-1718 1854 0
65 -1718 1719 0
-1719 1855 0
66 -1719 1720 0
-1720 1856 0
67 -1720 1721 0
-1721 1857 0
68 -1721 1722 0
-1722 1858 0
69 -1722 1723 0
-1723 1859 0
70 -1723 1724 0
-1724 1860 0
71 -1724 1725 0
-1725 1861 0
72 -1725 1726 0
-1726 1862 0
73 -1726 1727 0
-1727 1863 0
74 -1727 1728 0
-1728 1864 0
75 -1728 1729 0
-1729 1865 0
76 -1729 1730 0
-1730 1866 0
77 -1730 1731 0
-1731 1867 0
78 -1731 1732 0
-1732 1868 0
79 -1732 1733 0
-1733 1869 0
80 -1733 1734 0
-1734 1870 0
81 -1734 1735 0
-1735 1871 0
82 -1735 1736 0
-1736 1872 0
83 -1736 1737 0
-1737 1873 0
84 -1737 1738 0
-1738 1874 0
85 -1738 1739 0
-1739 1875 0
86 -1739 1740 0
-1740 1876 0
87 -1740 1741 0
-1741 1877 0
88 -1741 1742 0
-1742 1878 0
89 -1742 1743 0
-1743 1879 0
90 -1743 1744 0
-1744 1880 0
91 -1744 1745 0
-1745 1881 0
92 -1745 1746 0
-1746 1882 0
93 -1746 1747 0
-1747 1883 0
94 -1747 1748 0
-1748 1884 0
95 -1748 1749 0
-1749 1885 0
96 -1749 1750 0
-1750 1886 0
97 -1750 1751 0
-1751 1887 0
98 -1751 1752 0
-1752 1888 0
99 -1752 1753 0
-1753 1889 0
100 -1753 1754 0
-1754 1890 0
101 -1754 1755 0
-1755 1891 0
102 -1755 1756 0
-1756 1892 0
103 -1756 1757 0
-1757 1893 0
104 -1757 1758 0
-1758 1894 0
105 -1758 1759 0
-1759 1895 0
106 -1759 1760 0
-1760 1896 0
107 -1760 1761 0
-1761 1897 0
108 -1761 1762 0
-1762 1898 0
109 -1762 1763 0
-1763 1899 0
110 -1763 1764 0
-1764 1900 0
111 -1764 1765 0
-1765 1901 0
112 -1765 1766 0
-1766 1902 0
113 -1766 1767 0
-1767 1903 0
114 -1767 1768 0
-1768 1904 0
115 -1768 1769 0
-1769 1905 0
116 -1769 1770 0
-1770 1906 0
117 -1770 1771 0
-1771 1907 0
118 -1771 1772 0
-1772 1908 0
119 -1772 1773 0
-1773 1909 0
120 -1773 1774 0
-1774 1910 0
121 -1774 1775 0
-1775 1911 0
122 -1775 1776 0
-1776 1912 0
123 -1776 1777 0
-1777 1913 0
124 -1777 1778 0
-1778 1914 0
125 -1778 1779 0
-1779 1915 0
126 -1779 1780 0
-1780 1916 0
127 -1780 1781 0
-1781 1917 0
128 -1781 1782 0
-1782 1918 0
129 -1782 1783 0
-1783 1919 0
130 -1783 1784 0
-1784 1920 0
131 -1784 1785 0
-1785 1921 0
132 -1785 1786 0
-1786 1922 0
133 -1786 1787 0
-1787 1923 0
134 -1787 1788 0
-1788 1924 0
135 -1788 1789 0
-1789 1925 0
136 -1789 1790 0
-1790 1926 0
137 -1790 1791 0
-1791 1927 0
138 -1791 1792 0
-1792 1928 0
139 -1792 1793 0
-1793 1929 0
140 -1793 1794 0
-1794 1930 0
141 -1794 1795 0
-1795 1931 0
142 -1795 1796 0
-1796 1932 0
143 -1796 1797 0
-1797 1933 0
144 -1797 1798 0
-1798 1934 0
145 -1798 1799 0
-1799 1935 0
146 -1799 1800 0
-1800 1936 0
147 -1800 0
12 1801 0
-1801 1937 0
13 -1801 1802 0
-1802 1938 0
14 -1802 1803 0
-1803 1939 0
15 -1803 1804 0
-1804 1940 0
16 -1804 1805 0
-1805 1941 0
17 -1805 1806 0
-1806 1942 0
18 -1806 1807 0
-1807 1943 0
19 -1807 1808 0
-1808 1944 0
20 -1808 1809 0
-1809 1945 0
21 -1809 1810 0
-1810 1946 0
22 -1810 1811 0
-1811 1947 0
23 -1811 1812 0
-1812 1948 0
24 -1812 1813 0
-1813 1949 0
25 -1813 1814 0
-1814 1950 0
26 -1814 1815 0
-1815 1951 0
27 -1815 1816 0
-1816 1952 0
28 -1816 1817 0
-1817 1953 0
29 -1817 1818 0
-1818 1954 0
30 -1818 1819 0
-1819 1955 0
31 -1819 1820 0
-1820 1956 0
32 -1820 1821 0
-1821 1957 0
33 -1821 1822 0
-1822 1958 0
34 -1822 1823 0
-1823 1959 0
35 -1823 1824 0
-1824 1960 0
36 -1824 1825 0
-1825 1961 0
37 -1825 1826 0
-1826 1962 0
38 -1826 1827 0
-1827 1963 0
39 -1827 1828 0
-1828 1964 0
40 -1828 1829 0
-1829 1965 0
41 -1829 1830 0
-1830 1966 0
42 -1830 1831 0
-1831 1967 0
43 -1831 1832 0
-1832 1968 0
44 -1832 1833 0
-1833 1969 0
45 -1833 1834 0
-1834 1970 0
46 -1834 1835 0
-1835 1971 0
47 -1835 1836 0
-1836 1972 0
48 -1836 1837 0
-1837 1973 0
49 -1837 1838 0
-1838 1974 0
50 -1838 1839 0
-1839 1975 0
51 -1839 1840 0
-1840 1976 0
52 -1840 1841 0
-1841 1977 0
53 -1841 1842 0
-1842 1978 0
54 -1842 1843 0
-1843 1979 0
55 -1843 1844 0
-1844 1980 0
56 -1844 1845 0
-1845 1981 0
57 -1845 1846 0
-1846 1982 0
58 -1846 1847 0
-1847 1983 0
59 -1847 1848 0
-1848 1984 0
60 -1848 1849 0
-1849 1985 0
61 -1849 1850 0
-1850 1986 0
62 -1850 1851 0
-1851 1987 0
63 -1851 1852 0
-1852 1988 0
64 -1852 1853 0
-1853 1989 0
65 -1853 1854 0
-1854 1990 0
66 -1854 1855 0
-1855 1991 0
67 -1855 1856 0
-1856 1992 0
68 -1856 1857 0
-1857 1993 0
69 -1857 1858 0
-1858 1994 0
70 -1858 1859 0
-1859 1995 0
71 -1859 1860 0
-1860 1996 0
72 -1860 1861 0
-1861 1997 0
73 -1861 1862 0
-1862 1998 0
74 -1862 1863 0
-1863 1999 0
75 -1863 1864 0
-1864 2000 0
76 -1864 1865 0
-1865 2001 0
77 -1865 1866 0
-1866 2002 0
78 -1866 1867 0
-1867 2003 0
79 -1867 1868 0
-1868 2004 0
80 -1868 1869 0
-1869 2005 0
81 -1869 1870 0
-1870 2006 0
82 -1870 1871 0
-1871 2007 0
83 -1871 1872 0
-1872 2008 0
84 -1872 1873 0
-1873 2009 0
85 -1873 1874 0
-1874 2010 0
86 -1874 1875 0
-1875 2011 0
87 -1875 1876 0
-1876 2012 0
88 -1876 1877 0
-1877 2013 0
89 -1877 1878 0
-1878 2014 0
90 -1878 1879 0
-1879 2015 0
91 -1879 1880 0
-1880 2016 0
92 -1880 1881 0
-1881 2017 0
93 -1881 1882 0
-1882 2018 0
94 -1882 1883 0
-1883 2019 0
95 -1883 1884 0
-1884 2020 0
96 -1884 1885 0
-1885 2021 0
97 -1885 1886 0
-1886 2022 0
98 -1886 1887 0
-1887 2023 0
99 -1887 1888 0
-1888 2024 0
100 -1888 1889 0
-1889 2025 0
101 -1889 1890 0
-1890 2026 0
102 -1890 1891 0
-1891 2027 0
103 -1891 1892 0
-1892 2028 0
104 -1892 1893 0
-1893 2029 0
105 -1893 1894 0
-1894 2030 0
106 -1894 1895 0
-1895 2031 0
107 -1895 1896 0
-1896 2032 0
108 -1896 1897 0
-1897 2033 0
109 -1897 1898 0
-1898 2034 0
110 -1898 1899 0
-1899 2035 0
111 -1899 1900 0
-1900 2036 0
112 -1900 1901 0
-1901 2037 0
113 -1901 1902 0
-1902 2038 0
114 -1902 1903 0
-1903 2039 0
115 -1903 1904 0
-1904 2040 0
116 -1904 1905 0
-1905 2041 0
117 -1905 1906 0
-1906 2042 0
118 -1906 1907 0
-1907 2043 0
119 -1907 1908 0
-1908 2044 0
120 -1908 1909 0
-1909 2045 0
121 -1909 1910 0
-1910 2046 0
122 -1910 1911 0
-1911 2047 0
123 -1911 1912 0
-1912 2048 0
124 -1912 1913 0
-1913 2049 0
125 -1913 1914 0
-1914 2050 0
126 -1914 1915 0
-1915 2051 0
127 -1915 1916 0
-1916 2052 0
128 -1916 1917 0
-1917 2053 0
129 -1917 1918 0
-1918 2054 0
130 -1918 1919 0
-1919 2055 0
131 -1919 1920 0
-1920 2056 0
132 -1920 1921 0
-1921 2057 0
133 -1921 1922 0
-1922 2058 0
134 -1922 1923 0
-1923 2059 0
135 -1923 1924 0
-1924 2060 0
136 -1924 1925 0
-1925 2061 0
137 -1925 1926 0
-1926 2062 0
138 -1926 1927 0
-1927 2063 0
139 -1927 1928 0
-1928 2064 0
140 -1928 1929 0
-1929 2065 0
141 -1929 1930 0
-1930 2066 0
142 -1930 1931 0
-1931 2067 0
143 -1931 1932 0
-1932 2068 0
144 -1932 1933 0
-1933 2069 0
145 -1933 1934 0
-1934 2070 0
146 -1934 1935 0
-1935 2071 0
147 -1935 1936 0
-1936 2072 0
148 -1936 0
13 1937 0
-1937 2073 0
14 -1937 1938 0
-1938 2074 0
15 -1938 1939 0
-1939 2075 0
16 -1939 1940 0
-1940 2076 0
17 -1940 1941 0
-1941 2077 0
18 -1941 1942 0
-1942 2078 0
19 -1942 1943 0
-1943 2079 0
20 -1943 1944 0
-1944 2080 0
21 -1944 1945 0
-1945 2081 0
22 -1945 1946 0
-1946 2082 0
23 -1946 1947 0
-1947 2083 0
24 -1947 1948 0
-1948 2084 0
25 -1948 1949 0
-1949 2085 0
26 -1949 1950 0
-1950 2086 0
27 -1950 1951 0
-1951 2087 0
28 -1951 1952 0
-1952 2088 0
29 -1952 1953 0
-1953 2089 0
30 -1953 1954 0
-1954 2090 0
31 -1954 1955 0
-1955 2091 0
32 -1955 1956 0
-1956 2092 0
33 -1956 1957 0
-1957 2093 0
34 -1957 1958 0
-1958 2094 0
35 -1958 1959 0
-1959 2095 0
36 -1959 1960 0
-1960 2096 0
37 -1960 1961 0
-1961 2097 0
38 -1961 1962 0
-1962 2098 0
39 -1962 1963 0
-1963 2099 0
40 -1963 1964 0
-1964 2100 0
41 -1964 1965 0
-1965 2101 0
42 -1965 1966 0
-1966 2102 0
43 -1966 1967 0
-1967 2103 0
44 -1967 1968 0
-1968 2104 0
45 -1968 1969 0
-1969 2105 0
46 -1969 1970 0
-1970 2106 0
47 -1970 1971 0
-1971 2107 0
48 -1971 1972 0
-1972 2108 0
49 -1972 1973 0
-1973 2109 0
50 -1973 1974 0
-1974 2110 0
51 -1974 1975 0
-1975 2111 0
52 -1975 1976 0
-1976 2112 0
53 -1976 1977 0
-1977 2113 0
54 -1977 1978 0
-1978 2114 0
55 -1978 1979 0
-1979 2115 0
56 -1979 1980 0
-1980 2116 0
57 -1980 1981 0
-1981 2117 0
58 -1981 1982 0
-1982 2118 0
59 -1982 1983 0
-1983 2119 0
60 -1983 1984 0
-1984 2120 0
61 -1984 1985 0
-1985 2121 0
62 -1985 1986 0
-1986 2122 0
63 -1986 1987 0
-1987 2123 0
64 -1987 1988 0
-1988 2124 0
65 -1988 1989 0
-1989 2125 0
66 -1989 1990 0
-1990 2126 0
67 -1990 1991 0
-1991 2127 0
68 -1991 1992 0
-1992 2128 0
69 -1992 1993 0
-1993 2129 0
70 -1993 1994 0
-1994 2130 0
71 -1994 1995 0
-1995 2131 0
72 -1995 1996 0
-1996 2132 0
73 -1996 1997 0
-1997 2133 0
74 -1997 1998 0
-1998 2134 0
75 -1998 1999 0
-1999 2135 0
76 -1999 2000 0
-2000 2136 0
77 -2000 2001 0
-2001 2137 0
78 -2001 2002 0
-2002 2138 0
79 -2002 2003 0
-2003 2139 0
80 -2003 2004 0
-2004 2140 0
81 -2004 2005 0
-2005 2141 0
82 -2005 2006 0
-2006 2142 0
83 -2006 2007 0
-2007 2143 0
84 -2007 2008 0
-2008 2144 0
85 -2008 2009 0
-2009 2145 0
86 -2009 2010 0
-2010 2146 0
87 -2010 2011 0
-2011 2147 0
88 -2011 2012 0
-2012 2148 0
89 -2012 2013 0
-2013 2149 0
90 -2013 2014 0
-2014 2150 0
91 -2014 2015 0
-2015 2151 0
92 -2015 2016 0
-2016 2152 0
93 -2016 2017 0
-2017 2153 0
94 -2017 2018 0
-2018 2154 0
95 -2018 2019 0
-2019 2155 0
96 -2019 2020 0
-2020 2156 0
97 -2020 2021 0
-2021 2157 0
98 -2021 2022 0
-2022 2158 0
99 -2022 2023 0
-2023 2159 0
100 -2023 2024 0
-2024 2160 0
101 -2024 2025 0
-2025 2161 0
102 -2025 2026 0
-2026 2162 0
103 -2026 2027 0
-2027 2163 0
104 -2027 2028 0
-2028 2164 0
105 -2028 2029 0
-2029 2165 0
106 -2029 2030 0
-2030 2166 0
107 -2030 2031 0
-2031 2167 0
108 -2031 2032 0
-2032 2168 0
109 -2032 2033 0
-2033 2169 0
110 -2033 2034 0
-2034 2170 0
111 -2034 2035 0
-2035 2171 0
112 -2035 2036 0
-2036 2172 0
113 -2036 2037 0
-2037 2173 0
114 -2037 2038 0
-2038 2174 0
115 -2038 2039 0
-2039 2175 0
116 -2039 2040 0
-2040 2176 0
117 -2040 2041 0
-2041 2177 0
118 -2041 2042 0
-2042 2178 0
119 -2042 2043 0
-2043 2179 0
120 -2043 2044 0
-2044 2180 0
121 -2044 2045 0
-2045 2181 0
122 -2045 2046 0
-2046 2182 0
123 -2046 2047 0
-2047 2183 0
124 -2047 2048 0
-2048 2184 0
125 -2048 2049 0
-2049 2185 0
126 -2049 2050 0
-2050 2186 0
127 -2050 2051 0
-2051 2187 0
128 -2051 2052 0
-2052 2188 0
129 -2052 2053 0
-2053 2189 0
130 -2053 2054 0
-2054 2190 0
131 -2054 2055 0
-2055 2191 0
132 -2055 2056 0
-2056 2192 0
133 -2056 2057 0
-2057 2193 0
134 -2057 2058 0
-2058 2194 0
135 -2058 2059 0
-2059 2195 0
136 -2059 2060 0
-2060 2196 0
137 -2060 2061 0
-2061 2197 0
138 -2061 2062 0
-2062 2198 0
139 -2062 2063 0
-2063 2199 0
140 -2063 2064 0
-2064 2200 0
141 -2064 2065 0
-2065 2201 0
142 -2065 2066 0
-2066 2202 0
143 -2066 2067 0
-2067 2203 0
144 -2067 2068 0
-2068 2204 0
145 -2068 2069 0
-2069 2205 0
146 -2069 2070 0
-2070 2206 0
147 -2070 2071 0
-2071 2207 0
148 -2071 2072 0
-2072 2208 0
149 -2072 0
14 2073 0
-2073 2209 0
15 -2073 2074 0
-2074 2210 0
16 -2074 2075 0
-2075 2211 0
17 -2075 2076 0
-2076 2212 0
18 -2076 2077 0
-2077 2213 0
19 -2077 2078 0
-2078 2214 0
20 -2078 2079 0
-2079 2215 0
21 -2079 2080 0
-2080 2216 0
22 -2080 2081 0
-2081 2217 0
23 -2081 2082 0
-2082 2218 0
24 -2082 2083 0
-2083 2219 0
25 -2083 2084 0
-2084 2220 0
26 -2084 2085 0
-2085 2221 0
27 -2085 2086 0
-2086 2222 0
28 -2086 2087 0
-2087 2223 0
29 -2087 2088 0
-2088 2224 0
30 -2088 2089 0
-2089 2225 0
31 -2089 2090 0
-2090 2226 0
32 -2090 2091 0
-2091 2227 0
33 -2091 2092 0
-2092 2228 0
34 -2092 2093 0
-2093 2229 0
35 -2093 2094 0
-2094 2230 0
36 -2094 2095 0
-2095 2231 0
37 -2095 2096 0
-2096 2232 0
38 -2096 2097 0
-2097 2233 0
39 -2097 2098 0
-2098 2234 0
40 -2098 2099 0
-2099 2235 0
41 -2099 2100 0
-2100 2236 0
42 -2100 2101 0
-2101 2237 0
43 -2101 2102 0
-2102 2238 0
44 -2102 2103 0
-2103 2239 0
45 -2103 2104 0
-2104 2240 0
46 -2104 2105 0
-2105 2241 0
47 -2105 2106 0
-2106 2242 0
48 -2106 2107 0
-2107 2243 0
49 -2107 2108 0
-2108 2244 0
50 -2108 2109 0
-2109 2245 0
51 -2109 2110 0
-2110 2246 0
52 -2110 2111 0
-2111 2247 0
53 -2111 2112 0
-2112 2248 0
54 -2112 2113 0
-2113 2249 0
55 -2113 2114 0
-2114 2250 0
56 -2114 2115 0
-2115 2251 0
57 -2115 2116 0
-2116 2252 0
58 -2116 2117 0
-2117 2253 0
59 -2117 2118 0
-2118 2254 0
60 -2118 2119 0
-2119 2255 0
61 -2119 2120 0
-2120 2256 0
62 -2120 2121 0
-2121 2257 0
63 -2121 2122 0
-2122 2258 0
64 -2122 2123 0
-2123 2259 0
65 -2123 2124 0
-2124 2260 0
66 -2124 2125 0
-2125 2261 0
67 -2125 2126 0
-2126 2262 0
68 -2126 2127 0
-2127 2263 0
69 -2127 2128 0
-2128 2264 0
70 -2128 2129 0
-2129 2265 0
71 -2129 2130 0
-2130 2266 0
72 -2130 2131 0
-2131 2267 0
73 -2131 2132 0
-2132 2268 0
74 -2132 2133 0
-2133 2269 0
75 -2133 2134 0
-2134 2270 0
76 -2134 2135 0
-2135 2271 0
77 -2135 2136 0
-2136 2272 0
78 -2136 2137 0
-2137 2273 0
79 -2137 2138 0
-2138 2274 0
80 -2138 2139 0
-2139 2275 0
81 -2139 2140 0
-2140 2276 0
82 -2140 2141 0
-2141 2277 0
83 -2141 2142 0
-2142 2278 0
84 -2142 2143 0
-2143 2279 0
85 -2143 2144 0
-2144 2280 0
86 -2144 2145 0
-2145 2281 0
87 -2145 2146 0
-2146 2282 0
88 -2146 2147 0
-2147 2283 0
89 -2147 2148 0
-2148 2284 0
90 -2148 2149 0
-2149 2285 0
91 -2149 2150 0
-2150 2286 0
92 -2150 2151 0
-2151 2287 0
93 -2151 2152 0
-2152 2288 0
94 -2152 2153 0
-2153 2289 0
95 -2153 2154 0
-2154 2290 0
96 -2154 2155 0
-2155 2291 0
97 -2155 2156 0
-2156 2292 0
98 -2156 2157 0
-2157 2293 0
99 -2157 2158 0
-2158 2294 0
100 -2158 2159 0
-2159 2295 0
101 -2159 2160 0
-2160 2296 0
102 -2160 2161 0
-2161 2297 0
103 -2161 2162 0
-2162 2298 0
104 -2162 2163 0
-2163 2299 0
105 -2163 2164 0
-2164 2300 0
106 -2164 2165 0
-2165 2301 0
107 -2165 2166 0
-2166 2302 0
108 -2166 2167 0
-2167 2303 0
109 -2167 2168 0
-2168 2304 0
110 -2168 2169 0
-2169 2305 0
111 -2169 2170 0
-2170 2306 0
112 -2170 2171 0
-2171 2307 0
113 -2171 2172 0
-2172 2308 0
114 -2172 2173 0
-2173 2309 0
115 -2173 2174 0
-2174 2310 0
116 -2174 2175 0
-2175 2311 0
117 -2175 2176 0
-2176 2312 0
118 -2176 2177 0
-2177 2313 0
119 -2177 2178 0
-2178 2314 0
120 -2178 2179 0
-2179 2315 0
121 -2179 2180 0
-2180 2316 0
122 -2180 2181 0
-2181 2317 0
123 -2181 2182 0
-2182 2318 0
124 -2182 2183 0
-2183 2319 0
125 -2183 2184 0
-2184 2320 0
126 -2184 2185 0
-2185 2321 0
127 -2185 2186 0
-2186 2322 0
128 -2186 2187 0
-2187 2323 0
129 -2187 2188 0
-2188 2324 0
130 -2188 2189 0
-2189 2325 0
131 -2189 2190 0
-2190 2326 0
132 -2190 2191 0
-2191 2327 0
133 -2191 2192 0
-2192 2328 0
134 -2192 2193 0
-2193 2329 0
135 -2193 2194 0
-2194 2330 0
136 -2194 2195 0
-2195 2331 0
137 -2195 2196 0
-2196 2332 0
138 -2196 2197 0
-2197 2333 0
139 -2197 2198 0
-2198 2334 0
140 -2198 2199 0
-2199 2335 0
141 -2199 2200 0
-2200 2336 0
142 -2200 2201 0
-2201 2337 0
143 -2201 2202 0
-2202 2338 0
144 -2202 2203 0
-2203 2339 0
145 -2203 2204 0
-2204 2340 0
146 -2204 2205 0
-2205 2341 0
147 -2205 2206 0
-2206 2342 0
148 -2206 2207 0
-2207 2343 0
149 -2207 2208 0
-2208 2344 0
150 -2208 0
15 2209 0
-2209 2345 0
16 -2209 2210 0
-2210 2346 0
17 -2210 2211 0
-2211 2347 0
18 -2211 2212 0
-2212 2348 0
19 -2212 2213 0
-2213 2349 0
20 -2213 2214 0
-2214 2350 0
21 -2214 2215 0
-2215 2351 0
22 -2215 2216 0
-2216 2352 0
23 -2216 2217 0
-2217 2353 0
24 -2217 2218 0
-2218 2354 0
25 -2218 2219 0
-2219 2355 0
26 -2219 2220 0
-2220 2356 0
27 -2220 2221 0
-2221 2357 0
28 -2221 2222 0
-2222 2358 0
29 -2222 2223 0
-2223 2359 0
30 -2223 2224 0
-2224 2360 0
31 -2224 2225 0
-2225 2361 0
32 -2225 2226 0
-2226 2362 0
33 -2226 2227 0
-2227 2363 0
34 -2227 2228 0
-2228 2364 0
35 -2228 2229 0
-2229 2365 0
36 -2229 2230 0
-2230 2366 0
37 -2230 2231 0
-2231 2367 0
38 -2231 2232 0
-2232 2368 0
39 -2232 2233 0
-2233 2369 0
40 -2233 2234 0
-2234 2370 0
41 -2234 2235 0
-2235 2371 0
42 -2235 2236 0
-2236 2372 0
43 -2236 2237 0
-2237 2373 0
44 -2237 2238 0
-2238 2374 0
45 -2238 2239 0
-2239 2375 0
46 -2239 2240 0
-2240 2376 0
47 -2240 2241 0
-2241 2377 0
48 -2241 2242 0
-2242 2378 0
49 -2242 2243 0
-2243 2379 0
50 -2243 2244 0
-2244 2380 0
51 -2244 2245 0
-2245 2381 0
52 -2245 2246 0
-2246 2382 0
53 -2246 2247 0
-2247 2383 0
54 -2247 2248 0
-2248 2384 0
55 -2248 2249 0
-2249 2385 0
56 -2249 2250 0
-2250 2386 0
57 -2250 2251 0
-2251 2387 0
58 -2251 2252 0
-2252 2388 0
59 -2252 2253 0
-2253 2389 0
60 -2253 2254 0
-2254 2390 0
61 -2254 2255 0
-2255 2391 0
62 -2255 2256 0
-2256 2392 0
63 -2256 2257 0
-2257 2393 0
64 -2257 2258 0
-2258 2394 0
65 -2258 2259 0
-2259 2395 0
66 -2259 2260 0
-2260 2396 0
67 -2260 2261 0
-2261 2397 0
68 -2261 2262 0
-2262 2398 0
69 -2262 2263 0
-2263 2399 0
70 -2263 2264 0
-2264 2400 0
71 -2264 2265 0
-2265 2401 0
72 -2265 2266 0
-2266 2402 0
73 -2266 2267 0
-2267 2403 0
74 -2267 2268 0
-2268 2404 0
75 -2268 2269 0
-2269 2405 0
76 -2269 2270 0
-2270 2406 0
77 -2270 2271 0
-2271 2407 0
78 -2271 2272 0
-2272 2408 0
79 -2272 2273 0
-2273 2409 0
80 -2273 2274 0
-2274 2410 0
81 -2274 2275 0
-2275 2411 0
82 -2275 2276 0
-2276 2412 0
83 -2276 2277 0
-2277 2413 0
84 -2277 2278 0
-2278 2414 0
85 -2278 2279 0
-2279 2415 0
86 -2279 2280 0
-2280 2416 0
87 -2280 2281 0
-2281 2417 0
88 -2281 2282 0
-2282 2418 0
89 -2282 2283 0
-2283 2419 0
90 -2283 2284 0
-2284 2420 0
91 -2284 2285 0
-2285 2421 0
92 -2285 2286 0
-2286 2422 0
93 -2286 2287 0
-2287 2423 0
94 -2287 2288 0
-2288 2424 0
95 -2288 2289 0
-2289 2425 0
96 -2289 2290 0
-2290 2426 0
97 -2290 2291 0
-2291 2427 0
98 -2291 2292 0
-2292 2428 0
99 -2292 2293 0
-2293 2429 0
100 -2293 2294 0
-2294 2430 0
101 -2294 2295 0
-2295 2431 0
102 -2295 2296 0
-2296 2432 0
103 -2296 2297 0
-2297 2433 0
104 -2297 2298 0
-2298 2434 0
105 -2298 2299 0
-2299 2435 0
106 -2299 2300 0
-2300 2436 0
107 -2300 2301 0
-2301 2437 0
108 -2301 2302 0
-2302 2438 0
109 -2302 2303 0
-2303 2439 0
110 -2303 2304 0
-2304 2440 0
111 -2304 2305 0
-2305 2441 0
112 -2305 2306 0
-2306 2442 0
113 -2306 2307 0
-2307 2443 0
114 -2307 2308 0
-2308 2444 0
115 -2308 2309 0
-2309 2445 0
116 -2309 2310 0
-2310 2446 0
117 -2310 2311 0
-2311 2447 0
118 -2311 2312 0
-2312 2448 0
119 -2312 2313 0
-2313 2449 0
120 -2313 2314 0
-2314 2450 0
121 -2314 2315 0
-2315 2451 0
122 -2315 2316 0
-2316 2452 0
123 -2316 2317 0
-2317 2453 0
124 -2317 2318 0
-2318 2454 0
125 -2318 2319 0
-2319 2455 0
126 -2319 2320 0
-2320 2456 0
127 -2320 2321 0
-2321 2457 0
128 -2321 2322 0
-2322 2458 0
129 -2322 2323 0
-2323 2459 0
130 -2323 2324 0
-2324 2460 0
131 -2324 2325 0
-2325 2461 0
132 -2325 2326 0
-2326 2462 0
133 -2326 2327 0
-2327 2463 0
134 -2327 2328 0
-2328 2464 0
135 -2328 2329 0
-2329 2465 0
136 -2329 2330 0
-2330 2466 0
137 -2330 2331 0
-2331 2467 0
138 -2331 2332 0
-2332 2468 0
139 -2332 2333 0
-2333 2469 0
140 -2333 2334 0
-2334 2470 0
141 -2334 2335 0
-2335 2471 0
142 -2335 2336 0
-2336 2472 0
143 -2336 2337 0
-2337 2473 0
144 -2337 2338 0
-2338 2474 0
145 -2338 2339 0
-2339 2475 0
146 -2339 2340 0
-2340 2476 0
147 -2340 2341 0
-2341 2477 0
148 -2341 2342 0
-2342 2478 0
149 -2342 2343 0
-2343 2479 0
150 -2343 2344 0
-2344 2480 0
151 -2344 0
16 2345 0
17 -2345 2346 0
18 -2346 2347 0
19 -2347 2348 0
20 -2348 2349 0
21 -2349 2350 0
22 -2350 2351 0
23 -2351 2352 0
24 -2352 2353 0
25 -2353 2354 0
26 -2354 2355 0
27 -2355 2356 0
28 -2356 2357 0
29 -2357 2358 0
30 -2358 2359 0
31 -2359 2360 0
32 -2360 2361 0
33 -2361 2362 0
34 -2362 2363 0
35 -2363 2364 0
36 -2364 2365 0
37 -2365 2366 0
38 -2366 2367 0
39 -2367 2368 0
40 -2368 2369 0
41 -2369 2370 0
42 -2370 2371 0
43 -2371 2372 0
44 -2372 2373 0
45 -2373 2374 0
46 -2374 2375 0
47 -2375 2376 0
48 -2376 2377 0
49 -2377 2378 0
50 -2378 2379 0
51 -2379 2380 0
52 -2380 2381 0
53 -2381 2382 0
54 -2382 2383 0
55 -2383 2384 0
56 -2384 2385 0
57 -2385 2386 0
58 -2386 2387 0
59 -2387 2388 0
60 -2388 2389 0
61 -2389 2390 0
62 -2390 2391 0
63 -2391 2392 0
64 -2392 2393 0
65 -2393 2394 0
66 -2394 2395 0
67 -2395 2396 0
68 -2396 2397 0
69 -2397 2398 0
70 -2398 2399 0
71 -2399 2400 0
72 -2400 2401 0
73 -2401 2402 0
74 -2402 2403 0
75 -2403 2404 0
76 -2404 2405 0
77 -2405 2406 0
78 -2406 2407 0
79 -2407 2408 0
80 -2408 2409 0
81 -2409 2410 0
82 -2410 2411 0
83 -2411 2412 0
84 -2412 2413 0
85 -2413 2414 0
86 -2414 2415 0
87 -2415 2416 0
88 -2416 2417 0
89 -2417 2418 0
90 -2418 2419 0
91 -2419 2420 0
92 -2420 2421 0
93 -2421 2422 0
94 -2422 2423 0
95 -2423 2424 0
96 -2424 2425 0
97 -2425 2426 0
98 -2426 2427 0
99 -2427 2428 0
100 -2428 2429 0
101 -2429 2430 0
102 -2430 2431 0
103 -2431 2432 0
104 -2432 2433 0
105 -2433 2434 0
106 -2434 2435 0
107 -2435 2436 0
108 -2436 2437 0
109 -2437 2438 0
110 -2438 2439 0
111 -2439 2440 0
112 -2440 2441 0
113 -2441 2442 0
114 -2442 2443 0
115 -2443 2444 0
116 -2444 2445 0
117 -2445 2446 0
118 -2446 2447 0
119 -2447 2448 0
120 -2448 2449 0
121 -2449 2450 0
122 -2450 2451 0
123 -2451 2452 0
124 -2452 2453 0
125 -2453 2454 0
126 -2454 2455 0
127 -2455 2456 0
128 -2456 2457 0
129 -2457 2458 0
130 -2458 2459 0
131 -2459 2460 0
132 -2460 2461 0
133 -2461 2462 0
134 -2462 2463 0
135 -2463 2464 0
136 -2464 2465 0
137 -2465 2466 0
138 -2466 2467 0
139 -2467 2468 0
140 -2468 2469 0
141 -2469 2470 0
142 -2470 2471 0
143 -2471 2472 0
144 -2472 2473 0
145 -2473 2474 0
146 -2474 2475 0
147 -2475 2476 0
148 -2476 2477 0
149 -2477 2478 0
150 -2478 2479 0
151 -2479 2480 0
152 -2480 0
-1 2481 0
-2481 2482 0
-2 -2481 2483 0
-2483 2484 0
-3 -2483 2485 0
-2485 2486 0
-4 -2485 2487 0
-2487 2488 0
-5 -2487 2489 0
-2489 2490 0
-6 -2489 2491 0
-2491 2492 0
-7 -2491 2493 0
-2493 2494 0
-8 -2493 2495 0
-2495 2496 0
-9 -2495 2497 0
-2497 2498 0
-10 -2497 2499 0
-2499 2500 0
-11 -2499 2501 0
-2501 2502 0
-12 -2501 2503 0
-2503 2504 0
-13 -2503 2505 0
-2505 2506 0
-14 -2505 2507 0
-2507 2508 0
-15 -2507 2509 0
-2509 2510 0
-16 -2509 2511 0
-2511 2512 0
-17 -2511 0
-2 2482 0
-2482 2513 0
-3 -2482 2484 0
-2484 2514 0
-4 -2484 2486 0
-2486 2515 0
-5 -2486 2488 0
-2488 2516 0
-6 -2488 2490 0
-2490 2517 0
-7 -2490 2492 0
-2492 2518 0
-8 -2492 2494 0
-2494 2519 0
-9 -2494 2496 0
-2496 2520 0
-10 -2496 2498 0
-2498 2521 0
-11 -2498 2500 0
-2500 2522 0
-12 -2500 2502 0
-2502 2523 0
-13 -2502 2504 0
-2504 2524 0
-14 -2504 2506 0
-2506 2525 0
-15 -2506 2508 0
-2508 2526 0
-16 -2508 2510 0
-2510 2527 0
-17 -2510 2512 0
-2512 2528 0
-18 -2512 0
-3 2513 0
-2513 2529 0
-4 -2513 2514 0
-2514 2530 0
-5 -2514 2515 0
-2515 2531 0
-6 -2515 2516 0
-2516 2532 0
-7 -2516 2517 0
-2517 2533 0
-8 -2517 2518 0
-2518 2534 0
-9 -2518 2519 0
-2519 2535 0
-10 -2519 2520 0
-2520 2536 0
-11 -2520 2521 0
-2521 2537 0
-12 -2521 2522 0
-2522 2538 0
-13 -2522 2523 0
-2523 2539 0
-14 -2523 2524 0
-2524 2540 0
-15 -2524 2525 0
-2525 2541 0
-16 -2525 2526 0
-2526 2542 0
-17 -2526 2527 0
-2527 2543 0
-18 -2527 2528 0
-2528 2544 0
-19 -2528 0
-4 2529 0
-2529 2545 0
-5 -2529 2530 0
-2530 2546 0
-6 -2530 2531 0
-2531 2547 0
-7 -2531 2532 0
-2532 2548 0
-8 -2532 2533 0
-2533 2549 0
-9 -2533 2534 0
-2534 2550 0
-10 -2534 2535 0
-2535 2551 0
-11 -2535 2536 0
-2536 2552 0
-12 -2536 2537 0
-2537 2553 0
-13 -2537 2538 0
-2538 2554 0
-14 -2538 2539 0
-2539 2555 0
-15 -2539 2540 0
-2540 2556 0
-16 -2540 2541 0
-2541 2557 0
-17 -2541 2542 0
-2542 2558 0
-18 -2542 2543 0
-2543 2559 0
-19 -2543 2544 0
-2544 2560 0
-20 -2544 0
-5 2545 0
-2545 2561 0
-6 -2545 2546 0
-2546 2562 0
-7 -2546 2547 0
-2547 2563 0
-8 -2547 2548 0
-2548 2564 0
-9 -2548 2549 0
-2549 2565 0
-10 -2549 2550 0
-2550 2566 0
-11 -2550 2551 0
-2551 2567 0
-12 -2551 2552 0
-2552 2568 0
-13 -2552 2553 0
-2553 2569 0
-14 -2553 2554 0
-2554 2570 0
-15 -2554 2555 0
-2555 2571 0
-16 -2555 2556 0
-2556 2572 0
-17 -2556 2557 0
-2557 2573 0
-18 -2557 2558 0
-2558 2574 0
-19 -2558 2559 0
-2559 2575 0
-20 -2559 2560 0
-2560 2576 0
-21 -2560 0
-6 2561 0
-2561 2577 0
-7 -2561 2562 0
-2562 2578 0
-8 -2562 2563 0
-2563 2579 0
-9 -2563 2564 0
-2564 2580 0
-10 -2564 2565 0
-2565 2581 0
-11 -2565 2566 0
-2566 2582 0
-12 -2566 2567 0
-2567 2583 0
-13 -2567 2568 0
-2568 2584 0
-14 -2568 2569 0
-2569 2585 0
-15 -2569 2570 0
-2570 2586 0
-16 -2570 2571 0
-2571 2587 0
-17 -2571 2572 0
-2572 2588 0
-18 -2572 2573 0
-2573 2589 0
-19 -2573 2574 0
-2574 2590 0
-20 -2574 2575 0
-2575 2591 0
-21 -2575 2576 0
-2576 2592 0
-22 -2576 0
-7 2577 0
-2577 2593 0
-8 -2577 2578 0
-2578 2594 0
-9 -2578 2579 0
-2579 2595 0
-10 -2579 2580 0
-2580 2596 0
-11 -2580 2581 0
-2581 2597 0
-12 -2581 2582 0
-2582 2598 0
-13 -2582 2583 0
-2583 2599 0
-14 -2583 2584 0
-2584 2600 0
-15 -2584 2585 0
-2585 2601 0
-16 -2585 2586 0
-2586 2602 0
-17 -2586 2587 0
-2587 2603 0
-18 -2587 2588 0
-2588 2604 0
-19 -2588 2589 0
-2589 2605 0
-20 -2589 2590 0
-2590 2606 0
-21 -2590 2591 0
-2591 2607 0
-22 -2591 2592 0
-2592 2608 0
-23 -2592 0
-8 2593 0
-2593 2609 0
-9 -2593 2594 0
-2594 2610 0
-10 -2594 2595 0
-2595 2611 0
-11 -2595 2596 0
-2596 2612 0
-12 -2596 2597 0
-2597 2613 0
-13 -2597 2598 0
-2598 2614 0
-14 -2598 2599 0
-2599 2615 0
-15 -2599 2600 0
-2600 2616 0
-16 -2600 2601 0
-2601 2617 0
-17 -2601 2602 0
-2602 2618 0
-18 -2602 2603 0
-2603 2619 0
-19 -2603 2604 0
-2604 2620 0
-20 -2604 2605 0
-2605 2621 0
-21 -2605 2606 0
-2606 2622 0
-22 -2606 2607 0
-2607 2623 0
-23 -2607 2608 0
-2608 2624 0
-24 -2608 0
-9 2609 0
-2609 2625 0
-10 -2609 2610 0
-2610 2626 0
-11 -2610 2611 0
-2611 2627 0
-12 -2611 2612 0
-2612 2628 0
-13 -2612 2613 0
-2613 2629 0
-14 -2613 2614 0
-2614 2630 0
-15 -2614 2615 0
-2615 2631 0
-16 -2615 2616 0
-2616 2632 0
-17 -2616 2617 0
-2617 2633 0
-18 -2617 2618 0
-2618 2634 0
-19 -2618 2619 0
-2619 2635 0
-20 -2619 2620 0
-2620 2636 0
-21 -2620 2621 0
-2621 2637 0
-22 -2621 2622 0
-2622 2638 0
-23 -2622 2623 0
-2623 2639 0
-24 -2623 2624 0
-2624 2640 0
-25 -2624 0
-10 2625 0
-2625 2641 0
-11 -2625 2626 0
-2626 2642 0
-12 -2626 2627 0
-2627 2643 0
-13 -2627 2628 0
-2628 2644 0
-14 -2628 2629 0
-2629 2645 0
-15 -2629 2630 0
-2630 2646 0
-16 -2630 2631 0
-2631 2647 0
-17 -2631 2632 0
-2632 2648 0
-18 -2632 2633 0
-2633 2649 0
-19 -2633 2634 0
-2634 2650 0
-20 -2634 2635 0
-2635 2651 0
-21 -2635 2636 0
-2636 2652 0
-22 -2636 2637 0
-2637 2653 0
-23 -2637 2638 0
-2638 2654 0
-24 -2638 2639 0
-2639 2655 0
-25 -2639 2640 0
-2640 2656 0
-26 -2640 0
-11 2641 0
-2641 2657 0
-12 -2641 2642 0
-2642 2658 0
-13 -2642 2643 0
-2643 2659 0
-14 -2643 2644 0
-2644 2660 0
-15 -2644 2645 0
-2645 2661 0
-16 -2645 2646 0
-2646 2662 0
-17 -2646 2647 0
-2647 2663 0
-18 -2647 2648 0
-2648 2664 0
-19 -2648 2649 0
-2649 2665 0
-20 -2649 2650 0
-2650 2666 0
-21 -2650 2651 0
-2651 2667 0
-22 -2651 2652 0
-2652 2668 0
-23 -2652 2653 0
-2653 2669 0
-24 -2653 2654 0
-2654 2670 0
-25 -2654 2655 0
-2655 2671 0
-26 -2655 2656 0
-2656 2672 0
-27 -2656 0
-12 2657 0
-2657 2673 0
-13 -2657 2658 0
-2658 2674 0
-14 -2658 2659 0
-2659 2675 0
-15 -2659 2660 0
-2660 2676 0
-16 -2660 2661 0
-2661 2677 0
-17 -2661 2662 0
-2662 2678 0
-18 -2662 2663 0
-2663 2679 0
-19 -2663 2664 0
-2664 2680 0
-20 -2664 2665 0
-2665 2681 0
-21 -2665 2666 0
-2666 2682 0
-22 -2666 2667 0
-2667 2683 0
-23 -2667 2668 0
-2668 2684 0
-24 -2668 2669 0
-2669 2685 0
-25 -2669 2670 0
-2670 2686 0
-26 -2670 2671 0
-2671 2687 0
-27 -2671 2672 0
-2672 2688 0
-28 -2672 0
-13 2673 0
-2673 2689 0
-14 -2673 2674 0
-2674 2690 0
-15 -2674 2675 0
-2675 2691 0
-16 -2675 2676 0
-2676 2692 0
-17 -2676 2677 0
-2677 2693 0
-18 -2677 2678 0
-2678 2694 0
-19 -2678 2679 0
-2679 2695 0
-20 -2679 2680 0
-2680 2696 0
-21 -2680 2681 0
-2681 2697 0
-22 -2681 2682 0
-2682 2698 0
-23 -2682 2683 0
-2683 2699 0
-24 -2683 2684 0
-2684 2700 0
-25 -2684 2685 0
-2685 2701 0
-26 -2685 2686 0
-2686 2702 0
-27 -2686 2687 0
-2687 2703 0
-28 -2687 2688 0
-2688 2704 0
-29 -2688 0
-14 2689 0
-2689 2705 0
-15 -2689 2690 0
-2690 2706 0
-16 -2690 2691 0
-2691 2707 0
-17 -2691 2692 0
-2692 2708 0
-18 -2692 2693 0
-2693 2709 0
-19 -2693 2694 0
-2694 2710 0
-20 -2694 2695 0
-2695 2711 0
-21 -2695 2696 0
-2696 2712 0
-22 -2696 2697 0
-2697 2713 0
-23 -2697 2698 0
-2698 2714 0
-24 -2698 2699 0
-2699 2715 0
-25 -2699 2700 0
-2700 2716 0
-26 -2700 2701 0
-2701 2717 0
-27 -2701 2702 0
-2702 2718 0
-28 -2702 2703 0
-2703 2719 0
-29 -2703 2704 0
-2704 2720 0
-30 -2704 0
-15 2705 0
-2705 2721 0
-16 -2705 2706 0
-2706 2722 0
-17 -2706 2707 0
-2707 2723 0
-18 -2707 2708 0
-2708 2724 0
-19 -2708 2709 0
-2709 2725 0
-20 -2709 2710 0
-2710 2726 0
-21 -2710 2711 0
-2711 2727 0
-22 -2711 2712 0
-2712 2728 0
-23 -2712 2713 0
-2713 2729 0
-24 -2713 2714 0
-2714 2730 0
-25 -2714 2715 0
-2715 2731 0
-26 -2715 2716 0
-2716 2732 0
-27 -2716 2717 0
-2717 2733 0
-28 -2717 2718 0
-2718 2734 0
-29 -2718 2719 0
-2719 2735 0
-30 -2719 2720 0
-2720 2736 0
-31 -2720 0
-16 2721 0
-2721 2737 0
-17 -2721 2722 0
-2722 2738 0
-18 -2722 2723 0
-2723 2739 0
-19 -2723 2724 0
-2724 2740 0
-20 -2724 2725 0
-2725 2741 0
-21 -2725 2726 0
-2726 2742 0
-22 -2726 2727 0
-2727 2743 0
-23 -2727 2728 0
-2728 2744 0
-24 -2728 2729 0
-2729 2745 0
-25 -2729 2730 0
-2730 2746 0
-26 -2730 2731 0
-2731 2747 0
-27 -2731 2732 0
-2732 2748 0
-28 -2732 2733 0
-2733 2749 0
-29 -2733 2734 0
-2734 2750 0
-30 -2734 2735 0
-2735 2751 0
-31 -2735 2736 0
-2736 2752 0
-32 -2736 0
-17 2737 0
-2737 2753 0
-18 -2737 2738 0
-2738 2754 0
-19 -2738 2739 0
-2739 2755 0
-20 -2739 2740 0
-2740 2756 0
-21 -2740 2741 0
-2741 2757 0
-22 -2741 2742 0
-2742 2758 0
-23 -2742 2743 0
-2743 2759 0
-24 -2743 2744 0
-2744 2760 0
-25 -2744 2745 0
-2745 2761 0
-26 -2745 2746 0
-2746 2762 0
-27 -2746 2747 0
-2747 2763 0
-28 -2747 2748 0
-2748 2764 0
-29 -2748 2749 0
-2749 2765 0
-30 -2749 2750 0
-2750 2766 0
-31 -2750 2751 0
-2751 2767 0
-32 -2751 2752 0
-2752 2768 0
-33 -2752 0
-18 2753 0
-2753 2769 0
-19 -2753 2754 0
-2754 2770 0
-20 -2754 2755 0
-2755 2771 0
-21 -2755 2756 0
-2756 2772 0
-22 -2756 2757 0
-2757 2773 0
-23 -2757 2758 0
-2758 2774 0
-24 -2758 2759 0
-2759 2775 0
-25 -2759 2760 0
-2760 2776 0
-26 -2760 2761 0
-2761 2777 0
-27 -2761 2762 0
-2762 2778 0
-28 -2762 2763 0
-2763 2779 0
-29 -2763 2764 0
-2764 2780 0
-30 -2764 2765 0
-2765 2781 0
-31 -2765 2766 0
-2766 2782 0
-32 -2766 2767 0
-2767 2783 0
-33 -2767 2768 0
-2768 2784 0
-34 -2768 0
-19 2769 0
-2769 2785 0
-20 -2769 2770 0
-2770 2786 0
-21 -2770 2771 0
-2771 2787 0
-22 -2771 2772 0
-2772 2788 0
-23 -2772 2773 0
-2773 2789 0
-24 -2773 2774 0
-2774 2790 0
-25 -2774 2775 0
-2775 2791 0
-26 -2775 2776 0
-2776 2792 0
-27 -2776 2777 0
-2777 2793 0
-28 -2777 2778 0
-2778 2794 0
-29 -2778 2779 0
-2779 2795 0
-30 -2779 2780 0
-2780 2796 0
-31 -2780 2781 0
-2781 2797 0
-32 -2781 2782 0
-2782 2798 0
-33 -2782 2783 0
-2783 2799 0
-34 -2783 2784 0
-2784 2800 0
-35 -2784 0
-20 2785 0
-2785 2801 0
-21 -2785 2786 0
-2786 2802 0
-22 -2786 2787 0
-2787 2803 0
-23 -2787 2788 0
-2788 2804 0
-24 -2788 2789 0
-2789 2805 0
-25 -2789 2790 0
-2790 2806 0
-26 -2790 2791 0
-2791 2807 0
-27 -2791 2792 0
-2792 2808 0
-28 -2792 2793 0
-2793 2809 0
-29 -2793 2794 0
-2794 2810 0
-30 -2794 2795 0
-2795 2811 0
-31 -2795 2796 0
-2796 2812 0
-32 -2796 2797 0
-2797 2813 0
-33 -2797 2798 0
-2798 2814 0
-34 -2798 2799 0
-2799 2815 0
-35 -2799 2800 0
-2800 2816 0
-36 -2800 0
-21 2801 0
-2801 2817 0
-22 -2801 2802 0
-2802 2818 0
-23 -2802 2803 0
-2803 2819 0
-24 -2803 2804 0
-2804 2820 0
-25 -2804 2805 0
-2805 2821 0
-26 -2805 2806 0
-2806 2822 0
-27 -2806 2807 0
-2807 2823 0
-28 -2807 2808 0
-2808 2824 0
-29 -2808 2809 0
-2809 2825 0
-30 -2809 2810 0
-2810 2826 0
-31 -2810 2811 0
-2811 2827 0
-32 -2811 2812 0
-2812 2828 0
-33 -2812 2813 0
-2813 2829 0
-34 -2813 2814 0
-2814 2830 0
-35 -2814 2815 0
-2815 2831 0
-36 -2815 2816 0
-2816 2832 0
-37 -2816 0
-22 2817 0
-2817 2833 0
-23 -2817 2818 0
-2818 2834 0
-24 -2818 2819 0
-2819 2835 0
-25 -2819 2820 0
-2820 2836 0
-26 -2820 2821 0
-2821 2837 0
-27 -2821 2822 0
-2822 2838 0
-28 -2822 2823 0
-2823 2839 0
-29 -2823 2824 0
-2824 2840 0
-30 -2824 2825 0
-2825 2841 0
-31 -2825 2826 0
-2826 2842 0
-32 -2826 2827 0
-2827 2843 0
-33 -2827 2828 0
-2828 2844 0
-34 -2828 2829 0
-2829 2845 0
-35 -2829 2830 0
-2830 2846 0
-36 -2830 2831 0
-2831 2847 0
-37 -2831 2832 0
-2832 2848 0
-38 -2832 0
-23 2833 0
-2833 2849 0
-24 -2833 2834 0
-2834 2850 0
-25 -2834 2835 0
-2835 2851 0
-26 -2835 2836 0
-2836 2852 0
-27 -2836 2837 0
-2837 2853 0
-28 -2837 2838 0
-2838 2854 0
-29 -2838 2839 0
-2839 2855 0
-30 -2839 2840 0
-2840 2856 0
-31 -2840 2841 0
-2841 2857 0
-32 -2841 2842 0
-2842 2858 0
-33 -2842 2843 0
-2843 2859 0
-34 -2843 2844 0
-2844 2860 0
-35 -2844 2845 0
-2845 2861 0
-36 -2845 2846 0
-2846 2862 0
-37 -2846 2847 0
-2847 2863 0
-38 -2847 2848 0
-2848 2864 0
-39 -2848 0
-24 2849 0
-2849 2865 0
-25 -2849 2850 0
-2850 2866 0
-26 -2850 2851 0
-2851 2867 0
-27 -2851 2852 0
-2852 2868 0
-28 -2852 2853 0
-2853 2869 0
-29 -2853 2854 0
-2854 2870 0
-30 -2854 2855 0
-2855 2871 0
-31 -2855 2856 0
-2856 2872 0
-32 -2856 2857 0
-2857 2873 0
-33 -2857 2858 0
-2858 2874 0
-34 -2858 2859 0
-2859 2875 0
-35 -2859 2860 0
-2860 2876 0
-36 -2860 2861 0
-2861 2877 0
-37 -2861 2862 0
-2862 2878 0
-38 -2862 2863 0
-2863 2879 0
-39 -2863 2864 0
-2864 2880 0
-40 -2864 0
-25 2865 0
-2865 2881 0
-26 -2865 2866 0
-2866 2882 0
-27 -2866 2867 0
-2867 2883 0
-28 -2867 2868 0
-2868 2884 0
-29 -2868 2869 0
-2869 2885 0
-30 -2869 2870 0
-2870 2886 0
-31 -2870 2871 0
-2871 2887 0
-32 -2871 2872 0
-2872 2888 0
-33 -2872 2873 0
-2873 2889 0
-34 -2873 2874 0
-2874 2890 0
-35 -2874 2875 0
-2875 2891 0
-36 -2875 2876 0
-2876 2892 0
-37 -2876 2877 0
-2877 2893 0
-38 -2877 2878 0
-2878 2894 0
-39 -2878 2879 0
-2879 2895 0
-40 -2879 2880 0
-2880 2896 0
-41 -2880 0
-26 2881 0
-2881 2897 0
-27 -2881 2882 0
-2882 2898 0
-28 -2882 2883 0
-2883 2899 0
-29 -2883 2884 0
-2884 2900 0
-30 -2884 2885 0
-2885 2901 0
-31 -2885 2886 0
-2886 2902 0
-32 -2886 2887 0
-2887 2903 0
-33 -2887 2888 0
-2888 2904 0
-34 -2888 2889 0
-2889 2905 0
-35 -2889 2890 0
-2890 2906 0
-36 -2890 2891 0
-2891 2907 0
-37 -2891 2892 0
-2892 2908 0
-38 -2892 2893 0
-2893 2909 0
-39 -2893 2894 0
-2894 2910 0
-40 -2894 2895 0
-2895 2911 0
-41 -2895 2896 0
-2896 2912 0
-42 -2896 0
-27 2897 0
-2897 2913 0
-28 -2897 2898 0
-2898 2914 0
-29 -2898 2899 0
-2899 2915 0
-30 -2899 2900 0
-2900 2916 0
-31 -2900 2901 0
-2901 2917 0
-32 -2901 2902 0
-2902 2918 0
-33 -2902 2903 0
-2903 2919 0
-34 -2903 2904 0
-2904 2920 0
-35 -2904 2905 0
-2905 2921 0
-36 -2905 2906 0
-2906 2922 0
-37 -2906 2907 0
-2907 2923 0
-38 -2907 2908 0
-2908 2924 0
-39 -2908 2909 0
-2909 2925 0
-40 -2909 2910 0
-2910 2926 0
-41 -2910 2911 0
-2911 2927 0
-42 -2911 2912 0
-2912 2928 0
-43 -2912 0
-28 2913 0
-2913 2929 0
-29 -2913 2914 0
-2914 2930 0
-30 -2914 2915 0
-2915 2931 0
-31 -2915 2916 0
-2916 2932 0
-32 -2916 2917 0
-2917 2933 0
-33 -2917 2918 0
-2918 2934 0
-34 -2918 2919 0
-2919 2935 0
-35 -2919 2920 0
-2920 2936 0
-36 -2920 2921 0
-2921 2937 0
-37 -2921 2922 0
-2922 2938 0
-38 -2922 2923 0
-2923 2939 0
-39 -2923 2924 0
-2924 2940 0
-40 -2924 2925 0
-2925 2941 0
-41 -2925 2926 0
-2926 2942 0
-42 -2926 2927 0
-2927 2943 0
-43 -2927 2928 0
-2928 2944 0
-44 -2928 0
-29 2929 0
-2929 2945 0
-30 -2929 2930 0
-2930 2946 0
-31 -2930 2931 0
-2931 2947 0
-32 -2931 2932 0
-2932 2948 0
-33 -2932 2933 0
-2933 2949 0
-34 -2933 2934 0
-2934 2950 0
-35 -2934 2935 0
-2935 2951 0
-36 -2935 2936 0
-2936 2952 0
-37 -2936 2937 0
-2937 2953 0
-38 -2937 2938 0
-2938 2954 0
-39 -2938 2939 0
-2939 2955 0
-40 -2939 2940 0
-2940 2956 0
-41 -2940 2941 0
-2941 2957 0
-42 -2941 2942 0
-2942 2958 0
-43 -2942 2943 0
-2943 2959 0
-44 -2943 2944 0
-2944 2960 0
-45 -2944 0
-30 2945 0
-2945 2961 0
-31 -2945 2946 0
-2946 2962 0
-32 -2946 2947 0
-2947 2963 0
-33 -2947 2948 0
-2948 2964 0
-34 -2948 2949 0
-2949 2965 0
-35 -2949 2950 0
-2950 2966 0
-36 -2950 2951 0
-2951 2967 0
-37 -2951 2952 0
-2952 2968 0
-38 -2952 2953 0
-2953 2969 0
-39 -2953 2954 0
-2954 2970 0
-40 -2954 2955 0
-2955 2971 0
-41 -2955 2956 0
-2956 2972 0
-42 -2956 2957 0
-2957 2973 0
-43 -2957 2958 0
-2958 2974 0
-44 -2958 2959 0
-2959 2975 0
-45 -2959 2960 0
-2960 2976 0
-46 -2960 0
-31 2961 0
-2961 2977 0
-32 -2961 2962 0
-2962 2978 0
-33 -2962 2963 0
-2963 2979 0
-34 -2963 2964 0
-2964 2980 0
-35 -2964 2965 0
-2965 2981 0
-36 -2965 2966 0
-2966 2982 0
-37 -2966 2967 0
-2967 2983 0
-38 -2967 2968 0
-2968 2984 0
-39 -2968 2969 0
-2969 2985 0
-40 -2969 2970 0
-2970 2986 0
-41 -2970 2971 0
-2971 2987 0
-42 -2971 2972 0
-2972 2988 0
-43 -2972 2973 0
-2973 2989 0
-44 -2973 2974 0
-2974 2990 0
-45 -2974 2975 0
-2975 2991 0
-46 -2975 2976 0
-2976 2992 0
-47 -2976 0
-32 2977 0
-2977 2993 0
-33 -2977 2978 0
-2978 2994 0
-34 -2978 2979 0
-2979 2995 0
-35 -2979 2980 0
-2980 2996 0
-36 -2980 2981 0
-2981 2997 0
-37 -2981 2982 0
-2982 2998 0
-38 -2982 2983 0
-2983 2999 0
-39 -2983 2984 0
-2984 3000 0
-40 -2984 2985 0
-2985 3001 0
-41 -2985 2986 0
-2986 3002 0
-42 -2986 2987 0
-2987 3003 0
-43 -2987 2988 0
-2988 3004 0
-44 -2988 2989 0
-2989 3005 0
-45 -2989 2990 0
-2990 3006 0
-46 -2990 2991 0
-2991 3007 0
-47 -2991 2992 0
-2992 3008 0
-48 -2992 0
-33 2993 0
-2993 3009 0
-34 -2993 2994 0
-2994 3010 0
-35 -2994 2995 0
-2995 3011 0
-36 -2995 2996 0
-2996 3012 0
-37 -2996 2997 0
-2997 3013 0
-38 -2997 2998 0
-2998 3014 0
-39 -2998 2999 0
-2999 3015 0
-40 -2999 3000 0
-3000 3016 0
-41 -3000 3001 0
-3001 3017 0
-42 -3001 3002 0
-3002 3018 0
-43 -3002 3003 0
-3003 3019 0
-44 -3003 3004 0
-3004 3020 0
-45 -3004 3005 0
-3005 3021 0
-46 -3005 3006 0
-3006 3022 0
-47 -3006 3007 0
-3007 3023 0
-48 -3007 3008 0
-3008 3024 0
-49 -3008 0
-34 3009 0
-3009 3025 0
-35 -3009 3010 0
-3010 3026 0
-36 -3010 3011 0
-3011 3027 0
-37 -3011 3012 0
-3012 3028 0
-38 -3012 3013 0
-3013 3029 0
-39 -3013 3014 0
-3014 3030 0
-40 -3014 3015 0
-3015 3031 0
-41 -3015 3016 0
-3016 3032 0
-42 -3016 3017 0
-3017 3033 0
-43 -3017 3018 0
-3018 3034 0
-44 -3018 3019 0
-3019 3035 0
-45 -3019 3020 0
-3020 3036 0
-46 -3020 3021 0
-3021 3037 0
-47 -3021 3022 0
-3022 3038 0
-48 -3022 3023 0
-3023 3039 0
-49 -3023 3024 0
-3024 3040 0
-50 -3024 0
-35 3025 0
-3025 3041 0
-36 -3025 3026 0
-3026 3042 0
-37 -3026 3027 0
-3027 3043 0
-38 -3027 3028 0
-3028 3044 0
-39 -3028 3029 0
-3029 3045 0
-40 -3029 3030 0
-3030 3046 0
-41 -3030 3031 0
-3031 3047 0
-42 -3031 3032 0
-3032 3048 0
-43 -3032 3033 0
-3033 3049 0
-44 -3033 3034 0
-3034 3050 0
-45 -3034 3035 0
-3035 3051 0
-46 -3035 3036 0
-3036 3052 0
-47 -3036 3037 0
-3037 3053 0
-48 -3037 3038 0
-3038 3054 0
-49 -3038 3039 0
-3039 3055 0
-50 -3039 3040 0
-3040 3056 0
-51 -3040 0
-36 3041 0
-3041 3057 0
-37 -3041 3042 0
-3042 3058 0
-38 -3042 3043 0
-3043 3059 0
-39 -3043 3044 0
-3044 3060 0
-40 -3044 3045 0
-3045 3061 0
-41 -3045 3046 0
-3046 3062 0
-42 -3046 3047 0
-3047 3063 0
-43 -3047 3048 0
-3048 3064 0
-44 -3048 3049 0
-3049 3065 0
-45 -3049 3050 0
-3050 3066 0
-46 -3050 3051 0
-3051 3067 0
-47 -3051 3052 0
-3052 3068 0
-48 -3052 3053 0
-3053 3069 0
-49 -3053 3054 0
-3054 3070 0
-50 -3054 3055 0
-3055 3071 0
-51 -3055 3056 0
-3056 3072 0
-52 -3056 0
-37 3057 0
-3057 3073 0
-38 -3057 3058 0
-3058 3074 0
-39 -3058 3059 0
-3059 3075 0
-40 -3059 3060 0
-3060 3076 0
-41 -3060 3061 0
-3061 3077 0
-42 -3061 3062 0
-3062 3078 0
-43 -3062 3063 0
-3063 3079 0
-44 -3063 3064 0
-3064 3080 0
-45 -3064 3065 0
-3065 3081 0
-46 -3065 3066 0
-3066 3082 0
-47 -3066 3067 0
-3067 3083 0
-48 -3067 3068 0
-3068 3084 0
-49 -3068 3069 0
-3069 3085 0
-50 -3069 3070 0
-3070 3086 0
-51 -3070 3071 0
-3071 3087 0
-52 -3071 3072 0
-3072 3088 0
-53 -3072 0
-38 3073 0
-3073 3089 0
-39 -3073 3074 0
-3074 3090 0
-40 -3074 3075 0
-3075 3091 0
-41 -3075 3076 0
-3076 3092 0
-42 -3076 3077 0
-3077 3093 0
-43 -3077 3078 0
-3078 3094 0
-44 -3078 3079 0
-3079 3095 0
-45 -3079 3080 0
-3080 3096 0
-46 -3080 3081 0
-3081 3097 0
-47 -3081 3082 0
-3082 3098 0
-48 -3082 3083 0
-3083 3099 0
-49 -3083 3084 0
-3084 3100 0
-50 -3084 3085 0
-3085 3101 0
-51 -3085 3086 0
-3086 3102 0
-52 -3086 3087 0
-3087 3103 0
-53 -3087 3088 0
-3088 3104 0
-54 -3088 0
-39 3089 0
-3089 3105 0
-40 -3089 3090 0
-3090 3106 0
-41 -3090 3091 0
-3091 3107 0
-42 -3091 3092 0
-3092 3108 0
-43 -3092 3093 0
-3093 3109 0
-44 -3093 3094 0
-3094 3110 0
-45 -3094 3095 0
-3095 3111 0
-46 -3095 3096 0
-3096 3112 0
-47 -3096 3097 0
-3097 3113 0
-48 -3097 3098 0
-3098 3114 0
-49 -3098 3099 0
-3099 3115 0
-50 -3099 3100 0
-3100 3116 0
-51 -3100 3101 0
-3101 3117 0
-52 -3101 3102 0
-3102 3118 0
-53 -3102 3103 0
-3103 3119 0
-54 -3103 3104 0
-3104 3120 0
-55 -3104 0
-40 3105 0
-3105 3121 0
-41 -3105 3106 0
-3106 3122 0
-42 -3106 3107 0
-3107 3123 0
-43 -3107 3108 0
-3108 3124 0
-44 -3108 3109 0
-3109 3125 0
-45 -3109 3110 0
-3110 3126 0
-46 -3110 3111 0
-3111 3127 0
-47 -3111 3112 0
-3112 3128 0
-48 -3112 3113 0
-3113 3129 0
-49 -3113 3114 0
-3114 3130 0
-50 -3114 3115 0
-3115 3131 0
-51 -3115 3116 0
-3116 3132 0
-52 -3116 3117 0
-3117 3133 0
-53 -3117 3118 0
-3118 3134 0
-54 -3118 3119 0
-3119 3135 0
-55 -3119 3120 0
-3120 3136 0
-56 -3120 0
-41 3121 0
-3121 3137 0
-42 -3121 3122 0
-3122 3138 0
-43 -3122 3123 0
-3123 3139 0
-44 -3123 3124 0
-3124 3140 0
-45 -3124 3125 0
-3125 3141 0
-46 -3125 3126 0
-3126 3142 0
-47 -3126 3127 0
-3127 3143 0
-48 -3127 3128 0
-3128 3144 0
-49 -3128 3129 0
-3129 3145 0
-50 -3129 3130 0
-3130 3146 0
-51 -3130 3131 0
-3131 3147 0
-52 -3131 3132 0
-3132 3148 0
-53 -3132 3133 0
-3133 3149 0
-54 -3133 3134 0
-3134 3150 0
-55 -3134 3135 0
-3135 3151 0
-56 -3135 3136 0
-3136 3152 0
-57 -3136 0
-42 3137 0
-3137 3153 0
-43 -3137 3138 0
-3138 3154 0
-44 -3138 3139 0
-3139 3155 0
-45 -3139 3140 0
-3140 3156 0
-46 -3140 3141 0
-3141 3157 0
-47 -3141 3142 0
-3142 3158 0
-48 -3142 3143 0
-3143 3159 0
-49 -3143 3144 0
-3144 3160 0
-50 -3144 3145 0
-3145 3161 0
-51 -3145 3146 0
-3146 3162 0
-52 -3146 3147 0
-3147 3163 0
-53 -3147 3148 0
-3148 3164 0
-54 -3148 3149 0
-3149 3165 0
-55 -3149 3150 0
-3150 3166 0
-56 -3150 3151 0
-3151 3167 0
-57 -3151 3152 0
-3152 3168 0
-58 -3152 0
-43 3153 0
-3153 3169 0
-44 -3153 3154 0
-3154 3170 0
-45 -3154 3155 0
-3155 3171 0
-46 -3155 3156 0
-3156 3172 0
-47 -3156 3157 0
-3157 3173 0
-48 -3157 3158 0
-3158 3174 0
-49 -3158 3159 0
-3159 3175 0
-50 -3159 3160 0
-3160 3176 0
-51 -3160 3161 0
-3161 3177 0
-52 -3161 3162 0
-3162 3178 0
-53 -3162 3163 0
-3163 3179 0
-54 -3163 3164 0
-3164 3180 0
-55 -3164 3165 0
-3165 3181 0
-56 -3165 3166 0
-3166 3182 0
-57 -3166 3167 0
-3167 3183 0
-58 -3167 3168 0
-3168 3184 0
-59 -3168 0
-44 3169 0
-3169 3185 0
-45 -3169 3170 0
-3170 3186 0
-46 -3170 3171 0
-3171 3187 0
-47 -3171 3172 0
-3172 3188 0
-48 -3172 3173 0
-3173 3189 0
-49 -3173 3174 0
-3174 3190 0
-50 -3174 3175 0
-3175 3191 0
-51 -3175 3176 0
-3176 3192 0
-52 -3176 3177 0
-3177 3193 0
-53 -3177 3178 0
-3178 3194 0
-54 -3178 3179 0
-3179 3195 0
-55 -3179 3180 0
-3180 3196 0
-56 -3180 3181 0
-3181 3197 0
-57 -3181 3182 0
-3182 3198 0
-58 -3182 3183 0
-3183 3199 0
-59 -3183 3184 0
-3184 3200 0
-60 -3184 0
-45 3185 0
-3185 3201 0
-46 -3185 3186 0
-3186 3202 0
-47 -3186 3187 0
-3187 3203 0
-48 -3187 3188 0
-3188 3204 0
-49 -3188 3189 0
-3189 3205 0
-50 -3189 3190 0
-3190 3206 0
-51 -3190 3191 0
-3191 3207 0
-52 -3191 3192 0
-3192 3208 0
-53 -3192 3193 0
-3193 3209 0
-54 -3193 3194 0
-3194 3210 0
-55 -3194 3195 0
-3195 3211 0
-56 -3195 3196 0
-3196 3212 0
-57 -3196 3197 0
-3197 3213 0
-58 -3197 3198 0
-3198 3214 0
-59 -3198 3199 0
-3199 3215 0
-60 -3199 3200 0
-3200 3216 0
-61 -3200 0
-46 3201 0
-3201 3217 0
-47 -3201 3202 0
-3202 3218 0
-48 -3202 3203 0
-3203 3219 0
-49 -3203 3204 0
-3204 3220 0
-50 -3204 3205 0
-3205 3221 0
-51 -3205 3206 0
-3206 3222 0
-52 -3206 3207 0
-3207 3223 0
-53 -3207 3208 0
-3208 3224 0
-54 -3208 3209 0
-3209 3225 0
-55 -3209 3210 0
-3210 3226 0
-56 -3210 3211 0
-3211 3227 0
-57 -3211 3212 0
-3212 3228 0
-58 -3212 3213 0
-3213 3229 0
-59 -3213 3214 0
-3214 3230 0
-60 -3214 3215 0
-3215 3231 0
-61 -3215 3216 0
-3216 3232 0
-62 -3216 0
-47 3217 0
-3217 3233 0
-48 -3217 3218 0
-3218 3234 0
-49 -3218 3219 0
-3219 3235 0
-50 -3219 3220 0
-3220 3236 0
-51 -3220 3221 0
-3221 3237 0
-52 -3221 3222 0
-3222 3238 0
-53 -3222 3223 0
-3223 3239 0
-54 -3223 3224 0
-3224 3240 0
-55 -3224 3225 0
-3225 3241 0
-56 -3225 3226 0
-3226 3242 0
-57 -3226 3227 0
-3227 3243 0
-58 -3227 3228 0
-3228 3244 0
-59 -3228 3229 0
-3229 3245 0
-60 -3229 3230 0
-3230 3246 0
-61 -3230 3231 0
-3231 3247 0
-62 -3231 3232 0
-3232 3248 0
-63 -3232 0
-48 3233 0
-3233 3249 0
-49 -3233 3234 0
-3234 3250 0
-50 -3234 3235 0
-3235 3251 0
-51 -3235 3236 0
-3236 3252 0
-52 -3236 3237 0
-3237 3253 0
-53 -3237 3238 0
-3238 3254 0
-54 -3238 3239 0
-3239 3255 0
-55 -3239 3240 0
-3240 3256 0
-56 -3240 3241 0
-3241 3257 0
-57 -3241 3242 0
-3242 3258 0
-58 -3242 3243 0
-3243 3259 0
-59 -3243 3244 0
-3244 3260 0
-60 -3244 3245 0
-3245 3261 0
-61 -3245 3246 0
-3246 3262 0
-62 -3246 3247 0
-3247 3263 0
-63 -3247 3248 0
-3248 3264 0
-64 -3248 0
-49 3249 0
-3249 3265 0
-50 -3249 3250 0
-3250 3266 0
-51 -3250 3251 0
-3251 3267 0
-52 -3251 3252 0
-3252 3268 0
-53 -3252 3253 0
-3253 3269 0
-54 -3253 3254 0
-3254 3270 0
-55 -3254 3255 0
-3255 3271 0
-56 -3255 3256 0
-3256 3272 0
-57 -3256 3257 0
-3257 3273 0
-58 -3257 3258 0
-3258 3274 0
-59 -3258 3259 0
-3259 3275 0
-60 -3259 3260 0
-3260 3276 0
-61 -3260 3261 0
-3261 3277 0
-62 -3261 3262 0
-3262 3278 0
-63 -3262 3263 0
-3263 3279 0
-64 -3263 3264 0
-3264 3280 0
-65 -3264 0
-50 3265 0
-3265 3281 0
-51 -3265 3266 0
-3266 3282 0
-52 -3266 3267 0
-3267 3283 0
-53 -3267 3268 0
-3268 3284 0
-54 -3268 3269 0
-3269 3285 0
-55 -3269 3270 0
-3270 3286 0
-56 -3270 3271 0
-3271 3287 0
-57 -3271 3272 0
-3272 3288 0
-58 -3272 3273 0
-3273 3289 0
-59 -3273 3274 0
-3274 3290 0
-60 -3274 3275 0
-3275 3291 0
-61 -3275 3276 0
-3276 3292 0
-62 -3276 3277 0
-3277 3293 0
-63 -3277 3278 0
-3278 3294 0
-64 -3278 3279 0
-3279 3295 0
-65 -3279 3280 0
-3280 3296 0
-66 -3280 0
-51 3281 0
-3281 3297 0
-52 -3281 3282 0
-3282 3298 0
-53 -3282 3283 0
-3283 3299 0
-54 -3283 3284 0
-3284 3300 0
-55 -3284 3285 0
-3285 3301 0
-56 -3285 3286 0
-3286 3302 0
-57 -3286 3287 0
-3287 3303 0
-58 -3287 3288 0
-3288 3304 0
-59 -3288 3289 0
-3289 3305 0
-60 -3289 3290 0
-3290 3306 0
-61 -3290 3291 0
-3291 3307 0
-62 -3291 3292 0
-3292 3308 0
-63 -3292 3293 0
-3293 3309 0
-64 -3293 3294 0
-3294 3310 0
-65 -3294 3295 0
-3295 3311 0
-66 -3295 3296 0
-3296 3312 0
-67 -3296 0
-52 3297 0
-3297 3313 0
-53 -3297 3298 0
-3298 3314 0
-54 -3298 3299 0
-3299 3315 0
-55 -3299 3300 0
-3300 3316 0
-56 -3300 3301 0
-3301 3317 0
-57 -3301 3302 0
-3302 3318 0
-58 -3302 3303 0
-3303 3319 0
-59 -3303 3304 0
-3304 3320 0
-60 -3304 3305 0
-3305 3321 0
-61 -3305 3306 0
-3306 3322 0
-62 -3306 3307 0
-3307 3323 0
-63 -3307 3308 0
-3308 3324 0
-64 -3308 3309 0
-3309 3325 0
-65 -3309 3310 0
-3310 3326 0
-66 -3310 3311 0
-3311 3327 0
-67 -3311 3312 0
-3312 3328 0
-68 -3312 0
-53 3313 0
-3313 3329 0
-54 -3313 3314 0
-3314 3330 0
-55 -3314 3315 0
-3315 3331 0
-56 -3315 3316 0
-3316 3332 0
-57 -3316 3317 0
-3317 3333 0
-58 -3317 3318 0
-3318 3334 0
-59 -3318 3319 0
-3319 3335 0
-60 -3319 3320 0
-3320 3336 0
-61 -3320 3321 0
-3321 3337 0
-62 -3321 3322 0
-3322 3338 0
-63 -3322 3323 0
-3323 3339 0
-64 -3323 3324 0
-3324 3340 0
-65 -3324 3325 0
-3325 3341 0
-66 -3325 3326 0
-3326 3342 0
-67 -3326 3327 0
-3327 3343 0
-68 -3327 3328 0
-3328 3344 0
-69 -3328 0
-54 3329 0
-3329 3345 0
-55 -3329 3330 0
-3330 3346 0
-56 -3330 3331 0
-3331 3347 0
-57 -3331 3332 0
-3332 3348 0
-58 -3332 3333 0
-3333 3349 0
-59 -3333 3334 0
-3334 3350 0
-60 -3334 3335 0
-3335 3351 0
-61 -3335 3336 0
-3336 3352 0
-62 -3336 3337 0
-3337 3353 0
-63 -3337 3338 0
-3338 3354 0
-64 -3338 3339 0
-3339 3355 0
-65 -3339 3340 0
-3340 3356 0
-66 -3340 3341 0
-3341 3357 0
-67 -3341 3342 0
-3342 3358 0
-68 -3342 3343 0
-3343 3359 0
-69 -3343 3344 0
-3344 3360 0
-70 -3344 0
-55 3345 0
-3345 3361 0
-56 -3345 3346 0
-3346 3362 0
-57 -3346 3347 0
-3347 3363 0
-58 -3347 3348 0
-3348 3364 0
-59 -3348 3349 0
-3349 3365 0
-60 -3349 3350 0
-3350 3366 0
-61 -3350 3351 0
-3351 3367 0
-62 -3351 3352 0
-3352 3368 0
-63 -3352 3353 0
-3353 3369 0
-64 -3353 3354 0
-3354 3370 0
-65 -3354 3355 0
-3355 3371 0
-66 -3355 3356 0
-3356 3372 0
-67 -3356 3357 0
-3357 3373 0
-68 -3357 3358 0
-3358 3374 0
-69 -3358 3359 0
-3359 3375 0
-70 -3359 3360 0
-3360 3376 0
-71 -3360 0
-56 3361 0
-3361 3377 0
-57 -3361 3362 0
-3362 3378 0
-58 -3362 3363 0
-3363 3379 0
-59 -3363 3364 0
-3364 3380 0
-60 -3364 3365 0
-3365 3381 0
-61 -3365 3366 0
-3366 3382 0
-62 -3366 3367 0
-3367 3383 0
-63 -3367 3368 0
-3368 3384 0
-64 -3368 3369 0
-3369 3385 0
-65 -3369 3370 0
-3370 3386 0
-66 -3370 3371 0
-3371 3387 0
-67 -3371 3372 0
-3372 3388 0
-68 -3372 3373 0
-3373 3389 0
-69 -3373 3374 0
-3374 3390 0
-70 -3374 3375 0
-3375 3391 0
-71 -3375 3376 0
-3376 3392 0
-72 -3376 0
-57 3377 0
-3377 3393 0
-58 -3377 3378 0
-3378 3394 0
-59 -3378 3379 0
-3379 3395 0
-60 -3379 3380 0
-3380 3396 0
-61 -3380 3381 0
-3381 3397 0
-62 -3381 3382 0
-3382 3398 0
-63 -3382 3383 0
-3383 3399 0
-64 -3383 3384 0
-3384 3400 0
-65 -3384 3385 0
-3385 3401 0
-66 -3385 3386 0
-3386 3402 0
-67 -3386 3387 0
-3387 3403 0
-68 -3387 3388 0
-3388 3404 0
-69 -3388 3389 0
-3389 3405 0
-70 -3389 3390 0
-3390 3406 0
-71 -3390 3391 0
-3391 3407 0
-72 -3391 3392 0
-3392 3408 0
-73 -3392 0
-58 3393 0
-3393 3409 0
-59 -3393 3394 0
-3394 3410 0
-60 -3394 3395 0
-3395 3411 0
-61 -3395 3396 0
-3396 3412 0
-62 -3396 3397 0
-3397 3413 0
-63 -3397 3398 0
-3398 3414 0
-64 -3398 3399 0
-3399 3415 0
-65 -3399 3400 0
-3400 3416 0
-66 -3400 3401 0
-3401 3417 0
-67 -3401 3402 0
-3402 3418 0
-68 -3402 3403 0
-3403 3419 0
-69 -3403 3404 0
-3404 3420 0
-70 -3404 3405 0
-3405 3421 0
-71 -3405 3406 0
-3406 3422 0
-72 -3406 3407 0
-3407 3423 0
-73 -3407 3408 0
-3408 3424 0
-74 -3408 0
-59 3409 0
-3409 3425 0
-60 -3409 3410 0
-3410 3426 0
-61 -3410 3411 0
-3411 3427 0
-62 -3411 3412 0
-3412 3428 0
-63 -3412 3413 0
-3413 3429 0
-64 -3413 3414 0
-3414 3430 0
-65 -3414 3415 0
-3415 3431 0
-66 -3415 3416 0
-3416 3432 0
-67 -3416 3417 0
-3417 3433 0
-68 -3417 3418 0
-3418 3434 0
-69 -3418 3419 0
-3419 3435 0
-70 -3419 3420 0
-3420 3436 0
-71 -3420 3421 0
-3421 3437 0
-72 -3421 3422 0
-3422 3438 0
-73 -3422 3423 0
-3423 3439 0
-74 -3423 3424 0
-3424 3440 0
-75 -3424 0
-60 3425 0
-3425 3441 0
-61 -3425 3426 0
-3426 3442 0
-62 -3426 3427 0
-3427 3443 0
-63 -3427 3428 0
-3428 3444 0
-64 -3428 3429 0
-3429 3445 0
-65 -3429 3430 0
-3430 3446 0
-66 -3430 3431 0
-3431 3447 0
-67 -3431 3432 0
-3432 3448 0
-68 -3432 3433 0
-3433 3449 0
-69 -3433 3434 0
-3434 3450 0
-70 -3434 3435 0
-3435 3451 0
-71 -3435 3436 0
-3436 3452 0
-72 -3436 3437 0
-3437 3453 0
-73 -3437 3438 0
-3438 3454 0
-74 -3438 3439 0
-3439 3455 0
-75 -3439 3440 0
-3440 3456 0
-76 -3440 0
-61 3441 0
-3441 3457 0
-62 -3441 3442 0
-3442 3458 0
-63 -3442 3443 0
-3443 3459 0
-64 -3443 3444 0
-3444 3460 0
-65 -3444 3445 0
-3445 3461 0
-66 -3445 3446 0
-3446 3462 0
-67 -3446 3447 0
-3447 3463 0
-68 -3447 3448 0
-3448 3464 0
-69 -3448 3449 0
-3449 3465 0
-70 -3449 3450 0
-3450 3466 0
-71 -3450 3451 0
-3451 3467 0
-72 -3451 3452 0
-3452 3468 0
-73 -3452 3453 0
-3453 3469 0
-74 -3453 3454 0
-3454 3470 0
-75 -3454 3455 0
-3455 3471 0
-76 -3455 3456 0
-3456 3472 0
-77 -3456 0
-62 3457 0
-3457 3473 0
-63 -3457 3458 0
-3458 3474 0
-64 -3458 3459 0
-3459 3475 0
-65 -3459 3460 0
-3460 3476 0
-66 -3460 3461 0
-3461 3477 0
-67 -3461 3462 0
-3462 3478 0
-68 -3462 3463 0
-3463 3479 0
-69 -3463 3464 0
-3464 3480 0
-70 -3464 3465 0
-3465 3481 0
-71 -3465 3466 0
-3466 3482 0
-72 -3466 3467 0
-3467 3483 0
-73 -3467 3468 0
-3468 3484 0
-74 -3468 3469 0
-3469 3485 0
-75 -3469 3470 0
-3470 3486 0
-76 -3470 3471 0
-3471 3487 0
-77 -3471 3472 0
-3472 3488 0
-78 -3472 0
-63 3473 0
-3473 3489 0
-64 -3473 3474 0
-3474 3490 0
-65 -3474 3475 0
-3475 3491 0
-66 -3475 3476 0
-3476 3492 0
-67 -3476 3477 0
-3477 3493 0
-68 -3477 3478 0
-3478 3494 0
-69 -3478 3479 0
-3479 3495 0
-70 -3479 3480 0
-3480 3496 0
-71 -3480 3481 0
-3481 3497 0
-72 -3481 3482 0
-3482 3498 0
-73 -3482 3483 0
-3483 3499 0
-74 -3483 3484 0
-3484 3500 0
-75 -3484 3485 0
-3485 3501 0
-76 -3485 3486 0
-3486 3502 0
-77 -3486 3487 0
-3487 3503 0
-78 -3487 3488 0
-3488 3504 0
-79 -3488 0
-64 3489 0
-3489 3505 0
-65 -3489 3490 0
-3490 3506 0
-66 -3490 3491 0
-3491 3507 0
-67 -3491 3492 0
-3492 3508 0
-68 -3492 3493 0
-3493 3509 0
-69 -3493 3494 0
-3494 3510 0
-70 -3494 3495 0
-3495 3511 0
-71 -3495 3496 0
-3496 3512 0
-72 -3496 3497 0
-3497 3513 0
-73 -3497 3498 0
-3498 3514 0
-74 -3498 3499 0
-3499 3515 0
-75 -3499 3500 0
-3500 3516 0
-76 -3500 3501 0
-3501 3517 0
-77 -3501 3502 0
-3502 3518 0
-78 -3502 3503 0
-3503 3519 0
-79 -3503 3504 0
-3504 3520 0
-80 -3504 0
-65 3505 0
-3505 3521 0
-66 -3505 3506 0
-3506 3522 0
-67 -3506 3507 0
-3507 3523 0
-68 -3507 3508 0
-3508 3524 0
-69 -3508 3509 0
-3509 3525 0
-70 -3509 3510 0
-3510 3526 0
-71 -3510 3511 0
-3511 3527 0
-72 -3511 3512 0
-3512 3528 0
-73 -3512 3513 0
-3513 3529 0
-74 -3513 3514 0
-3514 3530 0
-75 -3514 3515 0
-3515 3531 0
-76 -3515 3516 0
-3516 3532 0
-77 -3516 3517 0
-3517 3533 0
-78 -3517 3518 0
-3518 3534 0
-79 -3518 3519 0
-3519 3535 0
-80 -3519 3520 0
-3520 3536 0
-81 -3520 0
-66 3521 0
-3521 3537 0
-67 -3521 3522 0
-3522 3538 0
-68 -3522 3523 0
-3523 3539 0
-69 -3523 3524 0
-3524 3540 0
-70 -3524 3525 0
-3525 3541 0
-71 -3525 3526 0
-3526 3542 0
-72 -3526 3527 0
-3527 3543 0
-73 -3527 3528 0
-3528 3544 0
-74 -3528 3529 0
-3529 3545 0
-75 -3529 3530 0
-3530 3546 0
-76 -3530 3531 0
-3531 3547 0
-77 -3531 3532 0
-3532 3548 0
-78 -3532 3533 0
-3533 3549 0
-79 -3533 3534 0
-3534 3550 0
-80 -3534 3535 0
-3535 3551 0
-81 -3535 3536 0
-3536 3552 0
-82 -3536 0
-67 3537 0
-3537 3553 0
-68 -3537 3538 0
-3538 3554 0
-69 -3538 3539 0
-3539 3555 0
-70 -3539 3540 0
-3540 3556 0
-71 -3540 3541 0
-3541 3557 0
-72 -3541 3542 0
-3542 3558 0
-73 -3542 3543 0
-3543 3559 0
-74 -3543 3544 0
-3544 3560 0
-75 -3544 3545 0
-3545 3561 0
-76 -3545 3546 0
-3546 3562 0
-77 -3546 3547 0
-3547 3563 0
-78 -3547 3548 0
-3548 3564 0
-79 -3548 3549 0
-3549 3565 0
-80 -3549 3550 0
-3550 3566 0
-81 -3550 3551 0
-3551 3567 0
-82 -3551 3552 0
-3552 3568 0
-83 -3552 0
-68 3553 0
-3553 3569 0
-69 -3553 3554 0
-3554 3570 0
-70 -3554 3555 0
-3555 3571 0
-71 -3555 3556 0
-3556 3572 0
-72 -3556 3557 0
-3557 3573 0
-73 -3557 3558 0
-3558 3574 0
-74 -3558 3559 0
-3559 3575 0
-75 -3559 3560 0
-3560 3576 0
-76 -3560 3561 0
-3561 3577 0
-77 -3561 3562 0
-3562 3578 0
-78 -3562 3563 0
-3563 3579 0
-79 -3563 3564 0
-3564 3580 0
-80 -3564 3565 0
-3565 3581 0
-81 -3565 3566 0
-3566 3582 0
-82 -3566 3567 0
-3567 3583 0
-83 -3567 3568 0
-3568 3584 0
-84 -3568 0
-69 3569 0
-3569 3585 0
-70 -3569 3570 0
-3570 3586 0
-71 -3570 3571 0
-3571 3587 0
-72 -3571 3572 0
-3572 3588 0
-73 -3572 3573 0
-3573 3589 0
-74 -3573 3574 0
-3574 3590 0
-75 -3574 3575 0
-3575 3591 0
-76 -3575 3576 0
-3576 3592 0
-77 -3576 3577 0
-3577 3593 0
-78 -3577 3578 0
-3578 3594 0
-79 -3578 3579 0
-3579 3595 0
-80 -3579 3580 0
-3580 3596 0
-81 -3580 3581 0
-3581 3597 0
-82 -3581 3582 0
-3582 3598 0
-83 -3582 3583 0
-3583 3599 0
-84 -3583 3584 0
-3584 3600 0
-85 -3584 0
-70 3585 0
-3585 3601 0
-71 -3585 3586 0
-3586 3602 0
-72 -3586 3587 0
-3587 3603 0
-73 -3587 3588 0
-3588 3604 0
-74 -3588 3589 0
-3589 3605 0
-75 -3589 3590 0
-3590 3606 0
-76 -3590 3591 0
-3591 3607 0
-77 -3591 3592 0
-3592 3608 0
-78 -3592 3593 0
-3593 3609 0
-79 -3593 3594 0
-3594 3610 0
-80 -3594 3595 0
-3595 3611 0
-81 -3595 3596 0
-3596 3612 0
-82 -3596 3597 0
-3597 3613 0
-83 -3597 3598 0
-3598 3614 0
-84 -3598 3599 0
-3599 3615 0
-85 -3599 3600 0
-3600 3616 0
-86 -3600 0
-71 3601 0
-3601 3617 0
-72 -3601 3602 0
-3602 3618 0
-73 -3602 3603 0
-3603 3619 0
-74 -3603 3604 0
-3604 3620 0
-75 -3604 3605 0
-3605 3621 0
-76 -3605 3606 0
-3606 3622 0
-77 -3606 3607 0
-3607 3623 0
-78 -3607 3608 0
-3608 3624 0
-79 -3608 3609 0
-3609 3625 0
-80 -3609 3610 0
-3610 3626 0
-81 -3610 3611 0
-3611 3627 0
-82 -3611 3612 0
-3612 3628 0
-83 -3612 3613 0
-3613 3629 0
-84 -3613 3614 0
-3614 3630 0
-85 -3614 3615 0
-3615 3631 0
-86 -3615 3616 0
-3616 3632 0
-87 -3616 0
-72 3617 0
-3617 3633 0
-73 -3617 3618 0
-3618 3634 0
-74 -3618 3619 0
-3619 3635 0
-75 -3619 3620 0
-3620 3636 0
-76 -3620 3621 0
-3621 3637 0
-77 -3621 3622 0
-3622 3638 0
-78 -3622 3623 0
-3623 3639 0
-79 -3623 3624 0
-3624 3640 0
-80 -3624 3625 0
-3625 3641 0
-81 -3625 3626 0
-3626 3642 0
-82 -3626 3627 0
-3627 3643 0
-83 -3627 3628 0
-3628 3644 0
-84 -3628 3629 0
-3629 3645 0
-85 -3629 3630 0
-3630 3646 0
-86 -3630 3631 0
-3631 3647 0
-87 -3631 3632 0
-3632 3648 0
-88 -3632 0
-73 3633 0
-3633 3649 0
-74 -3633 3634 0
-3634 3650 0
-75 -3634 3635 0
-3635 3651 0
-76 -3635 3636 0
-3636 3652 0
-77 -3636 3637 0
-3637 3653 0
-78 -3637 3638 0
-3638 3654 0
-79 -3638 3639 0
-3639 3655 0
-80 -3639 3640 0
-3640 3656 0
-81 -3640 3641 0
-3641 3657 0
-82 -3641 3642 0
-3642 3658 0
-83 -3642 3643 0
-3643 3659 0
-84 -3643 3644 0
-3644 3660 0
-85 -3644 3645 0
-3645 3661 0
-86 -3645 3646 0
-3646 3662 0
-87 -3646 3647 0
-3647 3663 0
-88 -3647 3648 0
-3648 3664 0
-89 -3648 0
-74 3649 0
-3649 3665 0
-75 -3649 3650 0
-3650 3666 0
-76 -3650 3651 0
-3651 3667 0
-77 -3651 3652 0
-3652 3668 0
-78 -3652 3653 0
-3653 3669 0
-79 -3653 3654 0
-3654 3670 0
-80 -3654 3655 0
-3655 3671 0
-81 -3655 3656 0
-3656 3672 0
-82 -3656 3657 0
-3657 3673 0
-83 -3657 3658 0
-3658 3674 0
-84 -3658 3659 0
-3659 3675 0
-85 -3659 3660 0
-3660 3676 0
-86 -3660 3661 0
-3661 3677 0
-87 -3661 3662 0
-3662 3678 0
-88 -3662 3663 0
-3663 3679 0
-89 -3663 3664 0
-3664 3680 0
-90 -3664 0
-75 3665 0
-3665 3681 0
-76 -3665 3666 0
-3666 3682 0
-77 -3666 3667 0
-3667 3683 0
-78 -3667 3668 0
-3668 3684 0
-79 -3668 3669 0
-3669 3685 0
-80 -3669 3670 0
-3670 3686 0
-81 -3670 3671 0
-3671 3687 0
-82 -3671 3672 0
-3672 3688 0
-83 -3672 3673 0
-3673 3689 0
-84 -3673 3674 0
-3674 3690 0
-85 -3674 3675 0
-3675 3691 0
-86 -3675 3676 0
-3676 3692 0
-87 -3676 3677 0
-3677 3693 0
-88 -3677 3678 0
-3678 3694 0
-89 -3678 3679 0
-3679 3695 0
-90 -3679 3680 0
-3680 3696 0
-91 -3680 0
-76 3681 0
-3681 3697 0
-77 -3681 3682 0
-3682 3698 0
-78 -3682 3683 0
-3683 3699 0
-79 -3683 3684 0
-3684 3700 0
-80 -3684 3685 0
-3685 3701 0
-81 -3685 3686 0
-3686 3702 0
-82 -3686 3687 0
-3687 3703 0
-83 -3687 3688 0
-3688 3704 0
-84 -3688 3689 0
-3689 3705 0
-85 -3689 3690 0
-3690 3706 0
-86 -3690 3691 0
-3691 3707 0
-87 -3691 3692 0
-3692 3708 0
-88 -3692 3693 0
-3693 3709 0
-89 -3693 3694 0
-3694 3710 0
-90 -3694 3695 0
-3695 3711 0
-91 -3695 3696 0
-3696 3712 0
-92 -3696 0
-77 3697 0
-3697 3713 0
-78 -3697 3698 0
-3698 3714 0
-79 -3698 3699 0
-3699 3715 0
-80 -3699 3700 0
-3700 3716 0
-81 -3700 3701 0
-3701 3717 0
-82 -3701 3702 0
-3702 3718 0
-83 -3702 3703 0
-3703 3719 0
-84 -3703 3704 0
-3704 3720 0
-85 -3704 3705 0
-3705 3721 0
-86 -3705 3706 0
-3706 3722 0
-87 -3706 3707 0
-3707 3723 0
-88 -3707 3708 0
-3708 3724 0
-89 -3708 3709 0
-3709 3725 0
-90 -3709 3710 0
-3710 3726 0
-91 -3710 3711 0
-3711 3727 0
-92 -3711 3712 0
-3712 3728 0
-93 -3712 0
-78 3713 0
-3713 3729 0
-79 -3713 3714 0
-3714 3730 0
-80 -3714 3715 0
-3715 3731 0
-81 -3715 3716 0
-3716 3732 0
-82 -3716 3717 0
-3717 3733 0
-83 -3717 3718 0
-3718 3734 0
-84 -3718 3719 0
-3719 3735 0
-85 -3719 3720 0
-3720 3736 0
-86 -3720 3721 0
-3721 3737 0
-87 -3721 3722 0
-3722 3738 0
-88 -3722 3723 0
-3723 3739 0
-89 -3723 3724 0
-3724 3740 0
-90 -3724 3725 0
-3725 3741 0
-91 -3725 3726 0
-3726 3742 0
-92 -3726 3727 0
-3727 3743 0
-93 -3727 3728 0
-3728 3744 0
-94 -3728 0
-79 3729 0
-3729 3745 0
-80 -3729 3730 0
-3730 3746 0
-81 -3730 3731 0
-3731 3747 0
-82 -3731 3732 0
-3732 3748 0
-83 -3732 3733 0
-3733 3749 0
-84 -3733 3734 0
-3734 3750 0
-85 -3734 3735 0
-3735 3751 0
-86 -3735 3736 0
-3736 3752 0
-87 -3736 3737 0
-3737 3753 0
-88 -3737 3738 0
-3738 3754 0
-89 -3738 3739 0
-3739 3755 0
-90 -3739 3740 0
-3740 3756 0
-91 -3740 3741 0
-3741 3757 0
-92 -3741 3742 0
-3742 3758 0
-93 -3742 3743 0
-3743 3759 0
-94 -3743 3744 0
-3744 3760 0
-95 -3744 0
-80 3745 0
-3745 3761 0
-81 -3745 3746 0
-3746 3762 0
-82 -3746 3747 0
-3747 3763 0
-83 -3747 3748 0
-3748 3764 0
-84 -3748 3749 0
-3749 3765 0
-85 -3749 3750 0
-3750 3766 0
-86 -3750 3751 0
-3751 3767 0
-87 -3751 3752 0
-3752 3768 0
-88 -3752 3753 0
-3753 3769 0
-89 -3753 3754 0
-3754 3770 0
-90 -3754 3755 0
-3755 3771 0
-91 -3755 3756 0
-3756 3772 0
-92 -3756 3757 0
-3757 3773 0
-93 -3757 3758 0
-3758 3774 0
-94 -3758 3759 0
-3759 3775 0
-95 -3759 3760 0
-3760 3776 0
-96 -3760 0
-81 3761 0
-3761 3777 0
-82 -3761 3762 0
-3762 3778 0
-83 -3762 3763 0
-3763 3779 0
-84 -3763 3764 0
-3764 3780 0
-85 -3764 3765 0
-3765 3781 0
-86 -3765 3766 0
-3766 3782 0
-87 -3766 3767 0
-3767 3783 0
-88 -3767 3768 0
-3768 3784 0
-89 -3768 3769 0
-3769 3785 0
-90 -3769 3770 0
-3770 3786 0
-91 -3770 3771 0
-3771 3787 0
-92 -3771 3772 0
-3772 3788 0
-93 -3772 3773 0
-3773 3789 0
-94 -3773 3774 0
-3774 3790 0
-95 -3774 3775 0
-3775 3791 0
-96 -3775 3776 0
-3776 3792 0
-97 -3776 0
-82 3777 0
-3777 3793 0
-83 -3777 3778 0
-3778 3794 0
-84 -3778 3779 0
-3779 3795 0
-85 -3779 3780 0
-3780 3796 0
-86 -3780 3781 0
-3781 3797 0
-87 -3781 3782 0
-3782 3798 0
-88 -3782 3783 0
-3783 3799 0
-89 -3783 3784 0
-3784 3800 0
-90 -3784 3785 0
-3785 3801 0
-91 -3785 3786 0
-3786 3802 0
-92 -3786 3787 0
-3787 3803 0
-93 -3787 3788 0
-3788 3804 0
-94 -3788 3789 0
-3789 3805 0
-95 -3789 3790 0
-3790 3806 0
-96 -3790 3791 0
-3791 3807 0
-97 -3791 3792 0
-3792 3808 0
-98 -3792 0
-83 3793 0
-3793 3809 0
-84 -3793 3794 0
-3794 3810 0
-85 -3794 3795 0
-3795 3811 0
-86 -3795 3796 0
-3796 3812 0
-87 -3796 3797 0
-3797 3813 0
-88 -3797 3798 0
-3798 3814 0
-89 -3798 3799 0
-3799 3815 0
-90 -3799 3800 0
-3800 3816 0
-91 -3800 3801 0
-3801 3817 0
-92 -3801 3802 0
-3802 3818 0
-93 -3802 3803 0
-3803 3819 0
-94 -3803 3804 0
-3804 3820 0
-95 -3804 3805 0
-3805 3821 0
-96 -3805 3806 0
-3806 3822 0
-97 -3806 3807 0
-3807 3823 0
-98 -3807 3808 0
-3808 3824 0
-99 -3808 0
-84 3809 0
-3809 3825 0
-85 -3809 3810 0
-3810 3826 0
-86 -3810 3811 0
-3811 3827 0
-87 -3811 3812 0
-3812 3828 0
-88 -3812 3813 0
-3813 3829 0
-89 -3813 3814 0
-3814 3830 0
-90 -3814 3815 0
-3815 3831 0
-91 -3815 3816 0
-3816 3832 0
-92 -3816 3817 0
-3817 3833 0
-93 -3817 3818 0
-3818 3834 0
-94 -3818 3819 0
-3819 3835 0
-95 -3819 3820 0
-3820 3836 0
-96 -3820 3821 0
-3821 3837 0
-97 -3821 3822 0
-3822 3838 0
-98 -3822 3823 0
-3823 3839 0
-99 -3823 3824 0
-3824 3840 0
-100 -3824 0
-85 3825 0
-3825 3841 0
-86 -3825 3826 0
-3826 3842 0
-87 -3826 3827 0
-3827 3843 0
-88 -3827 3828 0
-3828 3844 0
-89 -3828 3829 0
-3829 3845 0
-90 -3829 3830 0
-3830 3846 0
-91 -3830 3831 0
-3831 3847 0
-92 -3831 3832 0
-3832 3848 0
-93 -3832 3833 0
-3833 3849 0
-94 -3833 3834 0
-3834 3850 0
-95 -3834 3835 0
-3835 3851 0
-96 -3835 3836 0
-3836 3852 0
-97 -3836 3837 0
-3837 3853 0
-98 -3837 3838 0
-3838 3854 0
-99 -3838 3839 0
-3839 3855 0
-100 -3839 3840 0
-3840 3856 0
-101 -3840 0
-86 3841 0
-3841 3857 0
-87 -3841 3842 0
-3842 3858 0
-88 -3842 3843 0
-3843 3859 0
-89 -3843 3844 0
-3844 3860 0
-90 -3844 3845 0
-3845 3861 0
-91 -3845 3846 0
-3846 3862 0
-92 -3846 3847 0
-3847 3863 0
-93 -3847 3848 0
-3848 3864 0
-94 -3848 3849 0
-3849 3865 0
-95 -3849 3850 0
-3850 3866 0
-96 -3850 3851 0
-3851 3867 0
-97 -3851 3852 0
-3852 3868 0
-98 -3852 3853 0
-3853 3869 0
-99 -3853 3854 0
-3854 3870 0
-100 -3854 3855 0
-3855 3871 0
-101 -3855 3856 0
-3856 3872 0
-102 -3856 0
-87 3857 0
-3857 3873 0
-88 -3857 3858 0
-3858 3874 0
-89 -3858 3859 0
-3859 3875 0
-90 -3859 3860 0
-3860 3876 0
-91 -3860 3861 0
-3861 3877 0
-92 -3861 3862 0
-3862 3878 0
-93 -3862 3863 0
-3863 3879 0
-94 -3863 3864 0
-3864 3880 0
-95 -3864 3865 0
-3865 3881 0
-96 -3865 3866 0
-3866 3882 0
-97 -3866 3867 0
-3867 3883 0
-98 -3867 3868 0
-3868 3884 0
-99 -3868 3869 0
-3869 3885 0
-100 -3869 3870 0
-3870 3886 0
-101 -3870 3871 0
-3871 3887 0
-102 -3871 3872 0
-3872 3888 0
-103 -3872 0
-88 3873 0
-3873 3889 0
-89 -3873 3874 0
-3874 3890 0
-90 -3874 3875 0
-3875 3891 0
-91 -3875 3876 0
-3876 3892 0
-92 -3876 3877 0
-3877 3893 0
-93 -3877 3878 0
-3878 3894 0
-94 -3878 3879 0
-3879 3895 0
-95 -3879 3880 0
-3880 3896 0
-96 -3880 3881 0
-3881 3897 0
-97 -3881 3882 0
-3882 3898 0
-98 -3882 3883 0
-3883 3899 0
-99 -3883 3884 0
-3884 3900 0
-100 -3884 3885 0
-3885 3901 0
-101 -3885 3886 0
-3886 3902 0
-102 -3886 3887 0
-3887 3903 0
-103 -3887 3888 0
-3888 3904 0
-104 -3888 0
-89 3889 0
-3889 3905 0
-90 -3889 3890 0
-3890 3906 0
-91 -3890 3891 0
-3891 3907 0
-92 -3891 3892 0
-3892 3908 0
-93 -3892 3893 0
-3893 3909 0
-94 -3893 3894 0
-3894 3910 0
-95 -3894 3895 0
-3895 3911 0
-96 -3895 3896 0
-3896 3912 0
-97 -3896 3897 0
-3897 3913 0
-98 -3897 3898 0
-3898 3914 0
-99 -3898 3899 0
-3899 3915 0
-100 -3899 3900 0
-3900 3916 0
-101 -3900 3901 0
-3901 3917 0
-102 -3901 3902 0
-3902 3918 0
-103 -3902 3903 0
-3903 3919 0
-104 -3903 3904 0
-3904 3920 0
-105 -3904 0
-90 3905 0
-3905 3921 0
-91 -3905 3906 0
-3906 3922 0
-92 -3906 3907 0
-3907 3923 0
-93 -3907 3908 0
-3908 3924 0
-94 -3908 3909 0
-3909 3925 0
-95 -3909 3910 0
-3910 3926 0
-96 -3910 3911 0
-3911 3927 0
-97 -3911 3912 0
-3912 3928 0
-98 -3912 3913 0
-3913 3929 0
-99 -3913 3914 0
-3914 3930 0
-100 -3914 3915 0
-3915 3931 0
-101 -3915 3916 0
-3916 3932 0
-102 -3916 3917 0
-3917 3933 0
-103 -3917 3918 0
-3918 3934 0
-104 -3918 3919 0
-3919 3935 0
-105 -3919 3920 0
-3920 3936 0
-106 -3920 0
-91 3921 0
-3921 3937 0
-92 -3921 3922 0
-3922 3938 0
-93 -3922 3923 0
-3923 3939 0
-94 -3923 3924 0
-3924 3940 0
-95 -3924 3925 0
-3925 3941 0
-96 -3925 3926 0
-3926 3942 0
-97 -3926 3927 0
-3927 3943 0
-98 -3927 3928 0
-3928 3944 0
-99 -3928 3929 0
-3929 3945 0
-100 -3929 3930 0
-3930 3946 0
-101 -3930 3931 0
-3931 3947 0
-102 -3931 3932 0
-3932 3948 0
-103 -3932 3933 0
-3933 3949 0
-104 -3933 3934 0
-3934 3950 0
-105 -3934 3935 0
-3935 3951 0
-106 -3935 3936 0
-3936 3952 0
-107 -3936 0
-92 3937 0
-3937 3953 0
-93 -3937 3938 0
-3938 3954 0
-94 -3938 3939 0
-3939 3955 0
-95 -3939 3940 0
-3940 3956 0
-96 -3940 3941 0
-3941 3957 0
-97 -3941 3942 0
-3942 3958 0
-98 -3942 3943 0
-3943 3959 0
-99 -3943 3944 0
-3944 3960 0
-100 -3944 3945 0
-3945 3961 0
-101 -3945 3946 0
-3946 3962 0
-102 -3946 3947 0
-3947 3963 0
-103 -3947 3948 0
-3948 3964 0
-104 -3948 3949 0
-3949 3965 0
-105 -3949 3950 0
-3950 3966 0
-106 -3950 3951 0
-3951 3967 0
-107 -3951 3952 0
-3952 3968 0
-108 -3952 0
-93 3953 0
-3953 3969 0
-94 -3953 3954 0
-3954 3970 0
-95 -3954 3955 0
-3955 3971 0
-96 -3955 3956 0
-3956 3972 0
-97 -3956 3957 0
-3957 3973 0
-98 -3957 3958 0
-3958 3974 0
-99 -3958 3959 0
-3959 3975 0
-100 -3959 3960 0
-3960 3976 0
-101 -3960 3961 0
-3961 3977 0
-102 -3961 3962 0
-3962 3978 0
-103 -3962 3963 0
-3963 3979 0
-104 -3963 3964 0
-3964 3980 0
-105 -3964 3965 0
-3965 3981 0
-106 -3965 3966 0
-3966 3982 0
-107 -3966 3967 0
-3967 3983 0
-108 -3967 3968 0
-3968 3984 0
-109 -3968 0
-94 3969 0
-3969 3985 0
-95 -3969 3970 0
-3970 3986 0
-96 -3970 3971 0
-3971 3987 0
-97 -3971 3972 0
-3972 3988 0
-98 -3972 3973 0
-3973 3989 0
-99 -3973 3974 0
-3974 3990 0
-100 -3974 3975 0
-3975 3991 0
-101 -3975 3976 0
-3976 3992 0
-102 -3976 3977 0
-3977 3993 0
-103 -3977 3978 0
-3978 3994 0
-104 -3978 3979 0
-3979 3995 0
-105 -3979 3980 0
-3980 3996 0
-106 -3980 3981 0
-3981 3997 0
-107 -3981 3982 0
-3982 3998 0
-108 -3982 3983 0
-3983 3999 0
-109 -3983 3984 0
-3984 4000 0
-110 -3984 0
-95 3985 0
-3985 4001 0
-96 -3985 3986 0
-3986 4002 0
-97 -3986 3987 0
-3987 4003 0
-98 -3987 3988 0
-3988 4004 0
-99 -3988 3989 0
-3989 4005 0
-100 -3989 3990 0
-3990 4006 0
-101 -3990 3991 0
-3991 4007 0
-102 -3991 3992 0
-3992 4008 0
-103 -3992 3993 0
-3993 4009 0
-104 -3993 3994 0
-3994 4010 0
-105 -3994 3995 0
-3995 4011 0
-106 -3995 3996 0
-3996 4012 0
-107 -3996 3997 0
-3997 4013 0
-108 -3997 3998 0
-3998 4014 0
-109 -3998 3999 0
-3999 4015 0
-110 -3999 4000 0
-4000 4016 0
-111 -4000 0
-96 4001 0
-4001 4017 0
-97 -4001 4002 0
-4002 4018 0
-98 -4002 4003 0
-4003 4019 0
-99 -4003 4004 0
-4004 4020 0
-100 -4004 4005 0
-4005 4021 0
-101 -4005 4006 0
-4006 4022 0
-102 -4006 4007 0
-4007 4023 0
-103 -4007 4008 0
-4008 4024 0
-104 -4008 4009 0
-4009 4025 0
-105 -4009 4010 0
-4010 4026 0
-106 -4010 4011 0
-4011 4027 0
-107 -4011 4012 0
-4012 4028 0
-108 -4012 4013 0
-4013 4029 0
-109 -4013 4014 0
-4014 4030 0
-110 -4014 4015 0
-4015 4031 0
-111 -4015 4016 0
-4016 4032 0
-112 -4016 0
-97 4017 0
-4017 4033 0
-98 -4017 4018 0
-4018 4034 0
-99 -4018 4019 0
-4019 4035 0
-100 -4019 4020 0
-4020 4036 0
-101 -4020 4021 0
-4021 4037 0
-102 -4021 4022 0
-4022 4038 0
-103 -4022 4023 0
-4023 4039 0
-104 -4023 4024 0
-4024 4040 0
-105 -4024 4025 0
-4025 4041 0
-106 -4025 4026 0
-4026 4042 0
-107 -4026 4027 0
-4027 4043 0
-108 -4027 4028 0
-4028 4044 0
-109 -4028 4029 0
-4029 4045 0
-110 -4029 4030 0
-4030 4046 0
-111 -4030 4031 0
-4031 4047 0
-112 -4031 4032 0
-4032 4048 0
-113 -4032 0
-98 4033 0
-4033 4049 0
-99 -4033 4034 0
-4034 4050 0
-100 -4034 4035 0
-4035 4051 0
-101 -4035 4036 0
-4036 4052 0
-102 -4036 4037 0
-4037 4053 0
-103 -4037 4038 0
-4038 4054 0
-104 -4038 4039 0
-4039 4055 0
-105 -4039 4040 0
-4040 4056 0
-106 -4040 4041 0
-4041 4057 0
-107 -4041 4042 0
-4042 4058 0
-108 -4042 4043 0
-4043 4059 0
-109 -4043 4044 0
-4044 4060 0
-110 -4044 4045 0
-4045 4061 0
-111 -4045 4046 0
-4046 4062 0
-112 -4046 4047 0
-4047 4063 0
-113 -4047 4048 0
-4048 4064 0
-114 -4048 0
-99 4049 0
-4049 4065 0
-100 -4049 4050 0
-4050 4066 0
-101 -4050 4051 0
-4051 4067 0
-102 -4051 4052 0
-4052 4068 0
-103 -4052 4053 0
-4053 4069 0
-104 -4053 4054 0
-4054 4070 0
-105 -4054 4055 0
-4055 4071 0
-106 -4055 4056 0
-4056 4072 0
-107 -4056 4057 0
-4057 4073 0
-108 -4057 4058 0
-4058 4074 0
-109 -4058 4059 0
-4059 4075 0
-110 -4059 4060 0
-4060 4076 0
-111 -4060 4061 0
-4061 4077 0
-112 -4061 4062 0
-4062 4078 0
-113 -4062 4063 0
-4063 4079 0
-114 -4063 4064 0
-4064 4080 0
-115 -4064 0
-100 4065 0
-4065 4081 0
-101 -4065 4066 0
-4066 4082 0
-102 -4066 4067 0
-4067 4083 0
-103 -4067 4068 0
-4068 4084 0
-104 -4068 4069 0
-4069 4085 0
-105 -4069 4070 0
-4070 4086 0
-106 -4070 4071 0
-4071 4087 0
-107 -4071 4072 0
-4072 4088 0
-108 -4072 4073 0
-4073 4089 0
-109 -4073 4074 0
-4074 4090 0
-110 -4074 4075 0
-4075 4091 0
-111 -4075 4076 0
-4076 4092 0
-112 -4076 4077 0
-4077 4093 0
-113 -4077 4078 0
-4078 4094 0
-114 -4078 4079 0
-4079 4095 0
-115 -4079 4080 0
-4080 4096 0
-116 -4080 0
-101 4081 0
-4081 4097 0
-102 -4081 4082 0
-4082 4098 0
-103 -4082 4083 0
-4083 4099 0
-104 -4083 4084 0
-4084 4100 0
-105 -4084 4085 0
-4085 4101 0
-106 -4085 4086 0
-4086 4102 0
-107 -4086 4087 0
-4087 4103 0
-108 -4087 4088 0
-4088 4104 0
-109 -4088 4089 0
-4089 4105 0
-110 -4089 4090 0
-4090 4106 0
-111 -4090 4091 0
-4091 4107 0
-112 -4091 4092 0
-4092 4108 0
-113 -4092 4093 0
-4093 4109 0
-114 -4093 4094 0
-4094 4110 0
-115 -4094 4095 0
-4095 4111 0
-116 -4095 4096 0
-4096 4112 0
-117 -4096 0
-102 4097 0
-4097 4113 0
-103 -4097 4098 0
-4098 4114 0
-104 -4098 4099 0
-4099 4115 0
-105 -4099 4100 0
-4100 4116 0
-106 -4100 4101 0
-4101 4117 0
-107 -4101 4102 0
-4102 4118 0
-108 -4102 4103 0
-4103 4119 0
-109 -4103 4104 0
-4104 4120 0
-110 -4104 4105 0
-4105 4121 0
-111 -4105 4106 0
-4106 4122 0
-112 -4106 4107 0
-4107 4123 0
-113 -4107 4108 0
-4108 4124 0
-114 -4108 4109 0
-4109 4125 0
-115 -4109 4110 0
-4110 4126 0
-116 -4110 4111 0
-4111 4127 0
-117 -4111 4112 0
-4112 4128 0
-118 -4112 0
-103 4113 0
-4113 4129 0
-104 -4113 4114 0
-4114 4130 0
-105 -4114 4115 0
-4115 4131 0
-106 -4115 4116 0
-4116 4132 0
-107 -4116 4117 0
-4117 4133 0
-108 -4117 4118 0
-4118 4134 0
-109 -4118 4119 0
-4119 4135 0
-110 -4119 4120 0
-4120 4136 0
-111 -4120 4121 0
-4121 4137 0
-112 -4121 4122 0
-4122 4138 0
-113 -4122 4123 0
-4123 4139 0
-114 -4123 4124 0
-4124 4140 0
-115 -4124 4125 0
-4125 4141 0
-116 -4125 4126 0
-4126 4142 0
-117 -4126 4127 0
-4127 4143 0
-118 -4127 4128 0
-4128 4144 0
-119 -4128 0
-104 4129 0
-4129 4145 0
-105 -4129 4130 0
-4130 4146 0
-106 -4130 4131 0
-4131 4147 0
-107 -4131 4132 0
-4132 4148 0
-108 -4132 4133 0
-4133 4149 0
-109 -4133 4134 0
-4134 4150 0
-110 -4134 4135 0
-4135 4151 0
-111 -4135 4136 0
-4136 4152 0
-112 -4136 4137 0
-4137 4153 0
-113 -4137 4138 0
-4138 4154 0
-114 -4138 4139 0
-4139 4155 0
-115 -4139 4140 0
-4140 4156 0
-116 -4140 4141 0
-4141 4157 0
-117 -4141 4142 0
-4142 4158 0
-118 -4142 4143 0
-4143 4159 0
-119 -4143 4144 0
-4144 4160 0
-120 -4144 0
-105 4145 0
-4145 4161 0
-106 -4145 4146 0
-4146 4162 0
-107 -4146 4147 0
-4147 4163 0
-108 -4147 4148 0
-4148 4164 0
-109 -4148 4149 0
-4149 4165 0
-110 -4149 4150 0
-4150 4166 0
-111 -4150 4151 0
-4151 4167 0
-112 -4151 4152 0
-4152 4168 0
-113 -4152 4153 0
-4153 4169 0
-114 -4153 4154 0
-4154 4170 0
-115 -4154 4155 0
-4155 4171 0
-116 -4155 4156 0
-4156 4172 0
-117 -4156 4157 0
-4157 4173 0
-118 -4157 4158 0
-4158 4174 0
-119 -4158 4159 0
-4159 4175 0
-120 -4159 4160 0
-4160 4176 0
-121 -4160 0
-106 4161 0
-4161 4177 0
-107 -4161 4162 0
-4162 4178 0
-108 -4162 4163 0
-4163 4179 0
-109 -4163 4164 0
-4164 4180 0
-110 -4164 4165 0
-4165 4181 0
-111 -4165 4166 0
-4166 4182 0
-112 -4166 4167 0
-4167 4183 0
-113 -4167 4168 0
-4168 4184 0
-114 -4168 4169 0
-4169 4185 0
-115 -4169 4170 0
-4170 4186 0
-116 -4170 4171 0
-4171 4187 0
-117 -4171 4172 0
-4172 4188 0
-118 -4172 4173 0
-4173 4189 0
-119 -4173 4174 0
-4174 4190 0
-120 -4174 4175 0
-4175 4191 0
-121 -4175 4176 0
-4176 4192 0
-122 -4176 0
-107 4177 0
-4177 4193 0
-108 -4177 4178 0
-4178 4194 0
-109 -4178 4179 0
-4179 4195 0
-110 -4179 4180 0
-4180 4196 0
-111 -4180 4181 0
-4181 4197 0
-112 -4181 4182 0
-4182 4198 0
-113 -4182 4183 0
-4183 4199 0
-114 -4183 4184 0
-4184 4200 0
-115 -4184 4185 0
-4185 4201 0
-116 -4185 4186 0
-4186 4202 0
-117 -4186 4187 0
-4187 4203 0
-118 -4187 4188 0
-4188 4204 0
-119 -4188 4189 0
-4189 4205 0
-120 -4189 4190 0
-4190 4206 0
-121 -4190 4191 0
-4191 4207 0
-122 -4191 4192 0
-4192 4208 0
-123 -4192 0
-108 4193 0
-4193 4209 0
-109 -4193 4194 0
-4194 4210 0
-110 -4194 4195 0
-4195 4211 0
-111 -4195 4196 0
-4196 4212 0
-112 -4196 4197 0
-4197 4213 0
-113 -4197 4198 0
-4198 4214 0
-114 -4198 4199 0
-4199 4215 0
-115 -4199 4200 0
-4200 4216 0
-116 -4200 4201 0
-4201 4217 0
-117 -4201 4202 0
-4202 4218 0
-118 -4202 4203 0
-4203 4219 0
-119 -4203 4204 0
-4204 4220 0
-120 -4204 4205 0
-4205 4221 0
-121 -4205 4206 0
-4206 4222 0
-122 -4206 4207 0
-4207 4223 0
-123 -4207 4208 0
-4208 4224 0
-124 -4208 0
-109 4209 0
-4209 4225 0
-110 -4209 4210 0
-4210 4226 0
-111 -4210 4211 0
-4211 4227 0
-112 -4211 4212 0
-4212 4228 0
-113 -4212 4213 0
-4213 4229 0
-114 -4213 4214 0
-4214 4230 0
-115 -4214 4215 0
-4215 4231 0
-116 -4215 4216 0
-4216 4232 0
-117 -4216 4217 0
-4217 4233 0
-118 -4217 4218 0
-4218 4234 0
-119 -4218 4219 0
-4219 4235 0
-120 -4219 4220 0
-4220 4236 0
-121 -4220 4221 0
-4221 4237 0
-122 -4221 4222 0
-4222 4238 0
-123 -4222 4223 0
-4223 4239 0
-124 -4223 4224 0
-4224 4240 0
-125 -4224 0
-110 4225 0
-4225 4241 0
-111 -4225 4226 0
-4226 4242 0
-112 -4226 4227 0
-4227 4243 0
-113 -4227 4228 0
-4228 4244 0
-114 -4228 4229 0
-4229 4245 0
-115 -4229 4230 0
-4230 4246 0
-116 -4230 4231 0
-4231 4247 0
-117 -4231 4232 0
-4232 4248 0
-118 -4232 4233 0
-4233 4249 0
-119 -4233 4234 0
-4234 4250 0
-120 -4234 4235 0
-4235 4251 0
-121 -4235 4236 0
-4236 4252 0
-122 -4236 4237 0
-4237 4253 0
-123 -4237 4238 0
-4238 4254 0
-124 -4238 4239 0
-4239 4255 0
-125 -4239 4240 0
-4240 4256 0
-126 -4240 0
-111 4241 0
-4241 4257 0
-112 -4241 4242 0
-4242 4258 0
-113 -4242 4243 0
-4243 4259 0
-114 -4243 4244 0
-4244 4260 0
-115 -4244 4245 0
-4245 4261 0
-116 -4245 4246 0
-4246 4262 0
-117 -4246 4247 0
-4247 4263 0
-118 -4247 4248 0
-4248 4264 0
-119 -4248 4249 0
-4249 4265 0
-120 -4249 4250 0
-4250 4266 0
-121 -4250 4251 0
-4251 4267 0
-122 -4251 4252 0
-4252 4268 0
-123 -4252 4253 0
-4253 4269 0
-124 -4253 4254 0
-4254 4270 0
-125 -4254 4255 0
-4255 4271 0
-126 -4255 4256 0
-4256 4272 0
-127 -4256 0
-112 4257 0
-4257 4273 0
-113 -4257 4258 0
-4258 4274 0
-114 -4258 4259 0
-4259 4275 0
-115 -4259 4260 0
-4260 4276 0
-116 -4260 4261 0
-4261 4277 0
-117 -4261 4262 0
-4262 4278 0
-118 -4262 4263 0
-4263 4279 0
-119 -4263 4264 0
-4264 4280 0
-120 -4264 4265 0
-4265 4281 0
-121 -4265 4266 0
-4266 4282 0
-122 -4266 4267 0
-4267 4283 0
-123 -4267 4268 0
-4268 4284 0
-124 -4268 4269 0
-4269 4285 0
-125 -4269 4270 0
-4270 4286 0
-126 -4270 4271 0
-4271 4287 0
-127 -4271 4272 0
-4272 4288 0
-128 -4272 0
-113 4273 0
-4273 4289 0
-114 -4273 4274 0
-4274 4290 0
-115 -4274 4275 0
-4275 4291 0
-116 -4275 4276 0
-4276 4292 0
-117 -4276 4277 0
-4277 4293 0
-118 -4277 4278 0
-4278 4294 0
-119 -4278 4279 0
-4279 4295 0
-120 -4279 4280 0
-4280 4296 0
-121 -4280 4281 0
-4281 4297 0
-122 -4281 4282 0
-4282 4298 0
-123 -4282 4283 0
-4283 4299 0
-124 -4283 4284 0
-4284 4300 0
-125 -4284 4285 0
-4285 4301 0
-126 -4285 4286 0
-4286 4302 0
-127 -4286 4287 0
-4287 4303 0
-128 -4287 4288 0
-4288 4304 0
-129 -4288 0
-114 4289 0
-4289 4305 0
-115 -4289 4290 0
-4290 4306 0
-116 -4290 4291 0
-4291 4307 0
-117 -4291 4292 0
-4292 4308 0
-118 -4292 4293 0
-4293 4309 0
-119 -4293 4294 0
-4294 4310 0
-120 -4294 4295 0
-4295 4311 0
-121 -4295 4296 0
-4296 4312 0
-122 -4296 4297 0
-4297 4313 0
-123 -4297 4298 0
-4298 4314 0
-124 -4298 4299 0
-4299 4315 0
-125 -4299 4300 0
-4300 4316 0
-126 -4300 4301 0
-4301 4317 0
-127 -4301 4302 0
-4302 4318 0
-128 -4302 4303 0
-4303 4319 0
-129 -4303 4304 0
-4304 4320 0
-130 -4304 0
-115 4305 0
-4305 4321 0
-116 -4305 4306 0
-4306 4322 0
-117 -4306 4307 0
-4307 4323 0
-118 -4307 4308 0
-4308 4324 0
-119 -4308 4309 0
-4309 4325 0
-120 -4309 4310 0
-4310 4326 0
-121 -4310 4311 0
-4311 4327 0
-122 -4311 4312 0
-4312 4328 0
-123 -4312 4313 0
-4313 4329 0
-124 -4313 4314 0
-4314 4330 0
-125 -4314 4315 0
-4315 4331 0
-126 -4315 4316 0
-4316 4332 0
-127 -4316 4317 0
-4317 4333 0
-128 -4317 4318 0
-4318 4334 0
-129 -4318 4319 0
-4319 4335 0
-130 -4319 4320 0
-4320 4336 0
-131 -4320 0
-116 4321 0
-4321 4337 0
-117 -4321 4322 0
-4322 4338 0
-118 -4322 4323 0
-4323 4339 0
-119 -4323 4324 0
-4324 4340 0
-120 -4324 4325 0
-4325 4341 0
-121 -4325 4326 0
-4326 4342 0
-122 -4326 4327 0
-4327 4343 0
-123 -4327 4328 0
-4328 4344 0
-124 -4328 4329 0
-4329 4345 0
-125 -4329 4330 0
-4330 4346 0
-126 -4330 4331 0
-4331 4347 0
-127 -4331 4332 0
-4332 4348 0
-128 -4332 4333 0
-4333 4349 0
-129 -4333 4334 0
-4334 4350 0
-130 -4334 4335 0
-4335 4351 0
-131 -4335 4336 0
-4336 4352 0
-132 -4336 0
-117 4337 0
-4337 4353 0
-118 -4337 4338 0
-4338 4354 0
-119 -4338 4339 0
-4339 4355 0
-120 -4339 4340 0
-4340 4356 0
-121 -4340 4341 0
-4341 4357 0
-122 -4341 4342 0
-4342 4358 0
-123 -4342 4343 0
-4343 4359 0
-124 -4343 4344 0
-4344 4360 0
-125 -4344 4345 0
-4345 4361 0
-126 -4345 4346 0
-4346 4362 0
-127 -4346 4347 0
-4347 4363 0
-128 -4347 4348 0
-4348 4364 0
-129 -4348 4349 0
-4349 4365 0
-130 -4349 4350 0
-4350 4366 0
-131 -4350 4351 0
-4351 4367 0
-132 -4351 4352 0
-4352 4368 0
-133 -4352 0
-118 4353 0
-4353 4369 0
-119 -4353 4354 0
-4354 4370 0
-120 -4354 4355 0
-4355 4371 0
-121 -4355 4356 0
-4356 4372 0
-122 -4356 4357 0
-4357 4373 0
-123 -4357 4358 0
-4358 4374 0
-124 -4358 4359 0
-4359 4375 0
-125 -4359 4360 0
-4360 4376 0
-126 -4360 4361 0
-4361 4377 0
-127 -4361 4362 0
-4362 4378 0
-128 -4362 4363 0
-4363 4379 0
-129 -4363 4364 0
-4364 4380 0
-130 -4364 4365 0
-4365 4381 0
-131 -4365 4366 0
-4366 4382 0
-132 -4366 4367 0
-4367 4383 0
-133 -4367 4368 0
-4368 4384 0
-134 -4368 0
-119 4369 0
-4369 4385 0
-120 -4369 4370 0
-4370 4386 0
-121 -4370 4371 0
-4371 4387 0
-122 -4371 4372 0
-4372 4388 0
-123 -4372 4373 0
-4373 4389 0
-124 -4373 4374 0
-4374 4390 0
-125 -4374 4375 0
-4375 4391 0
-126 -4375 4376 0
-4376 4392 0
-127 -4376 4377 0
-4377 4393 0
-128 -4377 4378 0
-4378 4394 0
-129 -4378 4379 0
-4379 4395 0
-130 -4379 4380 0
-4380 4396 0
-131 -4380 4381 0
-4381 4397 0
-132 -4381 4382 0
-4382 4398 0
-133 -4382 4383 0
-4383 4399 0
-134 -4383 4384 0
-4384 4400 0
-135 -4384 0
-120 4385 0
-4385 4401 0
-121 -4385 4386 0
-4386 4402 0
-122 -4386 4387 0
-4387 4403 0
-123 -4387 4388 0
-4388 4404 0
-124 -4388 4389 0
-4389 4405 0
-125 -4389 4390 0
-4390 4406 0
-126 -4390 4391 0
-4391 4407 0
-127 -4391 4392 0
-4392 4408 0
-128 -4392 4393 0
-4393 4409 0
-129 -4393 4394 0
-4394 4410 0
-130 -4394 4395 0
-4395 4411 0
-131 -4395 4396 0
-4396 4412 0
-132 -4396 4397 0
-4397 4413 0
-133 -4397 4398 0
-4398 4414 0
-134 -4398 4399 0
-4399 4415 0
-135 -4399 4400 0
-4400 4416 0
-136 -4400 0
-121 4401 0
-4401 4417 0
-122 -4401 4402 0
-4402 4418 0
-123 -4402 4403 0
-4403 4419 0
-124 -4403 4404 0
-4404 4420 0
-125 -4404 4405 0
-4405 4421 0
-126 -4405 4406 0
-4406 4422 0
-127 -4406 4407 0
-4407 4423 0
-128 -4407 4408 0
-4408 4424 0
-129 -4408 4409 0
-4409 4425 0
-130 -4409 4410 0
-4410 4426 0
-131 -4410 4411 0
-4411 4427 0
-132 -4411 4412 0
-4412 4428 0
-133 -4412 4413 0
-4413 4429 0
-134 -4413 4414 0
-4414 4430 0
-135 -4414 4415 0
-4415 4431 0
-136 -4415 4416 0
-4416 4432 0
-137 -4416 0
-122 4417 0
-4417 4433 0
-123 -4417 4418 0
-4418 4434 0
-124 -4418 4419 0
-4419 4435 0
-125 -4419 4420 0
-4420 4436 0
-126 -4420 4421 0
-4421 4437 0
-127 -4421 4422 0
-4422 4438 0
-128 -4422 4423 0
-4423 4439 0
-129 -4423 4424 0
-4424 4440 0
-130 -4424 4425 0
-4425 4441 0
-131 -4425 4426 0
-4426 4442 0
-132 -4426 4427 0
-4427 4443 0
-133 -4427 4428 0
-4428 4444 0
-134 -4428 4429 0
-4429 4445 0
-135 -4429 4430 0
-4430 4446 0
-136 -4430 4431 0
-4431 4447 0
-137 -4431 4432 0
-4432 4448 0
-138 -4432 0
-123 4433 0
-4433 4449 0
-124 -4433 4434 0
-4434 4450 0
-125 -4434 4435 0
-4435 4451 0
-126 -4435 4436 0
-4436 4452 0
-127 -4436 4437 0
-4437 4453 0
-128 -4437 4438 0
-4438 4454 0
-129 -4438 4439 0
-4439 4455 0
-130 -4439 4440 0
-4440 4456 0
-131 -4440 4441 0
-4441 4457 0
-132 -4441 4442 0
-4442 4458 0
-133 -4442 4443 0
-4443 4459 0
-134 -4443 4444 0
-4444 4460 0
-135 -4444 4445 0
-4445 4461 0
-136 -4445 4446 0
-4446 4462 0
-137 -4446 4447 0
-4447 4463 0
-138 -4447 4448 0
-4448 4464 0
-139 -4448 0
-124 4449 0
-4449 4465 0
-125 -4449 4450 0
-4450 4466 0
-126 -4450 4451 0
-4451 4467 0
-127 -4451 4452 0
-4452 4468 0
-128 -4452 4453 0
-4453 4469 0
-129 -4453 4454 0
-4454 4470 0
-130 -4454 4455 0
-4455 4471 0
-131 -4455 4456 0
-4456 4472 0
-132 -4456 4457 0
-4457 4473 0
-133 -4457 4458 0
-4458 4474 0
-134 -4458 4459 0
-4459 4475 0
-135 -4459 4460 0
-4460 4476 0
-136 -4460 4461 0
-4461 4477 0
-137 -4461 4462 0
-4462 4478 0
-138 -4462 4463 0
-4463 4479 0
-139 -4463 4464 0
-4464 4480 0
-140 -4464 0
-125 4465 0
-4465 4481 0
-126 -4465 4466 0
-4466 4482 0
-127 -4466 4467 0
-4467 4483 0
-128 -4467 4468 0
-4468 4484 0
-129 -4468 4469 0
-4469 4485 0
-130 -4469 4470 0
-4470 4486 0
-131 -4470 4471 0
-4471 4487 0
-132 -4471 4472 0
-4472 4488 0
-133 -4472 4473 0
-4473 4489 0
-134 -4473 4474 0
-4474 4490 0
-135 -4474 4475 0
-4475 4491 0
-136 -4475 4476 0
-4476 4492 0
-137 -4476 4477 0
-4477 4493 0
-138 -4477 4478 0
-4478 4494 0
-139 -4478 4479 0
-4479 4495 0
-140 -4479 4480 0
-4480 4496 0
-141 -4480 0
-126 4481 0
-4481 4497 0
-127 -4481 4482 0
-4482 4498 0
-128 -4482 4483 0
-4483 4499 0
-129 -4483 4484 0
-4484 4500 0
-130 -4484 4485 0
-4485 4501 0
-131 -4485 4486 0
-4486 4502 0
-132 -4486 4487 0
-4487 4503 0
-133 -4487 4488 0
-4488 4504 0
-134 -4488 4489 0
-4489 4505 0
-135 -4489 4490 0
-4490 4506 0
-136 -4490 4491 0
-4491 4507 0
-137 -4491 4492 0
-4492 4508 0
-138 -4492 4493 0
-4493 4509 0
-139 -4493 4494 0
-4494 4510 0
-140 -4494 4495 0
-4495 4511 0
-141 -4495 4496 0
-4496 4512 0
-142 -4496 0
-127 4497 0
-4497 4513 0
-128 -4497 4498 0
-4498 4514 0
-129 -4498 4499 0
-4499 4515 0
-130 -4499 4500 0
-4500 4516 0
-131 -4500 4501 0
-4501 4517 0
-132 -4501 4502 0
-4502 4518 0
-133 -4502 4503 0
-4503 4519 0
-134 -4503 4504 0
-4504 4520 0
-135 -4504 4505 0
-4505 4521 0
-136 -4505 4506 0
-4506 4522 0
-137 -4506 4507 0
-4507 4523 0
-138 -4507 4508 0
-4508 4524 0
-139 -4508 4509 0
-4509 4525 0
-140 -4509 4510 0
-4510 4526 0
-141 -4510 4511 0
-4511 4527 0
-142 -4511 4512 0
-4512 4528 0
-143 -4512 0
-128 4513 0
-4513 4529 0
-129 -4513 4514 0
-4514 4530 0
-130 -4514 4515 0
-4515 4531 0
-131 -4515 4516 0
-4516 4532 0
-132 -4516 4517 0
-4517 4533 0
-133 -4517 4518 0
-4518 4534 0
-134 -4518 4519 0
-4519 4535 0
-135 -4519 4520 0
-4520 4536 0
-136 -4520 4521 0
-4521 4537 0
-137 -4521 4522 0
-4522 4538 0
-138 -4522 4523 0
-4523 4539 0
-139 -4523 4524 0
-4524 4540 0
-140 -4524 4525 0
-4525 4541 0
-141 -4525 4526 0
-4526 4542 0
-142 -4526 4527 0
-4527 4543 0
-143 -4527 4528 0
-4528 4544 0
-144 -4528 0
-129 4529 0
-4529 4545 0
-130 -4529 4530 0
-4530 4546 0
-131 -4530 4531 0
-4531 4547 0
-132 -4531 4532 0
-4532 4548 0
-133 -4532 4533 0
-4533 4549 0
-134 -4533 4534 0
-4534 4550 0
-135 -4534 4535 0
-4535 4551 0
-136 -4535 4536 0
-4536 4552 0
-137 -4536 4537 0
-4537 4553 0
-138 -4537 4538 0
-4538 4554 0
-139 -4538 4539 0
-4539 4555 0
-140 -4539 4540 0
-4540 4556 0
-141 -4540 4541 0
-4541 4557 0
-142 -4541 4542 0
-4542 4558 0
-143 -4542 4543 0
-4543 4559 0
-144 -4543 4544 0
-4544 4560 0
-145 -4544 0
-130 4545 0
-4545 4561 0
-131 -4545 4546 0
-4546 4562 0
-132 -4546 4547 0
-4547 4563 0
-133 -4547 4548 0
-4548 4564 0
-134 -4548 4549 0
-4549 4565 0
-135 -4549 4550 0
-4550 4566 0
-136 -4550 4551 0
-4551 4567 0
-137 -4551 4552 0
-4552 4568 0
-138 -4552 4553 0
-4553 4569 0
-139 -4553 4554 0
-4554 4570 0
-140 -4554 4555 0
-4555 4571 0
-141 -4555 4556 0
-4556 4572 0
-142 -4556 4557 0
-4557 4573 0
-143 -4557 4558 0
-4558 4574 0
-144 -4558 4559 0
-4559 4575 0
-145 -4559 4560 0
-4560 4576 0
-146 -4560 0
-131 4561 0
-4561 4577 0
-132 -4561 4562 0
-4562 4578 0
-133 -4562 4563 0
-4563 4579 0
-134 -4563 4564 0
-4564 4580 0
-135 -4564 4565 0
-4565 4581 0
-136 -4565 4566 0
-4566 4582 0
-137 -4566 4567 0
-4567 4583 0
-138 -4567 4568 0
-4568 4584 0
-139 -4568 4569 0
-4569 4585 0
-140 -4569 4570 0
-4570 4586 0
-141 -4570 4571 0
-4571 4587 0
-142 -4571 4572 0
-4572 4588 0
-143 -4572 4573 0
-4573 4589 0
-144 -4573 4574 0
-4574 4590 0
-145 -4574 4575 0
-4575 4591 0
-146 -4575 4576 0
-4576 4592 0
-147 -4576 0
-132 4577 0
-4577 4593 0
-133 -4577 4578 0
-4578 4594 0
-134 -4578 4579 0
-4579 4595 0
-135 -4579 4580 0
-4580 4596 0
-136 -4580 4581 0
-4581 4597 0
-137 -4581 4582 0
-4582 4598 0
-138 -4582 4583 0
-4583 4599 0
-139 -4583 4584 0
-4584 4600 0
-140 -4584 4585 0
-4585 4601 0
-141 -4585 4586 0
-4586 4602 0
-142 -4586 4587 0
-4587 4603 0
-143 -4587 4588 0
-4588 4604 0
-144 -4588 4589 0
-4589 4605 0
-145 -4589 4590 0
-4590 4606 0
-146 -4590 4591 0
-4591 4607 0
-147 -4591 4592 0
-4592 4608 0
-148 -4592 0
-133 4593 0
-4593 4609 0
-134 -4593 4594 0
-4594 4610 0
-135 -4594 4595 0
-4595 4611 0
-136 -4595 4596 0
-4596 4612 0
-137 -4596 4597 0
-4597 4613 0
-138 -4597 4598 0
-4598 4614 0
-139 -4598 4599 0
-4599 4615 0
-140 -4599 4600 0
-4600 4616 0
-141 -4600 4601 0
-4601 4617 0
-142 -4601 4602 0
-4602 4618 0
-143 -4602 4603 0
-4603 4619 0
-144 -4603 4604 0
-4604 4620 0
-145 -4604 4605 0
-4605 4621 0
-146 -4605 4606 0
-4606 4622 0
-147 -4606 4607 0
-4607 4623 0
-148 -4607 4608 0
-4608 4624 0
-149 -4608 0
-134 4609 0
-4609 4625 0
-135 -4609 4610 0
-4610 4626 0
-136 -4610 4611 0
-4611 4627 0
-137 -4611 4612 0
-4612 4628 0
-138 -4612 4613 0
-4613 4629 0
-139 -4613 4614 0
-4614 4630 0
-140 -4614 4615 0
-4615 4631 0
-141 -4615 4616 0
-4616 4632 0
-142 -4616 4617 0
-4617 4633 0
-143 -4617 4618 0
-4618 4634 0
-144 -4618 4619 0
-4619 4635 0
-145 -4619 4620 0
-4620 4636 0
-146 -4620 4621 0
-4621 4637 0
-147 -4621 4622 0
-4622 4638 0
-148 -4622 4623 0
-4623 4639 0
-149 -4623 4624 0
-4624 4640 0
-150 -4624 0
-135 4625 0
-4625 4641 0
-136 -4625 4626 0
-4626 4642 0
-137 -4626 4627 0
-4627 4643 0
-138 -4627 4628 0
-4628 4644 0
-139 -4628 4629 0
-4629 4645 0
-140 -4629 4630 0
-4630 4646 0
-141 -4630 4631 0
-4631 4647 0
-142 -4631 4632 0
-4632 4648 0
-143 -4632 4633 0
-4633 4649 0
-144 -4633 4634 0
-4634 4650 0
-145 -4634 4635 0
-4635 4651 0
-146 -4635 4636 0
-4636 4652 0
-147 -4636 4637 0
-4637 4653 0
-148 -4637 4638 0
-4638 4654 0
-149 -4638 4639 0
-4639 4655 0
-150 -4639 4640 0
-4640 4656 0
-151 -4640 0
-136 4641 0
-137 -4641 4642 0
-138 -4642 4643 0
-139 -4643 4644 0
-140 -4644 4645 0
-141 -4645 4646 0
-142 -4646 4647 0
-143 -4647 4648 0
-144 -4648 4649 0
-145 -4649 4650 0
-146 -4650 4651 0
-147 -4651 4652 0
-148 -4652 4653 0
-149 -4653 4654 0
-150 -4654 4655 0
-151 -4655 4656 0
-152 -4656 0
-153 4657 0
-4657 4658 0
-154 -4657 4659 0
-4659 4660 0
-155 -4659 4661 0
-4661 4662 0
-156 -4661 4663 0
-4663 4664 0
-157 -4663 4665 0
-4665 4666 0
-158 -4665 4667 0
-4667 4668 0
-159 -4667 4669 0
-4669 4670 0
-160 -4669 4671 0
-4671 4672 0
-161 -4671 4673 0
-4673 4674 0
-162 -4673 0
-154 4658 0
-4658 4675 0
-155 -4658 4660 0
-4660 4676 0
-156 -4660 4662 0
-4662 4677 0
-157 -4662 4664 0
-4664 4678 0
-158 -4664 4666 0
-4666 4679 0
-159 -4666 4668 0
-4668 4680 0
-160 -4668 4670 0
-4670 4681 0
-161 -4670 4672 0
-4672 4682 0
-162 -4672 4674 0
-4674 4683 0
-163 -4674 0
-155 4675 0
-4675 4684 0
-156 -4675 4676 0
-4676 4685 0
-157 -4676 4677 0
-4677 4686 0
-158 -4677 4678 0
-4678 4687 0
-159 -4678 4679 0
-4679 4688 0
-160 -4679 4680 0
-4680 4689 0
-161 -4680 4681 0
-4681 4690 0
-162 -4681 4682 0
-4682 4691 0
-163 -4682 4683 0
-4683 4692 0
-164 -4683 0
-156 4684 0
-4684 4693 0
-157 -4684 4685 0
-4685 4694 0
-158 -4685 4686 0
-4686 4695 0
-159 -4686 4687 0
-4687 4696 0
-160 -4687 4688 0
-4688 4697 0
-161 -4688 4689 0
-4689 4698 0
-162 -4689 4690 0
-4690 4699 0
-163 -4690 4691 0
-4691 4700 0
-164 -4691 4692 0
-4692 4701 0
-165 -4692 0
-157 4693 0
-4693 4702 0
-158 -4693 4694 0
-4694 4703 0
-159 -4694 4695 0
-4695 4704 0
-160 -4695 4696 0
-4696 4705 0
-161 -4696 4697 0
-4697 4706 0
-162 -4697 4698 0
-4698 4707 0
-163 -4698 4699 0
-4699 4708 0
-164 -4699 4700 0
-4700 4709 0
-165 -4700 4701 0
-4701 4710 0
-166 -4701 0
-158 4702 0
-4702 4711 0
-159 -4702 4703 0
-4703 4712 0
-160 -4703 4704 0
-4704 4713 0
-161 -4704 4705 0
-4705 4714 0
-162 -4705 4706 0
-4706 4715 0
-163 -4706 4707 0
-4707 4716 0
-164 -4707 4708 0
-4708 4717 0
-165 -4708 4709 0
-4709 4718 0
-166 -4709 4710 0
-4710 4719 0
-167 -4710 0
-159 4711 0
-4711 4720 0
-160 -4711 4712 0
-4712 4721 0
-161 -4712 4713 0
-4713 4722 0
-162 -4713 4714 0
-4714 4723 0
-163 -4714 4715 0
-4715 4724 0
-164 -4715 4716 0
-4716 4725 0
-165 -4716 4717 0
-4717 4726 0
-166 -4717 4718 0
-4718 4727 0
-167 -4718 4719 0
-4719 4728 0
-168 -4719 0
-160 4720 0
-4720 4729 0
-161 -4720 4721 0
-4721 4730 0
-162 -4721 4722 0
-4722 4731 0
-163 -4722 4723 0
-4723 4732 0
-164 -4723 4724 0
-4724 4733 0
-165 -4724 4725 0
-4725 4734 0
-166 -4725 4726 0
-4726 4735 0
-167 -4726 4727 0
-4727 4736 0
-168 -4727 4728 0
-4728 4737 0
-169 -4728 0
-161 4729 0
-4729 4738 0
-162 -4729 4730 0
-4730 4739 0
-163 -4730 4731 0
-4731 4740 0
-164 -4731 4732 0
-4732 4741 0
-165 -4732 4733 0
-4733 4742 0
-166 -4733 4734 0
-4734 4743 0
-167 -4734 4735 0
-4735 4744 0
-168 -4735 4736 0
-4736 4745 0
-169 -4736 4737 0
-4737 4746 0
-170 -4737 0
-162 4738 0
-4738 4747 0
-163 -4738 4739 0
-4739 4748 0
-164 -4739 4740 0
-4740 4749 0
-165 -4740 4741 0
-4741 4750 0
-166 -4741 4742 0
-4742 4751 0
-167 -4742 4743 0
-4743 4752 0
-168 -4743 4744 0
-4744 4753 0
-169 -4744 4745 0
-4745 4754 0
-170 -4745 4746 0
-4746 4755 0
-171 -4746 0
-163 4747 0
-4747 4756 0
-164 -4747 4748 0
-4748 4757 0
-165 -4748 4749 0
-4749 4758 0
-166 -4749 4750 0
-4750 4759 0
-167 -4750 4751 0
-4751 4760 0
-168 -4751 4752 0
-4752 4761 0
-169 -4752 4753 0
-4753 4762 0
-170 -4753 4754 0
-4754 4763 0
-171 -4754 4755 0
-4755 4764 0
-172 -4755 0
-164 4756 0
-4756 4765 0
-165 -4756 4757 0
-4757 4766 0
-166 -4757 4758 0
-4758 4767 0
-167 -4758 4759 0
-4759 4768 0
-168 -4759 4760 0
-4760 4769 0
-169 -4760 4761 0
-4761 4770 0
-170 -4761 4762 0
-4762 4771 0
-171 -4762 4763 0
-4763 4772 0
-172 -4763 4764 0
-4764 4773 0
-173 -4764 0
-165 4765 0
-4765 4774 0
-166 -4765 4766 0
-4766 4775 0
-167 -4766 4767 0
-4767 4776 0
-168 -4767 4768 0
-4768 4777 0
-169 -4768 4769 0
-4769 4778 0
-170 -4769 4770 0
-4770 4779 0
-171 -4770 4771 0
-4771 4780 0
-172 -4771 4772 0
-4772 4781 0
-173 -4772 4773 0
-4773 4782 0
-174 -4773 0
-166 4774 0
-4774 4783 0
-167 -4774 4775 0
-4775 4784 0
-168 -4775 4776 0
-4776 4785 0
-169 -4776 4777 0
-4777 4786 0
-170 -4777 4778 0
-4778 4787 0
-171 -4778 4779 0
-4779 4788 0
-172 -4779 4780 0
-4780 4789 0
-173 -4780 4781 0
-4781 4790 0
-174 -4781 4782 0
-4782 4791 0
-175 -4782 0
-167 4783 0
-4783 4792 0
-168 -4783 4784 0
-4784 4793 0
-169 -4784 4785 0
-4785 4794 0
-170 -4785 4786 0
-4786 4795 0
-171 -4786 4787 0
-4787 4796 0
-172 -4787 4788 0
-4788 4797 0
-173 -4788 4789 0
-4789 4798 0
-174 -4789 4790 0
-4790 4799 0
-175 -4790 4791 0
-4791 4800 0
-176 -4791 0
-168 4792 0
-4792 4801 0
-169 -4792 4793 0
-4793 4802 0
-170 -4793 4794 0
-4794 4803 0
-171 -4794 4795 0
-4795 4804 0
-172 -4795 4796 0
-4796 4805 0
-173 -4796 4797 0
-4797 4806 0
-174 -4797 4798 0
-4798 4807 0
-175 -4798 4799 0
-4799 4808 0
-176 -4799 4800 0
-4800 4809 0
-177 -4800 0
-169 4801 0
-4801 4810 0
-170 -4801 4802 0
-4802 4811 0
-171 -4802 4803 0
-4803 4812 0
-172 -4803 4804 0
-4804 4813 0
-173 -4804 4805 0
-4805 4814 0
-174 -4805 4806 0
-4806 4815 0
-175 -4806 4807 0
-4807 4816 0
-176 -4807 4808 0
-4808 4817 0
-177 -4808 4809 0
-4809 4818 0
-178 -4809 0
-170 4810 0
-4810 4819 0
-171 -4810 4811 0
-4811 4820 0
-172 -4811 4812 0
-4812 4821 0
-173 -4812 4813 0
-4813 4822 0
-174 -4813 4814 0
-4814 4823 0
-175 -4814 4815 0
-4815 4824 0
-176 -4815 4816 0
-4816 4825 0
-177 -4816 4817 0
-4817 4826 0
-178 -4817 4818 0
-4818 4827 0
-179 -4818 0
-171 4819 0
-4819 4828 0
-172 -4819 4820 0
-4820 4829 0
-173 -4820 4821 0
-4821 4830 0
-174 -4821 4822 0
-4822 4831 0
-175 -4822 4823 0
-4823 4832 0
-176 -4823 4824 0
-4824 4833 0
-177 -4824 4825 0
-4825 4834 0
-178 -4825 4826 0
-4826 4835 0
-179 -4826 4827 0
-4827 4836 0
-180 -4827 0
-172 4828 0
-4828 4837 0
-173 -4828 4829 0
-4829 4838 0
-174 -4829 4830 0
-4830 4839 0
-175 -4830 4831 0
-4831 4840 0
-176 -4831 4832 0
-4832 4841 0
-177 -4832 4833 0
-4833 4842 0
-178 -4833 4834 0
-4834 4843 0
-179 -4834 4835 0
-4835 4844 0
-180 -4835 4836 0
-4836 4845 0
-181 -4836 0
-173 4837 0
-4837 4846 0
-174 -4837 4838 0
-4838 4847 0
-175 -4838 4839 0
-4839 4848 0
-176 -4839 4840 0
-4840 4849 0
-177 -4840 4841 0
-4841 4850 0
-178 -4841 4842 0
-4842 4851 0
-179 -4842 4843 0
-4843 4852 0
-180 -4843 4844 0
-4844 4853 0
-181 -4844 4845 0
-4845 4854 0
-182 -4845 0
-174 4846 0
-4846 4855 0
-175 -4846 4847 0
-4847 4856 0
-176 -4847 4848 0
-4848 4857 0
-177 -4848 4849 0
-4849 4858 0
-178 -4849 4850 0
-4850 4859 0
-179 -4850 4851 0
-4851 4860 0
-180 -4851 4852 0
-4852 4861 0
-181 -4852 4853 0
-4853 4862 0
-182 -4853 4854 0
-4854 4863 0
-183 -4854 0
-175 4855 0
-4855 4864 0
-176 -4855 4856 0
-4856 4865 0
-177 -4856 4857 0
-4857 4866 0
-178 -4857 4858 0
-4858 4867 0
-179 -4858 4859 0
-4859 4868 0
-180 -4859 4860 0
-4860 4869 0
-181 -4860 4861 0
-4861 4870 0
-182 -4861 4862 0
-4862 4871 0
-183 -4862 4863 0
-4863 4872 0
-184 -4863 0
-176 4864 0
-4864 4873 0
-177 -4864 4865 0
-4865 4874 0
-178 -4865 4866 0
-4866 4875 0
-179 -4866 4867 0
-4867 4876 0
-180 -4867 4868 0
-4868 4877 0
-181 -4868 4869 0
-4869 4878 0
-182 -4869 4870 0
-4870 4879 0
-183 -4870 4871 0
-4871 4880 0
-184 -4871 4872 0
-4872 4881 0
-185 -4872 0
-177 4873 0
-4873 4882 0
-178 -4873 4874 0
-4874 4883 0
-179 -4874 4875 0
-4875 4884 0
-180 -4875 4876 0
-4876 4885 0
-181 -4876 4877 0
-4877 4886 0
-182 -4877 4878 0
-4878 4887 0
-183 -4878 4879 0
-4879 4888 0
-184 -4879 4880 0
-4880 4889 0
-185 -4880 4881 0
-4881 4890 0
-186 -4881 0
-178 4882 0
-4882 4891 0
-179 -4882 4883 0
-4883 4892 0
-180 -4883 4884 0
-4884 4893 0
-181 -4884 4885 0
-4885 4894 0
-182 -4885 4886 0
-4886 4895 0
-183 -4886 4887 0
-4887 4896 0
-184 -4887 4888 0
-4888 4897 0
-185 -4888 4889 0
-4889 4898 0
-186 -4889 4890 0
-4890 4899 0
-187 -4890 0
-179 4891 0
-4891 4900 0
-180 -4891 4892 0
-4892 4901 0
-181 -4892 4893 0
-4893 4902 0
-182 -4893 4894 0
-4894 4903 0
-183 -4894 4895 0
-4895 4904 0
-184 -4895 4896 0
-4896 4905 0
-185 -4896 4897 0
-4897 4906 0
-186 -4897 4898 0
-4898 4907 0
-187 -4898 4899 0
-4899 4908 0
-188 -4899 0
-180 4900 0
-4900 4909 0
-181 -4900 4901 0
-4901 4910 0
-182 -4901 4902 0
-4902 4911 0
-183 -4902 4903 0
-4903 4912 0
-184 -4903 4904 0
-4904 4913 0
-185 -4904 4905 0
-4905 4914 0
-186 -4905 4906 0
-4906 4915 0
-187 -4906 4907 0
-4907 4916 0
-188 -4907 4908 0
-4908 4917 0
-189 -4908 0
-181 4909 0
-4909 4918 0
-182 -4909 4910 0
-4910 4919 0
-183 -4910 4911 0
-4911 4920 0
-184 -4911 4912 0
-4912 4921 0
-185 -4912 4913 0
-4913 4922 0
-186 -4913 4914 0
-4914 4923 0
-187 -4914 4915 0
-4915 4924 0
-188 -4915 4916 0
-4916 4925 0
-189 -4916 4917 0
-4917 4926 0
-190 -4917 0
-182 4918 0
-4918 4927 0
-183 -4918 4919 0
-4919 4928 0
-184 -4919 4920 0
-4920 4929 0
-185 -4920 4921 0
-4921 4930 0
-186 -4921 4922 0
-4922 4931 0
-187 -4922 4923 0
-4923 4932 0
-188 -4923 4924 0
-4924 4933 0
-189 -4924 4925 0
-4925 4934 0
-190 -4925 4926 0
-4926 4935 0
-191 -4926 0
-183 4927 0
-4927 4936 0
-184 -4927 4928 0
-4928 4937 0
-185 -4928 4929 0
-4929 4938 0
-186 -4929 4930 0
-4930 4939 0
-187 -4930 4931 0
-4931 4940 0
-188 -4931 4932 0
-4932 4941 0
-189 -4932 4933 0
-4933 4942 0
-190 -4933 4934 0
-4934 4943 0
-191 -4934 4935 0
-4935 4944 0
-192 -4935 0
-184 4936 0
-4936 4945 0
-185 -4936 4937 0
-4937 4946 0
-186 -4937 4938 0
-4938 4947 0
-187 -4938 4939 0
-4939 4948 0
-188 -4939 4940 0
-4940 4949 0
-189 -4940 4941 0
-4941 4950 0
-190 -4941 4942 0
-4942 4951 0
-191 -4942 4943 0
-4943 4952 0
-192 -4943 4944 0
-4944 4953 0
-193 -4944 0
-185 4945 0
-4945 4954 0
-186 -4945 4946 0
-4946 4955 0
-187 -4946 4947 0
-4947 4956 0
-188 -4947 4948 0
-4948 4957 0
-189 -4948 4949 0
-4949 4958 0
-190 -4949 4950 0
-4950 4959 0
-191 -4950 4951 0
-4951 4960 0
-192 -4951 4952 0
-4952 4961 0
-193 -4952 4953 0
-4953 4962 0
-194 -4953 0
-186 4954 0
-4954 4963 0
-187 -4954 4955 0
-4955 4964 0
-188 -4955 4956 0
-4956 4965 0
-189 -4956 4957 0
-4957 4966 0
-190 -4957 4958 0
-4958 4967 0
-191 -4958 4959 0
-4959 4968 0
-192 -4959 4960 0
-4960 4969 0
-193 -4960 4961 0
-4961 4970 0
-194 -4961 4962 0
-4962 4971 0
-195 -4962 0
-187 4963 0
-4963 4972 0
-188 -4963 4964 0
-4964 4973 0
-189 -4964 4965 0
-4965 4974 0
-190 -4965 4966 0
-4966 4975 0
-191 -4966 4967 0
-4967 4976 0
-192 -4967 4968 0
-4968 4977 0
-193 -4968 4969 0
-4969 4978 0
-194 -4969 4970 0
-4970 4979 0
-195 -4970 4971 0
-4971 4980 0
-196 -4971 0
-188 4972 0
-4972 4981 0
-189 -4972 4973 0
-4973 4982 0
-190 -4973 4974 0
-4974 4983 0
-191 -4974 4975 0
-4975 4984 0
-192 -4975 4976 0
-4976 4985 0
-193 -4976 4977 0
-4977 4986 0
-194 -4977 4978 0
-4978 4987 0
-195 -4978 4979 0
-4979 4988 0
-196 -4979 4980 0
-4980 4989 0
-197 -4980 0
-189 4981 0
-4981 4990 0
-190 -4981 4982 0
-4982 4991 0
-191 -4982 4983 0
-4983 4992 0
-192 -4983 4984 0
-4984 4993 0
-193 -4984 4985 0
-4985 4994 0
-194 -4985 4986 0
-4986 4995 0
-195 -4986 4987 0
-4987 4996 0
-196 -4987 4988 0
-4988 4997 0
-197 -4988 4989 0
-4989 4998 0
-198 -4989 0
-190 4990 0
-4990 4999 0
-191 -4990 4991 0
-4991 5000 0
-192 -4991 4992 0
-4992 5001 0
-193 -4992 4993 0
-4993 5002 0
-194 -4993 4994 0
-4994 5003 0
-195 -4994 4995 0
-4995 5004 0
-196 -4995 4996 0
-4996 5005 0
-197 -4996 4997 0
-4997 5006 0
-198 -4997 4998 0
-4998 5007 0
-199 -4998 0
-191 4999 0
-4999 5008 0
-192 -4999 5000 0
-5000 5009 0
-193 -5000 5001 0
-5001 5010 0
-194 -5001 5002 0
-5002 5011 0
-195 -5002 5003 0
-5003 5012 0
-196 -5003 5004 0
-5004 5013 0
-197 -5004 5005 0
-5005 5014 0
-198 -5005 5006 0
-5006 5015 0
-199 -5006 5007 0
-5007 5016 0
-200 -5007 0
-192 5008 0
-5008 5017 0
-193 -5008 5009 0
-5009 5018 0
-194 -5009 5010 0
-5010 5019 0
-195 -5010 5011 0
-5011 5020 0
-196 -5011 5012 0
-5012 5021 0
-197 -5012 5013 0
-5013 5022 0
-198 -5013 5014 0
-5014 5023 0
-199 -5014 5015 0
-5015 5024 0
-200 -5015 5016 0
-5016 5025 0
-201 -5016 0
-193 5017 0
-5017 5026 0
-194 -5017 5018 0
-5018 5027 0
-195 -5018 5019 0
-5019 5028 0
-196 -5019 5020 0
-5020 5029 0
-197 -5020 5021 0
-5021 5030 0
-198 -5021 5022 0
-5022 5031 0
-199 -5022 5023 0
-5023 5032 0
-200 -5023 5024 0
-5024 5033 0
-201 -5024 5025 0
-5025 5034 0
-202 -5025 0
-194 5026 0
-5026 5035 0
-195 -5026 5027 0
-5027 5036 0
-196 -5027 5028 0
-5028 5037 0
-197 -5028 5029 0
-5029 5038 0
-198 -5029 5030 0
-5030 5039 0
-199 -5030 5031 0
-5031 5040 0
-200 -5031 5032 0
-5032 5041 0
-201 -5032 5033 0
-5033 5042 0
-202 -5033 5034 0
-5034 5043 0
-203 -5034 0
-195 5035 0
-5035 5044 0
-196 -5035 5036 0
-5036 5045 0
-197 -5036 5037 0
-5037 5046 0
-198 -5037 5038 0
-5038 5047 0
-199 -5038 5039 0
-5039 5048 0
-200 -5039 5040 0
-5040 5049 0
-201 -5040 5041 0
-5041 5050 0
-202 -5041 5042 0
-5042 5051 0
-203 -5042 5043 0
-5043 5052 0
-204 -5043 0
-196 5044 0
-5044 5053 0
-197 -5044 5045 0
-5045 5054 0
-198 -5045 5046 0
-5046 5055 0
-199 -5046 5047 0
-5047 5056 0
-200 -5047 5048 0
-5048 5057 0
-201 -5048 5049 0
-5049 5058 0
-202 -5049 5050 0
-5050 5059 0
-203 -5050 5051 0
-5051 5060 0
-204 -5051 5052 0
-5052 5061 0
-205 -5052 0
-197 5053 0
-5053 5062 0
-198 -5053 5054 0
-5054 5063 0
-199 -5054 5055 0
-5055 5064 0
-200 -5055 5056 0
-5056 5065 0
-201 -5056 5057 0
-5057 5066 0
-202 -5057 5058 0
-5058 5067 0
-203 -5058 5059 0
-5059 5068 0
-204 -5059 5060 0
-5060 5069 0
-205 -5060 5061 0
-5061 5070 0
-206 -5061 0
-198 5062 0
-5062 5071 0
-199 -5062 5063 0
-5063 5072 0
-200 -5063 5064 0
-5064 5073 0
-201 -5064 5065 0
-5065 5074 0
-202 -5065 5066 0
-5066 5075 0
-203 -5066 5067 0
-5067 5076 0
-204 -5067 5068 0
-5068 5077 0
-205 -5068 5069 0
-5069 5078 0
-206 -5069 5070 0
-5070 5079 0
-207 -5070 0
-199 5071 0
-5071 5080 0
-200 -5071 5072 0
-5072 5081 0
-201 -5072 5073 0
-5073 5082 0
-202 -5073 5074 0
-5074 5083 0
-203 -5074 5075 0
-5075 5084 0
-204 -5075 5076 0
-5076 5085 0
-205 -5076 5077 0
-5077 5086 0
-206 -5077 5078 0
-5078 5087 0
-207 -5078 5079 0
-5079 5088 0
-208 -5079 0
-200 5080 0
-5080 5089 0
-201 -5080 5081 0
-5081 5090 0
-202 -5081 5082 0
-5082 5091 0
-203 -5082 5083 0
-5083 5092 0
-204 -5083 5084 0
-5084 5093 0
-205 -5084 5085 0
-5085 5094 0
-206 -5085 5086 0
-5086 5095 0
-207 -5086 5087 0
-5087 5096 0
-208 -5087 5088 0
-5088 5097 0
-209 -5088 0
-201 5089 0
-5089 5098 0
-202 -5089 5090 0
-5090 5099 0
-203 -5090 5091 0
-5091 5100 0
-204 -5091 5092 0
-5092 5101 0
-205 -5092 5093 0
-5093 5102 0
-206 -5093 5094 0
-5094 5103 0
-207 -5094 5095 0
-5095 5104 0
-208 -5095 5096 0
-5096 5105 0
-209 -5096 5097 0
-5097 5106 0
-210 -5097 0
-202 5098 0
-5098 5107 0
-203 -5098 5099 0
-5099 5108 0
-204 -5099 5100 0
-5100 5109 0
-205 -5100 5101 0
-5101 5110 0
-206 -5101 5102 0
-5102 5111 0
-207 -5102 5103 0
-5103 5112 0
-208 -5103 5104 0
-5104 5113 0
-209 -5104 5105 0
-5105 5114 0
-210 -5105 5106 0
-5106 5115 0
-211 -5106 0
-203 5107 0
-5107 5116 0
-204 -5107 5108 0
-5108 5117 0
-205 -5108 5109 0
-5109 5118 0
-206 -5109 5110 0
-5110 5119 0
-207 -5110 5111 0
-5111 5120 0
-208 -5111 5112 0
-5112 5121 0
-209 -5112 5113 0
-5113 5122 0
-210 -5113 5114 0
-5114 5123 0
-211 -5114 5115 0
-5115 5124 0
-212 -5115 0
-204 5116 0
-5116 5125 0
-205 -5116 5117 0
-5117 5126 0
-206 -5117 5118 0
-5118 5127 0
-207 -5118 5119 0
-5119 5128 0
-208 -5119 5120 0
-5120 5129 0
-209 -5120 5121 0
-5121 5130 0
-210 -5121 5122 0
-5122 5131 0
-211 -5122 5123 0
-5123 5132 0
-212 -5123 5124 0
-5124 5133 0
-213 -5124 0
-205 5125 0
-5125 5134 0
-206 -5125 5126 0
-5126 5135 0
-207 -5126 5127 0
-5127 5136 0
-208 -5127 5128 0
-5128 5137 0
-209 -5128 5129 0
-5129 5138 0
-210 -5129 5130 0
-5130 5139 0
-211 -5130 5131 0
-5131 5140 0
-212 -5131 5132 0
-5132 5141 0
-213 -5132 5133 0
-5133 5142 0
-214 -5133 0
-206 5134 0
-5134 5143 0
-207 -5134 5135 0
-5135 5144 0
-208 -5135 5136 0
-5136 5145 0
-209 -5136 5137 0
-5137 5146 0
-210 -5137 5138 0
-5138 5147 0
-211 -5138 5139 0
-5139 5148 0
-212 -5139 5140 0
-5140 5149 0
-213 -5140 5141 0
-5141 5150 0
-214 -5141 5142 0
-5142 5151 0
-215 -5142 0
-207 5143 0
-5143 5152 0
-208 -5143 5144 0
-5144 5153 0
-209 -5144 5145 0
-5145 5154 0
-210 -5145 5146 0
-5146 5155 0
-211 -5146 5147 0
-5147 5156 0
-212 -5147 5148 0
-5148 5157 0
-213 -5148 5149 0
-5149 5158 0
-214 -5149 5150 0
-5150 5159 0
-215 -5150 5151 0
-5151 5160 0
-216 -5151 0
-208 5152 0
-5152 5161 0
-209 -5152 5153 0
-5153 5162 0
-210 -5153 5154 0
-5154 5163 0
-211 -5154 5155 0
-5155 5164 0
-212 -5155 5156 0
-5156 5165 0
-213 -5156 5157 0
-5157 5166 0
-214 -5157 5158 0
-5158 5167 0
-215 -5158 5159 0
-5159 5168 0
-216 -5159 5160 0
-5160 5169 0
-217 -5160 0
-209 5161 0
-5161 5170 0
-210 -5161 5162 0
-5162 5171 0
-211 -5162 5163 0
-5163 5172 0
-212 -5163 5164 0
-5164 5173 0
-213 -5164 5165 0
-5165 5174 0
-214 -5165 5166 0
-5166 5175 0
-215 -5166 5167 0
-5167 5176 0
-216 -5167 5168 0
-5168 5177 0
-217 -5168 5169 0
-5169 5178 0
-218 -5169 0
-210 5170 0
-5170 5179 0
-211 -5170 5171 0
-5171 5180 0
-212 -5171 5172 0
-5172 5181 0
-213 -5172 5173 0
-5173 5182 0
-214 -5173 5174 0
-5174 5183 0
-215 -5174 5175 0
-5175 5184 0
-216 -5175 5176 0
-5176 5185 0
-217 -5176 5177 0
-5177 5186 0
-218 -5177 5178 0
-5178 5187 0
-219 -5178 0
-211 5179 0
-5179 5188 0
-212 -5179 5180 0
-5180 5189 0
-213 -5180 5181 0
-5181 5190 0
-214 -5181 5182 0
-5182 5191 0
-215 -5182 5183 0
-5183 5192 0
-216 -5183 5184 0
-5184 5193 0
-217 -5184 5185 0
-5185 5194 0
-218 -5185 5186 0
-5186 5195 0
-219 -5186 5187 0
-5187 5196 0
-220 -5187 0
-212 5188 0
-5188 5197 0
-213 -5188 5189 0
-5189 5198 0
-214 -5189 5190 0
-5190 5199 0
-215 -5190 5191 0
-5191 5200 0
-216 -5191 5192 0
-5192 5201 0
-217 -5192 5193 0
-5193 5202 0
-218 -5193 5194 0
-5194 5203 0
-219 -5194 5195 0
-5195 5204 0
-220 -5195 5196 0
-5196 5205 0
-221 -5196 0
-213 5197 0
-5197 5206 0
-214 -5197 5198 0
-5198 5207 0
-215 -5198 5199 0
-5199 5208 0
-216 -5199 5200 0
-5200 5209 0
-217 -5200 5201 0
-5201 5210 0
-218 -5201 5202 0
-5202 5211 0
-219 -5202 5203 0
-5203 5212 0
-220 -5203 5204 0
-5204 5213 0
-221 -5204 5205 0
-5205 5214 0
-222 -5205 0
-214 5206 0
-5206 5215 0
-215 -5206 5207 0
-5207 5216 0
-216 -5207 5208 0
-5208 5217 0
-217 -5208 5209 0
-5209 5218 0
-218 -5209 5210 0
-5210 5219 0
-219 -5210 5211 0
-5211 5220 0
-220 -5211 5212 0
-5212 5221 0
-221 -5212 5213 0
-5213 5222 0
-222 -5213 5214 0
-5214 5223 0
-223 -5214 0
-215 5215 0
-5215 5224 0
-216 -5215 5216 0
-5216 5225 0
-217 -5216 5217 0
-5217 5226 0
-218 -5217 5218 0
-5218 5227 0
-219 -5218 5219 0
-5219 5228 0
-220 -5219 5220 0
-5220 5229 0
-221 -5220 5221 0
-5221 5230 0
-222 -5221 5222 0
-5222 5231 0
-223 -5222 5223 0
-5223 5232 0
-224 -5223 0
-216 5224 0
-5224 5233 0
-217 -5224 5225 0
-5225 5234 0
-218 -5225 5226 0
-5226 5235 0
-219 -5226 5227 0
-5227 5236 0
-220 -5227 5228 0
-5228 5237 0
-221 -5228 5229 0
-5229 5238 0
-222 -5229 5230 0
-5230 5239 0
-223 -5230 5231 0
-5231 5240 0
-224 -5231 5232 0
-5232 5241 0
-225 -5232 0
-217 5233 0
-5233 5242 0
-218 -5233 5234 0
-5234 5243 0
-219 -5234 5235 0
-5235 5244 0
-220 -5235 5236 0
-5236 5245 0
-221 -5236 5237 0
-5237 5246 0
-222 -5237 5238 0
-5238 5247 0
-223 -5238 5239 0
-5239 5248 0
-224 -5239 5240 0
-5240 5249 0
-225 -5240 5241 0
-5241 5250 0
-226 -5241 0
-218 5242 0
-5242 5251 0
-219 -5242 5243 0
-5243 5252 0
-220 -5243 5244 0
-5244 5253 0
-221 -5244 5245 0
-5245 5254 0
-222 -5245 5246 0
-5246 5255 0
-223 -5246 5247 0
-5247 5256 0
-224 -5247 5248 0
-5248 5257 0
-225 -5248 5249 0
-5249 5258 0
-226 -5249 5250 0
-5250 5259 0
-227 -5250 0
-219 5251 0
-5251 5260 0
-220 -5251 5252 0
-5252 5261 0
-221 -5252 5253 0
-5253 5262 0
-222 -5253 5254 0
-5254 5263 0
-223 -5254 5255 0
-5255 5264 0
-224 -5255 5256 0
-5256 5265 0
-225 -5256 5257 0
-5257 5266 0
-226 -5257 5258 0
-5258 5267 0
-227 -5258 5259 0
-5259 5268 0
-228 -5259 0
-220 5260 0
-5260 5269 0
-221 -5260 5261 0
-5261 5270 0
-222 -5261 5262 0
-5262 5271 0
-223 -5262 5263 0
-5263 5272 0
-224 -5263 5264 0
-5264 5273 0
-225 -5264 5265 0
-5265 5274 0
-226 -5265 5266 0
-5266 5275 0
-227 -5266 5267 0
-5267 5276 0
-228 -5267 5268 0
-5268 5277 0
-229 -5268 0
-221 5269 0
-5269 5278 0
-222 -5269 5270 0
-5270 5279 0
-223 -5270 5271 0
-5271 5280 0
-224 -5271 5272 0
-5272 5281 0
-225 -5272 5273 0
-5273 5282 0
-226 -5273 5274 0
-5274 5283 0
-227 -5274 5275 0
-5275 5284 0
-228 -5275 5276 0
-5276 5285 0
-229 -5276 5277 0
-5277 5286 0
-230 -5277 0
-222 5278 0
-5278 5287 0
-223 -5278 5279 0
-5279 5288 0
-224 -5279 5280 0
-5280 5289 0
-225 -5280 5281 0
-5281 5290 0
-226 -5281 5282 0
-5282 5291 0
-227 -5282 5283 0
-5283 5292 0
-228 -5283 5284 0
-5284 5293 0
-229 -5284 5285 0
-5285 5294 0
-230 -5285 5286 0
-5286 5295 0
-231 -5286 0
-223 5287 0
-5287 5296 0
-224 -5287 5288 0
-5288 5297 0
-225 -5288 5289 0
-5289 5298 0
-226 -5289 5290 0
-5290 5299 0
-227 -5290 5291 0
-5291 5300 0
-228 -5291 5292 0
-5292 5301 0
-229 -5292 5293 0
-5293 5302 0
-230 -5293 5294 0
-5294 5303 0
-231 -5294 5295 0
-5295 5304 0
-232 -5295 0
-224 5296 0
-5296 5305 0
-225 -5296 5297 0
-5297 5306 0
-226 -5297 5298 0
-5298 5307 0
-227 -5298 5299 0
-5299 5308 0
-228 -5299 5300 0
-5300 5309 0
-229 -5300 5301 0
-5301 5310 0
-230 -5301 5302 0
-5302 5311 0
-231 -5302 5303 0
-5303 5312 0
-232 -5303 5304 0
-5304 5313 0
-233 -5304 0
-225 5305 0
-5305 5314 0
-226 -5305 5306 0
-5306 5315 0
-227 -5306 5307 0
-5307 5316 0
-228 -5307 5308 0
-5308 5317 0
-229 -5308 5309 0
-5309 5318 0
-230 -5309 5310 0
-5310 5319 0
-231 -5310 5311 0
-5311 5320 0
-232 -5311 5312 0
-5312 5321 0
-233 -5312 5313 0
-5313 5322 0
-234 -5313 0
-226 5314 0
-5314 5323 0
-227 -5314 5315 0
-5315 5324 0
-228 -5315 5316 0
-5316 5325 0
-229 -5316 5317 0
-5317 5326 0
-230 -5317 5318 0
-5318 5327 0
-231 -5318 5319 0
-5319 5328 0
-232 -5319 5320 0
-5320 5329 0
-233 -5320 5321 0
-5321 5330 0
-234 -5321 5322 0
-5322 5331 0
-235 -5322 0
-227 5323 0
-5323 5332 0
-228 -5323 5324 0
-5324 5333 0
-229 -5324 5325 0
-5325 5334 0
-230 -5325 5326 0
-5326 5335 0
-231 -5326 5327 0
-5327 5336 0
-232 -5327 5328 0
-5328 5337 0
-233 -5328 5329 0
-5329 5338 0
-234 -5329 5330 0
-5330 5339 0
-235 -5330 5331 0
-5331 5340 0
-236 -5331 0
-228 5332 0
-5332 5341 0
-229 -5332 5333 0
-5333 5342 0
-230 -5333 5334 0
-5334 5343 0
-231 -5334 5335 0
-5335 5344 0
-232 -5335 5336 0
-5336 5345 0
-233 -5336 5337 0
-5337 5346 0
-234 -5337 5338 0
-5338 5347 0
-235 -5338 5339 0
-5339 5348 0
-236 -5339 5340 0
-5340 5349 0
-237 -5340 0
-229 5341 0
-5341 5350 0
-230 -5341 5342 0
-5342 5351 0
-231 -5342 5343 0
-5343 5352 0
-232 -5343 5344 0
-5344 5353 0
-233 -5344 5345 0
-5345 5354 0
-234 -5345 5346 0
-5346 5355 0
-235 -5346 5347 0
-5347 5356 0
-236 -5347 5348 0
-5348 5357 0
-237 -5348 5349 0
-5349 5358 0
-238 -5349 0
-230 5350 0
-5350 5359 0
-231 -5350 5351 0
-5351 5360 0
-232 -5351 5352 0
-5352 5361 0
-233 -5352 5353 0
-5353 5362 0
-234 -5353 5354 0
-5354 5363 0
-235 -5354 5355 0
-5355 5364 0
-236 -5355 5356 0
-5356 5365 0
-237 -5356 5357 0
-5357 5366 0
-238 -5357 5358 0
-5358 5367 0
-239 -5358 0
-231 5359 0
-5359 5368 0
-232 -5359 5360 0
-5360 5369 0
-233 -5360 5361 0
-5361 5370 0
-234 -5361 5362 0
-5362 5371 0
-235 -5362 5363 0
-5363 5372 0
-236 -5363 5364 0
-5364 5373 0
-237 -5364 5365 0
-5365 5374 0
-238 -5365 5366 0
-5366 5375 0
-239 -5366 5367 0
-5367 5376 0
-240 -5367 0
-232 5368 0
-5368 5377 0
-233 -5368 5369 0
-5369 5378 0
-234 -5369 5370 0
-5370 5379 0
-235 -5370 5371 0
-5371 5380 0
-236 -5371 5372 0
-5372 5381 0
-237 -5372 5373 0
-5373 5382 0
-238 -5373 5374 0
-5374 5383 0
-239 -5374 5375 0
-5375 5384 0
-240 -5375 5376 0
-5376 5385 0
-241 -5376 0
-233 5377 0
-5377 5386 0
-234 -5377 5378 0
-5378 5387 0
-235 -5378 5379 0
-5379 5388 0
-236 -5379 5380 0
-5380 5389 0
-237 -5380 5381 0
-5381 5390 0
-238 -5381 5382 0
-5382 5391 0
-239 -5382 5383 0
-5383 5392 0
-240 -5383 5384 0
-5384 5393 0
-241 -5384 5385 0
-5385 5394 0
-242 -5385 0
-234 5386 0
-5386 5395 0
-235 -5386 5387 0
-5387 5396 0
-236 -5387 5388 0
-5388 5397 0
-237 -5388 5389 0
-5389 5398 0
-238 -5389 5390 0
-5390 5399 0
-239 -5390 5391 0
-5391 5400 0
-240 -5391 5392 0
-5392 5401 0
-241 -5392 5393 0
-5393 5402 0
-242 -5393 5394 0
-5394 5403 0
-243 -5394 0
-235 5395 0
-5395 5404 0
-236 -5395 5396 0
-5396 5405 0
-237 -5396 5397 0
-5397 5406 0
-238 -5397 5398 0
-5398 5407 0
-239 -5398 5399 0
-5399 5408 0
-240 -5399 5400 0
-5400 5409 0
-241 -5400 5401 0
-5401 5410 0
-242 -5401 5402 0
-5402 5411 0
-243 -5402 5403 0
-5403 5412 0
-244 -5403 0
-236 5404 0
-5404 5413 0
-237 -5404 5405 0
-5405 5414 0
-238 -5405 5406 0
-5406 5415 0
-239 -5406 5407 0
-5407 5416 0
-240 -5407 5408 0
-5408 5417 0
-241 -5408 5409 0
-5409 5418 0
-242 -5409 5410 0
-5410 5419 0
-243 -5410 5411 0
-5411 5420 0
-244 -5411 5412 0
-5412 5421 0
-245 -5412 0
-237 5413 0
-5413 5422 0
-238 -5413 5414 0
-5414 5423 0
-239 -5414 5415 0
-5415 5424 0
-240 -5415 5416 0
-5416 5425 0
-241 -5416 5417 0
-5417 5426 0
-242 -5417 5418 0
-5418 5427 0
-243 -5418 5419 0
-5419 5428 0
-244 -5419 5420 0
-5420 5429 0
-245 -5420 5421 0
-5421 5430 0
-246 -5421 0
-238 5422 0
-5422 5431 0
-239 -5422 5423 0
-5423 5432 0
-240 -5423 5424 0
-5424 5433 0
-241 -5424 5425 0
-5425 5434 0
-242 -5425 5426 0
-5426 5435 0
-243 -5426 5427 0
-5427 5436 0
-244 -5427 5428 0
-5428 5437 0
-245 -5428 5429 0
-5429 5438 0
-246 -5429 5430 0
-5430 5439 0
-247 -5430 0
-239 5431 0
-5431 5440 0
-240 -5431 5432 0
-5432 5441 0
-241 -5432 5433 0
-5433 5442 0
-242 -5433 5434 0
-5434 5443 0
-243 -5434 5435 0
-5435 5444 0
-244 -5435 5436 0
-5436 5445 0
-245 -5436 5437 0
-5437 5446 0
-246 -5437 5438 0
-5438 5447 0
-247 -5438 5439 0
-5439 5448 0
-248 -5439 0
-240 5440 0
-5440 5449 0
-241 -5440 5441 0
-5441 5450 0
-242 -5441 5442 0
-5442 5451 0
-243 -5442 5443 0
-5443 5452 0
-244 -5443 5444 0
-5444 5453 0
-245 -5444 5445 0
-5445 5454 0
-246 -5445 5446 0
-5446 5455 0
-247 -5446 5447 0
-5447 5456 0
-248 -5447 5448 0
-5448 5457 0
-249 -5448 0
-241 5449 0
-5449 5458 0
-242 -5449 5450 0
-5450 5459 0
-243 -5450 5451 0
-5451 5460 0
-244 -5451 5452 0
-5452 5461 0
-245 -5452 5453 0
-5453 5462 0
-246 -5453 5454 0
-5454 5463 0
-247 -5454 5455 0
-5455 5464 0
-248 -5455 5456 0
-5456 5465 0
-249 -5456 5457 0
-5457 5466 0
-250 -5457 0
-242 5458 0
-5458 5467 0
-243 -5458 5459 0
-5459 5468 0
-244 -5459 5460 0
-5460 5469 0
-245 -5460 5461 0
-5461 5470 0
-246 -5461 5462 0
-5462 5471 0
-247 -5462 5463 0
-5463 5472 0
-248 -5463 5464 0
-5464 5473 0
-249 -5464 5465 0
-5465 5474 0
-250 -5465 5466 0
-5466 5475 0
-251 -5466 0
-243 5467 0
-5467 5476 0
-244 -5467 5468 0
-5468 5477 0
-245 -5468 5469 0
-5469 5478 0
-246 -5469 5470 0
-5470 5479 0
-247 -5470 5471 0
-5471 5480 0
-248 -5471 5472 0
-5472 5481 0
-249 -5472 5473 0
-5473 5482 0
-250 -5473 5474 0
-5474 5483 0
-251 -5474 5475 0
-5475 5484 0
-252 -5475 0
-244 5476 0
-5476 5485 0
-245 -5476 5477 0
-5477 5486 0
-246 -5477 5478 0
-5478 5487 0
-247 -5478 5479 0
-5479 5488 0
-248 -5479 5480 0
-5480 5489 0
-249 -5480 5481 0
-5481 5490 0
-250 -5481 5482 0
-5482 5491 0
-251 -5482 5483 0
-5483 5492 0
-252 -5483 5484 0
-5484 5493 0
-253 -5484 0
-245 5485 0
-5485 5494 0
-246 -5485 5486 0
-5486 5495 0
-247 -5486 5487 0
-5487 5496 0
-248 -5487 5488 0
-5488 5497 0
-249 -5488 5489 0
-5489 5498 0
-250 -5489 5490 0
-5490 5499 0
-251 -5490 5491 0
-5491 5500 0
-252 -5491 5492 0
-5492 5501 0
-253 -5492 5493 0
-5493 5502 0
-254 -5493 0
-246 5494 0
-5494 5503 0
-247 -5494 5495 0
-5495 5504 0
-248 -5495 5496 0
-5496 5505 0
-249 -5496 5497 0
-5497 5506 0
-250 -5497 5498 0
-5498 5507 0
-251 -5498 5499 0
-5499 5508 0
-252 -5499 5500 0
-5500 5509 0
-253 -5500 5501 0
-5501 5510 0
-254 -5501 5502 0
-5502 5511 0
-255 -5502 0
-247 5503 0
-5503 5512 0
-248 -5503 5504 0
-5504 5513 0
-249 -5504 5505 0
-5505 5514 0
-250 -5505 5506 0
-5506 5515 0
-251 -5506 5507 0
-5507 5516 0
-252 -5507 5508 0
-5508 5517 0
-253 -5508 5509 0
-5509 5518 0
-254 -5509 5510 0
-5510 5519 0
-255 -5510 5511 0
-5511 5520 0
-256 -5511 0
-248 5512 0
-5512 5521 0
-249 -5512 5513 0
-5513 5522 0
-250 -5513 5514 0
-5514 5523 0
-251 -5514 5515 0
-5515 5524 0
-252 -5515 5516 0
-5516 5525 0
-253 -5516 5517 0
-5517 5526 0
-254 -5517 5518 0
-5518 5527 0
-255 -5518 5519 0
-5519 5528 0
-256 -5519 5520 0
-5520 5529 0
-257 -5520 0
-249 5521 0
-5521 5530 0
-250 -5521 5522 0
-5522 5531 0
-251 -5522 5523 0
-5523 5532 0
-252 -5523 5524 0
-5524 5533 0
-253 -5524 5525 0
-5525 5534 0
-254 -5525 5526 0
-5526 5535 0
-255 -5526 5527 0
-5527 5536 0
-256 -5527 5528 0
-5528 5537 0
-257 -5528 5529 0
-5529 5538 0
-258 -5529 0
-250 5530 0
-5530 5539 0
-251 -5530 5531 0
-5531 5540 0
-252 -5531 5532 0
-5532 5541 0
-253 -5532 5533 0
-5533 5542 0
-254 -5533 5534 0
-5534 5543 0
-255 -5534 5535 0
-5535 5544 0
-256 -5535 5536 0
-5536 5545 0
-257 -5536 5537 0
-5537 5546 0
-258 -5537 5538 0
-5538 5547 0
-259 -5538 0
-251 5539 0
-5539 5548 0
-252 -5539 5540 0
-5540 5549 0
-253 -5540 5541 0
-5541 5550 0
-254 -5541 5542 0
-5542 5551 0
-255 -5542 5543 0
-5543 5552 0
-256 -5543 5544 0
-5544 5553 0
-257 -5544 5545 0
-5545 5554 0
-258 -5545 5546 0
-5546 5555 0
-259 -5546 5547 0
-5547 5556 0
-260 -5547 0
-252 5548 0
-5548 5557 0
-253 -5548 5549 0
-5549 5558 0
-254 -5549 5550 0
-5550 5559 0
-255 -5550 5551 0
-5551 5560 0
-256 -5551 5552 0
-5552 5561 0
-257 -5552 5553 0
-5553 5562 0
-258 -5553 5554 0
-5554 5563 0
-259 -5554 5555 0
-5555 5564 0
-260 -5555 5556 0
-5556 5565 0
-261 -5556 0
-253 5557 0
-5557 5566 0
-254 -5557 5558 0
-5558 5567 0
-255 -5558 5559 0
-5559 5568 0
-256 -5559 5560 0
-5560 5569 0
-257 -5560 5561 0
-5561 5570 0
-258 -5561 5562 0
-5562 5571 0
-259 -5562 5563 0
-5563 5572 0
-260 -5563 5564 0
-5564 5573 0
-261 -5564 5565 0
-5565 5574 0
-262 -5565 0
-254 5566 0
-5566 5575 0
-255 -5566 5567 0
-5567 5576 0
-256 -5567 5568 0
-5568 5577 0
-257 -5568 5569 0
-5569 5578 0
-258 -5569 5570 0
-5570 5579 0
-259 -5570 5571 0
-5571 5580 0
-260 -5571 5572 0
-5572 5581 0
-261 -5572 5573 0
-5573 5582 0
-262 -5573 5574 0
-5574 5583 0
-263 -5574 0
-255 5575 0
-5575 5584 0
-256 -5575 5576 0
-5576 5585 0
-257 -5576 5577 0
-5577 5586 0
-258 -5577 5578 0
-5578 5587 0
-259 -5578 5579 0
-5579 5588 0
-260 -5579 5580 0
-5580 5589 0
-261 -5580 5581 0
-5581 5590 0
-262 -5581 5582 0
-5582 5591 0
-263 -5582 5583 0
-5583 5592 0
-264 -5583 0
-256 5584 0
-5584 5593 0
-257 -5584 5585 0
-5585 5594 0
-258 -5585 5586 0
-5586 5595 0
-259 -5586 5587 0
-5587 5596 0
-260 -5587 5588 0
-5588 5597 0
-261 -5588 5589 0
-5589 5598 0
-262 -5589 5590 0
-5590 5599 0
-263 -5590 5591 0
-5591 5600 0
-264 -5591 5592 0
-5592 5601 0
-265 -5592 0
-257 5593 0
-5593 5602 0
-258 -5593 5594 0
-5594 5603 0
-259 -5594 5595 0
-5595 5604 0
-260 -5595 5596 0
-5596 5605 0
-261 -5596 5597 0
-5597 5606 0
-262 -5597 5598 0
-5598 5607 0
-263 -5598 5599 0
-5599 5608 0
-264 -5599 5600 0
-5600 5609 0
-265 -5600 5601 0
-5601 5610 0
-266 -5601 0
-258 5602 0
-5602 5611 0
-259 -5602 5603 0
-5603 5612 0
-260 -5603 5604 0
-5604 5613 0
-261 -5604 5605 0
-5605 5614 0
-262 -5605 5606 0
-5606 5615 0
-263 -5606 5607 0
-5607 5616 0
-264 -5607 5608 0
-5608 5617 0
-265 -5608 5609 0
-5609 5618 0
-266 -5609 5610 0
-5610 5619 0
-267 -5610 0
-259 5611 0
-5611 5620 0
-260 -5611 5612 0
-5612 5621 0
-261 -5612 5613 0
-5613 5622 0
-262 -5613 5614 0
-5614 5623 0
-263 -5614 5615 0
-5615 5624 0
-264 -5615 5616 0
-5616 5625 0
-265 -5616 5617 0
-5617 5626 0
-266 -5617 5618 0
-5618 5627 0
-267 -5618 5619 0
-5619 5628 0
-268 -5619 0
-260 5620 0
-5620 5629 0
-261 -5620 5621 0
-5621 5630 0
-262 -5621 5622 0
-5622 5631 0
-263 -5622 5623 0
-5623 5632 0
-264 -5623 5624 0
-5624 5633 0
-265 -5624 5625 0
-5625 5634 0
-266 -5625 5626 0
-5626 5635 0
-267 -5626 5627 0
-5627 5636 0
-268 -5627 5628 0
-5628 5637 0
-269 -5628 0
-261 5629 0
-5629 5638 0
-262 -5629 5630 0
-5630 5639 0
-263 -5630 5631 0
-5631 5640 0
-264 -5631 5632 0
-5632 5641 0
-265 -5632 5633 0
-5633 5642 0
-266 -5633 5634 0
-5634 5643 0
-267 -5634 5635 0
-5635 5644 0
-268 -5635 5636 0
-5636 5645 0
-269 -5636 5637 0
-5637 5646 0
-270 -5637 0
-262 5638 0
-5638 5647 0
-263 -5638 5639 0
-5639 5648 0
-264 -5639 5640 0
-5640 5649 0
-265 -5640 5641 0
-5641 5650 0
-266 -5641 5642 0
-5642 5651 0
-267 -5642 5643 0
-5643 5652 0
-268 -5643 5644 0
-5644 5653 0
-269 -5644 5645 0
-5645 5654 0
-270 -5645 5646 0
-5646 5655 0
-271 -5646 0
-263 5647 0
-5647 5656 0
-264 -5647 5648 0
-5648 5657 0
-265 -5648 5649 0
-5649 5658 0
-266 -5649 5650 0
-5650 5659 0
-267 -5650 5651 0
-5651 5660 0
-268 -5651 5652 0
-5652 5661 0
-269 -5652 5653 0
-5653 5662 0
-270 -5653 5654 0
-5654 5663 0
-271 -5654 5655 0
-5655 5664 0
-272 -5655 0
-264 5656 0
-5656 5665 0
-265 -5656 5657 0
-5657 5666 0
-266 -5657 5658 0
-5658 5667 0
-267 -5658 5659 0
-5659 5668 0
-268 -5659 5660 0
-5660 5669 0
-269 -5660 5661 0
-5661 5670 0
-270 -5661 5662 0
-5662 5671 0
-271 -5662 5663 0
-5663 5672 0
-272 -5663 5664 0
-5664 5673 0
-273 -5664 0
-265 5665 0
-5665 5674 0
-266 -5665 5666 0
-5666 5675 0
-267 -5666 5667 0
-5667 5676 0
-268 -5667 5668 0
-5668 5677 0
-269 -5668 5669 0
-5669 5678 0
-270 -5669 5670 0
-5670 5679 0
-271 -5670 5671 0
-5671 5680 0
-272 -5671 5672 0
-5672 5681 0
-273 -5672 5673 0
-5673 5682 0
-274 -5673 0
-266 5674 0
-5674 5683 0
-267 -5674 5675 0
-5675 5684 0
-268 -5675 5676 0
-5676 5685 0
-269 -5676 5677 0
-5677 5686 0
-270 -5677 5678 0
-5678 5687 0
-271 -5678 5679 0
-5679 5688 0
-272 -5679 5680 0
-5680 5689 0
-273 -5680 5681 0
-5681 5690 0
-274 -5681 5682 0
-5682 5691 0
-275 -5682 0
-267 5683 0
-5683 5692 0
-268 -5683 5684 0
-5684 5693 0
-269 -5684 5685 0
-5685 5694 0
-270 -5685 5686 0
-5686 5695 0
-271 -5686 5687 0
-5687 5696 0
-272 -5687 5688 0
-5688 5697 0
-273 -5688 5689 0
-5689 5698 0
-274 -5689 5690 0
-5690 5699 0
-275 -5690 5691 0
-5691 5700 0
-276 -5691 0
-268 5692 0
-5692 5701 0
-269 -5692 5693 0
-5693 5702 0
-270 -5693 5694 0
-5694 5703 0
-271 -5694 5695 0
-5695 5704 0
-272 -5695 5696 0
-5696 5705 0
-273 -5696 5697 0
-5697 5706 0
-274 -5697 5698 0
-5698 5707 0
-275 -5698 5699 0
-5699 5708 0
-276 -5699 5700 0
-5700 5709 0
-277 -5700 0
-269 5701 0
-5701 5710 0
-270 -5701 5702 0
-5702 5711 0
-271 -5702 5703 0
-5703 5712 0
-272 -5703 5704 0
-5704 5713 0
-273 -5704 5705 0
-5705 5714 0
-274 -5705 5706 0
-5706 5715 0
-275 -5706 5707 0
-5707 5716 0
-276 -5707 5708 0
-5708 5717 0
-277 -5708 5709 0
-5709 5718 0
-278 -5709 0
-270 5710 0
-5710 5719 0
-271 -5710 5711 0
-5711 5720 0
-272 -5711 5712 0
-5712 5721 0
-273 -5712 5713 0
-5713 5722 0
-274 -5713 5714 0
-5714 5723 0
-275 -5714 5715 0
-5715 5724 0
-276 -5715 5716 0
-5716 5725 0
-277 -5716 5717 0
-5717 5726 0
-278 -5717 5718 0
-5718 5727 0
-279 -5718 0
-271 5719 0
-5719 5728 0
-272 -5719 5720 0
-5720 5729 0
-273 -5720 5721 0
-5721 5730 0
-274 -5721 5722 0
-5722 5731 0
-275 -5722 5723 0
-5723 5732 0
-276 -5723 5724 0
-5724 5733 0
-277 -5724 5725 0
-5725 5734 0
-278 -5725 5726 0
-5726 5735 0
-279 -5726 5727 0
-5727 5736 0
-280 -5727 0
-272 5728 0
-5728 5737 0
-273 -5728 5729 0
-5729 5738 0
-274 -5729 5730 0
-5730 5739 0
-275 -5730 5731 0
-5731 5740 0
-276 -5731 5732 0
-5732 5741 0
-277 -5732 5733 0
-5733 5742 0
-278 -5733 5734 0
-5734 5743 0
-279 -5734 5735 0
-5735 5744 0
-280 -5735 5736 0
-5736 5745 0
-281 -5736 0
-273 5737 0
-5737 5746 0
-274 -5737 5738 0
-5738 5747 0
-275 -5738 5739 0
-5739 5748 0
-276 -5739 5740 0
-5740 5749 0
-277 -5740 5741 0
-5741 5750 0
-278 -5741 5742 0
-5742 5751 0
-279 -5742 5743 0
-5743 5752 0
-280 -5743 5744 0
-5744 5753 0
-281 -5744 5745 0
-5745 5754 0
-282 -5745 0
-274 5746 0
-5746 5755 0
-275 -5746 5747 0
-5747 5756 0
-276 -5747 5748 0
-5748 5757 0
-277 -5748 5749 0
-5749 5758 0
-278 -5749 5750 0
-5750 5759 0
-279 -5750 5751 0
-5751 5760 0
-280 -5751 5752 0
-5752 5761 0
-281 -5752 5753 0
-5753 5762 0
-282 -5753 5754 0
-5754 5763 0
-283 -5754 0
-275 5755 0
-5755 5764 0
-276 -5755 5756 0
-5756 5765 0
-277 -5756 5757 0
-5757 5766 0
-278 -5757 5758 0
-5758 5767 0
-279 -5758 5759 0
-5759 5768 0
-280 -5759 5760 0
-5760 5769 0
-281 -5760 5761 0
-5761 5770 0
-282 -5761 5762 0
-5762 5771 0
-283 -5762 5763 0
-5763 5772 0
-284 -5763 0
-276 5764 0
-5764 5773 0
-277 -5764 5765 0
-5765 5774 0
-278 -5765 5766 0
-5766 5775 0
-279 -5766 5767 0
-5767 5776 0
-280 -5767 5768 0
-5768 5777 0
-281 -5768 5769 0
-5769 5778 0
-282 -5769 5770 0
-5770 5779 0
-283 -5770 5771 0
-5771 5780 0
-284 -5771 5772 0
-5772 5781 0
-285 -5772 0
-277 5773 0
-5773 5782 0
-278 -5773 5774 0
-5774 5783 0
-279 -5774 5775 0
-5775 5784 0
-280 -5775 5776 0
-5776 5785 0
-281 -5776 5777 0
-5777 5786 0
-282 -5777 5778 0
-5778 5787 0
-283 -5778 5779 0
-5779 5788 0
-284 -5779 5780 0
-5780 5789 0
-285 -5780 5781 0
-5781 5790 0
-286 -5781 0
-278 5782 0
-5782 5791 0
-279 -5782 5783 0
-5783 5792 0
-280 -5783 5784 0
-5784 5793 0
-281 -5784 5785 0
-5785 5794 0
-282 -5785 5786 0
-5786 5795 0
-283 -5786 5787 0
-5787 5796 0
-284 -5787 5788 0
-5788 5797 0
-285 -5788 5789 0
-5789 5798 0
-286 -5789 5790 0
-5790 5799 0
-287 -5790 0
-279 5791 0
-5791 5800 0
-280 -5791 5792 0
-5792 5801 0
-281 -5792 5793 0
-5793 5802 0
-282 -5793 5794 0
-5794 5803 0
-283 -5794 5795 0
-5795 5804 0
-284 -5795 5796 0
-5796 5805 0
-285 -5796 5797 0
-5797 5806 0
-286 -5797 5798 0
-5798 5807 0
-287 -5798 5799 0
-5799 5808 0
-288 -5799 0
-280 5800 0
-5800 5809 0
-281 -5800 5801 0
-5801 5810 0
-282 -5801 5802 0
-5802 5811 0
-283 -5802 5803 0
-5803 5812 0
-284 -5803 5804 0
-5804 5813 0
-285 -5804 5805 0
-5805 5814 0
-286 -5805 5806 0
-5806 5815 0
-287 -5806 5807 0
-5807 5816 0
-288 -5807 5808 0
-5808 5817 0
-289 -5808 0
-281 5809 0
-5809 5818 0
-282 -5809 5810 0
-5810 5819 0
-283 -5810 5811 0
-5811 5820 0
-284 -5811 5812 0
-5812 5821 0
-285 -5812 5813 0
-5813 5822 0
-286 -5813 5814 0
-5814 5823 0
-287 -5814 5815 0
-5815 5824 0
-288 -5815 5816 0
-5816 5825 0
-289 -5816 5817 0
-5817 5826 0
-290 -5817 0
-282 5818 0
-5818 5827 0
-283 -5818 5819 0
-5819 5828 0
-284 -5819 5820 0
-5820 5829 0
-285 -5820 5821 0
-5821 5830 0
-286 -5821 5822 0
-5822 5831 0
-287 -5822 5823 0
-5823 5832 0
-288 -5823 5824 0
-5824 5833 0
-289 -5824 5825 0
-5825 5834 0
-290 -5825 5826 0
-5826 5835 0
-291 -5826 0
-283 5827 0
-5827 5836 0
-284 -5827 5828 0
-5828 5837 0
-285 -5828 5829 0
-5829 5838 0
-286 -5829 5830 0
-5830 5839 0
-287 -5830 5831 0
-5831 5840 0
-288 -5831 5832 0
-5832 5841 0
-289 -5832 5833 0
-5833 5842 0
-290 -5833 5834 0
-5834 5843 0
-291 -5834 5835 0
-5835 5844 0
-292 -5835 0
-284 5836 0
-5836 5845 0
-285 -5836 5837 0
-5837 5846 0
-286 -5837 5838 0
-5838 5847 0
-287 -5838 5839 0
-5839 5848 0
-288 -5839 5840 0
-5840 5849 0
-289 -5840 5841 0
-5841 5850 0
-290 -5841 5842 0
-5842 5851 0
-291 -5842 5843 0
-5843 5852 0
-292 -5843 5844 0
-5844 5853 0
-293 -5844 0
-285 5845 0
-5845 5854 0
-286 -5845 5846 0
-5846 5855 0
-287 -5846 5847 0
-5847 5856 0
-288 -5847 5848 0
-5848 5857 0
-289 -5848 5849 0
-5849 5858 0
-290 -5849 5850 0
-5850 5859 0
-291 -5850 5851 0
-5851 5860 0
-292 -5851 5852 0
-5852 5861 0
-293 -5852 5853 0
-5853 5862 0
-294 -5853 0
-286 5854 0
-5854 5863 0
-287 -5854 5855 0
-5855 5864 0
-288 -5855 5856 0
-5856 5865 0
-289 -5856 5857 0
-5857 5866 0
-290 -5857 5858 0
-5858 5867 0
-291 -5858 5859 0
-5859 5868 0
-292 -5859 5860 0
-5860 5869 0
-293 -5860 5861 0
-5861 5870 0
-294 -5861 5862 0
-5862 5871 0
-295 -5862 0
-287 5863 0
-5863 5872 0
-288 -5863 5864 0
-5864 5873 0
-289 -5864 5865 0
-5865 5874 0
-290 -5865 5866 0
-5866 5875 0
-291 -5866 5867 0
-5867 5876 0
-292 -5867 5868 0
-5868 5877 0
-293 -5868 5869 0
-5869 5878 0
-294 -5869 5870 0
-5870 5879 0
-295 -5870 5871 0
-5871 5880 0
-296 -5871 0
-288 5872 0
-5872 5881 0
-289 -5872 5873 0
-5873 5882 0
-290 -5873 5874 0
-5874 5883 0
-291 -5874 5875 0
-5875 5884 0
-292 -5875 5876 0
-5876 5885 0
-293 -5876 5877 0
-5877 5886 0
-294 -5877 5878 0
-5878 5887 0
-295 -5878 5879 0
-5879 5888 0
-296 -5879 5880 0
-5880 5889 0
-297 -5880 0
-289 5881 0
-5881 5890 0
-290 -5881 5882 0
-5882 5891 0
-291 -5882 5883 0
-5883 5892 0
-292 -5883 5884 0
-5884 5893 0
-293 -5884 5885 0
-5885 5894 0
-294 -5885 5886 0
-5886 5895 0
-295 -5886 5887 0
-5887 5896 0
-296 -5887 5888 0
-5888 5897 0
-297 -5888 5889 0
-5889 5898 0
-298 -5889 0
-290 5890 0
-5890 5899 0
-291 -5890 5891 0
-5891 5900 0
-292 -5891 5892 0
-5892 5901 0
-293 -5892 5893 0
-5893 5902 0
-294 -5893 5894 0
-5894 5903 0
-295 -5894 5895 0
-5895 5904 0
-296 -5895 5896 0
-5896 5905 0
-297 -5896 5897 0
-5897 5906 0
-298 -5897 5898 0
-5898 5907 0
-299 -5898 0
-291 5899 0
-5899 5908 0
-292 -5899 5900 0
-5900 5909 0
-293 -5900 5901 0
-5901 5910 0
-294 -5901 5902 0
-5902 5911 0
-295 -5902 5903 0
-5903 5912 0
-296 -5903 5904 0
-5904 5913 0
-297 -5904 5905 0
-5905 5914 0
-298 -5905 5906 0
-5906 5915 0
-299 -5906 5907 0
-5907 5916 0
-300 -5907 0
-292 5908 0
-5908 5917 0
-293 -5908 5909 0
-5909 5918 0
-294 -5909 5910 0
-5910 5919 0
-295 -5910 5911 0
-5911 5920 0
-296 -5911 5912 0
-5912 5921 0
-297 -5912 5913 0
-5913 5922 0
-298 -5913 5914 0
-5914 5923 0
-299 -5914 5915 0
-5915 5924 0
-300 -5915 5916 0
-5916 5925 0
-301 -5916 0
-293 5917 0
-5917 5926 0
-294 -5917 5918 0
-5918 5927 0
-295 -5918 5919 0
-5919 5928 0
-296 -5919 5920 0
-5920 5929 0
-297 -5920 5921 0
-5921 5930 0
-298 -5921 5922 0
-5922 5931 0
-299 -5922 5923 0
-5923 5932 0
-300 -5923 5924 0
-5924 5933 0
-301 -5924 5925 0
-5925 5934 0
-302 -5925 0
-294 5926 0
-5926 5935 0
-295 -5926 5927 0
-5927 5936 0
-296 -5927 5928 0
-5928 5937 0
-297 -5928 5929 0
-5929 5938 0
-298 -5929 5930 0
-5930 5939 0
-299 -5930 5931 0
-5931 5940 0
-300 -5931 5932 0
-5932 5941 0
-301 -5932 5933 0
-5933 5942 0
-302 -5933 5934 0
-5934 5943 0
-303 -5934 0
-295 5935 0
-296 -5935 5936 0
-297 -5936 5937 0
-298 -5937 5938 0
-299 -5938 5939 0
-300 -5939 5940 0
-301 -5940 5941 0
-302 -5941 5942 0
-303 -5942 5943 0
-304 -5943 0
1 77 0
