p cnf 2159 4429
-65 -1 0
-65 2 32 33 0
-2 1 65 0
-32 1 65 0
-33 1 65 0
-66 -2 0
-66 1 3 34 0
-1 2 66 0
-3 2 66 0
-34 2 66 0
-67 -3 0
-67 2 4 35 0
-2 3 67 0
-4 3 67 0
-35 3 67 0
-68 -4 0
-68 3 5 36 0
-3 4 68 0
-5 4 68 0
-36 4 68 0
-69 -5 0
-69 4 6 37 0
-4 5 69 0
-6 5 69 0
-37 5 69 0
-70 -6 0
-70 5 7 38 0
-5 6 70 0
-7 6 70 0
-38 6 70 0
-71 -7 0
-71 6 8 39 0
-6 7 71 0
-8 7 71 0
-39 7 71 0
-72 -8 0
-72 7 9 40 0
-7 8 72 0
-9 8 72 0
-40 8 72 0
-73 -9 0
-73 8 10 41 0
-8 9 73 0
-10 9 73 0
-41 9 73 0
-74 -10 0
-74 9 11 42 0
-9 10 74 0
-11 10 74 0
-42 10 74 0
-75 -11 0
-75 10 12 43 0
-10 11 75 0
-12 11 75 0
-43 11 75 0
-76 -12 0
-76 11 13 44 0
-11 12 76 0
-13 12 76 0
-44 12 76 0
-77 -13 0
-77 12 14 45 0
-12 13 77 0
-14 13 77 0
-45 13 77 0
-78 -14 0
-78 13 15 46 0
-13 14 78 0
-15 14 78 0
-46 14 78 0
-79 -15 0
-79 14 16 47 0
-14 15 79 0
-16 15 79 0
-47 15 79 0
-80 -16 0
-80 15 17 48 0
-15 16 80 0
-17 16 80 0
-48 16 80 0
-81 -17 0
-81 16 18 49 0
-16 17 81 0
-18 17 81 0
-49 17 81 0
-82 -18 0
-82 17 19 50 0
-17 18 82 0
-19 18 82 0
-50 18 82 0
-83 -19 0
-83 18 20 51 0
-18 19 83 0
-20 19 83 0
-51 19 83 0
-84 -20 0
-84 19 21 52 0
-19 20 84 0
-21 20 84 0
-52 20 84 0
-85 -21 0
-85 20 22 53 0
-20 21 85 0
-22 21 85 0
-53 21 85 0
-86 -22 0
-86 21 23 54 0
-21 22 86 0
-23 22 86 0
-54 22 86 0
-87 -23 0
-87 22 24 55 0
-22 23 87 0
-24 23 87 0
-55 23 87 0
-88 -24 0
-88 23 25 56 0
-23 24 88 0
-25 24 88 0
-56 24 88 0
-89 -25 0
-89 24 26 57 0
-24 25 89 0
-26 25 89 0
-57 25 89 0
-90 -26 0
-90 25 27 58 0
-25 26 90 0
-27 26 90 0
-58 26 90 0
-91 -27 0
-91 26 28 59 0
-26 27 91 0
-28 27 91 0
-59 27 91 0
-92 -28 0
-92 27 29 60 0
-27 28 92 0
-29 28 92 0
-60 28 92 0
-93 -29 0
-93 28 30 61 0
-28 29 93 0
-30 29 93 0
-61 29 93 0
-94 -30 0
-94 29 31 62 0
-29 30 94 0
-31 30 94 0
-62 30 94 0
-95 -31 0
-95 30 32 63 0
-30 31 95 0
-32 31 95 0
-63 31 95 0
-96 -32 0
-96 1 31 64 0
-1 32 96 0
-31 32 96 0
-64 32 96 0
-97 -33 0
-97 1 37 61 0
-1 33 97 0
-37 33 97 0
-61 33 97 0
-98 -34 0
-98 2 38 62 0
-2 34 98 0
-38 34 98 0
-62 34 98 0
-99 -35 0
-99 3 39 63 0
-3 35 99 0
-39 35 99 0
-63 35 99 0
-100 -36 0
-100 4 40 64 0
-4 36 100 0
-40 36 100 0
-64 36 100 0
-101 -37 0
-101 5 33 41 0
-5 37 101 0
-33 37 101 0
-41 37 101 0
-102 -38 0
-102 6 34 42 0
-6 38 102 0
-34 38 102 0
-42 38 102 0
-103 -39 0
-103 7 35 43 0
-7 39 103 0
-35 39 103 0
-43 39 103 0
-104 -40 0
-104 8 36 44 0
-8 40 104 0
-36 40 104 0
-44 40 104 0
-105 -41 0
-105 9 37 45 0
-9 41 105 0
-37 41 105 0
-45 41 105 0
-106 -42 0
-106 10 38 46 0
-10 42 106 0
-38 42 106 0
-46 42 106 0
-107 -43 0
-107 11 39 47 0
-11 43 107 0
-39 43 107 0
-47 43 107 0
-108 -44 0
-108 12 40 48 0
-12 44 108 0
-40 44 108 0
-48 44 108 0
-109 -45 0
-109 13 41 49 0
-13 45 109 0
-41 45 109 0
-49 45 109 0
-110 -46 0
-110 14 42 50 0
-14 46 110 0
-42 46 110 0
-50 46 110 0
-111 -47 0
-111 15 43 51 0
-15 47 111 0
-43 47 111 0
-51 47 111 0
-112 -48 0
-112 16 44 52 0
-16 48 112 0
-44 48 112 0
-52 48 112 0
-113 -49 0
-113 17 45 53 0
-17 49 113 0
-45 49 113 0
-53 49 113 0
-114 -50 0
-114 18 46 54 0
-18 50 114 0
-46 50 114 0
-54 50 114 0
-115 -51 0
-115 19 47 55 0
-19 51 115 0
-47 51 115 0
-55 51 115 0
-116 -52 0
-116 20 48 56 0
-20 52 116 0
-48 52 116 0
-56 52 116 0
-117 -53 0
-117 21 49 57 0
-21 53 117 0
-49 53 117 0
-57 53 117 0
-118 -54 0
-118 22 50 58 0
-22 54 118 0
-50 54 118 0
-58 54 118 0
-119 -55 0
-119 23 51 59 0
-23 55 119 0
-51 55 119 0
-59 55 119 0
-120 -56 0
-120 24 52 60 0
-24 56 120 0
-52 56 120 0
-60 56 120 0
-121 -57 0
-121 25 53 61 0
-25 57 121 0
-53 57 121 0
-61 57 121 0
-122 -58 0
-122 26 54 62 0
-26 58 122 0
-54 58 122 0
-62 58 122 0
-123 -59 0
-123 27 55 63 0
-27 59 123 0
-55 59 123 0
-63 59 123 0
-124 -60 0
-124 28 56 64 0
-28 60 124 0
-56 60 124 0
-64 60 124 0
-125 -61 0
-125 29 33 57 0
-29 61 125 0
-33 61 125 0
-57 61 125 0
-126 -62 0
-126 30 34 58 0
-30 62 126 0
-34 62 126 0
-58 62 126 0
-127 -63 0
-127 31 35 59 0
-31 63 127 0
-35 63 127 0
-59 63 127 0
-128 -64 0
-128 32 36 60 0
-32 64 128 0
-36 64 128 0
-60 64 128 0
1 129 0
-129 130 0
2 -129 131 0
-131 132 0
3 -131 133 0
-133 134 0
4 -133 135 0
-135 136 0
5 -135 137 0
-137 138 0
6 -137 139 0
-139 140 0
7 -139 141 0
-141 142 0
8 -141 143 0
-143 144 0
9 -143 145 0
-145 146 0
10 -145 147 0
-147 148 0
11 -147 149 0
-149 150 0
12 -149 151 0
-151 152 0
13 -151 153 0
-153 154 0
14 -153 155 0
-155 156 0
15 -155 157 0
-157 158 0
16 -157 159 0
-159 160 0
17 -159 161 0
-161 162 0
18 -161 163 0
-163 164 0
19 -163 165 0
-165 166 0
20 -165 167 0
-167 168 0
21 -167 169 0
-169 170 0
22 -169 171 0
-171 172 0
23 -171 173 0
-173 174 0
24 -173 175 0
-175 176 0
25 -175 177 0
-177 178 0
26 -177 179 0
-179 180 0
27 -179 181 0
-181 182 0
28 -181 183 0
-183 184 0
29 -183 185 0
-185 186 0
30 -185 187 0
-187 188 0
31 -187 189 0
-189 190 0
32 -189 191 0
-191 192 0
33 -191 193 0
-193 194 0
34 -193 195 0
-195 196 0
35 -195 197 0
-197 198 0
36 -197 199 0
-199 200 0
37 -199 201 0
-201 202 0
38 -201 203 0
-203 204 0
39 -203 205 0
-205 206 0
40 -205 207 0
-207 208 0
41 -207 209 0
-209 210 0
42 -209 211 0
-211 212 0
43 -211 213 0
-213 214 0
44 -213 215 0
-215 216 0
45 -215 217 0
-217 218 0
46 -217 219 0
-219 220 0
47 -219 221 0
-221 222 0
48 -221 223 0
-223 224 0
49 -223 0
2 130 0
-130 225 0
3 -130 132 0
-132 226 0
4 -132 134 0
-134 227 0
5 -134 136 0
-136 228 0
6 -136 138 0
-138 229 0
7 -138 140 0
-140 230 0
8 -140 142 0
-142 231 0
9 -142 144 0
-144 232 0
10 -144 146 0
-146 233 0
11 -146 148 0
-148 234 0
12 -148 150 0
-150 235 0
13 -150 152 0
-152 236 0
14 -152 154 0
-154 237 0
15 -154 156 0
-156 238 0
16 -156 158 0
-158 239 0
17 -158 160 0
-160 240 0
18 -160 162 0
-162 241 0
19 -162 164 0
-164 242 0
20 -164 166 0
-166 243 0
21 -166 168 0
-168 244 0
22 -168 170 0
-170 245 0
23 -170 172 0
-172 246 0
24 -172 174 0
-174 247 0
25 -174 176 0
-176 248 0
26 -176 178 0
-178 249 0
27 -178 180 0
-180 250 0
28 -180 182 0
-182 251 0
29 -182 184 0
-184 252 0
30 -184 186 0
-186 253 0
31 -186 188 0
-188 254 0
32 -188 190 0
-190 255 0
33 -190 192 0
-192 256 0
34 -192 194 0
-194 257 0
35 -194 196 0
-196 258 0
36 -196 198 0
-198 259 0
37 -198 200 0
-200 260 0
38 -200 202 0
-202 261 0
39 -202 204 0
-204 262 0
40 -204 206 0
-206 263 0
41 -206 208 0
-208 264 0
42 -208 210 0
-210 265 0
43 -210 212 0
-212 266 0
44 -212 214 0
-214 267 0
45 -214 216 0
-216 268 0
46 -216 218 0
-218 269 0
47 -218 220 0
-220 270 0
48 -220 222 0
-222 271 0
49 -222 224 0
-224 272 0
50 -224 0
3 225 0
-225 273 0
4 -225 226 0
-226 274 0
5 -226 227 0
-227 275 0
6 -227 228 0
-228 276 0
7 -228 229 0
-229 277 0
8 -229 230 0
-230 278 0
9 -230 231 0
-231 279 0
10 -231 232 0
-232 280 0
11 -232 233 0
-233 281 0
12 -233 234 0
-234 282 0
13 -234 235 0
-235 283 0
14 -235 236 0
-236 284 0
15 -236 237 0
-237 285 0
16 -237 238 0
-238 286 0
17 -238 239 0
-239 287 0
18 -239 240 0
-240 288 0
19 -240 241 0
-241 289 0
20 -241 242 0
-242 290 0
21 -242 243 0
-243 291 0
22 -243 244 0
-244 292 0
23 -244 245 0
-245 293 0
24 -245 246 0
-246 294 0
25 -246 247 0
-247 295 0
26 -247 248 0
-248 296 0
27 -248 249 0
-249 297 0
28 -249 250 0
-250 298 0
29 -250 251 0
-251 299 0
30 -251 252 0
-252 300 0
31 -252 253 0
-253 301 0
32 -253 254 0
-254 302 0
33 -254 255 0
-255 303 0
34 -255 256 0
-256 304 0
35 -256 257 0
-257 305 0
36 -257 258 0
-258 306 0
37 -258 259 0
-259 307 0
38 -259 260 0
-260 308 0
39 -260 261 0
-261 309 0
40 -261 262 0
-262 310 0
41 -262 263 0
-263 311 0
42 -263 264 0
-264 312 0
43 -264 265 0
-265 313 0
44 -265 266 0
-266 314 0
45 -266 267 0
-267 315 0
46 -267 268 0
-268 316 0
47 -268 269 0
-269 317 0
48 -269 270 0
-270 318 0
49 -270 271 0
-271 319 0
50 -271 272 0
-272 320 0
51 -272 0
4 273 0
-273 321 0
5 -273 274 0
-274 322 0
6 -274 275 0
-275 323 0
7 -275 276 0
-276 324 0
8 -276 277 0
-277 325 0
9 -277 278 0
-278 326 0
10 -278 279 0
-279 327 0
11 -279 280 0
-280 328 0
12 -280 281 0
-281 329 0
13 -281 282 0
-282 330 0
14 -282 283 0
-283 331 0
15 -283 284 0
-284 332 0
16 -284 285 0
-285 333 0
17 -285 286 0
-286 334 0
18 -286 287 0
-287 335 0
19 -287 288 0
-288 336 0
20 -288 289 0
-289 337 0
21 -289 290 0
-290 338 0
22 -290 291 0
-291 339 0
23 -291 292 0
-292 340 0
24 -292 293 0
-293 341 0
25 -293 294 0
-294 342 0
26 -294 295 0
-295 343 0
27 -295 296 0
-296 344 0
28 -296 297 0
-297 345 0
29 -297 298 0
-298 346 0
30 -298 299 0
-299 347 0
31 -299 300 0
-300 348 0
32 -300 301 0
-301 349 0
33 -301 302 0
-302 350 0
34 -302 303 0
-303 351 0
35 -303 304 0
-304 352 0
36 -304 305 0
-305 353 0
37 -305 306 0
-306 354 0
38 -306 307 0
-307 355 0
39 -307 308 0
-308 356 0
40 -308 309 0
-309 357 0
41 -309 310 0
-310 358 0
42 -310 311 0
-311 359 0
43 -311 312 0
-312 360 0
44 -312 313 0
-313 361 0
45 -313 314 0
-314 362 0
46 -314 315 0
-315 363 0
47 -315 316 0
-316 364 0
48 -316 317 0
-317 365 0
49 -317 318 0
-318 366 0
50 -318 319 0
-319 367 0
51 -319 320 0
-320 368 0
52 -320 0
5 321 0
-321 369 0
6 -321 322 0
-322 370 0
7 -322 323 0
-323 371 0
8 -323 324 0
-324 372 0
9 -324 325 0
-325 373 0
10 -325 326 0
-326 374 0
11 -326 327 0
-327 375 0
12 -327 328 0
-328 376 0
13 -328 329 0
-329 377 0
14 -329 330 0
-330 378 0
15 -330 331 0
-331 379 0
16 -331 332 0
-332 380 0
17 -332 333 0
-333 381 0
18 -333 334 0
-334 382 0
19 -334 335 0
-335 383 0
20 -335 336 0
-336 384 0
21 -336 337 0
-337 385 0
22 -337 338 0
-338 386 0
23 -338 339 0
-339 387 0
24 -339 340 0
-340 388 0
25 -340 341 0
-341 389 0
26 -341 342 0
-342 390 0
27 -342 343 0
-343 391 0
28 -343 344 0
-344 392 0
29 -344 345 0
-345 393 0
30 -345 346 0
-346 394 0
31 -346 347 0
-347 395 0
32 -347 348 0
-348 396 0
33 -348 349 0
-349 397 0
34 -349 350 0
-350 398 0
35 -350 351 0
-351 399 0
36 -351 352 0
-352 400 0
37 -352 353 0
-353 401 0
38 -353 354 0
-354 402 0
39 -354 355 0
-355 403 0
40 -355 356 0
-356 404 0
41 -356 357 0
-357 405 0
42 -357 358 0
-358 406 0
43 -358 359 0
-359 407 0
44 -359 360 0
-360 408 0
45 -360 361 0
-361 409 0
46 -361 362 0
-362 410 0
47 -362 363 0
-363 411 0
48 -363 364 0
-364 412 0
49 -364 365 0
-365 413 0
50 -365 366 0
-366 414 0
51 -366 367 0
-367 415 0
52 -367 368 0
-368 416 0
53 -368 0
6 369 0
-369 417 0
7 -369 370 0
-370 418 0
8 -370 371 0
-371 419 0
9 -371 372 0
-372 420 0
10 -372 373 0
-373 421 0
11 -373 374 0
-374 422 0
12 -374 375 0
-375 423 0
13 -375 376 0
-376 424 0
14 -376 377 0
-377 425 0
15 -377 378 0
-378 426 0
16 -378 379 0
-379 427 0
17 -379 380 0
-380 428 0
18 -380 381 0
-381 429 0
19 -381 382 0
-382 430 0
20 -382 383 0
-383 431 0
21 -383 384 0
-384 432 0
22 -384 385 0
-385 433 0
23 -385 386 0
-386 434 0
24 -386 387 0
-387 435 0
25 -387 388 0
-388 436 0
26 -388 389 0
-389 437 0
27 -389 390 0
-390 438 0
28 -390 391 0
-391 439 0
29 -391 392 0
-392 440 0
30 -392 393 0
-393 441 0
31 -393 394 0
-394 442 0
32 -394 395 0
-395 443 0
33 -395 396 0
-396 444 0
34 -396 397 0
-397 445 0
35 -397 398 0
-398 446 0
36 -398 399 0
-399 447 0
37 -399 400 0
-400 448 0
38 -400 401 0
-401 449 0
39 -401 402 0
-402 450 0
40 -402 403 0
-403 451 0
41 -403 404 0
-404 452 0
42 -404 405 0
-405 453 0
43 -405 406 0
-406 454 0
44 -406 407 0
-407 455 0
45 -407 408 0
-408 456 0
46 -408 409 0
-409 457 0
47 -409 410 0
-410 458 0
48 -410 411 0
-411 459 0
49 -411 412 0
-412 460 0
50 -412 413 0
-413 461 0
51 -413 414 0
-414 462 0
52 -414 415 0
-415 463 0
53 -415 416 0
-416 464 0
54 -416 0
7 417 0
-417 465 0
8 -417 418 0
-418 466 0
9 -418 419 0
-419 467 0
10 -419 420 0
-420 468 0
11 -420 421 0
-421 469 0
12 -421 422 0
-422 470 0
13 -422 423 0
-423 471 0
14 -423 424 0
-424 472 0
15 -424 425 0
-425 473 0
16 -425 426 0
-426 474 0
17 -426 427 0
-427 475 0
18 -427 428 0
-428 476 0
19 -428 429 0
-429 477 0
20 -429 430 0
-430 478 0
21 -430 431 0
-431 479 0
22 -431 432 0
-432 480 0
23 -432 433 0
-433 481 0
24 -433 434 0
-434 482 0
25 -434 435 0
-435 483 0
26 -435 436 0
-436 484 0
27 -436 437 0
-437 485 0
28 -437 438 0
-438 486 0
29 -438 439 0
-439 487 0
30 -439 440 0
-440 488 0
31 -440 441 0
-441 489 0
32 -441 442 0
-442 490 0
33 -442 443 0
-443 491 0
34 -443 444 0
-444 492 0
35 -444 445 0
-445 493 0
36 -445 446 0
-446 494 0
37 -446 447 0
-447 495 0
38 -447 448 0
-448 496 0
39 -448 449 0
-449 497 0
40 -449 450 0
-450 498 0
41 -450 451 0
-451 499 0
42 -451 452 0
-452 500 0
43 -452 453 0
-453 501 0
44 -453 454 0
-454 502 0
45 -454 455 0
-455 503 0
46 -455 456 0
-456 504 0
47 -456 457 0
-457 505 0
48 -457 458 0
-458 506 0
49 -458 459 0
-459 507 0
50 -459 460 0
-460 508 0
51 -460 461 0
-461 509 0
52 -461 462 0
-462 510 0
53 -462 463 0
-463 511 0
54 -463 464 0
-464 512 0
55 -464 0
8 465 0
-465 513 0
9 -465 466 0
-466 514 0
10 -466 467 0
-467 515 0
11 -467 468 0
-468 516 0
12 -468 469 0
-469 517 0
13 -469 470 0
-470 518 0
14 -470 471 0
-471 519 0
15 -471 472 0
-472 520 0
16 -472 473 0
-473 521 0
17 -473 474 0
-474 522 0
18 -474 475 0
-475 523 0
19 -475 476 0
-476 524 0
20 -476 477 0
-477 525 0
21 -477 478 0
-478 526 0
22 -478 479 0
-479 527 0
23 -479 480 0
-480 528 0
24 -480 481 0
-481 529 0
25 -481 482 0
-482 530 0
26 -482 483 0
-483 531 0
27 -483 484 0
-484 532 0
28 -484 485 0
-485 533 0
29 -485 486 0
-486 534 0
30 -486 487 0
-487 535 0
31 -487 488 0
-488 536 0
32 -488 489 0
-489 537 0
33 -489 490 0
-490 538 0
34 -490 491 0
-491 539 0
35 -491 492 0
-492 540 0
36 -492 493 0
-493 541 0
37 -493 494 0
-494 542 0
38 -494 495 0
-495 543 0
39 -495 496 0
-496 544 0
40 -496 497 0
-497 545 0
41 -497 498 0
-498 546 0
42 -498 499 0
-499 547 0
43 -499 500 0
-500 548 0
44 -500 501 0
-501 549 0
45 -501 502 0
-502 550 0
46 -502 503 0
-503 551 0
47 -503 504 0
-504 552 0
48 -504 505 0
-505 553 0
49 -505 506 0
-506 554 0
50 -506 507 0
-507 555 0
51 -507 508 0
-508 556 0
52 -508 509 0
-509 557 0
53 -509 510 0
-510 558 0
54 -510 511 0
-511 559 0
55 -511 512 0
-512 560 0
56 -512 0
9 513 0
-513 561 0
10 -513 514 0
-514 562 0
11 -514 515 0
-515 563 0
12 -515 516 0
-516 564 0
13 -516 517 0
-517 565 0
14 -517 518 0
-518 566 0
15 -518 519 0
-519 567 0
16 -519 520 0
-520 568 0
17 -520 521 0
-521 569 0
18 -521 522 0
-522 570 0
19 -522 523 0
-523 571 0
20 -523 524 0
-524 572 0
21 -524 525 0
-525 573 0
22 -525 526 0
-526 574 0
23 -526 527 0
-527 575 0
24 -527 528 0
-528 576 0
25 -528 529 0
-529 577 0
26 -529 530 0
-530 578 0
27 -530 531 0
-531 579 0
28 -531 532 0
-532 580 0
29 -532 533 0
-533 581 0
30 -533 534 0
-534 582 0
31 -534 535 0
-535 583 0
32 -535 536 0
-536 584 0
33 -536 537 0
-537 585 0
34 -537 538 0
-538 586 0
35 -538 539 0
-539 587 0
36 -539 540 0
-540 588 0
37 -540 541 0
-541 589 0
38 -541 542 0
-542 590 0
39 -542 543 0
-543 591 0
40 -543 544 0
-544 592 0
41 -544 545 0
-545 593 0
42 -545 546 0
-546 594 0
43 -546 547 0
-547 595 0
44 -547 548 0
-548 596 0
45 -548 549 0
-549 597 0
46 -549 550 0
-550 598 0
47 -550 551 0
-551 599 0
48 -551 552 0
-552 600 0
49 -552 553 0
-553 601 0
50 -553 554 0
-554 602 0
51 -554 555 0
-555 603 0
52 -555 556 0
-556 604 0
53 -556 557 0
-557 605 0
54 -557 558 0
-558 606 0
55 -558 559 0
-559 607 0
56 -559 560 0
-560 608 0
57 -560 0
10 561 0
-561 609 0
11 -561 562 0
-562 610 0
12 -562 563 0
-563 611 0
13 -563 564 0
-564 612 0
14 -564 565 0
-565 613 0
15 -565 566 0
-566 614 0
16 -566 567 0
-567 615 0
17 -567 568 0
-568 616 0
18 -568 569 0
-569 617 0
19 -569 570 0
-570 618 0
20 -570 571 0
-571 619 0
21 -571 572 0
-572 620 0
22 -572 573 0
-573 621 0
23 -573 574 0
-574 622 0
24 -574 575 0
-575 623 0
25 -575 576 0
-576 624 0
26 -576 577 0
-577 625 0
27 -577 578 0
-578 626 0
28 -578 579 0
-579 627 0
29 -579 580 0
-580 628 0
30 -580 581 0
-581 629 0
31 -581 582 0
-582 630 0
32 -582 583 0
-583 631 0
33 -583 584 0
-584 632 0
34 -584 585 0
-585 633 0
35 -585 586 0
-586 634 0
36 -586 587 0
-587 635 0
37 -587 588 0
-588 636 0
38 -588 589 0
-589 637 0
39 -589 590 0
-590 638 0
40 -590 591 0
-591 639 0
41 -591 592 0
-592 640 0
42 -592 593 0
-593 641 0
43 -593 594 0
-594 642 0
44 -594 595 0
-595 643 0
45 -595 596 0
-596 644 0
46 -596 597 0
-597 645 0
47 -597 598 0
-598 646 0
48 -598 599 0
-599 647 0
49 -599 600 0
-600 648 0
50 -600 601 0
-601 649 0
51 -601 602 0
-602 650 0
52 -602 603 0
-603 651 0
53 -603 604 0
-604 652 0
54 -604 605 0
-605 653 0
55 -605 606 0
-606 654 0
56 -606 607 0
-607 655 0
57 -607 608 0
-608 656 0
58 -608 0
11 609 0
-609 657 0
12 -609 610 0
-610 658 0
13 -610 611 0
-611 659 0
14 -611 612 0
-612 660 0
15 -612 613 0
-613 661 0
16 -613 614 0
-614 662 0
17 -614 615 0
-615 663 0
18 -615 616 0
-616 664 0
19 -616 617 0
-617 665 0
20 -617 618 0
-618 666 0
21 -618 619 0
-619 667 0
22 -619 620 0
-620 668 0
23 -620 621 0
-621 669 0
24 -621 622 0
-622 670 0
25 -622 623 0
-623 671 0
26 -623 624 0
-624 672 0
27 -624 625 0
-625 673 0
28 -625 626 0
-626 674 0
29 -626 627 0
-627 675 0
30 -627 628 0
-628 676 0
31 -628 629 0
-629 677 0
32 -629 630 0
-630 678 0
33 -630 631 0
-631 679 0
34 -631 632 0
-632 680 0
35 -632 633 0
-633 681 0
36 -633 634 0
-634 682 0
37 -634 635 0
-635 683 0
38 -635 636 0
-636 684 0
39 -636 637 0
-637 685 0
40 -637 638 0
-638 686 0
41 -638 639 0
-639 687 0
42 -639 640 0
-640 688 0
43 -640 641 0
-641 689 0
44 -641 642 0
-642 690 0
45 -642 643 0
-643 691 0
46 -643 644 0
-644 692 0
47 -644 645 0
-645 693 0
48 -645 646 0
-646 694 0
49 -646 647 0
-647 695 0
50 -647 648 0
-648 696 0
51 -648 649 0
-649 697 0
52 -649 650 0
-650 698 0
53 -650 651 0
-651 699 0
54 -651 652 0
-652 700 0
55 -652 653 0
-653 701 0
56 -653 654 0
-654 702 0
57 -654 655 0
-655 703 0
58 -655 656 0
-656 704 0
59 -656 0
12 657 0
-657 705 0
13 -657 658 0
-658 706 0
14 -658 659 0
-659 707 0
15 -659 660 0
-660 708 0
16 -660 661 0
-661 709 0
17 -661 662 0
-662 710 0
18 -662 663 0
-663 711 0
19 -663 664 0
-664 712 0
20 -664 665 0
-665 713 0
21 -665 666 0
-666 714 0
22 -666 667 0
-667 715 0
23 -667 668 0
-668 716 0
24 -668 669 0
-669 717 0
25 -669 670 0
-670 718 0
26 -670 671 0
-671 719 0
27 -671 672 0
-672 720 0
28 -672 673 0
-673 721 0
29 -673 674 0
-674 722 0
30 -674 675 0
-675 723 0
31 -675 676 0
-676 724 0
32 -676 677 0
-677 725 0
33 -677 678 0
-678 726 0
34 -678 679 0
-679 727 0
35 -679 680 0
-680 728 0
36 -680 681 0
-681 729 0
37 -681 682 0
-682 730 0
38 -682 683 0
-683 731 0
39 -683 684 0
-684 732 0
40 -684 685 0
-685 733 0
41 -685 686 0
-686 734 0
42 -686 687 0
-687 735 0
43 -687 688 0
-688 736 0
44 -688 689 0
-689 737 0
45 -689 690 0
-690 738 0
46 -690 691 0
-691 739 0
47 -691 692 0
-692 740 0
48 -692 693 0
-693 741 0
49 -693 694 0
-694 742 0
50 -694 695 0
-695 743 0
51 -695 696 0
-696 744 0
52 -696 697 0
-697 745 0
53 -697 698 0
-698 746 0
54 -698 699 0
-699 747 0
55 -699 700 0
-700 748 0
56 -700 701 0
-701 749 0
57 -701 702 0
-702 750 0
58 -702 703 0
-703 751 0
59 -703 704 0
-704 752 0
60 -704 0
13 705 0
-705 753 0
14 -705 706 0
-706 754 0
15 -706 707 0
-707 755 0
16 -707 708 0
-708 756 0
17 -708 709 0
-709 757 0
18 -709 710 0
-710 758 0
19 -710 711 0
-711 759 0
20 -711 712 0
-712 760 0
21 -712 713 0
-713 761 0
22 -713 714 0
-714 762 0
23 -714 715 0
-715 763 0
24 -715 716 0
-716 764 0
25 -716 717 0
-717 765 0
26 -717 718 0
-718 766 0
27 -718 719 0
-719 767 0
28 -719 720 0
-720 768 0
29 -720 721 0
-721 769 0
30 -721 722 0
-722 770 0
31 -722 723 0
-723 771 0
32 -723 724 0
-724 772 0
33 -724 725 0
-725 773 0
34 -725 726 0
-726 774 0
35 -726 727 0
-727 775 0
36 -727 728 0
-728 776 0
37 -728 729 0
-729 777 0
38 -729 730 0
-730 778 0
39 -730 731 0
-731 779 0
40 -731 732 0
-732 780 0
41 -732 733 0
-733 781 0
42 -733 734 0
-734 782 0
43 -734 735 0
-735 783 0
44 -735 736 0
-736 784 0
45 -736 737 0
-737 785 0
46 -737 738 0
-738 786 0
47 -738 739 0
-739 787 0
48 -739 740 0
-740 788 0
49 -740 741 0
-741 789 0
50 -741 742 0
-742 790 0
51 -742 743 0
-743 791 0
52 -743 744 0
-744 792 0
53 -744 745 0
-745 793 0
54 -745 746 0
-746 794 0
55 -746 747 0
-747 795 0
56 -747 748 0
-748 796 0
57 -748 749 0
-749 797 0
58 -749 750 0
-750 798 0
59 -750 751 0
-751 799 0
60 -751 752 0
-752 800 0
61 -752 0
14 753 0
-753 801 0
15 -753 754 0
-754 802 0
16 -754 755 0
-755 803 0
17 -755 756 0
-756 804 0
18 -756 757 0
-757 805 0
19 -757 758 0
-758 806 0
20 -758 759 0
-759 807 0
21 -759 760 0
-760 808 0
22 -760 761 0
-761 809 0
23 -761 762 0
-762 810 0
24 -762 763 0
-763 811 0
25 -763 764 0
-764 812 0
26 -764 765 0
-765 813 0
27 -765 766 0
-766 814 0
28 -766 767 0
-767 815 0
29 -767 768 0
-768 816 0
30 -768 769 0
-769 817 0
31 -769 770 0
-770 818 0
32 -770 771 0
-771 819 0
33 -771 772 0
-772 820 0
34 -772 773 0
-773 821 0
35 -773 774 0
-774 822 0
36 -774 775 0
-775 823 0
37 -775 776 0
-776 824 0
38 -776 777 0
-777 825 0
39 -777 778 0
-778 826 0
40 -778 779 0
-779 827 0
41 -779 780 0
-780 828 0
42 -780 781 0
-781 829 0
43 -781 782 0
-782 830 0
44 -782 783 0
-783 831 0
45 -783 784 0
-784 832 0
46 -784 785 0
-785 833 0
47 -785 786 0
-786 834 0
48 -786 787 0
-787 835 0
49 -787 788 0
-788 836 0
50 -788 789 0
-789 837 0
51 -789 790 0
-790 838 0
52 -790 791 0
-791 839 0
53 -791 792 0
-792 840 0
54 -792 793 0
-793 841 0
55 -793 794 0
-794 842 0
56 -794 795 0
-795 843 0
57 -795 796 0
-796 844 0
58 -796 797 0
-797 845 0
59 -797 798 0
-798 846 0
60 -798 799 0
-799 847 0
61 -799 800 0
-800 848 0
62 -800 0
15 801 0
-801 849 0
16 -801 802 0
-802 850 0
17 -802 803 0
-803 851 0
18 -803 804 0
-804 852 0
19 -804 805 0
-805 853 0
20 -805 806 0
-806 854 0
21 -806 807 0
-807 855 0
22 -807 808 0
-808 856 0
23 -808 809 0
-809 857 0
24 -809 810 0
-810 858 0
25 -810 811 0
-811 859 0
26 -811 812 0
-812 860 0
27 -812 813 0
-813 861 0
28 -813 814 0
-814 862 0
29 -814 815 0
-815 863 0
30 -815 816 0
-816 864 0
31 -816 817 0
-817 865 0
32 -817 818 0
-818 866 0
33 -818 819 0
-819 867 0
34 -819 820 0
-820 868 0
35 -820 821 0
-821 869 0
36 -821 822 0
-822 870 0
37 -822 823 0
-823 871 0
38 -823 824 0
-824 872 0
39 -824 825 0
-825 873 0
40 -825 826 0
-826 874 0
41 -826 827 0
-827 875 0
42 -827 828 0
-828 876 0
43 -828 829 0
-829 877 0
44 -829 830 0
-830 878 0
45 -830 831 0
-831 879 0
46 -831 832 0
-832 880 0
47 -832 833 0
-833 881 0
48 -833 834 0
-834 882 0
49 -834 835 0
-835 883 0
50 -835 836 0
-836 884 0
51 -836 837 0
-837 885 0
52 -837 838 0
-838 886 0
53 -838 839 0
-839 887 0
54 -839 840 0
-840 888 0
55 -840 841 0
-841 889 0
56 -841 842 0
-842 890 0
57 -842 843 0
-843 891 0
58 -843 844 0
-844 892 0
59 -844 845 0
-845 893 0
60 -845 846 0
-846 894 0
61 -846 847 0
-847 895 0
62 -847 848 0
-848 896 0
63 -848 0
16 849 0
17 -849 850 0
18 -850 851 0
19 -851 852 0
20 -852 853 0
21 -853 854 0
22 -854 855 0
23 -855 856 0
24 -856 857 0
25 -857 858 0
26 -858 859 0
27 -859 860 0
28 -860 861 0
29 -861 862 0
30 -862 863 0
31 -863 864 0
32 -864 865 0
33 -865 866 0
34 -866 867 0
35 -867 868 0
36 -868 869 0
37 -869 870 0
38 -870 871 0
39 -871 872 0
40 -872 873 0
41 -873 874 0
42 -874 875 0
43 -875 876 0
44 -876 877 0
45 -877 878 0
46 -878 879 0
47 -879 880 0
48 -880 881 0
49 -881 882 0
50 -882 883 0
51 -883 884 0
52 -884 885 0
53 -885 886 0
54 -886 887 0
55 -887 888 0
56 -888 889 0
57 -889 890 0
58 -890 891 0
59 -891 892 0
60 -892 893 0
61 -893 894 0
62 -894 895 0
63 -895 896 0
64 -896 0
-1 897 0
-897 898 0
-2 -897 899 0
-899 900 0
-3 -899 901 0
-901 902 0
-4 -901 903 0
-903 904 0
-5 -903 905 0
-905 906 0
-6 -905 907 0
-907 908 0
-7 -907 909 0
-909 910 0
-8 -909 911 0
-911 912 0
-9 -911 913 0
-913 914 0
-10 -913 915 0
-915 916 0
-11 -915 917 0
-917 918 0
-12 -917 919 0
-919 920 0
-13 -919 921 0
-921 922 0
-14 -921 923 0
-923 924 0
-15 -923 925 0
-925 926 0
-16 -925 927 0
-927 928 0
-17 -927 0
-2 898 0
-898 929 0
-3 -898 900 0
-900 930 0
-4 -900 902 0
-902 931 0
-5 -902 904 0
-904 932 0
-6 -904 906 0
-906 933 0
-7 -906 908 0
-908 934 0
-8 -908 910 0
-910 935 0
-9 -910 912 0
-912 936 0
-10 -912 914 0
-914 937 0
-11 -914 916 0
-916 938 0
-12 -916 918 0
-918 939 0
-13 -918 920 0
-920 940 0
-14 -920 922 0
-922 941 0
-15 -922 924 0
-924 942 0
-16 -924 926 0
-926 943 0
-17 -926 928 0
-928 944 0
-18 -928 0
-3 929 0
-929 945 0
-4 -929 930 0
-930 946 0
-5 -930 931 0
-931 947 0
-6 -931 932 0
-932 948 0
-7 -932 933 0
-933 949 0
-8 -933 934 0
-934 950 0
-9 -934 935 0
-935 951 0
-10 -935 936 0
-936 952 0
-11 -936 937 0
-937 953 0
-12 -937 938 0
-938 954 0
-13 -938 939 0
-939 955 0
-14 -939 940 0
-940 956 0
-15 -940 941 0
-941 957 0
-16 -941 942 0
-942 958 0
-17 -942 943 0
-943 959 0
-18 -943 944 0
-944 960 0
-19 -944 0
-4 945 0
-945 961 0
-5 -945 946 0
-946 962 0
-6 -946 947 0
-947 963 0
-7 -947 948 0
-948 964 0
-8 -948 949 0
-949 965 0
-9 -949 950 0
-950 966 0
-10 -950 951 0
-951 967 0
-11 -951 952 0
-952 968 0
-12 -952 953 0
-953 969 0
-13 -953 954 0
-954 970 0
-14 -954 955 0
-955 971 0
-15 -955 956 0
-956 972 0
-16 -956 957 0
-957 973 0
-17 -957 958 0
-958 974 0
-18 -958 959 0
-959 975 0
-19 -959 960 0
-960 976 0
-20 -960 0
-5 961 0
-961 977 0
-6 -961 962 0
-962 978 0
-7 -962 963 0
-963 979 0
-8 -963 964 0
-964 980 0
-9 -964 965 0
-965 981 0
-10 -965 966 0
-966 982 0
-11 -966 967 0
-967 983 0
-12 -967 968 0
-968 984 0
-13 -968 969 0
-969 985 0
-14 -969 970 0
-970 986 0
-15 -970 971 0
-971 987 0
-16 -971 972 0
-972 988 0
-17 -972 973 0
-973 989 0
-18 -973 974 0
-974 990 0
-19 -974 975 0
-975 991 0
-20 -975 976 0
-976 992 0
-21 -976 0
-6 977 0
-977 993 0
-7 -977 978 0
-978 994 0
-8 -978 979 0
-979 995 0
-9 -979 980 0
-980 996 0
-10 -980 981 0
-981 997 0
-11 -981 982 0
-982 998 0
-12 -982 983 0
-983 999 0
-13 -983 984 0
-984 1000 0
-14 -984 985 0
-985 1001 0
-15 -985 986 0
-986 1002 0
-16 -986 987 0
-987 1003 0
-17 -987 988 0
-988 1004 0
-18 -988 989 0
-989 1005 0
-19 -989 990 0
-990 1006 0
-20 -990 991 0
-991 1007 0
-21 -991 992 0
-992 1008 0
-22 -992 0
-7 993 0
-993 1009 0
-8 -993 994 0
-994 1010 0
-9 -994 995 0
-995 1011 0
-10 -995 996 0
-996 1012 0
-11 -996 997 0
-997 1013 0
-12 -997 998 0
-998 1014 0
-13 -998 999 0
-999 1015 0
-14 -999 1000 0
-1000 1016 0
-15 -1000 1001 0
-1001 1017 0
-16 -1001 1002 0
-1002 1018 0
-17 -1002 1003 0
-1003 1019 0
-18 -1003 1004 0
-1004 1020 0
-19 -1004 1005 0
-1005 1021 0
-20 -1005 1006 0
-1006 1022 0
-21 -1006 1007 0
-1007 1023 0
-22 -1007 1008 0
-1008 1024 0
-23 -1008 0
-8 1009 0
-1009 1025 0
-9 -1009 1010 0
-1010 1026 0
-10 -1010 1011 0
-1011 1027 0
-11 -1011 1012 0
-1012 1028 0
-12 -1012 1013 0
-1013 1029 0
-13 -1013 1014 0
-1014 1030 0
-14 -1014 1015 0
-1015 1031 0
-15 -1015 1016 0
-1016 1032 0
-16 -1016 1017 0
-1017 1033 0
-17 -1017 1018 0
-1018 1034 0
-18 -1018 1019 0
-1019 1035 0
-19 -1019 1020 0
-1020 1036 0
-20 -1020 1021 0
-1021 1037 0
-21 -1021 1022 0
-1022 1038 0
-22 -1022 1023 0
-1023 1039 0
-23 -1023 1024 0
-1024 1040 0
-24 -1024 0
-9 1025 0
-1025 1041 0
-10 -1025 1026 0
-1026 1042 0
-11 -1026 1027 0
-1027 1043 0
-12 -1027 1028 0
-1028 1044 0
-13 -1028 1029 0
-1029 1045 0
-14 -1029 1030 0
-1030 1046 0
-15 -1030 1031 0
-1031 1047 0
-16 -1031 1032 0
-1032 1048 0
-17 -1032 1033 0
-1033 1049 0
-18 -1033 1034 0
-1034 1050 0
-19 -1034 1035 0
-1035 1051 0
-20 -1035 1036 0
-1036 1052 0
-21 -1036 1037 0
-1037 1053 0
-22 -1037 1038 0
-1038 1054 0
-23 -1038 1039 0
-1039 1055 0
-24 -1039 1040 0
-1040 1056 0
-25 -1040 0
-10 1041 0
-1041 1057 0
-11 -1041 1042 0
-1042 1058 0
-12 -1042 1043 0
-1043 1059 0
-13 -1043 1044 0
-1044 1060 0
-14 -1044 1045 0
-1045 1061 0
-15 -1045 1046 0
-1046 1062 0
-16 -1046 1047 0
-1047 1063 0
-17 -1047 1048 0
-1048 1064 0
-18 -1048 1049 0
-1049 1065 0
-19 -1049 1050 0
-1050 1066 0
-20 -1050 1051 0
-1051 1067 0
-21 -1051 1052 0
-1052 1068 0
-22 -1052 1053 0
-1053 1069 0
-23 -1053 1054 0
-1054 1070 0
-24 -1054 1055 0
-1055 1071 0
-25 -1055 1056 0
-1056 1072 0
-26 -1056 0
-11 1057 0
-1057 1073 0
-12 -1057 1058 0
-1058 1074 0
-13 -1058 1059 0
-1059 1075 0
-14 -1059 1060 0
-1060 1076 0
-15 -1060 1061 0
-1061 1077 0
-16 -1061 1062 0
-1062 1078 0
-17 -1062 1063 0
-1063 1079 0
-18 -1063 1064 0
-1064 1080 0
-19 -1064 1065 0
-1065 1081 0
-20 -1065 1066 0
-1066 1082 0
-21 -1066 1067 0
-1067 1083 0
-22 -1067 1068 0
-1068 1084 0
-23 -1068 1069 0
-1069 1085 0
-24 -1069 1070 0
-1070 1086 0
-25 -1070 1071 0
-1071 1087 0
-26 -1071 1072 0
-1072 1088 0
-27 -1072 0
-12 1073 0
-1073 1089 0
-13 -1073 1074 0
-1074 1090 0
-14 -1074 1075 0
-1075 1091 0
-15 -1075 1076 0
-1076 1092 0
-16 -1076 1077 0
-1077 1093 0
-17 -1077 1078 0
-1078 1094 0
-18 -1078 1079 0
-1079 1095 0
-19 -1079 1080 0
-1080 1096 0
-20 -1080 1081 0
-1081 1097 0
-21 -1081 1082 0
-1082 1098 0
-22 -1082 1083 0
-1083 1099 0
-23 -1083 1084 0
-1084 1100 0
-24 -1084 1085 0
-1085 1101 0
-25 -1085 1086 0
-1086 1102 0
-26 -1086 1087 0
-1087 1103 0
-27 -1087 1088 0
-1088 1104 0
-28 -1088 0
-13 1089 0
-1089 1105 0
-14 -1089 1090 0
-1090 1106 0
-15 -1090 1091 0
-1091 1107 0
-16 -1091 1092 0
-1092 1108 0
-17 -1092 1093 0
-1093 1109 0
-18 -1093 1094 0
-1094 1110 0
-19 -1094 1095 0
-1095 1111 0
-20 -1095 1096 0
-1096 1112 0
-21 -1096 1097 0
-1097 1113 0
-22 -1097 1098 0
-1098 1114 0
-23 -1098 1099 0
-1099 1115 0
-24 -1099 1100 0
-1100 1116 0
-25 -1100 1101 0
-1101 1117 0
-26 -1101 1102 0
-1102 1118 0
-27 -1102 1103 0
-1103 1119 0
-28 -1103 1104 0
-1104 1120 0
-29 -1104 0
-14 1105 0
-1105 1121 0
-15 -1105 1106 0
-1106 1122 0
-16 -1106 1107 0
-1107 1123 0
-17 -1107 1108 0
-1108 1124 0
-18 -1108 1109 0
-1109 1125 0
-19 -1109 1110 0
-1110 1126 0
-20 -1110 1111 0
-1111 1127 0
-21 -1111 1112 0
-1112 1128 0
-22 -1112 1113 0
-1113 1129 0
-23 -1113 1114 0
-1114 1130 0
-24 -1114 1115 0
-1115 1131 0
-25 -1115 1116 0
-1116 1132 0
-26 -1116 1117 0
-1117 1133 0
-27 -1117 1118 0
-1118 1134 0
-28 -1118 1119 0
-1119 1135 0
-29 -1119 1120 0
-1120 1136 0
-30 -1120 0
-15 1121 0
-1121 1137 0
-16 -1121 1122 0
-1122 1138 0
-17 -1122 1123 0
-1123 1139 0
-18 -1123 1124 0
-1124 1140 0
-19 -1124 1125 0
-1125 1141 0
-20 -1125 1126 0
-1126 1142 0
-21 -1126 1127 0
-1127 1143 0
-22 -1127 1128 0
-1128 1144 0
-23 -1128 1129 0
-1129 1145 0
-24 -1129 1130 0
-1130 1146 0
-25 -1130 1131 0
-1131 1147 0
-26 -1131 1132 0
-1132 1148 0
-27 -1132 1133 0
-1133 1149 0
-28 -1133 1134 0
-1134 1150 0
-29 -1134 1135 0
-1135 1151 0
-30 -1135 1136 0
-1136 1152 0
-31 -1136 0
-16 1137 0
-1137 1153 0
-17 -1137 1138 0
-1138 1154 0
-18 -1138 1139 0
-1139 1155 0
-19 -1139 1140 0
-1140 1156 0
-20 -1140 1141 0
-1141 1157 0
-21 -1141 1142 0
-1142 1158 0
-22 -1142 1143 0
-1143 1159 0
-23 -1143 1144 0
-1144 1160 0
-24 -1144 1145 0
-1145 1161 0
-25 -1145 1146 0
-1146 1162 0
-26 -1146 1147 0
-1147 1163 0
-27 -1147 1148 0
-1148 1164 0
-28 -1148 1149 0
-1149 1165 0
-29 -1149 1150 0
-1150 1166 0
-30 -1150 1151 0
-1151 1167 0
-31 -1151 1152 0
-1152 1168 0
-32 -1152 0
-17 1153 0
-1153 1169 0
-18 -1153 1154 0
-1154 1170 0
-19 -1154 1155 0
-1155 1171 0
-20 -1155 1156 0
-1156 1172 0
-21 -1156 1157 0
-1157 1173 0
-22 -1157 1158 0
-1158 1174 0
-23 -1158 1159 0
-1159 1175 0
-24 -1159 1160 0
-1160 1176 0
-25 -1160 1161 0
-1161 1177 0
-26 -1161 1162 0
-1162 1178 0
-27 -1162 1163 0
-1163 1179 0
-28 -1163 1164 0
-1164 1180 0
-29 -1164 1165 0
-1165 1181 0
-30 -1165 1166 0
-1166 1182 0
-31 -1166 1167 0
-1167 1183 0
-32 -1167 1168 0
-1168 1184 0
-33 -1168 0
-18 1169 0
-1169 1185 0
-19 -1169 1170 0
-1170 1186 0
-20 -1170 1171 0
-1171 1187 0
-21 -1171 1172 0
-1172 1188 0
-22 -1172 1173 0
-1173 1189 0
-23 -1173 1174 0
-1174 1190 0
-24 -1174 1175 0
-1175 1191 0
-25 -1175 1176 0
-1176 1192 0
-26 -1176 1177 0
-1177 1193 0
-27 -1177 1178 0
-1178 1194 0
-28 -1178 1179 0
-1179 1195 0
-29 -1179 1180 0
-1180 1196 0
-30 -1180 1181 0
-1181 1197 0
-31 -1181 1182 0
-1182 1198 0
-32 -1182 1183 0
-1183 1199 0
-33 -1183 1184 0
-1184 1200 0
-34 -1184 0
-19 1185 0
-1185 1201 0
-20 -1185 1186 0
-1186 1202 0
-21 -1186 1187 0
-1187 1203 0
-22 -1187 1188 0
-1188 1204 0
-23 -1188 1189 0
-1189 1205 0
-24 -1189 1190 0
-1190 1206 0
-25 -1190 1191 0
-1191 1207 0
-26 -1191 1192 0
-1192 1208 0
-27 -1192 1193 0
-1193 1209 0
-28 -1193 1194 0
-1194 1210 0
-29 -1194 1195 0
-1195 1211 0
-30 -1195 1196 0
-1196 1212 0
-31 -1196 1197 0
-1197 1213 0
-32 -1197 1198 0
-1198 1214 0
-33 -1198 1199 0
-1199 1215 0
-34 -1199 1200 0
-1200 1216 0
-35 -1200 0
-20 1201 0
-1201 1217 0
-21 -1201 1202 0
-1202 1218 0
-22 -1202 1203 0
-1203 1219 0
-23 -1203 1204 0
-1204 1220 0
-24 -1204 1205 0
-1205 1221 0
-25 -1205 1206 0
-1206 1222 0
-26 -1206 1207 0
-1207 1223 0
-27 -1207 1208 0
-1208 1224 0
-28 -1208 1209 0
-1209 1225 0
-29 -1209 1210 0
-1210 1226 0
-30 -1210 1211 0
-1211 1227 0
-31 -1211 1212 0
-1212 1228 0
-32 -1212 1213 0
-1213 1229 0
-33 -1213 1214 0
-1214 1230 0
-34 -1214 1215 0
-1215 1231 0
-35 -1215 1216 0
-1216 1232 0
-36 -1216 0
-21 1217 0
-1217 1233 0
-22 -1217 1218 0
-1218 1234 0
-23 -1218 1219 0
-1219 1235 0
-24 -1219 1220 0
-1220 1236 0
-25 -1220 1221 0
-1221 1237 0
-26 -1221 1222 0
-1222 1238 0
-27 -1222 1223 0
-1223 1239 0
-28 -1223 1224 0
-1224 1240 0
-29 -1224 1225 0
-1225 1241 0
-30 -1225 1226 0
-1226 1242 0
-31 -1226 1227 0
-1227 1243 0
-32 -1227 1228 0
-1228 1244 0
-33 -1228 1229 0
-1229 1245 0
-34 -1229 1230 0
-1230 1246 0
-35 -1230 1231 0
-1231 1247 0
-36 -1231 1232 0
-1232 1248 0
-37 -1232 0
-22 1233 0
-1233 1249 0
-23 -1233 1234 0
-1234 1250 0
-24 -1234 1235 0
-1235 1251 0
-25 -1235 1236 0
-1236 1252 0
-26 -1236 1237 0
-1237 1253 0
-27 -1237 1238 0
-1238 1254 0
-28 -1238 1239 0
-1239 1255 0
-29 -1239 1240 0
-1240 1256 0
-30 -1240 1241 0
-1241 1257 0
-31 -1241 1242 0
-1242 1258 0
-32 -1242 1243 0
-1243 1259 0
-33 -1243 1244 0
-1244 1260 0
-34 -1244 1245 0
-1245 1261 0
-35 -1245 1246 0
-1246 1262 0
-36 -1246 1247 0
-1247 1263 0
-37 -1247 1248 0
-1248 1264 0
-38 -1248 0
-23 1249 0
-1249 1265 0
-24 -1249 1250 0
-1250 1266 0
-25 -1250 1251 0
-1251 1267 0
-26 -1251 1252 0
-1252 1268 0
-27 -1252 1253 0
-1253 1269 0
-28 -1253 1254 0
-1254 1270 0
-29 -1254 1255 0
-1255 1271 0
-30 -1255 1256 0
-1256 1272 0
-31 -1256 1257 0
-1257 1273 0
-32 -1257 1258 0
-1258 1274 0
-33 -1258 1259 0
-1259 1275 0
-34 -1259 1260 0
-1260 1276 0
-35 -1260 1261 0
-1261 1277 0
-36 -1261 1262 0
-1262 1278 0
-37 -1262 1263 0
-1263 1279 0
-38 -1263 1264 0
-1264 1280 0
-39 -1264 0
-24 1265 0
-1265 1281 0
-25 -1265 1266 0
-1266 1282 0
-26 -1266 1267 0
-1267 1283 0
-27 -1267 1268 0
-1268 1284 0
-28 -1268 1269 0
-1269 1285 0
-29 -1269 1270 0
-1270 1286 0
-30 -1270 1271 0
-1271 1287 0
-31 -1271 1272 0
-1272 1288 0
-32 -1272 1273 0
-1273 1289 0
-33 -1273 1274 0
-1274 1290 0
-34 -1274 1275 0
-1275 1291 0
-35 -1275 1276 0
-1276 1292 0
-36 -1276 1277 0
-1277 1293 0
-37 -1277 1278 0
-1278 1294 0
-38 -1278 1279 0
-1279 1295 0
-39 -1279 1280 0
-1280 1296 0
-40 -1280 0
-25 1281 0
-1281 1297 0
-26 -1281 1282 0
-1282 1298 0
-27 -1282 1283 0
-1283 1299 0
-28 -1283 1284 0
-1284 1300 0
-29 -1284 1285 0
-1285 1301 0
-30 -1285 1286 0
-1286 1302 0
-31 -1286 1287 0
-1287 1303 0
-32 -1287 1288 0
-1288 1304 0
-33 -1288 1289 0
-1289 1305 0
-34 -1289 1290 0
-1290 1306 0
-35 -1290 1291 0
-1291 1307 0
-36 -1291 1292 0
-1292 1308 0
-37 -1292 1293 0
-1293 1309 0
-38 -1293 1294 0
-1294 1310 0
-39 -1294 1295 0
-1295 1311 0
-40 -1295 1296 0
-1296 1312 0
-41 -1296 0
-26 1297 0
-1297 1313 0
-27 -1297 1298 0
-1298 1314 0
-28 -1298 1299 0
-1299 1315 0
-29 -1299 1300 0
-1300 1316 0
-30 -1300 1301 0
-1301 1317 0
-31 -1301 1302 0
-1302 1318 0
-32 -1302 1303 0
-1303 1319 0
-33 -1303 1304 0
-1304 1320 0
-34 -1304 1305 0
-1305 1321 0
-35 -1305 1306 0
-1306 1322 0
-36 -1306 1307 0
-1307 1323 0
-37 -1307 1308 0
-1308 1324 0
-38 -1308 1309 0
-1309 1325 0
-39 -1309 1310 0
-1310 1326 0
-40 -1310 1311 0
-1311 1327 0
-41 -1311 1312 0
-1312 1328 0
-42 -1312 0
-27 1313 0
-1313 1329 0
-28 -1313 1314 0
-1314 1330 0
-29 -1314 1315 0
-1315 1331 0
-30 -1315 1316 0
-1316 1332 0
-31 -1316 1317 0
-1317 1333 0
-32 -1317 1318 0
-1318 1334 0
-33 -1318 1319 0
-1319 1335 0
-34 -1319 1320 0
-1320 1336 0
-35 -1320 1321 0
-1321 1337 0
-36 -1321 1322 0
-1322 1338 0
-37 -1322 1323 0
-1323 1339 0
-38 -1323 1324 0
-1324 1340 0
-39 -1324 1325 0
-1325 1341 0
-40 -1325 1326 0
-1326 1342 0
-41 -1326 1327 0
-1327 1343 0
-42 -1327 1328 0
-1328 1344 0
-43 -1328 0
-28 1329 0
-1329 1345 0
-29 -1329 1330 0
-1330 1346 0
-30 -1330 1331 0
-1331 1347 0
-31 -1331 1332 0
-1332 1348 0
-32 -1332 1333 0
-1333 1349 0
-33 -1333 1334 0
-1334 1350 0
-34 -1334 1335 0
-1335 1351 0
-35 -1335 1336 0
-1336 1352 0
-36 -1336 1337 0
-1337 1353 0
-37 -1337 1338 0
-1338 1354 0
-38 -1338 1339 0
-1339 1355 0
-39 -1339 1340 0
-1340 1356 0
-40 -1340 1341 0
-1341 1357 0
-41 -1341 1342 0
-1342 1358 0
-42 -1342 1343 0
-1343 1359 0
-43 -1343 1344 0
-1344 1360 0
-44 -1344 0
-29 1345 0
-1345 1361 0
-30 -1345 1346 0
-1346 1362 0
-31 -1346 1347 0
-1347 1363 0
-32 -1347 1348 0
-1348 1364 0
-33 -1348 1349 0
-1349 1365 0
-34 -1349 1350 0
-1350 1366 0
-35 -1350 1351 0
-1351 1367 0
-36 -1351 1352 0
-1352 1368 0
-37 -1352 1353 0
-1353 1369 0
-38 -1353 1354 0
-1354 1370 0
-39 -1354 1355 0
-1355 1371 0
-40 -1355 1356 0
-1356 1372 0
-41 -1356 1357 0
-1357 1373 0
-42 -1357 1358 0
-1358 1374 0
-43 -1358 1359 0
-1359 1375 0
-44 -1359 1360 0
-1360 1376 0
-45 -1360 0
-30 1361 0
-1361 1377 0
-31 -1361 1362 0
-1362 1378 0
-32 -1362 1363 0
-1363 1379 0
-33 -1363 1364 0
-1364 1380 0
-34 -1364 1365 0
-1365 1381 0
-35 -1365 1366 0
-1366 1382 0
-36 -1366 1367 0
-1367 1383 0
-37 -1367 1368 0
-1368 1384 0
-38 -1368 1369 0
-1369 1385 0
-39 -1369 1370 0
-1370 1386 0
-40 -1370 1371 0
-1371 1387 0
-41 -1371 1372 0
-1372 1388 0
-42 -1372 1373 0
-1373 1389 0
-43 -1373 1374 0
-1374 1390 0
-44 -1374 1375 0
-1375 1391 0
-45 -1375 1376 0
-1376 1392 0
-46 -1376 0
-31 1377 0
-1377 1393 0
-32 -1377 1378 0
-1378 1394 0
-33 -1378 1379 0
-1379 1395 0
-34 -1379 1380 0
-1380 1396 0
-35 -1380 1381 0
-1381 1397 0
-36 -1381 1382 0
-1382 1398 0
-37 -1382 1383 0
-1383 1399 0
-38 -1383 1384 0
-1384 1400 0
-39 -1384 1385 0
-1385 1401 0
-40 -1385 1386 0
-1386 1402 0
-41 -1386 1387 0
-1387 1403 0
-42 -1387 1388 0
-1388 1404 0
-43 -1388 1389 0
-1389 1405 0
-44 -1389 1390 0
-1390 1406 0
-45 -1390 1391 0
-1391 1407 0
-46 -1391 1392 0
-1392 1408 0
-47 -1392 0
-32 1393 0
-1393 1409 0
-33 -1393 1394 0
-1394 1410 0
-34 -1394 1395 0
-1395 1411 0
-35 -1395 1396 0
-1396 1412 0
-36 -1396 1397 0
-1397 1413 0
-37 -1397 1398 0
-1398 1414 0
-38 -1398 1399 0
-1399 1415 0
-39 -1399 1400 0
-1400 1416 0
-40 -1400 1401 0
-1401 1417 0
-41 -1401 1402 0
-1402 1418 0
-42 -1402 1403 0
-1403 1419 0
-43 -1403 1404 0
-1404 1420 0
-44 -1404 1405 0
-1405 1421 0
-45 -1405 1406 0
-1406 1422 0
-46 -1406 1407 0
-1407 1423 0
-47 -1407 1408 0
-1408 1424 0
-48 -1408 0
-33 1409 0
-1409 1425 0
-34 -1409 1410 0
-1410 1426 0
-35 -1410 1411 0
-1411 1427 0
-36 -1411 1412 0
-1412 1428 0
-37 -1412 1413 0
-1413 1429 0
-38 -1413 1414 0
-1414 1430 0
-39 -1414 1415 0
-1415 1431 0
-40 -1415 1416 0
-1416 1432 0
-41 -1416 1417 0
-1417 1433 0
-42 -1417 1418 0
-1418 1434 0
-43 -1418 1419 0
-1419 1435 0
-44 -1419 1420 0
-1420 1436 0
-45 -1420 1421 0
-1421 1437 0
-46 -1421 1422 0
-1422 1438 0
-47 -1422 1423 0
-1423 1439 0
-48 -1423 1424 0
-1424 1440 0
-49 -1424 0
-34 1425 0
-1425 1441 0
-35 -1425 1426 0
-1426 1442 0
-36 -1426 1427 0
-1427 1443 0
-37 -1427 1428 0
-1428 1444 0
-38 -1428 1429 0
-1429 1445 0
-39 -1429 1430 0
-1430 1446 0
-40 -1430 1431 0
-1431 1447 0
-41 -1431 1432 0
-1432 1448 0
-42 -1432 1433 0
-1433 1449 0
-43 -1433 1434 0
-1434 1450 0
-44 -1434 1435 0
-1435 1451 0
-45 -1435 1436 0
-1436 1452 0
-46 -1436 1437 0
-1437 1453 0
-47 -1437 1438 0
-1438 1454 0
-48 -1438 1439 0
-1439 1455 0
-49 -1439 1440 0
-1440 1456 0
-50 -1440 0
-35 1441 0
-1441 1457 0
-36 -1441 1442 0
-1442 1458 0
-37 -1442 1443 0
-1443 1459 0
-38 -1443 1444 0
-1444 1460 0
-39 -1444 1445 0
-1445 1461 0
-40 -1445 1446 0
-1446 1462 0
-41 -1446 1447 0
-1447 1463 0
-42 -1447 1448 0
-1448 1464 0
-43 -1448 1449 0
-1449 1465 0
-44 -1449 1450 0
-1450 1466 0
-45 -1450 1451 0
-1451 1467 0
-46 -1451 1452 0
-1452 1468 0
-47 -1452 1453 0
-1453 1469 0
-48 -1453 1454 0
-1454 1470 0
-49 -1454 1455 0
-1455 1471 0
-50 -1455 1456 0
-1456 1472 0
-51 -1456 0
-36 1457 0
-1457 1473 0
-37 -1457 1458 0
-1458 1474 0
-38 -1458 1459 0
-1459 1475 0
-39 -1459 1460 0
-1460 1476 0
-40 -1460 1461 0
-1461 1477 0
-41 -1461 1462 0
-1462 1478 0
-42 -1462 1463 0
-1463 1479 0
-43 -1463 1464 0
-1464 1480 0
-44 -1464 1465 0
-1465 1481 0
-45 -1465 1466 0
-1466 1482 0
-46 -1466 1467 0
-1467 1483 0
-47 -1467 1468 0
-1468 1484 0
-48 -1468 1469 0
-1469 1485 0
-49 -1469 1470 0
-1470 1486 0
-50 -1470 1471 0
-1471 1487 0
-51 -1471 1472 0
-1472 1488 0
-52 -1472 0
-37 1473 0
-1473 1489 0
-38 -1473 1474 0
-1474 1490 0
-39 -1474 1475 0
-1475 1491 0
-40 -1475 1476 0
-1476 1492 0
-41 -1476 1477 0
-1477 1493 0
-42 -1477 1478 0
-1478 1494 0
-43 -1478 1479 0
-1479 1495 0
-44 -1479 1480 0
-1480 1496 0
-45 -1480 1481 0
-1481 1497 0
-46 -1481 1482 0
-1482 1498 0
-47 -1482 1483 0
-1483 1499 0
-48 -1483 1484 0
-1484 1500 0
-49 -1484 1485 0
-1485 1501 0
-50 -1485 1486 0
-1486 1502 0
-51 -1486 1487 0
-1487 1503 0
-52 -1487 1488 0
-1488 1504 0
-53 -1488 0
-38 1489 0
-1489 1505 0
-39 -1489 1490 0
-1490 1506 0
-40 -1490 1491 0
-1491 1507 0
-41 -1491 1492 0
-1492 1508 0
-42 -1492 1493 0
-1493 1509 0
-43 -1493 1494 0
-1494 1510 0
-44 -1494 1495 0
-1495 1511 0
-45 -1495 1496 0
-1496 1512 0
-46 -1496 1497 0
-1497 1513 0
-47 -1497 1498 0
-1498 1514 0
-48 -1498 1499 0
-1499 1515 0
-49 -1499 1500 0
-1500 1516 0
-50 -1500 1501 0
-1501 1517 0
-51 -1501 1502 0
-1502 1518 0
-52 -1502 1503 0
-1503 1519 0
-53 -1503 1504 0
-1504 1520 0
-54 -1504 0
-39 1505 0
-1505 1521 0
-40 -1505 1506 0
-1506 1522 0
-41 -1506 1507 0
-1507 1523 0
-42 -1507 1508 0
-1508 1524 0
-43 -1508 1509 0
-1509 1525 0
-44 -1509 1510 0
-1510 1526 0
-45 -1510 1511 0
-1511 1527 0
-46 -1511 1512 0
-1512 1528 0
-47 -1512 1513 0
-1513 1529 0
-48 -1513 1514 0
-1514 1530 0
-49 -1514 1515 0
-1515 1531 0
-50 -1515 1516 0
-1516 1532 0
-51 -1516 1517 0
-1517 1533 0
-52 -1517 1518 0
-1518 1534 0
-53 -1518 1519 0
-1519 1535 0
-54 -1519 1520 0
-1520 1536 0
-55 -1520 0
-40 1521 0
-1521 1537 0
-41 -1521 1522 0
-1522 1538 0
-42 -1522 1523 0
-1523 1539 0
-43 -1523 1524 0
-1524 1540 0
-44 -1524 1525 0
-1525 1541 0
-45 -1525 1526 0
-1526 1542 0
-46 -1526 1527 0
-1527 1543 0
-47 -1527 1528 0
-1528 1544 0
-48 -1528 1529 0
-1529 1545 0
-49 -1529 1530 0
-1530 1546 0
-50 -1530 1531 0
-1531 1547 0
-51 -1531 1532 0
-1532 1548 0
-52 -1532 1533 0
-1533 1549 0
-53 -1533 1534 0
-1534 1550 0
-54 -1534 1535 0
-1535 1551 0
-55 -1535 1536 0
-1536 1552 0
-56 -1536 0
-41 1537 0
-1537 1553 0
-42 -1537 1538 0
-1538 1554 0
-43 -1538 1539 0
-1539 1555 0
-44 -1539 1540 0
-1540 1556 0
-45 -1540 1541 0
-1541 1557 0
-46 -1541 1542 0
-1542 1558 0
-47 -1542 1543 0
-1543 1559 0
-48 -1543 1544 0
-1544 1560 0
-49 -1544 1545 0
-1545 1561 0
-50 -1545 1546 0
-1546 1562 0
-51 -1546 1547 0
-1547 1563 0
-52 -1547 1548 0
-1548 1564 0
-53 -1548 1549 0
-1549 1565 0
-54 -1549 1550 0
-1550 1566 0
-55 -1550 1551 0
-1551 1567 0
-56 -1551 1552 0
-1552 1568 0
-57 -1552 0
-42 1553 0
-1553 1569 0
-43 -1553 1554 0
-1554 1570 0
-44 -1554 1555 0
-1555 1571 0
-45 -1555 1556 0
-1556 1572 0
-46 -1556 1557 0
-1557 1573 0
-47 -1557 1558 0
-1558 1574 0
-48 -1558 1559 0
-1559 1575 0
-49 -1559 1560 0
-1560 1576 0
-50 -1560 1561 0
-1561 1577 0
-51 -1561 1562 0
-1562 1578 0
-52 -1562 1563 0
-1563 1579 0
-53 -1563 1564 0
-1564 1580 0
-54 -1564 1565 0
-1565 1581 0
-55 -1565 1566 0
-1566 1582 0
-56 -1566 1567 0
-1567 1583 0
-57 -1567 1568 0
-1568 1584 0
-58 -1568 0
-43 1569 0
-1569 1585 0
-44 -1569 1570 0
-1570 1586 0
-45 -1570 1571 0
-1571 1587 0
-46 -1571 1572 0
-1572 1588 0
-47 -1572 1573 0
-1573 1589 0
-48 -1573 1574 0
-1574 1590 0
-49 -1574 1575 0
-1575 1591 0
-50 -1575 1576 0
-1576 1592 0
-51 -1576 1577 0
-1577 1593 0
-52 -1577 1578 0
-1578 1594 0
-53 -1578 1579 0
-1579 1595 0
-54 -1579 1580 0
-1580 1596 0
-55 -1580 1581 0
-1581 1597 0
-56 -1581 1582 0
-1582 1598 0
-57 -1582 1583 0
-1583 1599 0
-58 -1583 1584 0
-1584 1600 0
-59 -1584 0
-44 1585 0
-1585 1601 0
-45 -1585 1586 0
-1586 1602 0
-46 -1586 1587 0
-1587 1603 0
-47 -1587 1588 0
-1588 1604 0
-48 -1588 1589 0
-1589 1605 0
-49 -1589 1590 0
-1590 1606 0
-50 -1590 1591 0
-1591 1607 0
-51 -1591 1592 0
-1592 1608 0
-52 -1592 1593 0
-1593 1609 0
-53 -1593 1594 0
-1594 1610 0
-54 -1594 1595 0
-1595 1611 0
-55 -1595 1596 0
-1596 1612 0
-56 -1596 1597 0
-1597 1613 0
-57 -1597 1598 0
-1598 1614 0
-58 -1598 1599 0
-1599 1615 0
-59 -1599 1600 0
-1600 1616 0
-60 -1600 0
-45 1601 0
-1601 1617 0
-46 -1601 1602 0
-1602 1618 0
-47 -1602 1603 0
-1603 1619 0
-48 -1603 1604 0
-1604 1620 0
-49 -1604 1605 0
-1605 1621 0
-50 -1605 1606 0
-1606 1622 0
-51 -1606 1607 0
-1607 1623 0
-52 -1607 1608 0
-1608 1624 0
-53 -1608 1609 0
-1609 1625 0
-54 -1609 1610 0
-1610 1626 0
-55 -1610 1611 0
-1611 1627 0
-56 -1611 1612 0
-1612 1628 0
-57 -1612 1613 0
-1613 1629 0
-58 -1613 1614 0
-1614 1630 0
-59 -1614 1615 0
-1615 1631 0
-60 -1615 1616 0
-1616 1632 0
-61 -1616 0
-46 1617 0
-1617 1633 0
-47 -1617 1618 0
-1618 1634 0
-48 -1618 1619 0
-1619 1635 0
-49 -1619 1620 0
-1620 1636 0
-50 -1620 1621 0
-1621 1637 0
-51 -1621 1622 0
-1622 1638 0
-52 -1622 1623 0
-1623 1639 0
-53 -1623 1624 0
-1624 1640 0
-54 -1624 1625 0
-1625 1641 0
-55 -1625 1626 0
-1626 1642 0
-56 -1626 1627 0
-1627 1643 0
-57 -1627 1628 0
-1628 1644 0
-58 -1628 1629 0
-1629 1645 0
-59 -1629 1630 0
-1630 1646 0
-60 -1630 1631 0
-1631 1647 0
-61 -1631 1632 0
-1632 1648 0
-62 -1632 0
-47 1633 0
-1633 1649 0
-48 -1633 1634 0
-1634 1650 0
-49 -1634 1635 0
-1635 1651 0
-50 -1635 1636 0
-1636 1652 0
-51 -1636 1637 0
-1637 1653 0
-52 -1637 1638 0
-1638 1654 0
-53 -1638 1639 0
-1639 1655 0
-54 -1639 1640 0
-1640 1656 0
-55 -1640 1641 0
-1641 1657 0
-56 -1641 1642 0
-1642 1658 0
-57 -1642 1643 0
-1643 1659 0
-58 -1643 1644 0
-1644 1660 0
-59 -1644 1645 0
-1645 1661 0
-60 -1645 1646 0
-1646 1662 0
-61 -1646 1647 0
-1647 1663 0
-62 -1647 1648 0
-1648 1664 0
-63 -1648 0
-48 1649 0
-49 -1649 1650 0
-50 -1650 1651 0
-51 -1651 1652 0
-52 -1652 1653 0
-53 -1653 1654 0
-54 -1654 1655 0
-55 -1655 1656 0
-56 -1656 1657 0
-57 -1657 1658 0
-58 -1658 1659 0
-59 -1659 1660 0
-60 -1660 1661 0
-61 -1661 1662 0
-62 -1662 1663 0
-63 -1663 1664 0
-64 -1664 0
-65 1665 0
-1665 1666 0
-66 -1665 1667 0
-1667 1668 0
-67 -1667 1669 0
-1669 1670 0
-68 -1669 1671 0
-1671 1672 0
-69 -1671 1673 0
-1673 1674 0
-70 -1673 1675 0
-1675 1676 0
-71 -1675 1677 0
-1677 1678 0
-72 -1677 1679 0
-1679 1680 0
-73 -1679 1681 0
-1681 1682 0
-74 -1681 0
-66 1666 0
-1666 1683 0
-67 -1666 1668 0
-1668 1684 0
-68 -1668 1670 0
-1670 1685 0
-69 -1670 1672 0
-1672 1686 0
-70 -1672 1674 0
-1674 1687 0
-71 -1674 1676 0
-1676 1688 0
-72 -1676 1678 0
-1678 1689 0
-73 -1678 1680 0
-1680 1690 0
-74 -1680 1682 0
-1682 1691 0
-75 -1682 0
-67 1683 0
-1683 1692 0
-68 -1683 1684 0
-1684 1693 0
-69 -1684 1685 0
-1685 1694 0
-70 -1685 1686 0
-1686 1695 0
-71 -1686 1687 0
-1687 1696 0
-72 -1687 1688 0
-1688 1697 0
-73 -1688 1689 0
-1689 1698 0
-74 -1689 1690 0
-1690 1699 0
-75 -1690 1691 0
-1691 1700 0
-76 -1691 0
-68 1692 0
-1692 1701 0
-69 -1692 1693 0
-1693 1702 0
-70 -1693 1694 0
-1694 1703 0
-71 -1694 1695 0
-1695 1704 0
-72 -1695 1696 0
-1696 1705 0
-73 -1696 1697 0
-1697 1706 0
-74 -1697 1698 0
-1698 1707 0
-75 -1698 1699 0
-1699 1708 0
-76 -1699 1700 0
-1700 1709 0
-77 -1700 0
-69 1701 0
-1701 1710 0
-70 -1701 1702 0
-1702 1711 0
-71 -1702 1703 0
-1703 1712 0
-72 -1703 1704 0
-1704 1713 0
-73 -1704 1705 0
-1705 1714 0
-74 -1705 1706 0
-1706 1715 0
-75 -1706 1707 0
-1707 1716 0
-76 -1707 1708 0
-1708 1717 0
-77 -1708 1709 0
-1709 1718 0
-78 -1709 0
-70 1710 0
-1710 1719 0
-71 -1710 1711 0
-1711 1720 0
-72 -1711 1712 0
-1712 1721 0
-73 -1712 1713 0
-1713 1722 0
-74 -1713 1714 0
-1714 1723 0
-75 -1714 1715 0
-1715 1724 0
-76 -1715 1716 0
-1716 1725 0
-77 -1716 1717 0
-1717 1726 0
-78 -1717 1718 0
-1718 1727 0
-79 -1718 0
-71 1719 0
-1719 1728 0
-72 -1719 1720 0
-1720 1729 0
-73 -1720 1721 0
-1721 1730 0
-74 -1721 1722 0
-1722 1731 0
-75 -1722 1723 0
-1723 1732 0
-76 -1723 1724 0
-1724 1733 0
-77 -1724 1725 0
-1725 1734 0
-78 -1725 1726 0
-1726 1735 0
-79 -1726 1727 0
-1727 1736 0
-80 -1727 0
-72 1728 0
-1728 1737 0
-73 -1728 1729 0
-1729 1738 0
-74 -1729 1730 0
-1730 1739 0
-75 -1730 1731 0
-1731 1740 0
-76 -1731 1732 0
-1732 1741 0
-77 -1732 1733 0
-1733 1742 0
-78 -1733 1734 0
-1734 1743 0
-79 -1734 1735 0
-1735 1744 0
-80 -1735 1736 0
-1736 1745 0
-81 -1736 0
-73 1737 0
-1737 1746 0
-74 -1737 1738 0
-1738 1747 0
-75 -1738 1739 0
-1739 1748 0
-76 -1739 1740 0
-1740 1749 0
-77 -1740 1741 0
-1741 1750 0
-78 -1741 1742 0
-1742 1751 0
-79 -1742 1743 0
-1743 1752 0
-80 -1743 1744 0
-1744 1753 0
-81 -1744 1745 0
-1745 1754 0
-82 -1745 0
-74 1746 0
-1746 1755 0
-75 -1746 1747 0
-1747 1756 0
-76 -1747 1748 0
-1748 1757 0
-77 -1748 1749 0
-1749 1758 0
-78 -1749 1750 0
-1750 1759 0
-79 -1750 1751 0
-1751 1760 0
-80 -1751 1752 0
-1752 1761 0
-81 -1752 1753 0
-1753 1762 0
-82 -1753 1754 0
-1754 1763 0
-83 -1754 0
-75 1755 0
-1755 1764 0
-76 -1755 1756 0
-1756 1765 0
-77 -1756 1757 0
-1757 1766 0
-78 -1757 1758 0
-1758 1767 0
-79 -1758 1759 0
-1759 1768 0
-80 -1759 1760 0
-1760 1769 0
-81 -1760 1761 0
-1761 1770 0
-82 -1761 1762 0
-1762 1771 0
-83 -1762 1763 0
-1763 1772 0
-84 -1763 0
-76 1764 0
-1764 1773 0
-77 -1764 1765 0
-1765 1774 0
-78 -1765 1766 0
-1766 1775 0
-79 -1766 1767 0
-1767 1776 0
-80 -1767 1768 0
-1768 1777 0
-81 -1768 1769 0
-1769 1778 0
-82 -1769 1770 0
-1770 1779 0
-83 -1770 1771 0
-1771 1780 0
-84 -1771 1772 0
-1772 1781 0
-85 -1772 0
-77 1773 0
-1773 1782 0
-78 -1773 1774 0
-1774 1783 0
-79 -1774 1775 0
-1775 1784 0
-80 -1775 1776 0
-1776 1785 0
-81 -1776 1777 0
-1777 1786 0
-82 -1777 1778 0
-1778 1787 0
-83 -1778 1779 0
-1779 1788 0
-84 -1779 1780 0
-1780 1789 0
-85 -1780 1781 0
-1781 1790 0
-86 -1781 0
-78 1782 0
-1782 1791 0
-79 -1782 1783 0
-1783 1792 0
-80 -1783 1784 0
-1784 1793 0
-81 -1784 1785 0
-1785 1794 0
-82 -1785 1786 0
-1786 1795 0
-83 -1786 1787 0
-1787 1796 0
-84 -1787 1788 0
-1788 1797 0
-85 -1788 1789 0
-1789 1798 0
-86 -1789 1790 0
-1790 1799 0
-87 -1790 0
-79 1791 0
-1791 1800 0
-80 -1791 1792 0
-1792 1801 0
-81 -1792 1793 0
-1793 1802 0
-82 -1793 1794 0
-1794 1803 0
-83 -1794 1795 0
-1795 1804 0
-84 -1795 1796 0
-1796 1805 0
-85 -1796 1797 0
-1797 1806 0
-86 -1797 1798 0
-1798 1807 0
-87 -1798 1799 0
-1799 1808 0
-88 -1799 0
-80 1800 0
-1800 1809 0
-81 -1800 1801 0
-1801 1810 0
-82 -1801 1802 0
-1802 1811 0
-83 -1802 1803 0
-1803 1812 0
-84 -1803 1804 0
-1804 1813 0
-85 -1804 1805 0
-1805 1814 0
-86 -1805 1806 0
-1806 1815 0
-87 -1806 1807 0
-1807 1816 0
-88 -1807 1808 0
-1808 1817 0
-89 -1808 0
-81 1809 0
-1809 1818 0
-82 -1809 1810 0
-1810 1819 0
-83 -1810 1811 0
-1811 1820 0
-84 -1811 1812 0
-1812 1821 0
-85 -1812 1813 0
-1813 1822 0
-86 -1813 1814 0
-1814 1823 0
-87 -1814 1815 0
-1815 1824 0
-88 -1815 1816 0
-1816 1825 0
-89 -1816 1817 0
-1817 1826 0
-90 -1817 0
-82 1818 0
-1818 1827 0
-83 -1818 1819 0
-1819 1828 0
-84 -1819 1820 0
-1820 1829 0
-85 -1820 1821 0
-1821 1830 0
-86 -1821 1822 0
-1822 1831 0
-87 -1822 1823 0
-1823 1832 0
-88 -1823 1824 0
-1824 1833 0
-89 -1824 1825 0
-1825 1834 0
-90 -1825 1826 0
-1826 1835 0
-91 -1826 0
-83 1827 0
-1827 1836 0
-84 -1827 1828 0
-1828 1837 0
-85 -1828 1829 0
-1829 1838 0
-86 -1829 1830 0
-1830 1839 0
-87 -1830 1831 0
-1831 1840 0
-88 -1831 1832 0
-1832 1841 0
-89 -1832 1833 0
-1833 1842 0
-90 -1833 1834 0
-1834 1843 0
-91 -1834 1835 0
-1835 1844 0
-92 -1835 0
-84 1836 0
-1836 1845 0
-85 -1836 1837 0
-1837 1846 0
-86 -1837 1838 0
-1838 1847 0
-87 -1838 1839 0
-1839 1848 0
-88 -1839 1840 0
-1840 1849 0
-89 -1840 1841 0
-1841 1850 0
-90 -1841 1842 0
-1842 1851 0
-91 -1842 1843 0
-1843 1852 0
-92 -1843 1844 0
-1844 1853 0
-93 -1844 0
-85 1845 0
-1845 1854 0
-86 -1845 1846 0
-1846 1855 0
-87 -1846 1847 0
-1847 1856 0
-88 -1847 1848 0
-1848 1857 0
-89 -1848 1849 0
-1849 1858 0
-90 -1849 1850 0
-1850 1859 0
-91 -1850 1851 0
-1851 1860 0
-92 -1851 1852 0
-1852 1861 0
-93 -1852 1853 0
-1853 1862 0
-94 -1853 0
-86 1854 0
-1854 1863 0
-87 -1854 1855 0
-1855 1864 0
-88 -1855 1856 0
-1856 1865 0
-89 -1856 1857 0
-1857 1866 0
-90 -1857 1858 0
-1858 1867 0
-91 -1858 1859 0
-1859 1868 0
-92 -1859 1860 0
-1860 1869 0
-93 -1860 1861 0
-1861 1870 0
-94 -1861 1862 0
-1862 1871 0
-95 -1862 0
-87 1863 0
-1863 1872 0
-88 -1863 1864 0
-1864 1873 0
-89 -1864 1865 0
-1865 1874 0
-90 -1865 1866 0
-1866 1875 0
-91 -1866 1867 0
-1867 1876 0
-92 -1867 1868 0
-1868 1877 0
-93 -1868 1869 0
-1869 1878 0
-94 -1869 1870 0
-1870 1879 0
-95 -1870 1871 0
-1871 1880 0
-96 -1871 0
-88 1872 0
-1872 1881 0
-89 -1872 1873 0
-1873 1882 0
-90 -1873 1874 0
-1874 1883 0
-91 -1874 1875 0
-1875 1884 0
-92 -1875 1876 0
-1876 1885 0
-93 -1876 1877 0
-1877 1886 0
-94 -1877 1878 0
-1878 1887 0
-95 -1878 1879 0
-1879 1888 0
-96 -1879 1880 0
-1880 1889 0
-97 -1880 0
-89 1881 0
-1881 1890 0
-90 -1881 1882 0
-1882 1891 0
-91 -1882 1883 0
-1883 1892 0
-92 -1883 1884 0
-1884 1893 0
-93 -1884 1885 0
-1885 1894 0
-94 -1885 1886 0
-1886 1895 0
-95 -1886 1887 0
-1887 1896 0
-96 -1887 1888 0
-1888 1897 0
-97 -1888 1889 0
-1889 1898 0
-98 -1889 0
-90 1890 0
-1890 1899 0
-91 -1890 1891 0
-1891 1900 0
-92 -1891 1892 0
-1892 1901 0
-93 -1892 1893 0
-1893 1902 0
-94 -1893 1894 0
-1894 1903 0
-95 -1894 1895 0
-1895 1904 0
-96 -1895 1896 0
-1896 1905 0
-97 -1896 1897 0
-1897 1906 0
-98 -1897 1898 0
-1898 1907 0
-99 -1898 0
-91 1899 0
-1899 1908 0
-92 -1899 1900 0
-1900 1909 0
-93 -1900 1901 0
-1901 1910 0
-94 -1901 1902 0
-1902 1911 0
-95 -1902 1903 0
-1903 1912 0
-96 -1903 1904 0
-1904 1913 0
-97 -1904 1905 0
-1905 1914 0
-98 -1905 1906 0
-1906 1915 0
-99 -1906 1907 0
-1907 1916 0
-100 -1907 0
-92 1908 0
-1908 1917 0
-93 -1908 1909 0
-1909 1918 0
-94 -1909 1910 0
-1910 1919 0
-95 -1910 1911 0
-1911 1920 0
-96 -1911 1912 0
-1912 1921 0
-97 -1912 1913 0
-1913 1922 0
-98 -1913 1914 0
-1914 1923 0
-99 -1914 1915 0
-1915 1924 0
-100 -1915 1916 0
-1916 1925 0
-101 -1916 0
-93 1917 0
-1917 1926 0
-94 -1917 1918 0
-1918 1927 0
-95 -1918 1919 0
-1919 1928 0
-96 -1919 1920 0
-1920 1929 0
-97 -1920 1921 0
-1921 1930 0
-98 -1921 1922 0
-1922 1931 0
-99 -1922 1923 0
-1923 1932 0
-100 -1923 1924 0
-1924 1933 0
-101 -1924 1925 0
-1925 1934 0
-102 -1925 0
-94 1926 0
-1926 1935 0
-95 -1926 1927 0
-1927 1936 0
-96 -1927 1928 0
-1928 1937 0
-97 -1928 1929 0
-1929 1938 0
-98 -1929 1930 0
-1930 1939 0
-99 -1930 1931 0
-1931 1940 0
-100 -1931 1932 0
-1932 1941 0
-101 -1932 1933 0
-1933 1942 0
-102 -1933 1934 0
-1934 1943 0
-103 -1934 0
-95 1935 0
-1935 1944 0
-96 -1935 1936 0
-1936 1945 0
-97 -1936 1937 0
-1937 1946 0
-98 -1937 1938 0
-1938 1947 0
-99 -1938 1939 0
-1939 1948 0
-100 -1939 1940 0
-1940 1949 0
-101 -1940 1941 0
-1941 1950 0
-102 -1941 1942 0
-1942 1951 0
-103 -1942 1943 0
-1943 1952 0
-104 -1943 0
-96 1944 0
-1944 1953 0
-97 -1944 1945 0
-1945 1954 0
-98 -1945 1946 0
-1946 1955 0
-99 -1946 1947 0
-1947 1956 0
-100 -1947 1948 0
-1948 1957 0
-101 -1948 1949 0
-1949 1958 0
-102 -1949 1950 0
-1950 1959 0
-103 -1950 1951 0
-1951 1960 0
-104 -1951 1952 0
-1952 1961 0
-105 -1952 0
-97 1953 0
-1953 1962 0
-98 -1953 1954 0
-1954 1963 0
-99 -1954 1955 0
-1955 1964 0
-100 -1955 1956 0
-1956 1965 0
-101 -1956 1957 0
-1957 1966 0
-102 -1957 1958 0
-1958 1967 0
-103 -1958 1959 0
-1959 1968 0
-104 -1959 1960 0
-1960 1969 0
-105 -1960 1961 0
-1961 1970 0
-106 -1961 0
-98 1962 0
-1962 1971 0
-99 -1962 1963 0
-1963 1972 0
-100 -1963 1964 0
-1964 1973 0
-101 -1964 1965 0
-1965 1974 0
-102 -1965 1966 0
-1966 1975 0
-103 -1966 1967 0
-1967 1976 0
-104 -1967 1968 0
-1968 1977 0
-105 -1968 1969 0
-1969 1978 0
-106 -1969 1970 0
-1970 1979 0
-107 -1970 0
-99 1971 0
-1971 1980 0
-100 -1971 1972 0
-1972 1981 0
-101 -1972 1973 0
-1973 1982 0
-102 -1973 1974 0
-1974 1983 0
-103 -1974 1975 0
-1975 1984 0
-104 -1975 1976 0
-1976 1985 0
-105 -1976 1977 0
-1977 1986 0
-106 -1977 1978 0
-1978 1987 0
-107 -1978 1979 0
-1979 1988 0
-108 -1979 0
-100 1980 0
-1980 1989 0
-101 -1980 1981 0
-1981 1990 0
-102 -1981 1982 0
-1982 1991 0
-103 -1982 1983 0
-1983 1992 0
-104 -1983 1984 0
-1984 1993 0
-105 -1984 1985 0
-1985 1994 0
-106 -1985 1986 0
-1986 1995 0
-107 -1986 1987 0
-1987 1996 0
-108 -1987 1988 0
-1988 1997 0
-109 -1988 0
-101 1989 0
-1989 1998 0
-102 -1989 1990 0
-1990 1999 0
-103 -1990 1991 0
-1991 2000 0
-104 -1991 1992 0
-1992 2001 0
-105 -1992 1993 0
-1993 2002 0
-106 -1993 1994 0
-1994 2003 0
-107 -1994 1995 0
-1995 2004 0
-108 -1995 1996 0
-1996 2005 0
-109 -1996 1997 0
-1997 2006 0
-110 -1997 0
-102 1998 0
-1998 2007 0
-103 -1998 1999 0
-1999 2008 0
-104 -1999 2000 0
-2000 2009 0
-105 -2000 2001 0
-2001 2010 0
-106 -2001 2002 0
-2002 2011 0
-107 -2002 2003 0
-2003 2012 0
-108 -2003 2004 0
-2004 2013 0
-109 -2004 2005 0
-2005 2014 0
-110 -2005 2006 0
-2006 2015 0
-111 -2006 0
-103 2007 0
-2007 2016 0
-104 -2007 2008 0
-2008 2017 0
-105 -2008 2009 0
-2009 2018 0
-106 -2009 2010 0
-2010 2019 0
-107 -2010 2011 0
-2011 2020 0
-108 -2011 2012 0
-2012 2021 0
-109 -2012 2013 0
-2013 2022 0
-110 -2013 2014 0
-2014 2023 0
-111 -2014 2015 0
-2015 2024 0
-112 -2015 0
-104 2016 0
-2016 2025 0
-105 -2016 2017 0
-2017 2026 0
-106 -2017 2018 0
-2018 2027 0
-107 -2018 2019 0
-2019 2028 0
-108 -2019 2020 0
-2020 2029 0
-109 -2020 2021 0
-2021 2030 0
-110 -2021 2022 0
-2022 2031 0
-111 -2022 2023 0
-2023 2032 0
-112 -2023 2024 0
-2024 2033 0
-113 -2024 0
-105 2025 0
-2025 2034 0
-106 -2025 2026 0
-2026 2035 0
-107 -2026 2027 0
-2027 2036 0
-108 -2027 2028 0
-2028 2037 0
-109 -2028 2029 0
-2029 2038 0
-110 -2029 2030 0
-2030 2039 0
-111 -2030 2031 0
-2031 2040 0
-112 -2031 2032 0
-2032 2041 0
-113 -2032 2033 0
-2033 2042 0
-114 -2033 0
-106 2034 0
-2034 2043 0
-107 -2034 2035 0
-2035 2044 0
-108 -2035 2036 0
-2036 2045 0
-109 -2036 2037 0
-2037 2046 0
-110 -2037 2038 0
-2038 2047 0
-111 -2038 2039 0
-2039 2048 0
-112 -2039 2040 0
-2040 2049 0
-113 -2040 2041 0
-2041 2050 0
-114 -2041 2042 0
-2042 2051 0
-115 -2042 0
-107 2043 0
-2043 2052 0
-108 -2043 2044 0
-2044 2053 0
-109 -2044 2045 0
-2045 2054 0
-110 -2045 2046 0
-2046 2055 0
-111 -2046 2047 0
-2047 2056 0
-112 -2047 2048 0
-2048 2057 0
-113 -2048 2049 0
-2049 2058 0
-114 -2049 2050 0
-2050 2059 0
-115 -2050 2051 0
-2051 2060 0
-116 -2051 0
-108 2052 0
-2052 2061 0
-109 -2052 2053 0
-2053 2062 0
-110 -2053 2054 0
-2054 2063 0
-111 -2054 2055 0
-2055 2064 0
-112 -2055 2056 0
-2056 2065 0
-113 -2056 2057 0
-2057 2066 0
-114 -2057 2058 0
-2058 2067 0
-115 -2058 2059 0
-2059 2068 0
-116 -2059 2060 0
-2060 2069 0
-117 -2060 0
-109 2061 0
-2061 2070 0
-110 -2061 2062 0
-2062 2071 0
-111 -2062 2063 0
-2063 2072 0
-112 -2063 2064 0
-2064 2073 0
-113 -2064 2065 0
-2065 2074 0
-114 -2065 2066 0
-2066 2075 0
-115 -2066 2067 0
-2067 2076 0
-116 -2067 2068 0
-2068 2077 0
-117 -2068 2069 0
-2069 2078 0
-118 -2069 0
-110 2070 0
-2070 2079 0
-111 -2070 2071 0
-2071 2080 0
-112 -2071 2072 0
-2072 2081 0
-113 -2072 2073 0
-2073 2082 0
-114 -2073 2074 0
-2074 2083 0
-115 -2074 2075 0
-2075 2084 0
-116 -2075 2076 0
-2076 2085 0
-117 -2076 2077 0
-2077 2086 0
-118 -2077 2078 0
-2078 2087 0
-119 -2078 0
-111 2079 0
-2079 2088 0
-112 -2079 2080 0
-2080 2089 0
-113 -2080 2081 0
-2081 2090 0
-114 -2081 2082 0
-2082 2091 0
-115 -2082 2083 0
-2083 2092 0
-116 -2083 2084 0
-2084 2093 0
-117 -2084 2085 0
-2085 2094 0
-118 -2085 2086 0
-2086 2095 0
-119 -2086 2087 0
-2087 2096 0
-120 -2087 0
-112 2088 0
-2088 2097 0
-113 -2088 2089 0
-2089 2098 0
-114 -2089 2090 0
-2090 2099 0
-115 -2090 2091 0
-2091 2100 0
-116 -2091 2092 0
-2092 2101 0
-117 -2092 2093 0
-2093 2102 0
-118 -2093 2094 0
-2094 2103 0
-119 -2094 2095 0
-2095 2104 0
-120 -2095 2096 0
-2096 2105 0
-121 -2096 0
-113 2097 0
-2097 2106 0
-114 -2097 2098 0
-2098 2107 0
-115 -2098 2099 0
-2099 2108 0
-116 -2099 2100 0
-2100 2109 0
-117 -2100 2101 0
-2101 2110 0
-118 -2101 2102 0
-2102 2111 0
-119 -2102 2103 0
-2103 2112 0
-120 -2103 2104 0
-2104 2113 0
-121 -2104 2105 0
-2105 2114 0
-122 -2105 0
-114 2106 0
-2106 2115 0
-115 -2106 2107 0
-2107 2116 0
-116 -2107 2108 0
-2108 2117 0
-117 -2108 2109 0
-2109 2118 0
-118 -2109 2110 0
-2110 2119 0
-119 -2110 2111 0
-2111 2120 0
-120 -2111 2112 0
-2112 2121 0
-121 -2112 2113 0
-2113 2122 0
-122 -2113 2114 0
-2114 2123 0
-123 -2114 0
-115 2115 0
-2115 2124 0
-116 -2115 2116 0
-2116 2125 0
-117 -2116 2117 0
-2117 2126 0
-118 -2117 2118 0
-2118 2127 0
-119 -2118 2119 0
-2119 2128 0
-120 -2119 2120 0
-2120 2129 0
-121 -2120 2121 0
-2121 2130 0
-122 -2121 2122 0
-2122 2131 0
-123 -2122 2123 0
-2123 2132 0
-124 -2123 0
-116 2124 0
-2124 2133 0
-117 -2124 2125 0
-2125 2134 0
-118 -2125 2126 0
-2126 2135 0
-119 -2126 2127 0
-2127 2136 0
-120 -2127 2128 0
-2128 2137 0
-121 -2128 2129 0
-2129 2138 0
-122 -2129 2130 0
-2130 2139 0
-123 -2130 2131 0
-2131 2140 0
-124 -2131 2132 0
-2132 2141 0
-125 -2132 0
-117 2133 0
-2133 2142 0
-118 -2133 2134 0
-2134 2143 0
-119 -2134 2135 0
-2135 2144 0
-120 -2135 2136 0
-2136 2145 0
-121 -2136 2137 0
-2137 2146 0
-122 -2137 2138 0
-2138 2147 0
-123 -2138 2139 0
-2139 2148 0
-124 -2139 2140 0
-2140 2149 0
-125 -2140 2141 0
-2141 2150 0
-126 -2141 0
-118 2142 0
-2142 2151 0
-119 -2142 2143 0
-2143 2152 0
-120 -2143 2144 0
-2144 2153 0
-121 -2144 2145 0
-2145 2154 0
-122 -2145 2146 0
-2146 2155 0
-123 -2146 2147 0
-2147 2156 0
-124 -2147 2148 0
-2148 2157 0
-125 -2148 2149 0
-2149 2158 0
-126 -2149 2150 0
-2150 2159 0
-127 -2150 0
-119 2151 0
-120 -2151 2152 0
-121 -2152 2153 0
-122 -2153 2154 0
-123 -2154 2155 0
-124 -2155 2156 0
-125 -2156 2157 0
-126 -2157 2158 0
-127 -2158 2159 0
-128 -2159 0
1 33 0
