p cnf 5083 10413
-133 -1 0
-133 2 66 67 0
-2 1 133 0
-66 1 133 0
-67 1 133 0
-134 -2 0
-134 1 3 68 0
-1 2 134 0
-3 2 134 0
-68 2 134 0
-135 -3 0
-135 2 4 69 0
-2 3 135 0
-4 3 135 0
-69 3 135 0
-136 -4 0
-136 3 5 70 0
-3 4 136 0
-5 4 136 0
-70 4 136 0
-137 -5 0
-137 4 6 71 0
-4 5 137 0
-6 5 137 0
-71 5 137 0
-138 -6 0
-138 5 7 72 0
-5 6 138 0
-7 6 138 0
-72 6 138 0
-139 -7 0
-139 6 8 73 0
-6 7 139 0
-8 7 139 0
-73 7 139 0
-140 -8 0
-140 7 9 74 0
-7 8 140 0
-9 8 140 0
-74 8 140 0
-141 -9 0
-141 8 10 75 0
-8 9 141 0
-10 9 141 0
-75 9 141 0
-142 -10 0
-142 9 11 76 0
-9 10 142 0
-11 10 142 0
-76 10 142 0
-143 -11 0
-143 10 12 77 0
-10 11 143 0
-12 11 143 0
-77 11 143 0
-144 -12 0
-144 11 13 78 0
-11 12 144 0
-13 12 144 0
-78 12 144 0
-145 -13 0
-145 12 14 79 0
-12 13 145 0
-14 13 145 0
-79 13 145 0
-146 -14 0
-146 13 15 80 0
-13 14 146 0
-15 14 146 0
-80 14 146 0
-147 -15 0
-147 14 16 81 0
-14 15 147 0
-16 15 147 0
-81 15 147 0
-148 -16 0
-148 15 17 82 0
-15 16 148 0
-17 16 148 0
-82 16 148 0
-149 -17 0
-149 16 18 83 0
-16 17 149 0
-18 17 149 0
-83 17 149 0
-150 -18 0
-150 17 19 84 0
-17 18 150 0
-19 18 150 0
-84 18 150 0
-151 -19 0
-151 18 20 85 0
-18 19 151 0
-20 19 151 0
-85 19 151 0
-152 -20 0
-152 19 21 86 0
-19 20 152 0
-21 20 152 0
-86 20 152 0
-153 -21 0
-153 20 22 87 0
-20 21 153 0
-22 21 153 0
-87 21 153 0
-154 -22 0
-154 21 23 88 0
-21 22 154 0
-23 22 154 0
-88 22 154 0
-155 -23 0
-155 22 24 89 0
-22 23 155 0
-24 23 155 0
-89 23 155 0
-156 -24 0
-156 23 25 90 0
-23 24 156 0
-25 24 156 0
-90 24 156 0
-157 -25 0
-157 24 26 91 0
-24 25 157 0
-26 25 157 0
-91 25 157 0
-158 -26 0
-158 25 27 92 0
-25 26 158 0
-27 26 158 0
-92 26 158 0
-159 -27 0
-159 26 28 93 0
-26 27 159 0
-28 27 159 0
-93 27 159 0
-160 -28 0
-160 27 29 94 0
-27 28 160 0
-29 28 160 0
-94 28 160 0
-161 -29 0
-161 28 30 95 0
-28 29 161 0
-30 29 161 0
-95 29 161 0
-162 -30 0
-162 29 31 96 0
-29 30 162 0
-31 30 162 0
-96 30 162 0
-163 -31 0
-163 30 32 97 0
-30 31 163 0
-32 31 163 0
-97 31 163 0
-164 -32 0
-164 31 33 98 0
-31 32 164 0
-33 32 164 0
-98 32 164 0
-165 -33 0
-165 32 34 99 0
-32 33 165 0
-34 33 165 0
-99 33 165 0
-166 -34 0
-166 33 35 100 0
-33 34 166 0
-35 34 166 0
-100 34 166 0
-167 -35 0
-167 34 36 101 0
-34 35 167 0
-36 35 167 0
-101 35 167 0
-168 -36 0
-168 35 37 102 0
-35 36 168 0
-37 36 168 0
-102 36 168 0
-169 -37 0
-169 36 38 103 0
-36 37 169 0
-38 37 169 0
-103 37 169 0
-170 -38 0
-170 37 39 104 0
-37 38 170 0
-39 38 170 0
-104 38 170 0
-171 -39 0
-171 38 40 105 0
-38 39 171 0
-40 39 171 0
-105 39 171 0
-172 -40 0
-172 39 41 106 0
-39 40 172 0
-41 40 172 0
-106 40 172 0
-173 -41 0
-173 40 42 107 0
-40 41 173 0
-42 41 173 0
-107 41 173 0
-174 -42 0
-174 41 43 108 0
-41 42 174 0
-43 42 174 0
-108 42 174 0
-175 -43 0
-175 42 44 109 0
-42 43 175 0
-44 43 175 0
-109 43 175 0
-176 -44 0
-176 43 45 110 0
-43 44 176 0
-45 44 176 0
-110 44 176 0
-177 -45 0
-177 44 46 111 0
-44 45 177 0
-46 45 177 0
-111 45 177 0
-178 -46 0
-178 45 47 112 0
-45 46 178 0
-47 46 178 0
-112 46 178 0
-179 -47 0
-179 46 48 113 0
-46 47 179 0
-48 47 179 0
-113 47 179 0
-180 -48 0
-180 47 49 114 0
-47 48 180 0
-49 48 180 0
-114 48 180 0
-181 -49 0
-181 48 50 115 0
-48 49 181 0
-50 49 181 0
-115 49 181 0
-182 -50 0
-182 49 51 116 0
-49 50 182 0
-51 50 182 0
-116 50 182 0
-183 -51 0
-183 50 52 117 0
-50 51 183 0
-52 51 183 0
-117 51 183 0
-184 -52 0
-184 51 53 118 0
-51 52 184 0
-53 52 184 0
-118 52 184 0
-185 -53 0
-185 52 54 119 0
-52 53 185 0
-54 53 185 0
-119 53 185 0
-186 -54 0
-186 53 55 120 0
-53 54 186 0
-55 54 186 0
-120 54 186 0
-187 -55 0
-187 54 56 121 0
-54 55 187 0
-56 55 187 0
-121 55 187 0
-188 -56 0
-188 55 57 122 0
-55 56 188 0
-57 56 188 0
-122 56 188 0
-189 -57 0
-189 56 58 123 0
-56 57 189 0
-58 57 189 0
-123 57 189 0
-190 -58 0
-190 57 59 124 0
-57 58 190 0
-59 58 190 0
-124 58 190 0
-191 -59 0
-191 58 60 125 0
-58 59 191 0
-60 59 191 0
-125 59 191 0
-192 -60 0
-192 59 61 126 0
-59 60 192 0
-61 60 192 0
-126 60 192 0
-193 -61 0
-193 60 62 127 0
-60 61 193 0
-62 61 193 0
-127 61 193 0
-194 -62 0
-194 61 63 128 0
-61 62 194 0
-63 62 194 0
-128 62 194 0
-195 -63 0
-195 62 64 129 0
-62 63 195 0
-64 63 195 0
-129 63 195 0
-196 -64 0
-196 63 65 130 0
-63 64 196 0
-65 64 196 0
-130 64 196 0
-197 -65 0
-197 64 66 131 0
-64 65 197 0
-66 65 197 0
-131 65 197 0
-198 -66 0
-198 1 65 132 0
-1 66 198 0
-65 66 198 0
-132 66 198 0
-199 -67 0
-199 1 71 129 0
-1 67 199 0
-71 67 199 0
-129 67 199 0
-200 -68 0
-200 2 72 130 0
-2 68 200 0
-72 68 200 0
-130 68 200 0
-201 -69 0
-201 3 73 131 0
-3 69 201 0
-73 69 201 0
-131 69 201 0
-202 -70 0
-202 4 74 132 0
-4 70 202 0
-74 70 202 0
-132 70 202 0
-203 -71 0
-203 5 67 75 0
-5 71 203 0
-67 71 203 0
-75 71 203 0
-204 -72 0
-204 6 68 76 0
-6 72 204 0
-68 72 204 0
-76 72 204 0
-205 -73 0
-205 7 69 77 0
-7 73 205 0
-69 73 205 0
-77 73 205 0
-206 -74 0
-206 8 70 78 0
-8 74 206 0
-70 74 206 0
-78 74 206 0
-207 -75 0
-207 9 71 79 0
-9 75 207 0
-71 75 207 0
-79 75 207 0
-208 -76 0
-208 10 72 80 0
-10 76 208 0
-72 76 208 0
-80 76 208 0
-209 -77 0
-209 11 73 81 0
-11 77 209 0
-73 77 209 0
-81 77 209 0
-210 -78 0
-210 12 74 82 0
-12 78 210 0
-74 78 210 0
-82 78 210 0
-211 -79 0
-211 13 75 83 0
-13 79 211 0
-75 79 211 0
-83 79 211 0
-212 -80 0
-212 14 76 84 0
-14 80 212 0
-76 80 212 0
-84 80 212 0
-213 -81 0
-213 15 77 85 0
-15 81 213 0
-77 81 213 0
-85 81 213 0
-214 -82 0
-214 16 78 86 0
-16 82 214 0
-78 82 214 0
-86 82 214 0
-215 -83 0
-215 17 79 87 0
-17 83 215 0
-79 83 215 0
-87 83 215 0
-216 -84 0
-216 18 80 88 0
-18 84 216 0
-80 84 216 0
-88 84 216 0
-217 -85 0
-217 19 81 89 0
-19 85 217 0
-81 85 217 0
-89 85 217 0
-218 -86 0
-218 20 82 90 0
-20 86 218 0
-82 86 218 0
-90 86 218 0
-219 -87 0
-219 21 83 91 0
-21 87 219 0
-83 87 219 0
-91 87 219 0
-220 -88 0
-220 22 84 92 0
-22 88 220 0
-84 88 220 0
-92 88 220 0
-221 -89 0
-221 23 85 93 0
-23 89 221 0
-85 89 221 0
-93 89 221 0
-222 -90 0
-222 24 86 94 0
-24 90 222 0
-86 90 222 0
-94 90 222 0
-223 -91 0
-223 25 87 95 0
-25 91 223 0
-87 91 223 0
-95 91 223 0
-224 -92 0
-224 26 88 96 0
-26 92 224 0
-88 92 224 0
-96 92 224 0
-225 -93 0
-225 27 89 97 0
-27 93 225 0
-89 93 225 0
-97 93 225 0
-226 -94 0
-226 28 90 98 0
-28 94 226 0
-90 94 226 0
-98 94 226 0
-227 -95 0
-227 29 91 99 0
-29 95 227 0
-91 95 227 0
-99 95 227 0
-228 -96 0
-228 30 92 100 0
-30 96 228 0
-92 96 228 0
-100 96 228 0
-229 -97 0
-229 31 93 101 0
-31 97 229 0
-93 97 229 0
-101 97 229 0
-230 -98 0
-230 32 94 102 0
-32 98 230 0
-94 98 230 0
-102 98 230 0
-231 -99 0
-231 33 95 103 0
-33 99 231 0
-95 99 231 0
-103 99 231 0
-232 -100 0
-232 34 96 104 0
-34 100 232 0
-96 100 232 0
-104 100 232 0
-233 -101 0
-233 35 97 105 0
-35 101 233 0
-97 101 233 0
-105 101 233 0
-234 -102 0
-234 36 98 106 0
-36 102 234 0
-98 102 234 0
-106 102 234 0
-235 -103 0
-235 37 99 107 0
-37 103 235 0
-99 103 235 0
-107 103 235 0
-236 -104 0
-236 38 100 108 0
-38 104 236 0
-100 104 236 0
-108 104 236 0
-237 -105 0
-237 39 101 109 0
-39 105 237 0
-101 105 237 0
-109 105 237 0
-238 -106 0
-238 40 102 110 0
-40 106 238 0
-102 106 238 0
-110 106 238 0
-239 -107 0
-239 41 103 111 0
-41 107 239 0
-103 107 239 0
-111 107 239 0
-240 -108 0
-240 42 104 112 0
-42 108 240 0
-104 108 240 0
-112 108 240 0
-241 -109 0
-241 43 105 113 0
-43 109 241 0
-105 109 241 0
-113 109 241 0
-242 -110 0
-242 44 106 114 0
-44 110 242 0
-106 110 242 0
-114 110 242 0
-243 -111 0
-243 45 107 115 0
-45 111 243 0
-107 111 243 0
-115 111 243 0
-244 -112 0
-244 46 108 116 0
-46 112 244 0
-108 112 244 0
-116 112 244 0
-245 -113 0
-245 47 109 117 0
-47 113 245 0
-109 113 245 0
-117 113 245 0
-246 -114 0
-246 48 110 118 0
-48 114 246 0
-110 114 246 0
-118 114 246 0
-247 -115 0
-247 49 111 119 0
-49 115 247 0
-111 115 247 0
-119 115 247 0
-248 -116 0
-248 50 112 120 0
-50 116 248 0
-112 116 248 0
-120 116 248 0
-249 -117 0
-249 51 113 121 0
-51 117 249 0
-113 117 249 0
-121 117 249 0
-250 -118 0
-250 52 114 122 0
-52 118 250 0
-114 118 250 0
-122 118 250 0
-251 -119 0
-251 53 115 123 0
-53 119 251 0
-115 119 251 0
-123 119 251 0
-252 -120 0
-252 54 116 124 0
-54 120 252 0
-116 120 252 0
-124 120 252 0
-253 -121 0
-253 55 117 125 0
-55 121 253 0
-117 121 253 0
-125 121 253 0
-254 -122 0
-254 56 118 126 0
-56 122 254 0
-118 122 254 0
-126 122 254 0
-255 -123 0
-255 57 119 127 0
-57 123 255 0
-119 123 255 0
-127 123 255 0
-256 -124 0
-256 58 120 128 0
-58 124 256 0
-120 124 256 0
-128 124 256 0
-257 -125 0
-257 59 121 129 0
-59 125 257 0
-121 125 257 0
-129 125 257 0
-258 -126 0
-258 60 122 130 0
-60 126 258 0
-122 126 258 0
-130 126 258 0
-259 -127 0
-259 61 123 131 0
-61 127 259 0
-123 127 259 0
-131 127 259 0
-260 -128 0
-260 62 124 132 0
-62 128 260 0
-124 128 260 0
-132 128 260 0
-261 -129 0
-261 63 67 125 0
-63 129 261 0
-67 129 261 0
-125 129 261 0
-262 -130 0
-262 64 68 126 0
-64 130 262 0
-68 130 262 0
-126 130 262 0
-263 -131 0
-263 65 69 127 0
-65 131 263 0
-69 131 263 0
-127 131 263 0
-264 -132 0
-264 66 70 128 0
-66 132 264 0
-70 132 264 0
-128 132 264 0
1 265 0
-265 266 0
2 -265 267 0
-267 268 0
3 -267 269 0
-269 270 0
4 -269 271 0
-271 272 0
5 -271 273 0
-273 274 0
6 -273 275 0
-275 276 0
7 -275 277 0
-277 278 0
8 -277 279 0
-279 280 0
9 -279 281 0
-281 282 0
10 -281 283 0
-283 284 0
11 -283 285 0
-285 286 0
12 -285 287 0
-287 288 0
13 -287 289 0
-289 290 0
14 -289 291 0
-291 292 0
15 -291 293 0
-293 294 0
16 -293 295 0
-295 296 0
17 -295 297 0
-297 298 0
18 -297 299 0
-299 300 0
19 -299 301 0
-301 302 0
20 -301 303 0
-303 304 0
21 -303 305 0
-305 306 0
22 -305 307 0
-307 308 0
23 -307 309 0
-309 310 0
24 -309 311 0
-311 312 0
25 -311 313 0
-313 314 0
26 -313 315 0
-315 316 0
27 -315 317 0
-317 318 0
28 -317 319 0
-319 320 0
29 -319 321 0
-321 322 0
30 -321 323 0
-323 324 0
31 -323 325 0
-325 326 0
32 -325 327 0
-327 328 0
33 -327 329 0
-329 330 0
34 -329 331 0
-331 332 0
35 -331 333 0
-333 334 0
36 -333 335 0
-335 336 0
37 -335 337 0
-337 338 0
38 -337 339 0
-339 340 0
39 -339 341 0
-341 342 0
40 -341 343 0
-343 344 0
41 -343 345 0
-345 346 0
42 -345 347 0
-347 348 0
43 -347 349 0
-349 350 0
44 -349 351 0
-351 352 0
45 -351 353 0
-353 354 0
46 -353 355 0
-355 356 0
47 -355 357 0
-357 358 0
48 -357 359 0
-359 360 0
49 -359 361 0
-361 362 0
50 -361 363 0
-363 364 0
51 -363 365 0
-365 366 0
52 -365 367 0
-367 368 0
53 -367 369 0
-369 370 0
54 -369 371 0
-371 372 0
55 -371 373 0
-373 374 0
56 -373 375 0
-375 376 0
57 -375 377 0
-377 378 0
58 -377 379 0
-379 380 0
59 -379 381 0
-381 382 0
60 -381 383 0
-383 384 0
61 -383 385 0
-385 386 0
62 -385 387 0
-387 388 0
63 -387 389 0
-389 390 0
64 -389 391 0
-391 392 0
65 -391 393 0
-393 394 0
66 -393 395 0
-395 396 0
67 -395 397 0
-397 398 0
68 -397 399 0
-399 400 0
69 -399 401 0
-401 402 0
70 -401 403 0
-403 404 0
71 -403 405 0
-405 406 0
72 -405 407 0
-407 408 0
73 -407 409 0
-409 410 0
74 -409 411 0
-411 412 0
75 -411 413 0
-413 414 0
76 -413 415 0
-415 416 0
77 -415 417 0
-417 418 0
78 -417 419 0
-419 420 0
79 -419 421 0
-421 422 0
80 -421 423 0
-423 424 0
81 -423 425 0
-425 426 0
82 -425 427 0
-427 428 0
83 -427 429 0
-429 430 0
84 -429 431 0
-431 432 0
85 -431 433 0
-433 434 0
86 -433 435 0
-435 436 0
87 -435 437 0
-437 438 0
88 -437 439 0
-439 440 0
89 -439 441 0
-441 442 0
90 -441 443 0
-443 444 0
91 -443 445 0
-445 446 0
92 -445 447 0
-447 448 0
93 -447 449 0
-449 450 0
94 -449 451 0
-451 452 0
95 -451 453 0
-453 454 0
96 -453 455 0
-455 456 0
97 -455 457 0
-457 458 0
98 -457 459 0
-459 460 0
99 -459 461 0
-461 462 0
100 -461 463 0
-463 464 0
101 -463 465 0
-465 466 0
102 -465 467 0
-467 468 0
103 -467 469 0
-469 470 0
104 -469 471 0
-471 472 0
105 -471 473 0
-473 474 0
106 -473 475 0
-475 476 0
107 -475 477 0
-477 478 0
108 -477 479 0
-479 480 0
109 -479 481 0
-481 482 0
110 -481 483 0
-483 484 0
111 -483 485 0
-485 486 0
112 -485 487 0
-487 488 0
113 -487 489 0
-489 490 0
114 -489 491 0
-491 492 0
115 -491 493 0
-493 494 0
116 -493 495 0
-495 496 0
117 -495 0
2 266 0
-266 497 0
3 -266 268 0
-268 498 0
4 -268 270 0
-270 499 0
5 -270 272 0
-272 500 0
6 -272 274 0
-274 501 0
7 -274 276 0
-276 502 0
8 -276 278 0
-278 503 0
9 -278 280 0
-280 504 0
10 -280 282 0
-282 505 0
11 -282 284 0
-284 506 0
12 -284 286 0
-286 507 0
13 -286 288 0
-288 508 0
14 -288 290 0
-290 509 0
15 -290 292 0
-292 510 0
16 -292 294 0
-294 511 0
17 -294 296 0
-296 512 0
18 -296 298 0
-298 513 0
19 -298 300 0
-300 514 0
20 -300 302 0
-302 515 0
21 -302 304 0
-304 516 0
22 -304 306 0
-306 517 0
23 -306 308 0
-308 518 0
24 -308 310 0
-310 519 0
25 -310 312 0
-312 520 0
26 -312 314 0
-314 521 0
27 -314 316 0
-316 522 0
28 -316 318 0
-318 523 0
29 -318 320 0
-320 524 0
30 -320 322 0
-322 525 0
31 -322 324 0
-324 526 0
32 -324 326 0
-326 527 0
33 -326 328 0
-328 528 0
34 -328 330 0
-330 529 0
35 -330 332 0
-332 530 0
36 -332 334 0
-334 531 0
37 -334 336 0
-336 532 0
38 -336 338 0
-338 533 0
39 -338 340 0
-340 534 0
40 -340 342 0
-342 535 0
41 -342 344 0
-344 536 0
42 -344 346 0
-346 537 0
43 -346 348 0
-348 538 0
44 -348 350 0
-350 539 0
45 -350 352 0
-352 540 0
46 -352 354 0
-354 541 0
47 -354 356 0
-356 542 0
48 -356 358 0
-358 543 0
49 -358 360 0
-360 544 0
50 -360 362 0
-362 545 0
51 -362 364 0
-364 546 0
52 -364 366 0
-366 547 0
53 -366 368 0
-368 548 0
54 -368 370 0
-370 549 0
55 -370 372 0
-372 550 0
56 -372 374 0
-374 551 0
57 -374 376 0
-376 552 0
58 -376 378 0
-378 553 0
59 -378 380 0
-380 554 0
60 -380 382 0
-382 555 0
61 -382 384 0
-384 556 0
62 -384 386 0
-386 557 0
63 -386 388 0
-388 558 0
64 -388 390 0
-390 559 0
65 -390 392 0
-392 560 0
66 -392 394 0
-394 561 0
67 -394 396 0
-396 562 0
68 -396 398 0
-398 563 0
69 -398 400 0
-400 564 0
70 -400 402 0
-402 565 0
71 -402 404 0
-404 566 0
72 -404 406 0
-406 567 0
73 -406 408 0
-408 568 0
74 -408 410 0
-410 569 0
75 -410 412 0
-412 570 0
76 -412 414 0
-414 571 0
77 -414 416 0
-416 572 0
78 -416 418 0
-418 573 0
79 -418 420 0
-420 574 0
80 -420 422 0
-422 575 0
81 -422 424 0
-424 576 0
82 -424 426 0
-426 577 0
83 -426 428 0
-428 578 0
84 -428 430 0
-430 579 0
85 -430 432 0
-432 580 0
86 -432 434 0
-434 581 0
87 -434 436 0
-436 582 0
88 -436 438 0
-438 583 0
89 -438 440 0
-440 584 0
90 -440 442 0
-442 585 0
91 -442 444 0
-444 586 0
92 -444 446 0
-446 587 0
93 -446 448 0
-448 588 0
94 -448 450 0
-450 589 0
95 -450 452 0
-452 590 0
96 -452 454 0
-454 591 0
97 -454 456 0
-456 592 0
98 -456 458 0
-458 593 0
99 -458 460 0
-460 594 0
100 -460 462 0
-462 595 0
101 -462 464 0
-464 596 0
102 -464 466 0
-466 597 0
103 -466 468 0
-468 598 0
104 -468 470 0
-470 599 0
105 -470 472 0
-472 600 0
106 -472 474 0
-474 601 0
107 -474 476 0
-476 602 0
108 -476 478 0
-478 603 0
109 -478 480 0
-480 604 0
110 -480 482 0
-482 605 0
111 -482 484 0
-484 606 0
112 -484 486 0
-486 607 0
113 -486 488 0
-488 608 0
114 -488 490 0
-490 609 0
115 -490 492 0
-492 610 0
116 -492 494 0
-494 611 0
117 -494 496 0
-496 612 0
118 -496 0
3 497 0
-497 613 0
4 -497 498 0
-498 614 0
5 -498 499 0
-499 615 0
6 -499 500 0
-500 616 0
7 -500 501 0
-501 617 0
8 -501 502 0
-502 618 0
9 -502 503 0
-503 619 0
10 -503 504 0
-504 620 0
11 -504 505 0
-505 621 0
12 -505 506 0
-506 622 0
13 -506 507 0
-507 623 0
14 -507 508 0
-508 624 0
15 -508 509 0
-509 625 0
16 -509 510 0
-510 626 0
17 -510 511 0
-511 627 0
18 -511 512 0
-512 628 0
19 -512 513 0
-513 629 0
20 -513 514 0
-514 630 0
21 -514 515 0
-515 631 0
22 -515 516 0
-516 632 0
23 -516 517 0
-517 633 0
24 -517 518 0
-518 634 0
25 -518 519 0
-519 635 0
26 -519 520 0
-520 636 0
27 -520 521 0
-521 637 0
28 -521 522 0
-522 638 0
29 -522 523 0
-523 639 0
30 -523 524 0
-524 640 0
31 -524 525 0
-525 641 0
32 -525 526 0
-526 642 0
33 -526 527 0
-527 643 0
34 -527 528 0
-528 644 0
35 -528 529 0
-529 645 0
36 -529 530 0
-530 646 0
37 -530 531 0
-531 647 0
38 -531 532 0
-532 648 0
39 -532 533 0
-533 649 0
40 -533 534 0
-534 650 0
41 -534 535 0
-535 651 0
42 -535 536 0
-536 652 0
43 -536 537 0
-537 653 0
44 -537 538 0
-538 654 0
45 -538 539 0
-539 655 0
46 -539 540 0
-540 656 0
47 -540 541 0
-541 657 0
48 -541 542 0
-542 658 0
49 -542 543 0
-543 659 0
50 -543 544 0
-544 660 0
51 -544 545 0
-545 661 0
52 -545 546 0
-546 662 0
53 -546 547 0
-547 663 0
54 -547 548 0
-548 664 0
55 -548 549 0
-549 665 0
56 -549 550 0
-550 666 0
57 -550 551 0
-551 667 0
58 -551 552 0
-552 668 0
59 -552 553 0
-553 669 0
60 -553 554 0
-554 670 0
61 -554 555 0
-555 671 0
62 -555 556 0
-556 672 0
63 -556 557 0
-557 673 0
64 -557 558 0
-558 674 0
65 -558 559 0
-559 675 0
66 -559 560 0
-560 676 0
67 -560 561 0
-561 677 0
68 -561 562 0
-562 678 0
69 -562 563 0
-563 679 0
70 -563 564 0
-564 680 0
71 -564 565 0
-565 681 0
72 -565 566 0
-566 682 0
73 -566 567 0
-567 683 0
74 -567 568 0
-568 684 0
75 -568 569 0
-569 685 0
76 -569 570 0
-570 686 0
77 -570 571 0
-571 687 0
78 -571 572 0
-572 688 0
79 -572 573 0
-573 689 0
80 -573 574 0
-574 690 0
81 -574 575 0
-575 691 0
82 -575 576 0
-576 692 0
83 -576 577 0
-577 693 0
84 -577 578 0
-578 694 0
85 -578 579 0
-579 695 0
86 -579 580 0
-580 696 0
87 -580 581 0
-581 697 0
88 -581 582 0
-582 698 0
89 -582 583 0
-583 699 0
90 -583 584 0
-584 700 0
91 -584 585 0
-585 701 0
92 -585 586 0
-586 702 0
93 -586 587 0
-587 703 0
94 -587 588 0
-588 704 0
95 -588 589 0
-589 705 0
96 -589 590 0
-590 706 0
97 -590 591 0
-591 707 0
98 -591 592 0
-592 708 0
99 -592 593 0
-593 709 0
100 -593 594 0
-594 710 0
101 -594 595 0
-595 711 0
102 -595 596 0
-596 712 0
103 -596 597 0
-597 713 0
104 -597 598 0
-598 714 0
105 -598 599 0
-599 715 0
106 -599 600 0
-600 716 0
107 -600 601 0
-601 717 0
108 -601 602 0
-602 718 0
109 -602 603 0
-603 719 0
110 -603 604 0
-604 720 0
111 -604 605 0
-605 721 0
112 -605 606 0
-606 722 0
113 -606 607 0
-607 723 0
114 -607 608 0
-608 724 0
115 -608 609 0
-609 725 0
116 -609 610 0
-610 726 0
117 -610 611 0
-611 727 0
118 -611 612 0
-612 728 0
119 -612 0
4 613 0
-613 729 0
5 -613 614 0
-614 730 0
6 -614 615 0
-615 731 0
7 -615 616 0
-616 732 0
8 -616 617 0
-617 733 0
9 -617 618 0
-618 734 0
10 -618 619 0
-619 735 0
11 -619 620 0
-620 736 0
12 -620 621 0
-621 737 0
13 -621 622 0
-622 738 0
14 -622 623 0
-623 739 0
15 -623 624 0
-624 740 0
16 -624 625 0
-625 741 0
17 -625 626 0
-626 742 0
18 -626 627 0
-627 743 0
19 -627 628 0
-628 744 0
20 -628 629 0
-629 745 0
21 -629 630 0
-630 746 0
22 -630 631 0
-631 747 0
23 -631 632 0
-632 748 0
24 -632 633 0
-633 749 0
25 -633 634 0
-634 750 0
26 -634 635 0
-635 751 0
27 -635 636 0
-636 752 0
28 -636 637 0
-637 753 0
29 -637 638 0
-638 754 0
30 -638 639 0
-639 755 0
31 -639 640 0
-640 756 0
32 -640 641 0
-641 757 0
33 -641 642 0
-642 758 0
34 -642 643 0
-643 759 0
35 -643 644 0
-644 760 0
36 -644 645 0
-645 761 0
37 -645 646 0
-646 762 0
38 -646 647 0
-647 763 0
39 -647 648 0
-648 764 0
40 -648 649 0
-649 765 0
41 -649 650 0
-650 766 0
42 -650 651 0
-651 767 0
43 -651 652 0
-652 768 0
44 -652 653 0
-653 769 0
45 -653 654 0
-654 770 0
46 -654 655 0
-655 771 0
47 -655 656 0
-656 772 0
48 -656 657 0
-657 773 0
49 -657 658 0
-658 774 0
50 -658 659 0
-659 775 0
51 -659 660 0
-660 776 0
52 -660 661 0
-661 777 0
53 -661 662 0
-662 778 0
54 -662 663 0
-663 779 0
55 -663 664 0
-664 780 0
56 -664 665 0
-665 781 0
57 -665 666 0
-666 782 0
58 -666 667 0
-667 783 0
59 -667 668 0
-668 784 0
60 -668 669 0
-669 785 0
61 -669 670 0
-670 786 0
62 -670 671 0
-671 787 0
63 -671 672 0
-672 788 0
64 -672 673 0
-673 789 0
65 -673 674 0
-674 790 0
66 -674 675 0
-675 791 0
67 -675 676 0
-676 792 0
68 -676 677 0
-677 793 0
69 -677 678 0
-678 794 0
70 -678 679 0
-679 795 0
71 -679 680 0
-680 796 0
72 -680 681 0
-681 797 0
73 -681 682 0
-682 798 0
74 -682 683 0
-683 799 0
75 -683 684 0
-684 800 0
76 -684 685 0
-685 801 0
77 -685 686 0
-686 802 0
78 -686 687 0
-687 803 0
79 -687 688 0
-688 804 0
80 -688 689 0
-689 805 0
81 -689 690 0
-690 806 0
82 -690 691 0
-691 807 0
83 -691 692 0
-692 808 0
84 -692 693 0
-693 809 0
85 -693 694 0
-694 810 0
86 -694 695 0
-695 811 0
87 -695 696 0
-696 812 0
88 -696 697 0
-697 813 0
89 -697 698 0
-698 814 0
90 -698 699 0
-699 815 0
91 -699 700 0
-700 816 0
92 -700 701 0
-701 817 0
93 -701 702 0
-702 818 0
94 -702 703 0
-703 819 0
95 -703 704 0
-704 820 0
96 -704 705 0
-705 821 0
97 -705 706 0
-706 822 0
98 -706 707 0
-707 823 0
99 -707 708 0
-708 824 0
100 -708 709 0
-709 825 0
101 -709 710 0
-710 826 0
102 -710 711 0
-711 827 0
103 -711 712 0
-712 828 0
104 -712 713 0
-713 829 0
105 -713 714 0
-714 830 0
106 -714 715 0
-715 831 0
107 -715 716 0
-716 832 0
108 -716 717 0
-717 833 0
109 -717 718 0
-718 834 0
110 -718 719 0
-719 835 0
111 -719 720 0
-720 836 0
112 -720 721 0
-721 837 0
113 -721 722 0
-722 838 0
114 -722 723 0
-723 839 0
115 -723 724 0
-724 840 0
116 -724 725 0
-725 841 0
117 -725 726 0
-726 842 0
118 -726 727 0
-727 843 0
119 -727 728 0
-728 844 0
120 -728 0
5 729 0
-729 845 0
6 -729 730 0
-730 846 0
7 -730 731 0
-731 847 0
8 -731 732 0
-732 848 0
9 -732 733 0
-733 849 0
10 -733 734 0
-734 850 0
11 -734 735 0
-735 851 0
12 -735 736 0
-736 852 0
13 -736 737 0
-737 853 0
14 -737 738 0
-738 854 0
15 -738 739 0
-739 855 0
16 -739 740 0
-740 856 0
17 -740 741 0
-741 857 0
18 -741 742 0
-742 858 0
19 -742 743 0
-743 859 0
20 -743 744 0
-744 860 0
21 -744 745 0
-745 861 0
22 -745 746 0
-746 862 0
23 -746 747 0
-747 863 0
24 -747 748 0
-748 864 0
25 -748 749 0
-749 865 0
26 -749 750 0
-750 866 0
27 -750 751 0
-751 867 0
28 -751 752 0
-752 868 0
29 -752 753 0
-753 869 0
30 -753 754 0
-754 870 0
31 -754 755 0
-755 871 0
32 -755 756 0
-756 872 0
33 -756 757 0
-757 873 0
34 -757 758 0
-758 874 0
35 -758 759 0
-759 875 0
36 -759 760 0
-760 876 0
37 -760 761 0
-761 877 0
38 -761 762 0
-762 878 0
39 -762 763 0
-763 879 0
40 -763 764 0
-764 880 0
41 -764 765 0
-765 881 0
42 -765 766 0
-766 882 0
43 -766 767 0
-767 883 0
44 -767 768 0
-768 884 0
45 -768 769 0
-769 885 0
46 -769 770 0
-770 886 0
47 -770 771 0
-771 887 0
48 -771 772 0
-772 888 0
49 -772 773 0
-773 889 0
50 -773 774 0
-774 890 0
51 -774 775 0
-775 891 0
52 -775 776 0
-776 892 0
53 -776 777 0
-777 893 0
54 -777 778 0
-778 894 0
55 -778 779 0
-779 895 0
56 -779 780 0
-780 896 0
57 -780 781 0
-781 897 0
58 -781 782 0
-782 898 0
59 -782 783 0
-783 899 0
60 -783 784 0
-784 900 0
61 -784 785 0
-785 901 0
62 -785 786 0
-786 902 0
63 -786 787 0
-787 903 0
64 -787 788 0
-788 904 0
65 -788 789 0
-789 905 0
66 -789 790 0
-790 906 0
67 -790 791 0
-791 907 0
68 -791 792 0
-792 908 0
69 -792 793 0
-793 909 0
70 -793 794 0
-794 910 0
71 -794 795 0
-795 911 0
72 -795 796 0
-796 912 0
73 -796 797 0
-797 913 0
74 -797 798 0
-798 914 0
75 -798 799 0
-799 915 0
76 -799 800 0
-800 916 0
77 -800 801 0
-801 917 0
78 -801 802 0
-802 918 0
79 -802 803 0
-803 919 0
80 -803 804 0
-804 920 0
81 -804 805 0
-805 921 0
82 -805 806 0
-806 922 0
83 -806 807 0
-807 923 0
84 -807 808 0
-808 924 0
85 -808 809 0
-809 925 0
86 -809 810 0
-810 926 0
87 -810 811 0
-811 927 0
88 -811 812 0
-812 928 0
89 -812 813 0
-813 929 0
90 -813 814 0
-814 930 0
91 -814 815 0
-815 931 0
92 -815 816 0
-816 932 0
93 -816 817 0
-817 933 0
94 -817 818 0
-818 934 0
95 -818 819 0
-819 935 0
96 -819 820 0
-820 936 0
97 -820 821 0
-821 937 0
98 -821 822 0
-822 938 0
99 -822 823 0
-823 939 0
100 -823 824 0
-824 940 0
101 -824 825 0
-825 941 0
102 -825 826 0
-826 942 0
103 -826 827 0
-827 943 0
104 -827 828 0
-828 944 0
105 -828 829 0
-829 945 0
106 -829 830 0
-830 946 0
107 -830 831 0
-831 947 0
108 -831 832 0
-832 948 0
109 -832 833 0
-833 949 0
110 -833 834 0
-834 950 0
111 -834 835 0
-835 951 0
112 -835 836 0
-836 952 0
113 -836 837 0
-837 953 0
114 -837 838 0
-838 954 0
115 -838 839 0
-839 955 0
116 -839 840 0
-840 956 0
117 -840 841 0
-841 957 0
118 -841 842 0
-842 958 0
119 -842 843 0
-843 959 0
120 -843 844 0
-844 960 0
121 -844 0
6 845 0
-845 961 0
7 -845 846 0
-846 962 0
8 -846 847 0
-847 963 0
9 -847 848 0
-848 964 0
10 -848 849 0
-849 965 0
11 -849 850 0
-850 966 0
12 -850 851 0
-851 967 0
13 -851 852 0
-852 968 0
14 -852 853 0
-853 969 0
15 -853 854 0
-854 970 0
16 -854 855 0
-855 971 0
17 -855 856 0
-856 972 0
18 -856 857 0
-857 973 0
19 -857 858 0
-858 974 0
20 -858 859 0
-859 975 0
21 -859 860 0
-860 976 0
22 -860 861 0
-861 977 0
23 -861 862 0
-862 978 0
24 -862 863 0
-863 979 0
25 -863 864 0
-864 980 0
26 -864 865 0
-865 981 0
27 -865 866 0
-866 982 0
28 -866 867 0
-867 983 0
29 -867 868 0
-868 984 0
30 -868 869 0
-869 985 0
31 -869 870 0
-870 986 0
32 -870 871 0
-871 987 0
33 -871 872 0
-872 988 0
34 -872 873 0
-873 989 0
35 -873 874 0
-874 990 0
36 -874 875 0
-875 991 0
37 -875 876 0
-876 992 0
38 -876 877 0
-877 993 0
39 -877 878 0
-878 994 0
40 -878 879 0
-879 995 0
41 -879 880 0
-880 996 0
42 -880 881 0
-881 997 0
43 -881 882 0
-882 998 0
44 -882 883 0
-883 999 0
45 -883 884 0
-884 1000 0
46 -884 885 0
-885 1001 0
47 -885 886 0
-886 1002 0
48 -886 887 0
-887 1003 0
49 -887 888 0
-888 1004 0
50 -888 889 0
-889 1005 0
51 -889 890 0
-890 1006 0
52 -890 891 0
-891 1007 0
53 -891 892 0
-892 1008 0
54 -892 893 0
-893 1009 0
55 -893 894 0
-894 1010 0
56 -894 895 0
-895 1011 0
57 -895 896 0
-896 1012 0
58 -896 897 0
-897 1013 0
59 -897 898 0
-898 1014 0
60 -898 899 0
-899 1015 0
61 -899 900 0
-900 1016 0
62 -900 901 0
-901 1017 0
63 -901 902 0
-902 1018 0
64 -902 903 0
-903 1019 0
65 -903 904 0
-904 1020 0
66 -904 905 0
-905 1021 0
67 -905 906 0
-906 1022 0
68 -906 907 0
-907 1023 0
69 -907 908 0
-908 1024 0
70 -908 909 0
-909 1025 0
71 -909 910 0
-910 1026 0
72 -910 911 0
-911 1027 0
73 -911 912 0
-912 1028 0
74 -912 913 0
-913 1029 0
75 -913 914 0
-914 1030 0
76 -914 915 0
-915 1031 0
77 -915 916 0
-916 1032 0
78 -916 917 0
-917 1033 0
79 -917 918 0
-918 1034 0
80 -918 919 0
-919 1035 0
81 -919 920 0
-920 1036 0
82 -920 921 0
-921 1037 0
83 -921 922 0
-922 1038 0
84 -922 923 0
-923 1039 0
85 -923 924 0
-924 1040 0
86 -924 925 0
-925 1041 0
87 -925 926 0
-926 1042 0
88 -926 927 0
-927 1043 0
89 -927 928 0
-928 1044 0
90 -928 929 0
-929 1045 0
91 -929 930 0
-930 1046 0
92 -930 931 0
-931 1047 0
93 -931 932 0
-932 1048 0
94 -932 933 0
-933 1049 0
95 -933 934 0
-934 1050 0
96 -934 935 0
-935 1051 0
97 -935 936 0
-936 1052 0
98 -936 937 0
-937 1053 0
99 -937 938 0
-938 1054 0
100 -938 939 0
-939 1055 0
101 -939 940 0
-940 1056 0
102 -940 941 0
-941 1057 0
103 -941 942 0
-942 1058 0
104 -942 943 0
-943 1059 0
105 -943 944 0
-944 1060 0
106 -944 945 0
-945 1061 0
107 -945 946 0
-946 1062 0
108 -946 947 0
-947 1063 0
109 -947 948 0
-948 1064 0
110 -948 949 0
-949 1065 0
111 -949 950 0
-950 1066 0
112 -950 951 0
-951 1067 0
113 -951 952 0
-952 1068 0
114 -952 953 0
-953 1069 0
115 -953 954 0
-954 1070 0
116 -954 955 0
-955 1071 0
117 -955 956 0
-956 1072 0
118 -956 957 0
-957 1073 0
119 -957 958 0
-958 1074 0
120 -958 959 0
-959 1075 0
121 -959 960 0
-960 1076 0
122 -960 0
7 961 0
-961 1077 0
8 -961 962 0
-962 1078 0
9 -962 963 0
-963 1079 0
10 -963 964 0
-964 1080 0
11 -964 965 0
-965 1081 0
12 -965 966 0
-966 1082 0
13 -966 967 0
-967 1083 0
14 -967 968 0
-968 1084 0
15 -968 969 0
-969 1085 0
16 -969 970 0
-970 1086 0
17 -970 971 0
-971 1087 0
18 -971 972 0
-972 1088 0
19 -972 973 0
-973 1089 0
20 -973 974 0
-974 1090 0
21 -974 975 0
-975 1091 0
22 -975 976 0
-976 1092 0
23 -976 977 0
-977 1093 0
24 -977 978 0
-978 1094 0
25 -978 979 0
-979 1095 0
26 -979 980 0
-980 1096 0
27 -980 981 0
-981 1097 0
28 -981 982 0
-982 1098 0
29 -982 983 0
-983 1099 0
30 -983 984 0
-984 1100 0
31 -984 985 0
-985 1101 0
32 -985 986 0
-986 1102 0
33 -986 987 0
-987 1103 0
34 -987 988 0
-988 1104 0
35 -988 989 0
-989 1105 0
36 -989 990 0
-990 1106 0
37 -990 991 0
-991 1107 0
38 -991 992 0
-992 1108 0
39 -992 993 0
-993 1109 0
40 -993 994 0
-994 1110 0
41 -994 995 0
-995 1111 0
42 -995 996 0
-996 1112 0
43 -996 997 0
-997 1113 0
44 -997 998 0
-998 1114 0
45 -998 999 0
-999 1115 0
46 -999 1000 0
-1000 1116 0
47 -1000 1001 0
-1001 1117 0
48 -1001 1002 0
-1002 1118 0
49 -1002 1003 0
-1003 1119 0
50 -1003 1004 0
-1004 1120 0
51 -1004 1005 0
-1005 1121 0
52 -1005 1006 0
-1006 1122 0
53 -1006 1007 0
-1007 1123 0
54 -1007 1008 0
-1008 1124 0
55 -1008 1009 0
-1009 1125 0
56 -1009 1010 0
-1010 1126 0
57 -1010 1011 0
-1011 1127 0
58 -1011 1012 0
-1012 1128 0
59 -1012 1013 0
-1013 1129 0
60 -1013 1014 0
-1014 1130 0
61 -1014 1015 0
-1015 1131 0
62 -1015 1016 0
-1016 1132 0
63 -1016 1017 0
-1017 1133 0
64 -1017 1018 0
-1018 1134 0
65 -1018 1019 0
-1019 1135 0
66 -1019 1020 0
-1020 1136 0
67 -1020 1021 0
-1021 1137 0
68 -1021 1022 0
-1022 1138 0
69 -1022 1023 0
-1023 1139 0
70 -1023 1024 0
-1024 1140 0
71 -1024 1025 0
-1025 1141 0
72 -1025 1026 0
-1026 1142 0
73 -1026 1027 0
-1027 1143 0
74 -1027 1028 0
-1028 1144 0
75 -1028 1029 0
-1029 1145 0
76 -1029 1030 0
-1030 1146 0
77 -1030 1031 0
-1031 1147 0
78 -1031 1032 0
-1032 1148 0
79 -1032 1033 0
-1033 1149 0
80 -1033 1034 0
-1034 1150 0
81 -1034 1035 0
-1035 1151 0
82 -1035 1036 0
-1036 1152 0
83 -1036 1037 0
-1037 1153 0
84 -1037 1038 0
-1038 1154 0
85 -1038 1039 0
-1039 1155 0
86 -1039 1040 0
-1040 1156 0
87 -1040 1041 0
-1041 1157 0
88 -1041 1042 0
-1042 1158 0
89 -1042 1043 0
-1043 1159 0
90 -1043 1044 0
-1044 1160 0
91 -1044 1045 0
-1045 1161 0
92 -1045 1046 0
-1046 1162 0
93 -1046 1047 0
-1047 1163 0
94 -1047 1048 0
-1048 1164 0
95 -1048 1049 0
-1049 1165 0
96 -1049 1050 0
-1050 1166 0
97 -1050 1051 0
-1051 1167 0
98 -1051 1052 0
-1052 1168 0
99 -1052 1053 0
-1053 1169 0
100 -1053 1054 0
-1054 1170 0
101 -1054 1055 0
-1055 1171 0
102 -1055 1056 0
-1056 1172 0
103 -1056 1057 0
-1057 1173 0
104 -1057 1058 0
-1058 1174 0
105 -1058 1059 0
-1059 1175 0
106 -1059 1060 0
-1060 1176 0
107 -1060 1061 0
-1061 1177 0
108 -1061 1062 0
-1062 1178 0
109 -1062 1063 0
-1063 1179 0
110 -1063 1064 0
-1064 1180 0
111 -1064 1065 0
-1065 1181 0
112 -1065 1066 0
-1066 1182 0
113 -1066 1067 0
-1067 1183 0
114 -1067 1068 0
-1068 1184 0
115 -1068 1069 0
-1069 1185 0
116 -1069 1070 0
-1070 1186 0
117 -1070 1071 0
-1071 1187 0
118 -1071 1072 0
-1072 1188 0
119 -1072 1073 0
-1073 1189 0
120 -1073 1074 0
-1074 1190 0
121 -1074 1075 0
-1075 1191 0
122 -1075 1076 0
-1076 1192 0
123 -1076 0
8 1077 0
-1077 1193 0
9 -1077 1078 0
-1078 1194 0
10 -1078 1079 0
-1079 1195 0
11 -1079 1080 0
-1080 1196 0
12 -1080 1081 0
-1081 1197 0
13 -1081 1082 0
-1082 1198 0
14 -1082 1083 0
-1083 1199 0
15 -1083 1084 0
-1084 1200 0
16 -1084 1085 0
-1085 1201 0
17 -1085 1086 0
-1086 1202 0
18 -1086 1087 0
-1087 1203 0
19 -1087 1088 0
-1088 1204 0
20 -1088 1089 0
-1089 1205 0
21 -1089 1090 0
-1090 1206 0
22 -1090 1091 0
-1091 1207 0
23 -1091 1092 0
-1092 1208 0
24 -1092 1093 0
-1093 1209 0
25 -1093 1094 0
-1094 1210 0
26 -1094 1095 0
-1095 1211 0
27 -1095 1096 0
-1096 1212 0
28 -1096 1097 0
-1097 1213 0
29 -1097 1098 0
-1098 1214 0
30 -1098 1099 0
-1099 1215 0
31 -1099 1100 0
-1100 1216 0
32 -1100 1101 0
-1101 1217 0
33 -1101 1102 0
-1102 1218 0
34 -1102 1103 0
-1103 1219 0
35 -1103 1104 0
-1104 1220 0
36 -1104 1105 0
-1105 1221 0
37 -1105 1106 0
-1106 1222 0
38 -1106 1107 0
-1107 1223 0
39 -1107 1108 0
-1108 1224 0
40 -1108 1109 0
-1109 1225 0
41 -1109 1110 0
-1110 1226 0
42 -1110 1111 0
-1111 1227 0
43 -1111 1112 0
-1112 1228 0
44 -1112 1113 0
-1113 1229 0
45 -1113 1114 0
-1114 1230 0
46 -1114 1115 0
-1115 1231 0
47 -1115 1116 0
-1116 1232 0
48 -1116 1117 0
-1117 1233 0
49 -1117 1118 0
-1118 1234 0
50 -1118 1119 0
-1119 1235 0
51 -1119 1120 0
-1120 1236 0
52 -1120 1121 0
-1121 1237 0
53 -1121 1122 0
-1122 1238 0
54 -1122 1123 0
-1123 1239 0
55 -1123 1124 0
-1124 1240 0
56 -1124 1125 0
-1125 1241 0
57 -1125 1126 0
-1126 1242 0
58 -1126 1127 0
-1127 1243 0
59 -1127 1128 0
-1128 1244 0
60 -1128 1129 0
-1129 1245 0
61 -1129 1130 0
-1130 1246 0
62 -1130 1131 0
-1131 1247 0
63 -1131 1132 0
-1132 1248 0
64 -1132 1133 0
-1133 1249 0
65 -1133 1134 0
-1134 1250 0
66 -1134 1135 0
-1135 1251 0
67 -1135 1136 0
-1136 1252 0
68 -1136 1137 0
-1137 1253 0
69 -1137 1138 0
-1138 1254 0
70 -1138 1139 0
-1139 1255 0
71 -1139 1140 0
-1140 1256 0
72 -1140 1141 0
-1141 1257 0
73 -1141 1142 0
-1142 1258 0
74 -1142 1143 0
-1143 1259 0
75 -1143 1144 0
-1144 1260 0
76 -1144 1145 0
-1145 1261 0
77 -1145 1146 0
-1146 1262 0
78 -1146 1147 0
-1147 1263 0
79 -1147 1148 0
-1148 1264 0
80 -1148 1149 0
-1149 1265 0
81 -1149 1150 0
-1150 1266 0
82 -1150 1151 0
-1151 1267 0
83 -1151 1152 0
-1152 1268 0
84 -1152 1153 0
-1153 1269 0
85 -1153 1154 0
-1154 1270 0
86 -1154 1155 0
-1155 1271 0
87 -1155 1156 0
-1156 1272 0
88 -1156 1157 0
-1157 1273 0
89 -1157 1158 0
-1158 1274 0
90 -1158 1159 0
-1159 1275 0
91 -1159 1160 0
-1160 1276 0
92 -1160 1161 0
-1161 1277 0
93 -1161 1162 0
-1162 1278 0
94 -1162 1163 0
-1163 1279 0
95 -1163 1164 0
-1164 1280 0
96 -1164 1165 0
-1165 1281 0
97 -1165 1166 0
-1166 1282 0
98 -1166 1167 0
-1167 1283 0
99 -1167 1168 0
-1168 1284 0
100 -1168 1169 0
-1169 1285 0
101 -1169 1170 0
-1170 1286 0
102 -1170 1171 0
-1171 1287 0
103 -1171 1172 0
-1172 1288 0
104 -1172 1173 0
-1173 1289 0
105 -1173 1174 0
-1174 1290 0
106 -1174 1175 0
-1175 1291 0
107 -1175 1176 0
-1176 1292 0
108 -1176 1177 0
-1177 1293 0
109 -1177 1178 0
-1178 1294 0
110 -1178 1179 0
-1179 1295 0
111 -1179 1180 0
-1180 1296 0
112 -1180 1181 0
-1181 1297 0
113 -1181 1182 0
-1182 1298 0
114 -1182 1183 0
-1183 1299 0
115 -1183 1184 0
-1184 1300 0
116 -1184 1185 0
-1185 1301 0
117 -1185 1186 0
-1186 1302 0
118 -1186 1187 0
-1187 1303 0
119 -1187 1188 0
-1188 1304 0
120 -1188 1189 0
-1189 1305 0
121 -1189 1190 0
-1190 1306 0
122 -1190 1191 0
-1191 1307 0
123 -1191 1192 0
-1192 1308 0
124 -1192 0
9 1193 0
-1193 1309 0
10 -1193 1194 0
-1194 1310 0
11 -1194 1195 0
-1195 1311 0
12 -1195 1196 0
-1196 1312 0
13 -1196 1197 0
-1197 1313 0
14 -1197 1198 0
-1198 1314 0
15 -1198 1199 0
-1199 1315 0
16 -1199 1200 0
-1200 1316 0
17 -1200 1201 0
-1201 1317 0
18 -1201 1202 0
-1202 1318 0
19 -1202 1203 0
-1203 1319 0
20 -1203 1204 0
-1204 1320 0
21 -1204 1205 0
-1205 1321 0
22 -1205 1206 0
-1206 1322 0
23 -1206 1207 0
-1207 1323 0
24 -1207 1208 0
-1208 1324 0
25 -1208 1209 0
-1209 1325 0
26 -1209 1210 0
-1210 1326 0
27 -1210 1211 0
-1211 1327 0
28 -1211 1212 0
-1212 1328 0
29 -1212 1213 0
-1213 1329 0
30 -1213 1214 0
-1214 1330 0
31 -1214 1215 0
-1215 1331 0
32 -1215 1216 0
-1216 1332 0
33 -1216 1217 0
-1217 1333 0
34 -1217 1218 0
-1218 1334 0
35 -1218 1219 0
-1219 1335 0
36 -1219 1220 0
-1220 1336 0
37 -1220 1221 0
-1221 1337 0
38 -1221 1222 0
-1222 1338 0
39 -1222 1223 0
-1223 1339 0
40 -1223 1224 0
-1224 1340 0
41 -1224 1225 0
-1225 1341 0
42 -1225 1226 0
-1226 1342 0
43 -1226 1227 0
-1227 1343 0
44 -1227 1228 0
-1228 1344 0
45 -1228 1229 0
-1229 1345 0
46 -1229 1230 0
-1230 1346 0
47 -1230 1231 0
-1231 1347 0
48 -1231 1232 0
-1232 1348 0
49 -1232 1233 0
-1233 1349 0
50 -1233 1234 0
-1234 1350 0
51 -1234 1235 0
-1235 1351 0
52 -1235 1236 0
-1236 1352 0
53 -1236 1237 0
-1237 1353 0
54 -1237 1238 0
-1238 1354 0
55 -1238 1239 0
-1239 1355 0
56 -1239 1240 0
-1240 1356 0
57 -1240 1241 0
-1241 1357 0
58 -1241 1242 0
-1242 1358 0
59 -1242 1243 0
-1243 1359 0
60 -1243 1244 0
-1244 1360 0
61 -1244 1245 0
-1245 1361 0
62 -1245 1246 0
-1246 1362 0
63 -1246 1247 0
-1247 1363 0
64 -1247 1248 0
-1248 1364 0
65 -1248 1249 0
-1249 1365 0
66 -1249 1250 0
-1250 1366 0
67 -1250 1251 0
-1251 1367 0
68 -1251 1252 0
-1252 1368 0
69 -1252 1253 0
-1253 1369 0
70 -1253 1254 0
-1254 1370 0
71 -1254 1255 0
-1255 1371 0
72 -1255 1256 0
-1256 1372 0
73 -1256 1257 0
-1257 1373 0
74 -1257 1258 0
-1258 1374 0
75 -1258 1259 0
-1259 1375 0
76 -1259 1260 0
-1260 1376 0
77 -1260 1261 0
-1261 1377 0
78 -1261 1262 0
-1262 1378 0
79 -1262 1263 0
-1263 1379 0
80 -1263 1264 0
-1264 1380 0
81 -1264 1265 0
-1265 1381 0
82 -1265 1266 0
-1266 1382 0
83 -1266 1267 0
-1267 1383 0
84 -1267 1268 0
-1268 1384 0
85 -1268 1269 0
-1269 1385 0
86 -1269 1270 0
-1270 1386 0
87 -1270 1271 0
-1271 1387 0
88 -1271 1272 0
-1272 1388 0
89 -1272 1273 0
-1273 1389 0
90 -1273 1274 0
-1274 1390 0
91 -1274 1275 0
-1275 1391 0
92 -1275 1276 0
-1276 1392 0
93 -1276 1277 0
-1277 1393 0
94 -1277 1278 0
-1278 1394 0
95 -1278 1279 0
-1279 1395 0
96 -1279 1280 0
-1280 1396 0
97 -1280 1281 0
-1281 1397 0
98 -1281 1282 0
-1282 1398 0
99 -1282 1283 0
-1283 1399 0
100 -1283 1284 0
-1284 1400 0
101 -1284 1285 0
-1285 1401 0
102 -1285 1286 0
-1286 1402 0
103 -1286 1287 0
-1287 1403 0
104 -1287 1288 0
-1288 1404 0
105 -1288 1289 0
-1289 1405 0
106 -1289 1290 0
-1290 1406 0
107 -1290 1291 0
-1291 1407 0
108 -1291 1292 0
-1292 1408 0
109 -1292 1293 0
-1293 1409 0
110 -1293 1294 0
-1294 1410 0
111 -1294 1295 0
-1295 1411 0
112 -1295 1296 0
-1296 1412 0
113 -1296 1297 0
-1297 1413 0
114 -1297 1298 0
-1298 1414 0
115 -1298 1299 0
-1299 1415 0
116 -1299 1300 0
-1300 1416 0
117 -1300 1301 0
-1301 1417 0
118 -1301 1302 0
-1302 1418 0
119 -1302 1303 0
-1303 1419 0
120 -1303 1304 0
-1304 1420 0
121 -1304 1305 0
-1305 1421 0
122 -1305 1306 0
-1306 1422 0
123 -1306 1307 0
-1307 1423 0
124 -1307 1308 0
-1308 1424 0
125 -1308 0
10 1309 0
-1309 1425 0
11 -1309 1310 0
-1310 1426 0
12 -1310 1311 0
-1311 1427 0
13 -1311 1312 0
-1312 1428 0
14 -1312 1313 0
-1313 1429 0
15 -1313 1314 0
-1314 1430 0
16 -1314 1315 0
-1315 1431 0
17 -1315 1316 0
-1316 1432 0
18 -1316 1317 0
-1317 1433 0
19 -1317 1318 0
-1318 1434 0
20 -1318 1319 0
-1319 1435 0
21 -1319 1320 0
-1320 1436 0
22 -1320 1321 0
-1321 1437 0
23 -1321 1322 0
-1322 1438 0
24 -1322 1323 0
-1323 1439 0
25 -1323 1324 0
-1324 1440 0
26 -1324 1325 0
-1325 1441 0
27 -1325 1326 0
-1326 1442 0
28 -1326 1327 0
-1327 1443 0
29 -1327 1328 0
-1328 1444 0
30 -1328 1329 0
-1329 1445 0
31 -1329 1330 0
-1330 1446 0
32 -1330 1331 0
-1331 1447 0
33 -1331 1332 0
-1332 1448 0
34 -1332 1333 0
-1333 1449 0
35 -1333 1334 0
-1334 1450 0
36 -1334 1335 0
-1335 1451 0
37 -1335 1336 0
-1336 1452 0
38 -1336 1337 0
-1337 1453 0
39 -1337 1338 0
-1338 1454 0
40 -1338 1339 0
-1339 1455 0
41 -1339 1340 0
-1340 1456 0
42 -1340 1341 0
-1341 1457 0
43 -1341 1342 0
-1342 1458 0
44 -1342 1343 0
-1343 1459 0
45 -1343 1344 0
-1344 1460 0
46 -1344 1345 0
-1345 1461 0
47 -1345 1346 0
-1346 1462 0
48 -1346 1347 0
-1347 1463 0
49 -1347 1348 0
-1348 1464 0
50 -1348 1349 0
-1349 1465 0
51 -1349 1350 0
-1350 1466 0
52 -1350 1351 0
-1351 1467 0
53 -1351 1352 0
-1352 1468 0
54 -1352 1353 0
-1353 1469 0
55 -1353 1354 0
-1354 1470 0
56 -1354 1355 0
-1355 1471 0
57 -1355 1356 0
-1356 1472 0
58 -1356 1357 0
-1357 1473 0
59 -1357 1358 0
-1358 1474 0
60 -1358 1359 0
-1359 1475 0
61 -1359 1360 0
-1360 1476 0
62 -1360 1361 0
-1361 1477 0
63 -1361 1362 0
-1362 1478 0
64 -1362 1363 0
-1363 1479 0
65 -1363 1364 0
-1364 1480 0
66 -1364 1365 0
-1365 1481 0
67 -1365 1366 0
-1366 1482 0
68 -1366 1367 0
-1367 1483 0
69 -1367 1368 0
-1368 1484 0
70 -1368 1369 0
-1369 1485 0
71 -1369 1370 0
-1370 1486 0
72 -1370 1371 0
-1371 1487 0
73 -1371 1372 0
-1372 1488 0
74 -1372 1373 0
-1373 1489 0
75 -1373 1374 0
-1374 1490 0
76 -1374 1375 0
-1375 1491 0
77 -1375 1376 0
-1376 1492 0
78 -1376 1377 0
-1377 1493 0
79 -1377 1378 0
-1378 1494 0
80 -1378 1379 0
-1379 1495 0
81 -1379 1380 0
-1380 1496 0
82 -1380 1381 0
-1381 1497 0
83 -1381 1382 0
-1382 1498 0
84 -1382 1383 0
-1383 1499 0
85 -1383 1384 0
-1384 1500 0
86 -1384 1385 0
-1385 1501 0
87 -1385 1386 0
-1386 1502 0
88 -1386 1387 0
-1387 1503 0
89 -1387 1388 0
-1388 1504 0
90 -1388 1389 0
-1389 1505 0
91 -1389 1390 0
-1390 1506 0
92 -1390 1391 0
-1391 1507 0
93 -1391 1392 0
-1392 1508 0
94 -1392 1393 0
-1393 1509 0
95 -1393 1394 0
-1394 1510 0
96 -1394 1395 0
-1395 1511 0
97 -1395 1396 0
-1396 1512 0
98 -1396 1397 0
-1397 1513 0
99 -1397 1398 0
-1398 1514 0
100 -1398 1399 0
-1399 1515 0
101 -1399 1400 0
-1400 1516 0
102 -1400 1401 0
-1401 1517 0
103 -1401 1402 0
-1402 1518 0
104 -1402 1403 0
-1403 1519 0
105 -1403 1404 0
-1404 1520 0
106 -1404 1405 0
-1405 1521 0
107 -1405 1406 0
-1406 1522 0
108 -1406 1407 0
-1407 1523 0
109 -1407 1408 0
-1408 1524 0
110 -1408 1409 0
-1409 1525 0
111 -1409 1410 0
-1410 1526 0
112 -1410 1411 0
-1411 1527 0
113 -1411 1412 0
-1412 1528 0
114 -1412 1413 0
-1413 1529 0
115 -1413 1414 0
-1414 1530 0
116 -1414 1415 0
-1415 1531 0
117 -1415 1416 0
-1416 1532 0
118 -1416 1417 0
-1417 1533 0
119 -1417 1418 0
-1418 1534 0
120 -1418 1419 0
-1419 1535 0
121 -1419 1420 0
-1420 1536 0
122 -1420 1421 0
-1421 1537 0
123 -1421 1422 0
-1422 1538 0
124 -1422 1423 0
-1423 1539 0
125 -1423 1424 0
-1424 1540 0
126 -1424 0
11 1425 0
-1425 1541 0
12 -1425 1426 0
-1426 1542 0
13 -1426 1427 0
-1427 1543 0
14 -1427 1428 0
-1428 1544 0
15 -1428 1429 0
-1429 1545 0
16 -1429 1430 0
-1430 1546 0
17 -1430 1431 0
-1431 1547 0
18 -1431 1432 0
-1432 1548 0
19 -1432 1433 0
-1433 1549 0
20 -1433 1434 0
-1434 1550 0
21 -1434 1435 0
-1435 1551 0
22 -1435 1436 0
-1436 1552 0
23 -1436 1437 0
-1437 1553 0
24 -1437 1438 0
-1438 1554 0
25 -1438 1439 0
-1439 1555 0
26 -1439 1440 0
-1440 1556 0
27 -1440 1441 0
-1441 1557 0
28 -1441 1442 0
-1442 1558 0
29 -1442 1443 0
-1443 1559 0
30 -1443 1444 0
-1444 1560 0
31 -1444 1445 0
-1445 1561 0
32 -1445 1446 0
-1446 1562 0
33 -1446 1447 0
-1447 1563 0
34 -1447 1448 0
-1448 1564 0
35 -1448 1449 0
-1449 1565 0
36 -1449 1450 0
-1450 1566 0
37 -1450 1451 0
-1451 1567 0
38 -1451 1452 0
-1452 1568 0
39 -1452 1453 0
-1453 1569 0
40 -1453 1454 0
-1454 1570 0
41 -1454 1455 0
-1455 1571 0
42 -1455 1456 0
-1456 1572 0
43 -1456 1457 0
-1457 1573 0
44 -1457 1458 0
-1458 1574 0
45 -1458 1459 0
-1459 1575 0
46 -1459 1460 0
-1460 1576 0
47 -1460 1461 0
-1461 1577 0
48 -1461 1462 0
-1462 1578 0
49 -1462 1463 0
-1463 1579 0
50 -1463 1464 0
-1464 1580 0
51 -1464 1465 0
-1465 1581 0
52 -1465 1466 0
-1466 1582 0
53 -1466 1467 0
-1467 1583 0
54 -1467 1468 0
-1468 1584 0
55 -1468 1469 0
-1469 1585 0
56 -1469 1470 0
-1470 1586 0
57 -1470 1471 0
-1471 1587 0
58 -1471 1472 0
-1472 1588 0
59 -1472 1473 0
-1473 1589 0
60 -1473 1474 0
-1474 1590 0
61 -1474 1475 0
-1475 1591 0
62 -1475 1476 0
-1476 1592 0
63 -1476 1477 0
-1477 1593 0
64 -1477 1478 0
-1478 1594 0
65 -1478 1479 0
-1479 1595 0
66 -1479 1480 0
-1480 1596 0
67 -1480 1481 0
-1481 1597 0
68 -1481 1482 0
-1482 1598 0
69 -1482 1483 0
-1483 1599 0
70 -1483 1484 0
-1484 1600 0
71 -1484 1485 0
-1485 1601 0
72 -1485 1486 0
-1486 1602 0
73 -1486 1487 0
-1487 1603 0
74 -1487 1488 0
-1488 1604 0
75 -1488 1489 0
-1489 1605 0
76 -1489 1490 0
-1490 1606 0
77 -1490 1491 0
-1491 1607 0
78 -1491 1492 0
-1492 1608 0
79 -1492 1493 0
-1493 1609 0
80 -1493 1494 0
-1494 1610 0
81 -1494 1495 0
-1495 1611 0
82 -1495 1496 0
-1496 1612 0
83 -1496 1497 0
-1497 1613 0
84 -1497 1498 0
-1498 1614 0
85 -1498 1499 0
-1499 1615 0
86 -1499 1500 0
-1500 1616 0
87 -1500 1501 0
-1501 1617 0
88 -1501 1502 0
-1502 1618 0
89 -1502 1503 0
-1503 1619 0
90 -1503 1504 0
-1504 1620 0
91 -1504 1505 0
-1505 1621 0
92 -1505 1506 0
-1506 1622 0
93 -1506 1507 0
-1507 1623 0
94 -1507 1508 0
-1508 1624 0
95 -1508 1509 0
-1509 1625 0
96 -1509 1510 0
-1510 1626 0
97 -1510 1511 0
-1511 1627 0
98 -1511 1512 0
-1512 1628 0
99 -1512 1513 0
-1513 1629 0
100 -1513 1514 0
-1514 1630 0
101 -1514 1515 0
-1515 1631 0
102 -1515 1516 0
-1516 1632 0
103 -1516 1517 0
-1517 1633 0
104 -1517 1518 0
-1518 1634 0
105 -1518 1519 0
-1519 1635 0
106 -1519 1520 0
-1520 1636 0
107 -1520 1521 0
-1521 1637 0
108 -1521 1522 0
-1522 1638 0
109 -1522 1523 0
-1523 1639 0
110 -1523 1524 0
-1524 1640 0
111 -1524 1525 0
-1525 1641 0
112 -1525 1526 0
-1526 1642 0
113 -1526 1527 0
-1527 1643 0
114 -1527 1528 0
-1528 1644 0
115 -1528 1529 0
-1529 1645 0
116 -1529 1530 0
-1530 1646 0
117 -1530 1531 0
-1531 1647 0
118 -1531 1532 0
-1532 1648 0
119 -1532 1533 0
-1533 1649 0
120 -1533 1534 0
-1534 1650 0
121 -1534 1535 0
-1535 1651 0
122 -1535 1536 0
-1536 1652 0
123 -1536 1537 0
-1537 1653 0
124 -1537 1538 0
-1538 1654 0
125 -1538 1539 0
-1539 1655 0
126 -1539 1540 0
-1540 1656 0
127 -1540 0
12 1541 0
-1541 1657 0
13 -1541 1542 0
-1542 1658 0
14 -1542 1543 0
-1543 1659 0
15 -1543 1544 0
-1544 1660 0
16 -1544 1545 0
-1545 1661 0
17 -1545 1546 0
-1546 1662 0
18 -1546 1547 0
-1547 1663 0
19 -1547 1548 0
-1548 1664 0
20 -1548 1549 0
-1549 1665 0
21 -1549 1550 0
-1550 1666 0
22 -1550 1551 0
-1551 1667 0
23 -1551 1552 0
-1552 1668 0
24 -1552 1553 0
-1553 1669 0
25 -1553 1554 0
-1554 1670 0
26 -1554 1555 0
-1555 1671 0
27 -1555 1556 0
-1556 1672 0
28 -1556 1557 0
-1557 1673 0
29 -1557 1558 0
-1558 1674 0
30 -1558 1559 0
-1559 1675 0
31 -1559 1560 0
-1560 1676 0
32 -1560 1561 0
-1561 1677 0
33 -1561 1562 0
-1562 1678 0
34 -1562 1563 0
-1563 1679 0
35 -1563 1564 0
-1564 1680 0
36 -1564 1565 0
-1565 1681 0
37 -1565 1566 0
-1566 1682 0
38 -1566 1567 0
-1567 1683 0
39 -1567 1568 0
-1568 1684 0
40 -1568 1569 0
-1569 1685 0
41 -1569 1570 0
-1570 1686 0
42 -1570 1571 0
-1571 1687 0
43 -1571 1572 0
-1572 1688 0
44 -1572 1573 0
-1573 1689 0
45 -1573 1574 0
-1574 1690 0
46 -1574 1575 0
-1575 1691 0
47 -1575 1576 0
-1576 1692 0
48 -1576 1577 0
-1577 1693 0
49 -1577 1578 0
-1578 1694 0
50 -1578 1579 0
-1579 1695 0
51 -1579 1580 0
-1580 1696 0
52 -1580 1581 0
-1581 1697 0
53 -1581 1582 0
-1582 1698 0
54 -1582 1583 0
-1583 1699 0
55 -1583 1584 0
-1584 1700 0
56 -1584 1585 0
-1585 1701 0
57 -1585 1586 0
-1586 1702 0
58 -1586 1587 0
-1587 1703 0
59 -1587 1588 0
-1588 1704 0
60 -1588 1589 0
-1589 1705 0
61 -1589 1590 0
-1590 1706 0
62 -1590 1591 0
-1591 1707 0
63 -1591 1592 0
-1592 1708 0
64 -1592 1593 0
-1593 1709 0
65 -1593 1594 0
-1594 1710 0
66 -1594 1595 0
-1595 1711 0
67 -1595 1596 0
-1596 1712 0
68 -1596 1597 0
-1597 1713 0
69 -1597 1598 0
-1598 1714 0
70 -1598 1599 0
-1599 1715 0
71 -1599 1600 0
-1600 1716 0
72 -1600 1601 0
-1601 1717 0
73 -1601 1602 0
-1602 1718 0
74 -1602 1603 0
-1603 1719 0
75 -1603 1604 0
-1604 1720 0
76 -1604 1605 0
-1605 1721 0
77 -1605 1606 0
-1606 1722 0
78 -1606 1607 0
-1607 1723 0
79 -1607 1608 0
-1608 1724 0
80 -1608 1609 0
-1609 1725 0
81 -1609 1610 0
-1610 1726 0
82 -1610 1611 0
-1611 1727 0
83 -1611 1612 0
-1612 1728 0
84 -1612 1613 0
-1613 1729 0
85 -1613 1614 0
-1614 1730 0
86 -1614 1615 0
-1615 1731 0
87 -1615 1616 0
-1616 1732 0
88 -1616 1617 0
-1617 1733 0
89 -1617 1618 0
-1618 1734 0
90 -1618 1619 0
-1619 1735 0
91 -1619 1620 0
-1620 1736 0
92 -1620 1621 0
-1621 1737 0
93 -1621 1622 0
-1622 1738 0
94 -1622 1623 0
-1623 1739 0
95 -1623 1624 0
-1624 1740 0
96 -1624 1625 0
-1625 1741 0
97 -1625 1626 0
-1626 1742 0
98 -1626 1627 0
-1627 1743 0
99 -1627 1628 0
-1628 1744 0
100 -1628 1629 0
-1629 1745 0
101 -1629 1630 0
-1630 1746 0
102 -1630 1631 0
-1631 1747 0
103 -1631 1632 0
-1632 1748 0
104 -1632 1633 0
-1633 1749 0
105 -1633 1634 0
-1634 1750 0
106 -1634 1635 0
-1635 1751 0
107 -1635 1636 0
-1636 1752 0
108 -1636 1637 0
-1637 1753 0
109 -1637 1638 0
-1638 1754 0
110 -1638 1639 0
-1639 1755 0
111 -1639 1640 0
-1640 1756 0
112 -1640 1641 0
-1641 1757 0
113 -1641 1642 0
-1642 1758 0
114 -1642 1643 0
-1643 1759 0
115 -1643 1644 0
-1644 1760 0
116 -1644 1645 0
-1645 1761 0
117 -1645 1646 0
-1646 1762 0
118 -1646 1647 0
-1647 1763 0
119 -1647 1648 0
-1648 1764 0
120 -1648 1649 0
-1649 1765 0
121 -1649 1650 0
-1650 1766 0
122 -1650 1651 0
-1651 1767 0
123 -1651 1652 0
-1652 1768 0
124 -1652 1653 0
-1653 1769 0
125 -1653 1654 0
-1654 1770 0
126 -1654 1655 0
-1655 1771 0
127 -1655 1656 0
-1656 1772 0
128 -1656 0
13 1657 0
-1657 1773 0
14 -1657 1658 0
-1658 1774 0
15 -1658 1659 0
-1659 1775 0
16 -1659 1660 0
-1660 1776 0
17 -1660 1661 0
-1661 1777 0
18 -1661 1662 0
-1662 1778 0
19 -1662 1663 0
-1663 1779 0
20 -1663 1664 0
-1664 1780 0
21 -1664 1665 0
-1665 1781 0
22 -1665 1666 0
-1666 1782 0
23 -1666 1667 0
-1667 1783 0
24 -1667 1668 0
-1668 1784 0
25 -1668 1669 0
-1669 1785 0
26 -1669 1670 0
-1670 1786 0
27 -1670 1671 0
-1671 1787 0
28 -1671 1672 0
-1672 1788 0
29 -1672 1673 0
-1673 1789 0
30 -1673 1674 0
-1674 1790 0
31 -1674 1675 0
-1675 1791 0
32 -1675 1676 0
-1676 1792 0
33 -1676 1677 0
-1677 1793 0
34 -1677 1678 0
-1678 1794 0
35 -1678 1679 0
-1679 1795 0
36 -1679 1680 0
-1680 1796 0
37 -1680 1681 0
-1681 1797 0
38 -1681 1682 0
-1682 1798 0
39 -1682 1683 0
-1683 1799 0
40 -1683 1684 0
-1684 1800 0
41 -1684 1685 0
-1685 1801 0
42 -1685 1686 0
-1686 1802 0
43 -1686 1687 0
-1687 1803 0
44 -1687 1688 0
-1688 1804 0
45 -1688 1689 0
-1689 1805 0
46 -1689 1690 0
-1690 1806 0
47 -1690 1691 0
-1691 1807 0
48 -1691 1692 0
-1692 1808 0
49 -1692 1693 0
-1693 1809 0
50 -1693 1694 0
-1694 1810 0
51 -1694 1695 0
-1695 1811 0
52 -1695 1696 0
-1696 1812 0
53 -1696 1697 0
-1697 1813 0
54 -1697 1698 0
-1698 1814 0
55 -1698 1699 0
-1699 1815 0
56 -1699 1700 0
-1700 1816 0
57 -1700 1701 0
-1701 1817 0
58 -1701 1702 0
-1702 1818 0
59 -1702 1703 0
-1703 1819 0
60 -1703 1704 0
-1704 1820 0
61 -1704 1705 0
-1705 1821 0
62 -1705 1706 0
-1706 1822 0
63 -1706 1707 0
-1707 1823 0
64 -1707 1708 0
-1708 1824 0
65 -1708 1709 0
-1709 1825 0
66 -1709 1710 0
-1710 1826 0
67 -1710 1711 0
-1711 1827 0
68 -1711 1712 0
-1712 1828 0
69 -1712 1713 0
-1713 1829 0
70 -1713 1714 0
-1714 1830 0
71 -1714 1715 0
-1715 1831 0
72 -1715 1716 0
-1716 1832 0
73 -1716 1717 0
-1717 1833 0
74 -1717 1718 0
-1718 1834 0
75 -1718 1719 0
-1719 1835 0
76 -1719 1720 0
-1720 1836 0
77 -1720 1721 0
-1721 1837 0
78 -1721 1722 0
-1722 1838 0
79 -1722 1723 0
-1723 1839 0
80 -1723 1724 0
-1724 1840 0
81 -1724 1725 0
-1725 1841 0
82 -1725 1726 0
-1726 1842 0
83 -1726 1727 0
-1727 1843 0
84 -1727 1728 0
-1728 1844 0
85 -1728 1729 0
-1729 1845 0
86 -1729 1730 0
-1730 1846 0
87 -1730 1731 0
-1731 1847 0
88 -1731 1732 0
-1732 1848 0
89 -1732 1733 0
-1733 1849 0
90 -1733 1734 0
-1734 1850 0
91 -1734 1735 0
-1735 1851 0
92 -1735 1736 0
-1736 1852 0
93 -1736 1737 0
-1737 1853 0
94 -1737 1738 0
-1738 1854 0
95 -1738 1739 0
-1739 1855 0
96 -1739 1740 0
-1740 1856 0
97 -1740 1741 0
-1741 1857 0
98 -1741 1742 0
-1742 1858 0
99 -1742 1743 0
-1743 1859 0
100 -1743 1744 0
-1744 1860 0
101 -1744 1745 0
-1745 1861 0
102 -1745 1746 0
-1746 1862 0
103 -1746 1747 0
-1747 1863 0
104 -1747 1748 0
-1748 1864 0
105 -1748 1749 0
-1749 1865 0
106 -1749 1750 0
-1750 1866 0
107 -1750 1751 0
-1751 1867 0
108 -1751 1752 0
-1752 1868 0
109 -1752 1753 0
-1753 1869 0
110 -1753 1754 0
-1754 1870 0
111 -1754 1755 0
-1755 1871 0
112 -1755 1756 0
-1756 1872 0
113 -1756 1757 0
-1757 1873 0
114 -1757 1758 0
-1758 1874 0
115 -1758 1759 0
-1759 1875 0
116 -1759 1760 0
-1760 1876 0
117 -1760 1761 0
-1761 1877 0
118 -1761 1762 0
-1762 1878 0
119 -1762 1763 0
-1763 1879 0
120 -1763 1764 0
-1764 1880 0
121 -1764 1765 0
-1765 1881 0
122 -1765 1766 0
-1766 1882 0
123 -1766 1767 0
-1767 1883 0
124 -1767 1768 0
-1768 1884 0
125 -1768 1769 0
-1769 1885 0
126 -1769 1770 0
-1770 1886 0
127 -1770 1771 0
-1771 1887 0
128 -1771 1772 0
-1772 1888 0
129 -1772 0
14 1773 0
-1773 1889 0
15 -1773 1774 0
-1774 1890 0
16 -1774 1775 0
-1775 1891 0
17 -1775 1776 0
-1776 1892 0
18 -1776 1777 0
-1777 1893 0
19 -1777 1778 0
-1778 1894 0
20 -1778 1779 0
-1779 1895 0
21 -1779 1780 0
-1780 1896 0
22 -1780 1781 0
-1781 1897 0
23 -1781 1782 0
-1782 1898 0
24 -1782 1783 0
-1783 1899 0
25 -1783 1784 0
-1784 1900 0
26 -1784 1785 0
-1785 1901 0
27 -1785 1786 0
-1786 1902 0
28 -1786 1787 0
-1787 1903 0
29 -1787 1788 0
-1788 1904 0
30 -1788 1789 0
-1789 1905 0
31 -1789 1790 0
-1790 1906 0
32 -1790 1791 0
-1791 1907 0
33 -1791 1792 0
-1792 1908 0
34 -1792 1793 0
-1793 1909 0
35 -1793 1794 0
-1794 1910 0
36 -1794 1795 0
-1795 1911 0
37 -1795 1796 0
-1796 1912 0
38 -1796 1797 0
-1797 1913 0
39 -1797 1798 0
-1798 1914 0
40 -1798 1799 0
-1799 1915 0
41 -1799 1800 0
-1800 1916 0
42 -1800 1801 0
-1801 1917 0
43 -1801 1802 0
-1802 1918 0
44 -1802 1803 0
-1803 1919 0
45 -1803 1804 0
-1804 1920 0
46 -1804 1805 0
-1805 1921 0
47 -1805 1806 0
-1806 1922 0
48 -1806 1807 0
-1807 1923 0
49 -1807 1808 0
-1808 1924 0
50 -1808 1809 0
-1809 1925 0
51 -1809 1810 0
-1810 1926 0
52 -1810 1811 0
-1811 1927 0
53 -1811 1812 0
-1812 1928 0
54 -1812 1813 0
-1813 1929 0
55 -1813 1814 0
-1814 1930 0
56 -1814 1815 0
-1815 1931 0
57 -1815 1816 0
-1816 1932 0
58 -1816 1817 0
-1817 1933 0
59 -1817 1818 0
-1818 1934 0
60 -1818 1819 0
-1819 1935 0
61 -1819 1820 0
-1820 1936 0
62 -1820 1821 0
-1821 1937 0
63 -1821 1822 0
-1822 1938 0
64 -1822 1823 0
-1823 1939 0
65 -1823 1824 0
-1824 1940 0
66 -1824 1825 0
-1825 1941 0
67 -1825 1826 0
-1826 1942 0
68 -1826 1827 0
-1827 1943 0
69 -1827 1828 0
-1828 1944 0
70 -1828 1829 0
-1829 1945 0
71 -1829 1830 0
-1830 1946 0
72 -1830 1831 0
-1831 1947 0
73 -1831 1832 0
-1832 1948 0
74 -1832 1833 0
-1833 1949 0
75 -1833 1834 0
-1834 1950 0
76 -1834 1835 0
-1835 1951 0
77 -1835 1836 0
-1836 1952 0
78 -1836 1837 0
-1837 1953 0
79 -1837 1838 0
-1838 1954 0
80 -1838 1839 0
-1839 1955 0
81 -1839 1840 0
-1840 1956 0
82 -1840 1841 0
-1841 1957 0
83 -1841 1842 0
-1842 1958 0
84 -1842 1843 0
-1843 1959 0
85 -1843 1844 0
-1844 1960 0
86 -1844 1845 0
-1845 1961 0
87 -1845 1846 0
-1846 1962 0
88 -1846 1847 0
-1847 1963 0
89 -1847 1848 0
-1848 1964 0
90 -1848 1849 0
-1849 1965 0
91 -1849 1850 0
-1850 1966 0
92 -1850 1851 0
-1851 1967 0
93 -1851 1852 0
-1852 1968 0
94 -1852 1853 0
-1853 1969 0
95 -1853 1854 0
-1854 1970 0
96 -1854 1855 0
-1855 1971 0
97 -1855 1856 0
-1856 1972 0
98 -1856 1857 0
-1857 1973 0
99 -1857 1858 0
-1858 1974 0
100 -1858 1859 0
-1859 1975 0
101 -1859 1860 0
-1860 1976 0
102 -1860 1861 0
-1861 1977 0
103 -1861 1862 0
-1862 1978 0
104 -1862 1863 0
-1863 1979 0
105 -1863 1864 0
-1864 1980 0
106 -1864 1865 0
-1865 1981 0
107 -1865 1866 0
-1866 1982 0
108 -1866 1867 0
-1867 1983 0
109 -1867 1868 0
-1868 1984 0
110 -1868 1869 0
-1869 1985 0
111 -1869 1870 0
-1870 1986 0
112 -1870 1871 0
-1871 1987 0
113 -1871 1872 0
-1872 1988 0
114 -1872 1873 0
-1873 1989 0
115 -1873 1874 0
-1874 1990 0
116 -1874 1875 0
-1875 1991 0
117 -1875 1876 0
-1876 1992 0
118 -1876 1877 0
-1877 1993 0
119 -1877 1878 0
-1878 1994 0
120 -1878 1879 0
-1879 1995 0
121 -1879 1880 0
-1880 1996 0
122 -1880 1881 0
-1881 1997 0
123 -1881 1882 0
-1882 1998 0
124 -1882 1883 0
-1883 1999 0
125 -1883 1884 0
-1884 2000 0
126 -1884 1885 0
-1885 2001 0
127 -1885 1886 0
-1886 2002 0
128 -1886 1887 0
-1887 2003 0
129 -1887 1888 0
-1888 2004 0
130 -1888 0
15 1889 0
-1889 2005 0
16 -1889 1890 0
-1890 2006 0
17 -1890 1891 0
-1891 2007 0
18 -1891 1892 0
-1892 2008 0
19 -1892 1893 0
-1893 2009 0
20 -1893 1894 0
-1894 2010 0
21 -1894 1895 0
-1895 2011 0
22 -1895 1896 0
-1896 2012 0
23 -1896 1897 0
-1897 2013 0
24 -1897 1898 0
-1898 2014 0
25 -1898 1899 0
-1899 2015 0
26 -1899 1900 0
-1900 2016 0
27 -1900 1901 0
-1901 2017 0
28 -1901 1902 0
-1902 2018 0
29 -1902 1903 0
-1903 2019 0
30 -1903 1904 0
-1904 2020 0
31 -1904 1905 0
-1905 2021 0
32 -1905 1906 0
-1906 2022 0
33 -1906 1907 0
-1907 2023 0
34 -1907 1908 0
-1908 2024 0
35 -1908 1909 0
-1909 2025 0
36 -1909 1910 0
-1910 2026 0
37 -1910 1911 0
-1911 2027 0
38 -1911 1912 0
-1912 2028 0
39 -1912 1913 0
-1913 2029 0
40 -1913 1914 0
-1914 2030 0
41 -1914 1915 0
-1915 2031 0
42 -1915 1916 0
-1916 2032 0
43 -1916 1917 0
-1917 2033 0
44 -1917 1918 0
-1918 2034 0
45 -1918 1919 0
-1919 2035 0
46 -1919 1920 0
-1920 2036 0
47 -1920 1921 0
-1921 2037 0
48 -1921 1922 0
-1922 2038 0
49 -1922 1923 0
-1923 2039 0
50 -1923 1924 0
-1924 2040 0
51 -1924 1925 0
-1925 2041 0
52 -1925 1926 0
-1926 2042 0
53 -1926 1927 0
-1927 2043 0
54 -1927 1928 0
-1928 2044 0
55 -1928 1929 0
-1929 2045 0
56 -1929 1930 0
-1930 2046 0
57 -1930 1931 0
-1931 2047 0
58 -1931 1932 0
-1932 2048 0
59 -1932 1933 0
-1933 2049 0
60 -1933 1934 0
-1934 2050 0
61 -1934 1935 0
-1935 2051 0
62 -1935 1936 0
-1936 2052 0
63 -1936 1937 0
-1937 2053 0
64 -1937 1938 0
-1938 2054 0
65 -1938 1939 0
-1939 2055 0
66 -1939 1940 0
-1940 2056 0
67 -1940 1941 0
-1941 2057 0
68 -1941 1942 0
-1942 2058 0
69 -1942 1943 0
-1943 2059 0
70 -1943 1944 0
-1944 2060 0
71 -1944 1945 0
-1945 2061 0
72 -1945 1946 0
-1946 2062 0
73 -1946 1947 0
-1947 2063 0
74 -1947 1948 0
-1948 2064 0
75 -1948 1949 0
-1949 2065 0
76 -1949 1950 0
-1950 2066 0
77 -1950 1951 0
-1951 2067 0
78 -1951 1952 0
-1952 2068 0
79 -1952 1953 0
-1953 2069 0
80 -1953 1954 0
-1954 2070 0
81 -1954 1955 0
-1955 2071 0
82 -1955 1956 0
-1956 2072 0
83 -1956 1957 0
-1957 2073 0
84 -1957 1958 0
-1958 2074 0
85 -1958 1959 0
-1959 2075 0
86 -1959 1960 0
-1960 2076 0
87 -1960 1961 0
-1961 2077 0
88 -1961 1962 0
-1962 2078 0
89 -1962 1963 0
-1963 2079 0
90 -1963 1964 0
-1964 2080 0
91 -1964 1965 0
-1965 2081 0
92 -1965 1966 0
-1966 2082 0
93 -1966 1967 0
-1967 2083 0
94 -1967 1968 0
-1968 2084 0
95 -1968 1969 0
-1969 2085 0
96 -1969 1970 0
-1970 2086 0
97 -1970 1971 0
-1971 2087 0
98 -1971 1972 0
-1972 2088 0
99 -1972 1973 0
-1973 2089 0
100 -1973 1974 0
-1974 2090 0
101 -1974 1975 0
-1975 2091 0
102 -1975 1976 0
-1976 2092 0
103 -1976 1977 0
-1977 2093 0
104 -1977 1978 0
-1978 2094 0
105 -1978 1979 0
-1979 2095 0
106 -1979 1980 0
-1980 2096 0
107 -1980 1981 0
-1981 2097 0
108 -1981 1982 0
-1982 2098 0
109 -1982 1983 0
-1983 2099 0
110 -1983 1984 0
-1984 2100 0
111 -1984 1985 0
-1985 2101 0
112 -1985 1986 0
-1986 2102 0
113 -1986 1987 0
-1987 2103 0
114 -1987 1988 0
-1988 2104 0
115 -1988 1989 0
-1989 2105 0
116 -1989 1990 0
-1990 2106 0
117 -1990 1991 0
-1991 2107 0
118 -1991 1992 0
-1992 2108 0
119 -1992 1993 0
-1993 2109 0
120 -1993 1994 0
-1994 2110 0
121 -1994 1995 0
-1995 2111 0
122 -1995 1996 0
-1996 2112 0
123 -1996 1997 0
-1997 2113 0
124 -1997 1998 0
-1998 2114 0
125 -1998 1999 0
-1999 2115 0
126 -1999 2000 0
-2000 2116 0
127 -2000 2001 0
-2001 2117 0
128 -2001 2002 0
-2002 2118 0
129 -2002 2003 0
-2003 2119 0
130 -2003 2004 0
-2004 2120 0
131 -2004 0
16 2005 0
17 -2005 2006 0
18 -2006 2007 0
19 -2007 2008 0
20 -2008 2009 0
21 -2009 2010 0
22 -2010 2011 0
23 -2011 2012 0
24 -2012 2013 0
25 -2013 2014 0
26 -2014 2015 0
27 -2015 2016 0
28 -2016 2017 0
29 -2017 2018 0
30 -2018 2019 0
31 -2019 2020 0
32 -2020 2021 0
33 -2021 2022 0
34 -2022 2023 0
35 -2023 2024 0
36 -2024 2025 0
37 -2025 2026 0
38 -2026 2027 0
39 -2027 2028 0
40 -2028 2029 0
41 -2029 2030 0
42 -2030 2031 0
43 -2031 2032 0
44 -2032 2033 0
45 -2033 2034 0
46 -2034 2035 0
47 -2035 2036 0
48 -2036 2037 0
49 -2037 2038 0
50 -2038 2039 0
51 -2039 2040 0
52 -2040 2041 0
53 -2041 2042 0
54 -2042 2043 0
55 -2043 2044 0
56 -2044 2045 0
57 -2045 2046 0
58 -2046 2047 0
59 -2047 2048 0
60 -2048 2049 0
61 -2049 2050 0
62 -2050 2051 0
63 -2051 2052 0
64 -2052 2053 0
65 -2053 2054 0
66 -2054 2055 0
67 -2055 2056 0
68 -2056 2057 0
69 -2057 2058 0
70 -2058 2059 0
71 -2059 2060 0
72 -2060 2061 0
73 -2061 2062 0
74 -2062 2063 0
75 -2063 2064 0
76 -2064 2065 0
77 -2065 2066 0
78 -2066 2067 0
79 -2067 2068 0
80 -2068 2069 0
81 -2069 2070 0
82 -2070 2071 0
83 -2071 2072 0
84 -2072 2073 0
85 -2073 2074 0
86 -2074 2075 0
87 -2075 2076 0
88 -2076 2077 0
89 -2077 2078 0
90 -2078 2079 0
91 -2079 2080 0
92 -2080 2081 0
93 -2081 2082 0
94 -2082 2083 0
95 -2083 2084 0
96 -2084 2085 0
97 -2085 2086 0
98 -2086 2087 0
99 -2087 2088 0
100 -2088 2089 0
101 -2089 2090 0
102 -2090 2091 0
103 -2091 2092 0
104 -2092 2093 0
105 -2093 2094 0
106 -2094 2095 0
107 -2095 2096 0
108 -2096 2097 0
109 -2097 2098 0
110 -2098 2099 0
111 -2099 2100 0
112 -2100 2101 0
113 -2101 2102 0
114 -2102 2103 0
115 -2103 2104 0
116 -2104 2105 0
117 -2105 2106 0
118 -2106 2107 0
119 -2107 2108 0
120 -2108 2109 0
121 -2109 2110 0
122 -2110 2111 0
123 -2111 2112 0
124 -2112 2113 0
125 -2113 2114 0
126 -2114 2115 0
127 -2115 2116 0
128 -2116 2117 0
129 -2117 2118 0
130 -2118 2119 0
131 -2119 2120 0
132 -2120 0
-1 2121 0
-2121 2122 0
-2 -2121 2123 0
-2123 2124 0
-3 -2123 2125 0
-2125 2126 0
-4 -2125 2127 0
-2127 2128 0
-5 -2127 2129 0
-2129 2130 0
-6 -2129 2131 0
-2131 2132 0
-7 -2131 2133 0
-2133 2134 0
-8 -2133 2135 0
-2135 2136 0
-9 -2135 2137 0
-2137 2138 0
-10 -2137 2139 0
-2139 2140 0
-11 -2139 2141 0
-2141 2142 0
-12 -2141 2143 0
-2143 2144 0
-13 -2143 2145 0
-2145 2146 0
-14 -2145 2147 0
-2147 2148 0
-15 -2147 2149 0
-2149 2150 0
-16 -2149 2151 0
-2151 2152 0
-17 -2151 0
-2 2122 0
-2122 2153 0
-3 -2122 2124 0
-2124 2154 0
-4 -2124 2126 0
-2126 2155 0
-5 -2126 2128 0
-2128 2156 0
-6 -2128 2130 0
-2130 2157 0
-7 -2130 2132 0
-2132 2158 0
-8 -2132 2134 0
-2134 2159 0
-9 -2134 2136 0
-2136 2160 0
-10 -2136 2138 0
-2138 2161 0
-11 -2138 2140 0
-2140 2162 0
-12 -2140 2142 0
-2142 2163 0
-13 -2142 2144 0
-2144 2164 0
-14 -2144 2146 0
-2146 2165 0
-15 -2146 2148 0
-2148 2166 0
-16 -2148 2150 0
-2150 2167 0
-17 -2150 2152 0
-2152 2168 0
-18 -2152 0
-3 2153 0
-2153 2169 0
-4 -2153 2154 0
-2154 2170 0
-5 -2154 2155 0
-2155 2171 0
-6 -2155 2156 0
-2156 2172 0
-7 -2156 2157 0
-2157 2173 0
-8 -2157 2158 0
-2158 2174 0
-9 -2158 2159 0
-2159 2175 0
-10 -2159 2160 0
-2160 2176 0
-11 -2160 2161 0
-2161 2177 0
-12 -2161 2162 0
-2162 2178 0
-13 -2162 2163 0
-2163 2179 0
-14 -2163 2164 0
-2164 2180 0
-15 -2164 2165 0
-2165 2181 0
-16 -2165 2166 0
-2166 2182 0
-17 -2166 2167 0
-2167 2183 0
-18 -2167 2168 0
-2168 2184 0
-19 -2168 0
-4 2169 0
-2169 2185 0
-5 -2169 2170 0
-2170 2186 0
-6 -2170 2171 0
-2171 2187 0
-7 -2171 2172 0
-2172 2188 0
-8 -2172 2173 0
-2173 2189 0
-9 -2173 2174 0
-2174 2190 0
-10 -2174 2175 0
-2175 2191 0
-11 -2175 2176 0
-2176 2192 0
-12 -2176 2177 0
-2177 2193 0
-13 -2177 2178 0
-2178 2194 0
-14 -2178 2179 0
-2179 2195 0
-15 -2179 2180 0
-2180 2196 0
-16 -2180 2181 0
-2181 2197 0
-17 -2181 2182 0
-2182 2198 0
-18 -2182 2183 0
-2183 2199 0
-19 -2183 2184 0
-2184 2200 0
-20 -2184 0
-5 2185 0
-2185 2201 0
-6 -2185 2186 0
-2186 2202 0
-7 -2186 2187 0
-2187 2203 0
-8 -2187 2188 0
-2188 2204 0
-9 -2188 2189 0
-2189 2205 0
-10 -2189 2190 0
-2190 2206 0
-11 -2190 2191 0
-2191 2207 0
-12 -2191 2192 0
-2192 2208 0
-13 -2192 2193 0
-2193 2209 0
-14 -2193 2194 0
-2194 2210 0
-15 -2194 2195 0
-2195 2211 0
-16 -2195 2196 0
-2196 2212 0
-17 -2196 2197 0
-2197 2213 0
-18 -2197 2198 0
-2198 2214 0
-19 -2198 2199 0
-2199 2215 0
-20 -2199 2200 0
-2200 2216 0
-21 -2200 0
-6 2201 0
-2201 2217 0
-7 -2201 2202 0
-2202 2218 0
-8 -2202 2203 0
-2203 2219 0
-9 -2203 2204 0
-2204 2220 0
-10 -2204 2205 0
-2205 2221 0
-11 -2205 2206 0
-2206 2222 0
-12 -2206 2207 0
-2207 2223 0
-13 -2207 2208 0
-2208 2224 0
-14 -2208 2209 0
-2209 2225 0
-15 -2209 2210 0
-2210 2226 0
-16 -2210 2211 0
-2211 2227 0
-17 -2211 2212 0
-2212 2228 0
-18 -2212 2213 0
-2213 2229 0
-19 -2213 2214 0
-2214 2230 0
-20 -2214 2215 0
-2215 2231 0
-21 -2215 2216 0
-2216 2232 0
-22 -2216 0
-7 2217 0
-2217 2233 0
-8 -2217 2218 0
-2218 2234 0
-9 -2218 2219 0
-2219 2235 0
-10 -2219 2220 0
-2220 2236 0
-11 -2220 2221 0
-2221 2237 0
-12 -2221 2222 0
-2222 2238 0
-13 -2222 2223 0
-2223 2239 0
-14 -2223 2224 0
-2224 2240 0
-15 -2224 2225 0
-2225 2241 0
-16 -2225 2226 0
-2226 2242 0
-17 -2226 2227 0
-2227 2243 0
-18 -2227 2228 0
-2228 2244 0
-19 -2228 2229 0
-2229 2245 0
-20 -2229 2230 0
-2230 2246 0
-21 -2230 2231 0
-2231 2247 0
-22 -2231 2232 0
-2232 2248 0
-23 -2232 0
-8 2233 0
-2233 2249 0
-9 -2233 2234 0
-2234 2250 0
-10 -2234 2235 0
-2235 2251 0
-11 -2235 2236 0
-2236 2252 0
-12 -2236 2237 0
-2237 2253 0
-13 -2237 2238 0
-2238 2254 0
-14 -2238 2239 0
-2239 2255 0
-15 -2239 2240 0
-2240 2256 0
-16 -2240 2241 0
-2241 2257 0
-17 -2241 2242 0
-2242 2258 0
-18 -2242 2243 0
-2243 2259 0
-19 -2243 2244 0
-2244 2260 0
-20 -2244 2245 0
-2245 2261 0
-21 -2245 2246 0
-2246 2262 0
-22 -2246 2247 0
-2247 2263 0
-23 -2247 2248 0
-2248 2264 0
-24 -2248 0
-9 2249 0
-2249 2265 0
-10 -2249 2250 0
-2250 2266 0
-11 -2250 2251 0
-2251 2267 0
-12 -2251 2252 0
-2252 2268 0
-13 -2252 2253 0
-2253 2269 0
-14 -2253 2254 0
-2254 2270 0
-15 -2254 2255 0
-2255 2271 0
-16 -2255 2256 0
-2256 2272 0
-17 -2256 2257 0
-2257 2273 0
-18 -2257 2258 0
-2258 2274 0
-19 -2258 2259 0
-2259 2275 0
-20 -2259 2260 0
-2260 2276 0
-21 -2260 2261 0
-2261 2277 0
-22 -2261 2262 0
-2262 2278 0
-23 -2262 2263 0
-2263 2279 0
-24 -2263 2264 0
-2264 2280 0
-25 -2264 0
-10 2265 0
-2265 2281 0
-11 -2265 2266 0
-2266 2282 0
-12 -2266 2267 0
-2267 2283 0
-13 -2267 2268 0
-2268 2284 0
-14 -2268 2269 0
-2269 2285 0
-15 -2269 2270 0
-2270 2286 0
-16 -2270 2271 0
-2271 2287 0
-17 -2271 2272 0
-2272 2288 0
-18 -2272 2273 0
-2273 2289 0
-19 -2273 2274 0
-2274 2290 0
-20 -2274 2275 0
-2275 2291 0
-21 -2275 2276 0
-2276 2292 0
-22 -2276 2277 0
-2277 2293 0
-23 -2277 2278 0
-2278 2294 0
-24 -2278 2279 0
-2279 2295 0
-25 -2279 2280 0
-2280 2296 0
-26 -2280 0
-11 2281 0
-2281 2297 0
-12 -2281 2282 0
-2282 2298 0
-13 -2282 2283 0
-2283 2299 0
-14 -2283 2284 0
-2284 2300 0
-15 -2284 2285 0
-2285 2301 0
-16 -2285 2286 0
-2286 2302 0
-17 -2286 2287 0
-2287 2303 0
-18 -2287 2288 0
-2288 2304 0
-19 -2288 2289 0
-2289 2305 0
-20 -2289 2290 0
-2290 2306 0
-21 -2290 2291 0
-2291 2307 0
-22 -2291 2292 0
-2292 2308 0
-23 -2292 2293 0
-2293 2309 0
-24 -2293 2294 0
-2294 2310 0
-25 -2294 2295 0
-2295 2311 0
-26 -2295 2296 0
-2296 2312 0
-27 -2296 0
-12 2297 0
-2297 2313 0
-13 -2297 2298 0
-2298 2314 0
-14 -2298 2299 0
-2299 2315 0
-15 -2299 2300 0
-2300 2316 0
-16 -2300 2301 0
-2301 2317 0
-17 -2301 2302 0
-2302 2318 0
-18 -2302 2303 0
-2303 2319 0
-19 -2303 2304 0
-2304 2320 0
-20 -2304 2305 0
-2305 2321 0
-21 -2305 2306 0
-2306 2322 0
-22 -2306 2307 0
-2307 2323 0
-23 -2307 2308 0
-2308 2324 0
-24 -2308 2309 0
-2309 2325 0
-25 -2309 2310 0
-2310 2326 0
-26 -2310 2311 0
-2311 2327 0
-27 -2311 2312 0
-2312 2328 0
-28 -2312 0
-13 2313 0
-2313 2329 0
-14 -2313 2314 0
-2314 2330 0
-15 -2314 2315 0
-2315 2331 0
-16 -2315 2316 0
-2316 2332 0
-17 -2316 2317 0
-2317 2333 0
-18 -2317 2318 0
-2318 2334 0
-19 -2318 2319 0
-2319 2335 0
-20 -2319 2320 0
-2320 2336 0
-21 -2320 2321 0
-2321 2337 0
-22 -2321 2322 0
-2322 2338 0
-23 -2322 2323 0
-2323 2339 0
-24 -2323 2324 0
-2324 2340 0
-25 -2324 2325 0
-2325 2341 0
-26 -2325 2326 0
-2326 2342 0
-27 -2326 2327 0
-2327 2343 0
-28 -2327 2328 0
-2328 2344 0
-29 -2328 0
-14 2329 0
-2329 2345 0
-15 -2329 2330 0
-2330 2346 0
-16 -2330 2331 0
-2331 2347 0
-17 -2331 2332 0
-2332 2348 0
-18 -2332 2333 0
-2333 2349 0
-19 -2333 2334 0
-2334 2350 0
-20 -2334 2335 0
-2335 2351 0
-21 -2335 2336 0
-2336 2352 0
-22 -2336 2337 0
-2337 2353 0
-23 -2337 2338 0
-2338 2354 0
-24 -2338 2339 0
-2339 2355 0
-25 -2339 2340 0
-2340 2356 0
-26 -2340 2341 0
-2341 2357 0
-27 -2341 2342 0
-2342 2358 0
-28 -2342 2343 0
-2343 2359 0
-29 -2343 2344 0
-2344 2360 0
-30 -2344 0
-15 2345 0
-2345 2361 0
-16 -2345 2346 0
-2346 2362 0
-17 -2346 2347 0
-2347 2363 0
-18 -2347 2348 0
-2348 2364 0
-19 -2348 2349 0
-2349 2365 0
-20 -2349 2350 0
-2350 2366 0
-21 -2350 2351 0
-2351 2367 0
-22 -2351 2352 0
-2352 2368 0
-23 -2352 2353 0
-2353 2369 0
-24 -2353 2354 0
-2354 2370 0
-25 -2354 2355 0
-2355 2371 0
-26 -2355 2356 0
-2356 2372 0
-27 -2356 2357 0
-2357 2373 0
-28 -2357 2358 0
-2358 2374 0
-29 -2358 2359 0
-2359 2375 0
-30 -2359 2360 0
-2360 2376 0
-31 -2360 0
-16 2361 0
-2361 2377 0
-17 -2361 2362 0
-2362 2378 0
-18 -2362 2363 0
-2363 2379 0
-19 -2363 2364 0
-2364 2380 0
-20 -2364 2365 0
-2365 2381 0
-21 -2365 2366 0
-2366 2382 0
-22 -2366 2367 0
-2367 2383 0
-23 -2367 2368 0
-2368 2384 0
-24 -2368 2369 0
-2369 2385 0
-25 -2369 2370 0
-2370 2386 0
-26 -2370 2371 0
-2371 2387 0
-27 -2371 2372 0
-2372 2388 0
-28 -2372 2373 0
-2373 2389 0
-29 -2373 2374 0
-2374 2390 0
-30 -2374 2375 0
-2375 2391 0
-31 -2375 2376 0
-2376 2392 0
-32 -2376 0
-17 2377 0
-2377 2393 0
-18 -2377 2378 0
-2378 2394 0
-19 -2378 2379 0
-2379 2395 0
-20 -2379 2380 0
-2380 2396 0
-21 -2380 2381 0
-2381 2397 0
-22 -2381 2382 0
-2382 2398 0
-23 -2382 2383 0
-2383 2399 0
-24 -2383 2384 0
-2384 2400 0
-25 -2384 2385 0
-2385 2401 0
-26 -2385 2386 0
-2386 2402 0
-27 -2386 2387 0
-2387 2403 0
-28 -2387 2388 0
-2388 2404 0
-29 -2388 2389 0
-2389 2405 0
-30 -2389 2390 0
-2390 2406 0
-31 -2390 2391 0
-2391 2407 0
-32 -2391 2392 0
-2392 2408 0
-33 -2392 0
-18 2393 0
-2393 2409 0
-19 -2393 2394 0
-2394 2410 0
-20 -2394 2395 0
-2395 2411 0
-21 -2395 2396 0
-2396 2412 0
-22 -2396 2397 0
-2397 2413 0
-23 -2397 2398 0
-2398 2414 0
-24 -2398 2399 0
-2399 2415 0
-25 -2399 2400 0
-2400 2416 0
-26 -2400 2401 0
-2401 2417 0
-27 -2401 2402 0
-2402 2418 0
-28 -2402 2403 0
-2403 2419 0
-29 -2403 2404 0
-2404 2420 0
-30 -2404 2405 0
-2405 2421 0
-31 -2405 2406 0
-2406 2422 0
-32 -2406 2407 0
-2407 2423 0
-33 -2407 2408 0
-2408 2424 0
-34 -2408 0
-19 2409 0
-2409 2425 0
-20 -2409 2410 0
-2410 2426 0
-21 -2410 2411 0
-2411 2427 0
-22 -2411 2412 0
-2412 2428 0
-23 -2412 2413 0
-2413 2429 0
-24 -2413 2414 0
-2414 2430 0
-25 -2414 2415 0
-2415 2431 0
-26 -2415 2416 0
-2416 2432 0
-27 -2416 2417 0
-2417 2433 0
-28 -2417 2418 0
-2418 2434 0
-29 -2418 2419 0
-2419 2435 0
-30 -2419 2420 0
-2420 2436 0
-31 -2420 2421 0
-2421 2437 0
-32 -2421 2422 0
-2422 2438 0
-33 -2422 2423 0
-2423 2439 0
-34 -2423 2424 0
-2424 2440 0
-35 -2424 0
-20 2425 0
-2425 2441 0
-21 -2425 2426 0
-2426 2442 0
-22 -2426 2427 0
-2427 2443 0
-23 -2427 2428 0
-2428 2444 0
-24 -2428 2429 0
-2429 2445 0
-25 -2429 2430 0
-2430 2446 0
-26 -2430 2431 0
-2431 2447 0
-27 -2431 2432 0
-2432 2448 0
-28 -2432 2433 0
-2433 2449 0
-29 -2433 2434 0
-2434 2450 0
-30 -2434 2435 0
-2435 2451 0
-31 -2435 2436 0
-2436 2452 0
-32 -2436 2437 0
-2437 2453 0
-33 -2437 2438 0
-2438 2454 0
-34 -2438 2439 0
-2439 2455 0
-35 -2439 2440 0
-2440 2456 0
-36 -2440 0
-21 2441 0
-2441 2457 0
-22 -2441 2442 0
-2442 2458 0
-23 -2442 2443 0
-2443 2459 0
-24 -2443 2444 0
-2444 2460 0
-25 -2444 2445 0
-2445 2461 0
-26 -2445 2446 0
-2446 2462 0
-27 -2446 2447 0
-2447 2463 0
-28 -2447 2448 0
-2448 2464 0
-29 -2448 2449 0
-2449 2465 0
-30 -2449 2450 0
-2450 2466 0
-31 -2450 2451 0
-2451 2467 0
-32 -2451 2452 0
-2452 2468 0
-33 -2452 2453 0
-2453 2469 0
-34 -2453 2454 0
-2454 2470 0
-35 -2454 2455 0
-2455 2471 0
-36 -2455 2456 0
-2456 2472 0
-37 -2456 0
-22 2457 0
-2457 2473 0
-23 -2457 2458 0
-2458 2474 0
-24 -2458 2459 0
-2459 2475 0
-25 -2459 2460 0
-2460 2476 0
-26 -2460 2461 0
-2461 2477 0
-27 -2461 2462 0
-2462 2478 0
-28 -2462 2463 0
-2463 2479 0
-29 -2463 2464 0
-2464 2480 0
-30 -2464 2465 0
-2465 2481 0
-31 -2465 2466 0
-2466 2482 0
-32 -2466 2467 0
-2467 2483 0
-33 -2467 2468 0
-2468 2484 0
-34 -2468 2469 0
-2469 2485 0
-35 -2469 2470 0
-2470 2486 0
-36 -2470 2471 0
-2471 2487 0
-37 -2471 2472 0
-2472 2488 0
-38 -2472 0
-23 2473 0
-2473 2489 0
-24 -2473 2474 0
-2474 2490 0
-25 -2474 2475 0
-2475 2491 0
-26 -2475 2476 0
-2476 2492 0
-27 -2476 2477 0
-2477 2493 0
-28 -2477 2478 0
-2478 2494 0
-29 -2478 2479 0
-2479 2495 0
-30 -2479 2480 0
-2480 2496 0
-31 -2480 2481 0
-2481 2497 0
-32 -2481 2482 0
-2482 2498 0
-33 -2482 2483 0
-2483 2499 0
-34 -2483 2484 0
-2484 2500 0
-35 -2484 2485 0
-2485 2501 0
-36 -2485 2486 0
-2486 2502 0
-37 -2486 2487 0
-2487 2503 0
-38 -2487 2488 0
-2488 2504 0
-39 -2488 0
-24 2489 0
-2489 2505 0
-25 -2489 2490 0
-2490 2506 0
-26 -2490 2491 0
-2491 2507 0
-27 -2491 2492 0
-2492 2508 0
-28 -2492 2493 0
-2493 2509 0
-29 -2493 2494 0
-2494 2510 0
-30 -2494 2495 0
-2495 2511 0
-31 -2495 2496 0
-2496 2512 0
-32 -2496 2497 0
-2497 2513 0
-33 -2497 2498 0
-2498 2514 0
-34 -2498 2499 0
-2499 2515 0
-35 -2499 2500 0
-2500 2516 0
-36 -2500 2501 0
-2501 2517 0
-37 -2501 2502 0
-2502 2518 0
-38 -2502 2503 0
-2503 2519 0
-39 -2503 2504 0
-2504 2520 0
-40 -2504 0
-25 2505 0
-2505 2521 0
-26 -2505 2506 0
-2506 2522 0
-27 -2506 2507 0
-2507 2523 0
-28 -2507 2508 0
-2508 2524 0
-29 -2508 2509 0
-2509 2525 0
-30 -2509 2510 0
-2510 2526 0
-31 -2510 2511 0
-2511 2527 0
-32 -2511 2512 0
-2512 2528 0
-33 -2512 2513 0
-2513 2529 0
-34 -2513 2514 0
-2514 2530 0
-35 -2514 2515 0
-2515 2531 0
-36 -2515 2516 0
-2516 2532 0
-37 -2516 2517 0
-2517 2533 0
-38 -2517 2518 0
-2518 2534 0
-39 -2518 2519 0
-2519 2535 0
-40 -2519 2520 0
-2520 2536 0
-41 -2520 0
-26 2521 0
-2521 2537 0
-27 -2521 2522 0
-2522 2538 0
-28 -2522 2523 0
-2523 2539 0
-29 -2523 2524 0
-2524 2540 0
-30 -2524 2525 0
-2525 2541 0
-31 -2525 2526 0
-2526 2542 0
-32 -2526 2527 0
-2527 2543 0
-33 -2527 2528 0
-2528 2544 0
-34 -2528 2529 0
-2529 2545 0
-35 -2529 2530 0
-2530 2546 0
-36 -2530 2531 0
-2531 2547 0
-37 -2531 2532 0
-2532 2548 0
-38 -2532 2533 0
-2533 2549 0
-39 -2533 2534 0
-2534 2550 0
-40 -2534 2535 0
-2535 2551 0
-41 -2535 2536 0
-2536 2552 0
-42 -2536 0
-27 2537 0
-2537 2553 0
-28 -2537 2538 0
-2538 2554 0
-29 -2538 2539 0
-2539 2555 0
-30 -2539 2540 0
-2540 2556 0
-31 -2540 2541 0
-2541 2557 0
-32 -2541 2542 0
-2542 2558 0
-33 -2542 2543 0
-2543 2559 0
-34 -2543 2544 0
-2544 2560 0
-35 -2544 2545 0
-2545 2561 0
-36 -2545 2546 0
-2546 2562 0
-37 -2546 2547 0
-2547 2563 0
-38 -2547 2548 0
-2548 2564 0
-39 -2548 2549 0
-2549 2565 0
-40 -2549 2550 0
-2550 2566 0
-41 -2550 2551 0
-2551 2567 0
-42 -2551 2552 0
-2552 2568 0
-43 -2552 0
-28 2553 0
-2553 2569 0
-29 -2553 2554 0
-2554 2570 0
-30 -2554 2555 0
-2555 2571 0
-31 -2555 2556 0
-2556 2572 0
-32 -2556 2557 0
-2557 2573 0
-33 -2557 2558 0
-2558 2574 0
-34 -2558 2559 0
-2559 2575 0
-35 -2559 2560 0
-2560 2576 0
-36 -2560 2561 0
-2561 2577 0
-37 -2561 2562 0
-2562 2578 0
-38 -2562 2563 0
-2563 2579 0
-39 -2563 2564 0
-2564 2580 0
-40 -2564 2565 0
-2565 2581 0
-41 -2565 2566 0
-2566 2582 0
-42 -2566 2567 0
-2567 2583 0
-43 -2567 2568 0
-2568 2584 0
-44 -2568 0
-29 2569 0
-2569 2585 0
-30 -2569 2570 0
-2570 2586 0
-31 -2570 2571 0
-2571 2587 0
-32 -2571 2572 0
-2572 2588 0
-33 -2572 2573 0
-2573 2589 0
-34 -2573 2574 0
-2574 2590 0
-35 -2574 2575 0
-2575 2591 0
-36 -2575 2576 0
-2576 2592 0
-37 -2576 2577 0
-2577 2593 0
-38 -2577 2578 0
-2578 2594 0
-39 -2578 2579 0
-2579 2595 0
-40 -2579 2580 0
-2580 2596 0
-41 -2580 2581 0
-2581 2597 0
-42 -2581 2582 0
-2582 2598 0
-43 -2582 2583 0
-2583 2599 0
-44 -2583 2584 0
-2584 2600 0
-45 -2584 0
-30 2585 0
-2585 2601 0
-31 -2585 2586 0
-2586 2602 0
-32 -2586 2587 0
-2587 2603 0
-33 -2587 2588 0
-2588 2604 0
-34 -2588 2589 0
-2589 2605 0
-35 -2589 2590 0
-2590 2606 0
-36 -2590 2591 0
-2591 2607 0
-37 -2591 2592 0
-2592 2608 0
-38 -2592 2593 0
-2593 2609 0
-39 -2593 2594 0
-2594 2610 0
-40 -2594 2595 0
-2595 2611 0
-41 -2595 2596 0
-2596 2612 0
-42 -2596 2597 0
-2597 2613 0
-43 -2597 2598 0
-2598 2614 0
-44 -2598 2599 0
-2599 2615 0
-45 -2599 2600 0
-2600 2616 0
-46 -2600 0
-31 2601 0
-2601 2617 0
-32 -2601 2602 0
-2602 2618 0
-33 -2602 2603 0
-2603 2619 0
-34 -2603 2604 0
-2604 2620 0
-35 -2604 2605 0
-2605 2621 0
-36 -2605 2606 0
-2606 2622 0
-37 -2606 2607 0
-2607 2623 0
-38 -2607 2608 0
-2608 2624 0
-39 -2608 2609 0
-2609 2625 0
-40 -2609 2610 0
-2610 2626 0
-41 -2610 2611 0
-2611 2627 0
-42 -2611 2612 0
-2612 2628 0
-43 -2612 2613 0
-2613 2629 0
-44 -2613 2614 0
-2614 2630 0
-45 -2614 2615 0
-2615 2631 0
-46 -2615 2616 0
-2616 2632 0
-47 -2616 0
-32 2617 0
-2617 2633 0
-33 -2617 2618 0
-2618 2634 0
-34 -2618 2619 0
-2619 2635 0
-35 -2619 2620 0
-2620 2636 0
-36 -2620 2621 0
-2621 2637 0
-37 -2621 2622 0
-2622 2638 0
-38 -2622 2623 0
-2623 2639 0
-39 -2623 2624 0
-2624 2640 0
-40 -2624 2625 0
-2625 2641 0
-41 -2625 2626 0
-2626 2642 0
-42 -2626 2627 0
-2627 2643 0
-43 -2627 2628 0
-2628 2644 0
-44 -2628 2629 0
-2629 2645 0
-45 -2629 2630 0
-2630 2646 0
-46 -2630 2631 0
-2631 2647 0
-47 -2631 2632 0
-2632 2648 0
-48 -2632 0
-33 2633 0
-2633 2649 0
-34 -2633 2634 0
-2634 2650 0
-35 -2634 2635 0
-2635 2651 0
-36 -2635 2636 0
-2636 2652 0
-37 -2636 2637 0
-2637 2653 0
-38 -2637 2638 0
-2638 2654 0
-39 -2638 2639 0
-2639 2655 0
-40 -2639 2640 0
-2640 2656 0
-41 -2640 2641 0
-2641 2657 0
-42 -2641 2642 0
-2642 2658 0
-43 -2642 2643 0
-2643 2659 0
-44 -2643 2644 0
-2644 2660 0
-45 -2644 2645 0
-2645 2661 0
-46 -2645 2646 0
-2646 2662 0
-47 -2646 2647 0
-2647 2663 0
-48 -2647 2648 0
-2648 2664 0
-49 -2648 0
-34 2649 0
-2649 2665 0
-35 -2649 2650 0
-2650 2666 0
-36 -2650 2651 0
-2651 2667 0
-37 -2651 2652 0
-2652 2668 0
-38 -2652 2653 0
-2653 2669 0
-39 -2653 2654 0
-2654 2670 0
-40 -2654 2655 0
-2655 2671 0
-41 -2655 2656 0
-2656 2672 0
-42 -2656 2657 0
-2657 2673 0
-43 -2657 2658 0
-2658 2674 0
-44 -2658 2659 0
-2659 2675 0
-45 -2659 2660 0
-2660 2676 0
-46 -2660 2661 0
-2661 2677 0
-47 -2661 2662 0
-2662 2678 0
-48 -2662 2663 0
-2663 2679 0
-49 -2663 2664 0
-2664 2680 0
-50 -2664 0
-35 2665 0
-2665 2681 0
-36 -2665 2666 0
-2666 2682 0
-37 -2666 2667 0
-2667 2683 0
-38 -2667 2668 0
-2668 2684 0
-39 -2668 2669 0
-2669 2685 0
-40 -2669 2670 0
-2670 2686 0
-41 -2670 2671 0
-2671 2687 0
-42 -2671 2672 0
-2672 2688 0
-43 -2672 2673 0
-2673 2689 0
-44 -2673 2674 0
-2674 2690 0
-45 -2674 2675 0
-2675 2691 0
-46 -2675 2676 0
-2676 2692 0
-47 -2676 2677 0
-2677 2693 0
-48 -2677 2678 0
-2678 2694 0
-49 -2678 2679 0
-2679 2695 0
-50 -2679 2680 0
-2680 2696 0
-51 -2680 0
-36 2681 0
-2681 2697 0
-37 -2681 2682 0
-2682 2698 0
-38 -2682 2683 0
-2683 2699 0
-39 -2683 2684 0
-2684 2700 0
-40 -2684 2685 0
-2685 2701 0
-41 -2685 2686 0
-2686 2702 0
-42 -2686 2687 0
-2687 2703 0
-43 -2687 2688 0
-2688 2704 0
-44 -2688 2689 0
-2689 2705 0
-45 -2689 2690 0
-2690 2706 0
-46 -2690 2691 0
-2691 2707 0
-47 -2691 2692 0
-2692 2708 0
-48 -2692 2693 0
-2693 2709 0
-49 -2693 2694 0
-2694 2710 0
-50 -2694 2695 0
-2695 2711 0
-51 -2695 2696 0
-2696 2712 0
-52 -2696 0
-37 2697 0
-2697 2713 0
-38 -2697 2698 0
-2698 2714 0
-39 -2698 2699 0
-2699 2715 0
-40 -2699 2700 0
-2700 2716 0
-41 -2700 2701 0
-2701 2717 0
-42 -2701 2702 0
-2702 2718 0
-43 -2702 2703 0
-2703 2719 0
-44 -2703 2704 0
-2704 2720 0
-45 -2704 2705 0
-2705 2721 0
-46 -2705 2706 0
-2706 2722 0
-47 -2706 2707 0
-2707 2723 0
-48 -2707 2708 0
-2708 2724 0
-49 -2708 2709 0
-2709 2725 0
-50 -2709 2710 0
-2710 2726 0
-51 -2710 2711 0
-2711 2727 0
-52 -2711 2712 0
-2712 2728 0
-53 -2712 0
-38 2713 0
-2713 2729 0
-39 -2713 2714 0
-2714 2730 0
-40 -2714 2715 0
-2715 2731 0
-41 -2715 2716 0
-2716 2732 0
-42 -2716 2717 0
-2717 2733 0
-43 -2717 2718 0
-2718 2734 0
-44 -2718 2719 0
-2719 2735 0
-45 -2719 2720 0
-2720 2736 0
-46 -2720 2721 0
-2721 2737 0
-47 -2721 2722 0
-2722 2738 0
-48 -2722 2723 0
-2723 2739 0
-49 -2723 2724 0
-2724 2740 0
-50 -2724 2725 0
-2725 2741 0
-51 -2725 2726 0
-2726 2742 0
-52 -2726 2727 0
-2727 2743 0
-53 -2727 2728 0
-2728 2744 0
-54 -2728 0
-39 2729 0
-2729 2745 0
-40 -2729 2730 0
-2730 2746 0
-41 -2730 2731 0
-2731 2747 0
-42 -2731 2732 0
-2732 2748 0
-43 -2732 2733 0
-2733 2749 0
-44 -2733 2734 0
-2734 2750 0
-45 -2734 2735 0
-2735 2751 0
-46 -2735 2736 0
-2736 2752 0
-47 -2736 2737 0
-2737 2753 0
-48 -2737 2738 0
-2738 2754 0
-49 -2738 2739 0
-2739 2755 0
-50 -2739 2740 0
-2740 2756 0
-51 -2740 2741 0
-2741 2757 0
-52 -2741 2742 0
-2742 2758 0
-53 -2742 2743 0
-2743 2759 0
-54 -2743 2744 0
-2744 2760 0
-55 -2744 0
-40 2745 0
-2745 2761 0
-41 -2745 2746 0
-2746 2762 0
-42 -2746 2747 0
-2747 2763 0
-43 -2747 2748 0
-2748 2764 0
-44 -2748 2749 0
-2749 2765 0
-45 -2749 2750 0
-2750 2766 0
-46 -2750 2751 0
-2751 2767 0
-47 -2751 2752 0
-2752 2768 0
-48 -2752 2753 0
-2753 2769 0
-49 -2753 2754 0
-2754 2770 0
-50 -2754 2755 0
-2755 2771 0
-51 -2755 2756 0
-2756 2772 0
-52 -2756 2757 0
-2757 2773 0
-53 -2757 2758 0
-2758 2774 0
-54 -2758 2759 0
-2759 2775 0
-55 -2759 2760 0
-2760 2776 0
-56 -2760 0
-41 2761 0
-2761 2777 0
-42 -2761 2762 0
-2762 2778 0
-43 -2762 2763 0
-2763 2779 0
-44 -2763 2764 0
-2764 2780 0
-45 -2764 2765 0
-2765 2781 0
-46 -2765 2766 0
-2766 2782 0
-47 -2766 2767 0
-2767 2783 0
-48 -2767 2768 0
-2768 2784 0
-49 -2768 2769 0
-2769 2785 0
-50 -2769 2770 0
-2770 2786 0
-51 -2770 2771 0
-2771 2787 0
-52 -2771 2772 0
-2772 2788 0
-53 -2772 2773 0
-2773 2789 0
-54 -2773 2774 0
-2774 2790 0
-55 -2774 2775 0
-2775 2791 0
-56 -2775 2776 0
-2776 2792 0
-57 -2776 0
-42 2777 0
-2777 2793 0
-43 -2777 2778 0
-2778 2794 0
-44 -2778 2779 0
-2779 2795 0
-45 -2779 2780 0
-2780 2796 0
-46 -2780 2781 0
-2781 2797 0
-47 -2781 2782 0
-2782 2798 0
-48 -2782 2783 0
-2783 2799 0
-49 -2783 2784 0
-2784 2800 0
-50 -2784 2785 0
-2785 2801 0
-51 -2785 2786 0
-2786 2802 0
-52 -2786 2787 0
-2787 2803 0
-53 -2787 2788 0
-2788 2804 0
-54 -2788 2789 0
-2789 2805 0
-55 -2789 2790 0
-2790 2806 0
-56 -2790 2791 0
-2791 2807 0
-57 -2791 2792 0
-2792 2808 0
-58 -2792 0
-43 2793 0
-2793 2809 0
-44 -2793 2794 0
-2794 2810 0
-45 -2794 2795 0
-2795 2811 0
-46 -2795 2796 0
-2796 2812 0
-47 -2796 2797 0
-2797 2813 0
-48 -2797 2798 0
-2798 2814 0
-49 -2798 2799 0
-2799 2815 0
-50 -2799 2800 0
-2800 2816 0
-51 -2800 2801 0
-2801 2817 0
-52 -2801 2802 0
-2802 2818 0
-53 -2802 2803 0
-2803 2819 0
-54 -2803 2804 0
-2804 2820 0
-55 -2804 2805 0
-2805 2821 0
-56 -2805 2806 0
-2806 2822 0
-57 -2806 2807 0
-2807 2823 0
-58 -2807 2808 0
-2808 2824 0
-59 -2808 0
-44 2809 0
-2809 2825 0
-45 -2809 2810 0
-2810 2826 0
-46 -2810 2811 0
-2811 2827 0
-47 -2811 2812 0
-2812 2828 0
-48 -2812 2813 0
-2813 2829 0
-49 -2813 2814 0
-2814 2830 0
-50 -2814 2815 0
-2815 2831 0
-51 -2815 2816 0
-2816 2832 0
-52 -2816 2817 0
-2817 2833 0
-53 -2817 2818 0
-2818 2834 0
-54 -2818 2819 0
-2819 2835 0
-55 -2819 2820 0
-2820 2836 0
-56 -2820 2821 0
-2821 2837 0
-57 -2821 2822 0
-2822 2838 0
-58 -2822 2823 0
-2823 2839 0
-59 -2823 2824 0
-2824 2840 0
-60 -2824 0
-45 2825 0
-2825 2841 0
-46 -2825 2826 0
-2826 2842 0
-47 -2826 2827 0
-2827 2843 0
-48 -2827 2828 0
-2828 2844 0
-49 -2828 2829 0
-2829 2845 0
-50 -2829 2830 0
-2830 2846 0
-51 -2830 2831 0
-2831 2847 0
-52 -2831 2832 0
-2832 2848 0
-53 -2832 2833 0
-2833 2849 0
-54 -2833 2834 0
-2834 2850 0
-55 -2834 2835 0
-2835 2851 0
-56 -2835 2836 0
-2836 2852 0
-57 -2836 2837 0
-2837 2853 0
-58 -2837 2838 0
-2838 2854 0
-59 -2838 2839 0
-2839 2855 0
-60 -2839 2840 0
-2840 2856 0
-61 -2840 0
-46 2841 0
-2841 2857 0
-47 -2841 2842 0
-2842 2858 0
-48 -2842 2843 0
-2843 2859 0
-49 -2843 2844 0
-2844 2860 0
-50 -2844 2845 0
-2845 2861 0
-51 -2845 2846 0
-2846 2862 0
-52 -2846 2847 0
-2847 2863 0
-53 -2847 2848 0
-2848 2864 0
-54 -2848 2849 0
-2849 2865 0
-55 -2849 2850 0
-2850 2866 0
-56 -2850 2851 0
-2851 2867 0
-57 -2851 2852 0
-2852 2868 0
-58 -2852 2853 0
-2853 2869 0
-59 -2853 2854 0
-2854 2870 0
-60 -2854 2855 0
-2855 2871 0
-61 -2855 2856 0
-2856 2872 0
-62 -2856 0
-47 2857 0
-2857 2873 0
-48 -2857 2858 0
-2858 2874 0
-49 -2858 2859 0
-2859 2875 0
-50 -2859 2860 0
-2860 2876 0
-51 -2860 2861 0
-2861 2877 0
-52 -2861 2862 0
-2862 2878 0
-53 -2862 2863 0
-2863 2879 0
-54 -2863 2864 0
-2864 2880 0
-55 -2864 2865 0
-2865 2881 0
-56 -2865 2866 0
-2866 2882 0
-57 -2866 2867 0
-2867 2883 0
-58 -2867 2868 0
-2868 2884 0
-59 -2868 2869 0
-2869 2885 0
-60 -2869 2870 0
-2870 2886 0
-61 -2870 2871 0
-2871 2887 0
-62 -2871 2872 0
-2872 2888 0
-63 -2872 0
-48 2873 0
-2873 2889 0
-49 -2873 2874 0
-2874 2890 0
-50 -2874 2875 0
-2875 2891 0
-51 -2875 2876 0
-2876 2892 0
-52 -2876 2877 0
-2877 2893 0
-53 -2877 2878 0
-2878 2894 0
-54 -2878 2879 0
-2879 2895 0
-55 -2879 2880 0
-2880 2896 0
-56 -2880 2881 0
-2881 2897 0
-57 -2881 2882 0
-2882 2898 0
-58 -2882 2883 0
-2883 2899 0
-59 -2883 2884 0
-2884 2900 0
-60 -2884 2885 0
-2885 2901 0
-61 -2885 2886 0
-2886 2902 0
-62 -2886 2887 0
-2887 2903 0
-63 -2887 2888 0
-2888 2904 0
-64 -2888 0
-49 2889 0
-2889 2905 0
-50 -2889 2890 0
-2890 2906 0
-51 -2890 2891 0
-2891 2907 0
-52 -2891 2892 0
-2892 2908 0
-53 -2892 2893 0
-2893 2909 0
-54 -2893 2894 0
-2894 2910 0
-55 -2894 2895 0
-2895 2911 0
-56 -2895 2896 0
-2896 2912 0
-57 -2896 2897 0
-2897 2913 0
-58 -2897 2898 0
-2898 2914 0
-59 -2898 2899 0
-2899 2915 0
-60 -2899 2900 0
-2900 2916 0
-61 -2900 2901 0
-2901 2917 0
-62 -2901 2902 0
-2902 2918 0
-63 -2902 2903 0
-2903 2919 0
-64 -2903 2904 0
-2904 2920 0
-65 -2904 0
-50 2905 0
-2905 2921 0
-51 -2905 2906 0
-2906 2922 0
-52 -2906 2907 0
-2907 2923 0
-53 -2907 2908 0
-2908 2924 0
-54 -2908 2909 0
-2909 2925 0
-55 -2909 2910 0
-2910 2926 0
-56 -2910 2911 0
-2911 2927 0
-57 -2911 2912 0
-2912 2928 0
-58 -2912 2913 0
-2913 2929 0
-59 -2913 2914 0
-2914 2930 0
-60 -2914 2915 0
-2915 2931 0
-61 -2915 2916 0
-2916 2932 0
-62 -2916 2917 0
-2917 2933 0
-63 -2917 2918 0
-2918 2934 0
-64 -2918 2919 0
-2919 2935 0
-65 -2919 2920 0
-2920 2936 0
-66 -2920 0
-51 2921 0
-2921 2937 0
-52 -2921 2922 0
-2922 2938 0
-53 -2922 2923 0
-2923 2939 0
-54 -2923 2924 0
-2924 2940 0
-55 -2924 2925 0
-2925 2941 0
-56 -2925 2926 0
-2926 2942 0
-57 -2926 2927 0
-2927 2943 0
-58 -2927 2928 0
-2928 2944 0
-59 -2928 2929 0
-2929 2945 0
-60 -2929 2930 0
-2930 2946 0
-61 -2930 2931 0
-2931 2947 0
-62 -2931 2932 0
-2932 2948 0
-63 -2932 2933 0
-2933 2949 0
-64 -2933 2934 0
-2934 2950 0
-65 -2934 2935 0
-2935 2951 0
-66 -2935 2936 0
-2936 2952 0
-67 -2936 0
-52 2937 0
-2937 2953 0
-53 -2937 2938 0
-2938 2954 0
-54 -2938 2939 0
-2939 2955 0
-55 -2939 2940 0
-2940 2956 0
-56 -2940 2941 0
-2941 2957 0
-57 -2941 2942 0
-2942 2958 0
-58 -2942 2943 0
-2943 2959 0
-59 -2943 2944 0
-2944 2960 0
-60 -2944 2945 0
-2945 2961 0
-61 -2945 2946 0
-2946 2962 0
-62 -2946 2947 0
-2947 2963 0
-63 -2947 2948 0
-2948 2964 0
-64 -2948 2949 0
-2949 2965 0
-65 -2949 2950 0
-2950 2966 0
-66 -2950 2951 0
-2951 2967 0
-67 -2951 2952 0
-2952 2968 0
-68 -2952 0
-53 2953 0
-2953 2969 0
-54 -2953 2954 0
-2954 2970 0
-55 -2954 2955 0
-2955 2971 0
-56 -2955 2956 0
-2956 2972 0
-57 -2956 2957 0
-2957 2973 0
-58 -2957 2958 0
-2958 2974 0
-59 -2958 2959 0
-2959 2975 0
-60 -2959 2960 0
-2960 2976 0
-61 -2960 2961 0
-2961 2977 0
-62 -2961 2962 0
-2962 2978 0
-63 -2962 2963 0
-2963 2979 0
-64 -2963 2964 0
-2964 2980 0
-65 -2964 2965 0
-2965 2981 0
-66 -2965 2966 0
-2966 2982 0
-67 -2966 2967 0
-2967 2983 0
-68 -2967 2968 0
-2968 2984 0
-69 -2968 0
-54 2969 0
-2969 2985 0
-55 -2969 2970 0
-2970 2986 0
-56 -2970 2971 0
-2971 2987 0
-57 -2971 2972 0
-2972 2988 0
-58 -2972 2973 0
-2973 2989 0
-59 -2973 2974 0
-2974 2990 0
-60 -2974 2975 0
-2975 2991 0
-61 -2975 2976 0
-2976 2992 0
-62 -2976 2977 0
-2977 2993 0
-63 -2977 2978 0
-2978 2994 0
-64 -2978 2979 0
-2979 2995 0
-65 -2979 2980 0
-2980 2996 0
-66 -2980 2981 0
-2981 2997 0
-67 -2981 2982 0
-2982 2998 0
-68 -2982 2983 0
-2983 2999 0
-69 -2983 2984 0
-2984 3000 0
-70 -2984 0
-55 2985 0
-2985 3001 0
-56 -2985 2986 0
-2986 3002 0
-57 -2986 2987 0
-2987 3003 0
-58 -2987 2988 0
-2988 3004 0
-59 -2988 2989 0
-2989 3005 0
-60 -2989 2990 0
-2990 3006 0
-61 -2990 2991 0
-2991 3007 0
-62 -2991 2992 0
-2992 3008 0
-63 -2992 2993 0
-2993 3009 0
-64 -2993 2994 0
-2994 3010 0
-65 -2994 2995 0
-2995 3011 0
-66 -2995 2996 0
-2996 3012 0
-67 -2996 2997 0
-2997 3013 0
-68 -2997 2998 0
-2998 3014 0
-69 -2998 2999 0
-2999 3015 0
-70 -2999 3000 0
-3000 3016 0
-71 -3000 0
-56 3001 0
-3001 3017 0
-57 -3001 3002 0
-3002 3018 0
-58 -3002 3003 0
-3003 3019 0
-59 -3003 3004 0
-3004 3020 0
-60 -3004 3005 0
-3005 3021 0
-61 -3005 3006 0
-3006 3022 0
-62 -3006 3007 0
-3007 3023 0
-63 -3007 3008 0
-3008 3024 0
-64 -3008 3009 0
-3009 3025 0
-65 -3009 3010 0
-3010 3026 0
-66 -3010 3011 0
-3011 3027 0
-67 -3011 3012 0
-3012 3028 0
-68 -3012 3013 0
-3013 3029 0
-69 -3013 3014 0
-3014 3030 0
-70 -3014 3015 0
-3015 3031 0
-71 -3015 3016 0
-3016 3032 0
-72 -3016 0
-57 3017 0
-3017 3033 0
-58 -3017 3018 0
-3018 3034 0
-59 -3018 3019 0
-3019 3035 0
-60 -3019 3020 0
-3020 3036 0
-61 -3020 3021 0
-3021 3037 0
-62 -3021 3022 0
-3022 3038 0
-63 -3022 3023 0
-3023 3039 0
-64 -3023 3024 0
-3024 3040 0
-65 -3024 3025 0
-3025 3041 0
-66 -3025 3026 0
-3026 3042 0
-67 -3026 3027 0
-3027 3043 0
-68 -3027 3028 0
-3028 3044 0
-69 -3028 3029 0
-3029 3045 0
-70 -3029 3030 0
-3030 3046 0
-71 -3030 3031 0
-3031 3047 0
-72 -3031 3032 0
-3032 3048 0
-73 -3032 0
-58 3033 0
-3033 3049 0
-59 -3033 3034 0
-3034 3050 0
-60 -3034 3035 0
-3035 3051 0
-61 -3035 3036 0
-3036 3052 0
-62 -3036 3037 0
-3037 3053 0
-63 -3037 3038 0
-3038 3054 0
-64 -3038 3039 0
-3039 3055 0
-65 -3039 3040 0
-3040 3056 0
-66 -3040 3041 0
-3041 3057 0
-67 -3041 3042 0
-3042 3058 0
-68 -3042 3043 0
-3043 3059 0
-69 -3043 3044 0
-3044 3060 0
-70 -3044 3045 0
-3045 3061 0
-71 -3045 3046 0
-3046 3062 0
-72 -3046 3047 0
-3047 3063 0
-73 -3047 3048 0
-3048 3064 0
-74 -3048 0
-59 3049 0
-3049 3065 0
-60 -3049 3050 0
-3050 3066 0
-61 -3050 3051 0
-3051 3067 0
-62 -3051 3052 0
-3052 3068 0
-63 -3052 3053 0
-3053 3069 0
-64 -3053 3054 0
-3054 3070 0
-65 -3054 3055 0
-3055 3071 0
-66 -3055 3056 0
-3056 3072 0
-67 -3056 3057 0
-3057 3073 0
-68 -3057 3058 0
-3058 3074 0
-69 -3058 3059 0
-3059 3075 0
-70 -3059 3060 0
-3060 3076 0
-71 -3060 3061 0
-3061 3077 0
-72 -3061 3062 0
-3062 3078 0
-73 -3062 3063 0
-3063 3079 0
-74 -3063 3064 0
-3064 3080 0
-75 -3064 0
-60 3065 0
-3065 3081 0
-61 -3065 3066 0
-3066 3082 0
-62 -3066 3067 0
-3067 3083 0
-63 -3067 3068 0
-3068 3084 0
-64 -3068 3069 0
-3069 3085 0
-65 -3069 3070 0
-3070 3086 0
-66 -3070 3071 0
-3071 3087 0
-67 -3071 3072 0
-3072 3088 0
-68 -3072 3073 0
-3073 3089 0
-69 -3073 3074 0
-3074 3090 0
-70 -3074 3075 0
-3075 3091 0
-71 -3075 3076 0
-3076 3092 0
-72 -3076 3077 0
-3077 3093 0
-73 -3077 3078 0
-3078 3094 0
-74 -3078 3079 0
-3079 3095 0
-75 -3079 3080 0
-3080 3096 0
-76 -3080 0
-61 3081 0
-3081 3097 0
-62 -3081 3082 0
-3082 3098 0
-63 -3082 3083 0
-3083 3099 0
-64 -3083 3084 0
-3084 3100 0
-65 -3084 3085 0
-3085 3101 0
-66 -3085 3086 0
-3086 3102 0
-67 -3086 3087 0
-3087 3103 0
-68 -3087 3088 0
-3088 3104 0
-69 -3088 3089 0
-3089 3105 0
-70 -3089 3090 0
-3090 3106 0
-71 -3090 3091 0
-3091 3107 0
-72 -3091 3092 0
-3092 3108 0
-73 -3092 3093 0
-3093 3109 0
-74 -3093 3094 0
-3094 3110 0
-75 -3094 3095 0
-3095 3111 0
-76 -3095 3096 0
-3096 3112 0
-77 -3096 0
-62 3097 0
-3097 3113 0
-63 -3097 3098 0
-3098 3114 0
-64 -3098 3099 0
-3099 3115 0
-65 -3099 3100 0
-3100 3116 0
-66 -3100 3101 0
-3101 3117 0
-67 -3101 3102 0
-3102 3118 0
-68 -3102 3103 0
-3103 3119 0
-69 -3103 3104 0
-3104 3120 0
-70 -3104 3105 0
-3105 3121 0
-71 -3105 3106 0
-3106 3122 0
-72 -3106 3107 0
-3107 3123 0
-73 -3107 3108 0
-3108 3124 0
-74 -3108 3109 0
-3109 3125 0
-75 -3109 3110 0
-3110 3126 0
-76 -3110 3111 0
-3111 3127 0
-77 -3111 3112 0
-3112 3128 0
-78 -3112 0
-63 3113 0
-3113 3129 0
-64 -3113 3114 0
-3114 3130 0
-65 -3114 3115 0
-3115 3131 0
-66 -3115 3116 0
-3116 3132 0
-67 -3116 3117 0
-3117 3133 0
-68 -3117 3118 0
-3118 3134 0
-69 -3118 3119 0
-3119 3135 0
-70 -3119 3120 0
-3120 3136 0
-71 -3120 3121 0
-3121 3137 0
-72 -3121 3122 0
-3122 3138 0
-73 -3122 3123 0
-3123 3139 0
-74 -3123 3124 0
-3124 3140 0
-75 -3124 3125 0
-3125 3141 0
-76 -3125 3126 0
-3126 3142 0
-77 -3126 3127 0
-3127 3143 0
-78 -3127 3128 0
-3128 3144 0
-79 -3128 0
-64 3129 0
-3129 3145 0
-65 -3129 3130 0
-3130 3146 0
-66 -3130 3131 0
-3131 3147 0
-67 -3131 3132 0
-3132 3148 0
-68 -3132 3133 0
-3133 3149 0
-69 -3133 3134 0
-3134 3150 0
-70 -3134 3135 0
-3135 3151 0
-71 -3135 3136 0
-3136 3152 0
-72 -3136 3137 0
-3137 3153 0
-73 -3137 3138 0
-3138 3154 0
-74 -3138 3139 0
-3139 3155 0
-75 -3139 3140 0
-3140 3156 0
-76 -3140 3141 0
-3141 3157 0
-77 -3141 3142 0
-3142 3158 0
-78 -3142 3143 0
-3143 3159 0
-79 -3143 3144 0
-3144 3160 0
-80 -3144 0
-65 3145 0
-3145 3161 0
-66 -3145 3146 0
-3146 3162 0
-67 -3146 3147 0
-3147 3163 0
-68 -3147 3148 0
-3148 3164 0
-69 -3148 3149 0
-3149 3165 0
-70 -3149 3150 0
-3150 3166 0
-71 -3150 3151 0
-3151 3167 0
-72 -3151 3152 0
-3152 3168 0
-73 -3152 3153 0
-3153 3169 0
-74 -3153 3154 0
-3154 3170 0
-75 -3154 3155 0
-3155 3171 0
-76 -3155 3156 0
-3156 3172 0
-77 -3156 3157 0
-3157 3173 0
-78 -3157 3158 0
-3158 3174 0
-79 -3158 3159 0
-3159 3175 0
-80 -3159 3160 0
-3160 3176 0
-81 -3160 0
-66 3161 0
-3161 3177 0
-67 -3161 3162 0
-3162 3178 0
-68 -3162 3163 0
-3163 3179 0
-69 -3163 3164 0
-3164 3180 0
-70 -3164 3165 0
-3165 3181 0
-71 -3165 3166 0
-3166 3182 0
-72 -3166 3167 0
-3167 3183 0
-73 -3167 3168 0
-3168 3184 0
-74 -3168 3169 0
-3169 3185 0
-75 -3169 3170 0
-3170 3186 0
-76 -3170 3171 0
-3171 3187 0
-77 -3171 3172 0
-3172 3188 0
-78 -3172 3173 0
-3173 3189 0
-79 -3173 3174 0
-3174 3190 0
-80 -3174 3175 0
-3175 3191 0
-81 -3175 3176 0
-3176 3192 0
-82 -3176 0
-67 3177 0
-3177 3193 0
-68 -3177 3178 0
-3178 3194 0
-69 -3178 3179 0
-3179 3195 0
-70 -3179 3180 0
-3180 3196 0
-71 -3180 3181 0
-3181 3197 0
-72 -3181 3182 0
-3182 3198 0
-73 -3182 3183 0
-3183 3199 0
-74 -3183 3184 0
-3184 3200 0
-75 -3184 3185 0
-3185 3201 0
-76 -3185 3186 0
-3186 3202 0
-77 -3186 3187 0
-3187 3203 0
-78 -3187 3188 0
-3188 3204 0
-79 -3188 3189 0
-3189 3205 0
-80 -3189 3190 0
-3190 3206 0
-81 -3190 3191 0
-3191 3207 0
-82 -3191 3192 0
-3192 3208 0
-83 -3192 0
-68 3193 0
-3193 3209 0
-69 -3193 3194 0
-3194 3210 0
-70 -3194 3195 0
-3195 3211 0
-71 -3195 3196 0
-3196 3212 0
-72 -3196 3197 0
-3197 3213 0
-73 -3197 3198 0
-3198 3214 0
-74 -3198 3199 0
-3199 3215 0
-75 -3199 3200 0
-3200 3216 0
-76 -3200 3201 0
-3201 3217 0
-77 -3201 3202 0
-3202 3218 0
-78 -3202 3203 0
-3203 3219 0
-79 -3203 3204 0
-3204 3220 0
-80 -3204 3205 0
-3205 3221 0
-81 -3205 3206 0
-3206 3222 0
-82 -3206 3207 0
-3207 3223 0
-83 -3207 3208 0
-3208 3224 0
-84 -3208 0
-69 3209 0
-3209 3225 0
-70 -3209 3210 0
-3210 3226 0
-71 -3210 3211 0
-3211 3227 0
-72 -3211 3212 0
-3212 3228 0
-73 -3212 3213 0
-3213 3229 0
-74 -3213 3214 0
-3214 3230 0
-75 -3214 3215 0
-3215 3231 0
-76 -3215 3216 0
-3216 3232 0
-77 -3216 3217 0
-3217 3233 0
-78 -3217 3218 0
-3218 3234 0
-79 -3218 3219 0
-3219 3235 0
-80 -3219 3220 0
-3220 3236 0
-81 -3220 3221 0
-3221 3237 0
-82 -3221 3222 0
-3222 3238 0
-83 -3222 3223 0
-3223 3239 0
-84 -3223 3224 0
-3224 3240 0
-85 -3224 0
-70 3225 0
-3225 3241 0
-71 -3225 3226 0
-3226 3242 0
-72 -3226 3227 0
-3227 3243 0
-73 -3227 3228 0
-3228 3244 0
-74 -3228 3229 0
-3229 3245 0
-75 -3229 3230 0
-3230 3246 0
-76 -3230 3231 0
-3231 3247 0
-77 -3231 3232 0
-3232 3248 0
-78 -3232 3233 0
-3233 3249 0
-79 -3233 3234 0
-3234 3250 0
-80 -3234 3235 0
-3235 3251 0
-81 -3235 3236 0
-3236 3252 0
-82 -3236 3237 0
-3237 3253 0
-83 -3237 3238 0
-3238 3254 0
-84 -3238 3239 0
-3239 3255 0
-85 -3239 3240 0
-3240 3256 0
-86 -3240 0
-71 3241 0
-3241 3257 0
-72 -3241 3242 0
-3242 3258 0
-73 -3242 3243 0
-3243 3259 0
-74 -3243 3244 0
-3244 3260 0
-75 -3244 3245 0
-3245 3261 0
-76 -3245 3246 0
-3246 3262 0
-77 -3246 3247 0
-3247 3263 0
-78 -3247 3248 0
-3248 3264 0
-79 -3248 3249 0
-3249 3265 0
-80 -3249 3250 0
-3250 3266 0
-81 -3250 3251 0
-3251 3267 0
-82 -3251 3252 0
-3252 3268 0
-83 -3252 3253 0
-3253 3269 0
-84 -3253 3254 0
-3254 3270 0
-85 -3254 3255 0
-3255 3271 0
-86 -3255 3256 0
-3256 3272 0
-87 -3256 0
-72 3257 0
-3257 3273 0
-73 -3257 3258 0
-3258 3274 0
-74 -3258 3259 0
-3259 3275 0
-75 -3259 3260 0
-3260 3276 0
-76 -3260 3261 0
-3261 3277 0
-77 -3261 3262 0
-3262 3278 0
-78 -3262 3263 0
-3263 3279 0
-79 -3263 3264 0
-3264 3280 0
-80 -3264 3265 0
-3265 3281 0
-81 -3265 3266 0
-3266 3282 0
-82 -3266 3267 0
-3267 3283 0
-83 -3267 3268 0
-3268 3284 0
-84 -3268 3269 0
-3269 3285 0
-85 -3269 3270 0
-3270 3286 0
-86 -3270 3271 0
-3271 3287 0
-87 -3271 3272 0
-3272 3288 0
-88 -3272 0
-73 3273 0
-3273 3289 0
-74 -3273 3274 0
-3274 3290 0
-75 -3274 3275 0
-3275 3291 0
-76 -3275 3276 0
-3276 3292 0
-77 -3276 3277 0
-3277 3293 0
-78 -3277 3278 0
-3278 3294 0
-79 -3278 3279 0
-3279 3295 0
-80 -3279 3280 0
-3280 3296 0
-81 -3280 3281 0
-3281 3297 0
-82 -3281 3282 0
-3282 3298 0
-83 -3282 3283 0
-3283 3299 0
-84 -3283 3284 0
-3284 3300 0
-85 -3284 3285 0
-3285 3301 0
-86 -3285 3286 0
-3286 3302 0
-87 -3286 3287 0
-3287 3303 0
-88 -3287 3288 0
-3288 3304 0
-89 -3288 0
-74 3289 0
-3289 3305 0
-75 -3289 3290 0
-3290 3306 0
-76 -3290 3291 0
-3291 3307 0
-77 -3291 3292 0
-3292 3308 0
-78 -3292 3293 0
-3293 3309 0
-79 -3293 3294 0
-3294 3310 0
-80 -3294 3295 0
-3295 3311 0
-81 -3295 3296 0
-3296 3312 0
-82 -3296 3297 0
-3297 3313 0
-83 -3297 3298 0
-3298 3314 0
-84 -3298 3299 0
-3299 3315 0
-85 -3299 3300 0
-3300 3316 0
-86 -3300 3301 0
-3301 3317 0
-87 -3301 3302 0
-3302 3318 0
-88 -3302 3303 0
-3303 3319 0
-89 -3303 3304 0
-3304 3320 0
-90 -3304 0
-75 3305 0
-3305 3321 0
-76 -3305 3306 0
-3306 3322 0
-77 -3306 3307 0
-3307 3323 0
-78 -3307 3308 0
-3308 3324 0
-79 -3308 3309 0
-3309 3325 0
-80 -3309 3310 0
-3310 3326 0
-81 -3310 3311 0
-3311 3327 0
-82 -3311 3312 0
-3312 3328 0
-83 -3312 3313 0
-3313 3329 0
-84 -3313 3314 0
-3314 3330 0
-85 -3314 3315 0
-3315 3331 0
-86 -3315 3316 0
-3316 3332 0
-87 -3316 3317 0
-3317 3333 0
-88 -3317 3318 0
-3318 3334 0
-89 -3318 3319 0
-3319 3335 0
-90 -3319 3320 0
-3320 3336 0
-91 -3320 0
-76 3321 0
-3321 3337 0
-77 -3321 3322 0
-3322 3338 0
-78 -3322 3323 0
-3323 3339 0
-79 -3323 3324 0
-3324 3340 0
-80 -3324 3325 0
-3325 3341 0
-81 -3325 3326 0
-3326 3342 0
-82 -3326 3327 0
-3327 3343 0
-83 -3327 3328 0
-3328 3344 0
-84 -3328 3329 0
-3329 3345 0
-85 -3329 3330 0
-3330 3346 0
-86 -3330 3331 0
-3331 3347 0
-87 -3331 3332 0
-3332 3348 0
-88 -3332 3333 0
-3333 3349 0
-89 -3333 3334 0
-3334 3350 0
-90 -3334 3335 0
-3335 3351 0
-91 -3335 3336 0
-3336 3352 0
-92 -3336 0
-77 3337 0
-3337 3353 0
-78 -3337 3338 0
-3338 3354 0
-79 -3338 3339 0
-3339 3355 0
-80 -3339 3340 0
-3340 3356 0
-81 -3340 3341 0
-3341 3357 0
-82 -3341 3342 0
-3342 3358 0
-83 -3342 3343 0
-3343 3359 0
-84 -3343 3344 0
-3344 3360 0
-85 -3344 3345 0
-3345 3361 0
-86 -3345 3346 0
-3346 3362 0
-87 -3346 3347 0
-3347 3363 0
-88 -3347 3348 0
-3348 3364 0
-89 -3348 3349 0
-3349 3365 0
-90 -3349 3350 0
-3350 3366 0
-91 -3350 3351 0
-3351 3367 0
-92 -3351 3352 0
-3352 3368 0
-93 -3352 0
-78 3353 0
-3353 3369 0
-79 -3353 3354 0
-3354 3370 0
-80 -3354 3355 0
-3355 3371 0
-81 -3355 3356 0
-3356 3372 0
-82 -3356 3357 0
-3357 3373 0
-83 -3357 3358 0
-3358 3374 0
-84 -3358 3359 0
-3359 3375 0
-85 -3359 3360 0
-3360 3376 0
-86 -3360 3361 0
-3361 3377 0
-87 -3361 3362 0
-3362 3378 0
-88 -3362 3363 0
-3363 3379 0
-89 -3363 3364 0
-3364 3380 0
-90 -3364 3365 0
-3365 3381 0
-91 -3365 3366 0
-3366 3382 0
-92 -3366 3367 0
-3367 3383 0
-93 -3367 3368 0
-3368 3384 0
-94 -3368 0
-79 3369 0
-3369 3385 0
-80 -3369 3370 0
-3370 3386 0
-81 -3370 3371 0
-3371 3387 0
-82 -3371 3372 0
-3372 3388 0
-83 -3372 3373 0
-3373 3389 0
-84 -3373 3374 0
-3374 3390 0
-85 -3374 3375 0
-3375 3391 0
-86 -3375 3376 0
-3376 3392 0
-87 -3376 3377 0
-3377 3393 0
-88 -3377 3378 0
-3378 3394 0
-89 -3378 3379 0
-3379 3395 0
-90 -3379 3380 0
-3380 3396 0
-91 -3380 3381 0
-3381 3397 0
-92 -3381 3382 0
-3382 3398 0
-93 -3382 3383 0
-3383 3399 0
-94 -3383 3384 0
-3384 3400 0
-95 -3384 0
-80 3385 0
-3385 3401 0
-81 -3385 3386 0
-3386 3402 0
-82 -3386 3387 0
-3387 3403 0
-83 -3387 3388 0
-3388 3404 0
-84 -3388 3389 0
-3389 3405 0
-85 -3389 3390 0
-3390 3406 0
-86 -3390 3391 0
-3391 3407 0
-87 -3391 3392 0
-3392 3408 0
-88 -3392 3393 0
-3393 3409 0
-89 -3393 3394 0
-3394 3410 0
-90 -3394 3395 0
-3395 3411 0
-91 -3395 3396 0
-3396 3412 0
-92 -3396 3397 0
-3397 3413 0
-93 -3397 3398 0
-3398 3414 0
-94 -3398 3399 0
-3399 3415 0
-95 -3399 3400 0
-3400 3416 0
-96 -3400 0
-81 3401 0
-3401 3417 0
-82 -3401 3402 0
-3402 3418 0
-83 -3402 3403 0
-3403 3419 0
-84 -3403 3404 0
-3404 3420 0
-85 -3404 3405 0
-3405 3421 0
-86 -3405 3406 0
-3406 3422 0
-87 -3406 3407 0
-3407 3423 0
-88 -3407 3408 0
-3408 3424 0
-89 -3408 3409 0
-3409 3425 0
-90 -3409 3410 0
-3410 3426 0
-91 -3410 3411 0
-3411 3427 0
-92 -3411 3412 0
-3412 3428 0
-93 -3412 3413 0
-3413 3429 0
-94 -3413 3414 0
-3414 3430 0
-95 -3414 3415 0
-3415 3431 0
-96 -3415 3416 0
-3416 3432 0
-97 -3416 0
-82 3417 0
-3417 3433 0
-83 -3417 3418 0
-3418 3434 0
-84 -3418 3419 0
-3419 3435 0
-85 -3419 3420 0
-3420 3436 0
-86 -3420 3421 0
-3421 3437 0
-87 -3421 3422 0
-3422 3438 0
-88 -3422 3423 0
-3423 3439 0
-89 -3423 3424 0
-3424 3440 0
-90 -3424 3425 0
-3425 3441 0
-91 -3425 3426 0
-3426 3442 0
-92 -3426 3427 0
-3427 3443 0
-93 -3427 3428 0
-3428 3444 0
-94 -3428 3429 0
-3429 3445 0
-95 -3429 3430 0
-3430 3446 0
-96 -3430 3431 0
-3431 3447 0
-97 -3431 3432 0
-3432 3448 0
-98 -3432 0
-83 3433 0
-3433 3449 0
-84 -3433 3434 0
-3434 3450 0
-85 -3434 3435 0
-3435 3451 0
-86 -3435 3436 0
-3436 3452 0
-87 -3436 3437 0
-3437 3453 0
-88 -3437 3438 0
-3438 3454 0
-89 -3438 3439 0
-3439 3455 0
-90 -3439 3440 0
-3440 3456 0
-91 -3440 3441 0
-3441 3457 0
-92 -3441 3442 0
-3442 3458 0
-93 -3442 3443 0
-3443 3459 0
-94 -3443 3444 0
-3444 3460 0
-95 -3444 3445 0
-3445 3461 0
-96 -3445 3446 0
-3446 3462 0
-97 -3446 3447 0
-3447 3463 0
-98 -3447 3448 0
-3448 3464 0
-99 -3448 0
-84 3449 0
-3449 3465 0
-85 -3449 3450 0
-3450 3466 0
-86 -3450 3451 0
-3451 3467 0
-87 -3451 3452 0
-3452 3468 0
-88 -3452 3453 0
-3453 3469 0
-89 -3453 3454 0
-3454 3470 0
-90 -3454 3455 0
-3455 3471 0
-91 -3455 3456 0
-3456 3472 0
-92 -3456 3457 0
-3457 3473 0
-93 -3457 3458 0
-3458 3474 0
-94 -3458 3459 0
-3459 3475 0
-95 -3459 3460 0
-3460 3476 0
-96 -3460 3461 0
-3461 3477 0
-97 -3461 3462 0
-3462 3478 0
-98 -3462 3463 0
-3463 3479 0
-99 -3463 3464 0
-3464 3480 0
-100 -3464 0
-85 3465 0
-3465 3481 0
-86 -3465 3466 0
-3466 3482 0
-87 -3466 3467 0
-3467 3483 0
-88 -3467 3468 0
-3468 3484 0
-89 -3468 3469 0
-3469 3485 0
-90 -3469 3470 0
-3470 3486 0
-91 -3470 3471 0
-3471 3487 0
-92 -3471 3472 0
-3472 3488 0
-93 -3472 3473 0
-3473 3489 0
-94 -3473 3474 0
-3474 3490 0
-95 -3474 3475 0
-3475 3491 0
-96 -3475 3476 0
-3476 3492 0
-97 -3476 3477 0
-3477 3493 0
-98 -3477 3478 0
-3478 3494 0
-99 -3478 3479 0
-3479 3495 0
-100 -3479 3480 0
-3480 3496 0
-101 -3480 0
-86 3481 0
-3481 3497 0
-87 -3481 3482 0
-3482 3498 0
-88 -3482 3483 0
-3483 3499 0
-89 -3483 3484 0
-3484 3500 0
-90 -3484 3485 0
-3485 3501 0
-91 -3485 3486 0
-3486 3502 0
-92 -3486 3487 0
-3487 3503 0
-93 -3487 3488 0
-3488 3504 0
-94 -3488 3489 0
-3489 3505 0
-95 -3489 3490 0
-3490 3506 0
-96 -3490 3491 0
-3491 3507 0
-97 -3491 3492 0
-3492 3508 0
-98 -3492 3493 0
-3493 3509 0
-99 -3493 3494 0
-3494 3510 0
-100 -3494 3495 0
-3495 3511 0
-101 -3495 3496 0
-3496 3512 0
-102 -3496 0
-87 3497 0
-3497 3513 0
-88 -3497 3498 0
-3498 3514 0
-89 -3498 3499 0
-3499 3515 0
-90 -3499 3500 0
-3500 3516 0
-91 -3500 3501 0
-3501 3517 0
-92 -3501 3502 0
-3502 3518 0
-93 -3502 3503 0
-3503 3519 0
-94 -3503 3504 0
-3504 3520 0
-95 -3504 3505 0
-3505 3521 0
-96 -3505 3506 0
-3506 3522 0
-97 -3506 3507 0
-3507 3523 0
-98 -3507 3508 0
-3508 3524 0
-99 -3508 3509 0
-3509 3525 0
-100 -3509 3510 0
-3510 3526 0
-101 -3510 3511 0
-3511 3527 0
-102 -3511 3512 0
-3512 3528 0
-103 -3512 0
-88 3513 0
-3513 3529 0
-89 -3513 3514 0
-3514 3530 0
-90 -3514 3515 0
-3515 3531 0
-91 -3515 3516 0
-3516 3532 0
-92 -3516 3517 0
-3517 3533 0
-93 -3517 3518 0
-3518 3534 0
-94 -3518 3519 0
-3519 3535 0
-95 -3519 3520 0
-3520 3536 0
-96 -3520 3521 0
-3521 3537 0
-97 -3521 3522 0
-3522 3538 0
-98 -3522 3523 0
-3523 3539 0
-99 -3523 3524 0
-3524 3540 0
-100 -3524 3525 0
-3525 3541 0
-101 -3525 3526 0
-3526 3542 0
-102 -3526 3527 0
-3527 3543 0
-103 -3527 3528 0
-3528 3544 0
-104 -3528 0
-89 3529 0
-3529 3545 0
-90 -3529 3530 0
-3530 3546 0
-91 -3530 3531 0
-3531 3547 0
-92 -3531 3532 0
-3532 3548 0
-93 -3532 3533 0
-3533 3549 0
-94 -3533 3534 0
-3534 3550 0
-95 -3534 3535 0
-3535 3551 0
-96 -3535 3536 0
-3536 3552 0
-97 -3536 3537 0
-3537 3553 0
-98 -3537 3538 0
-3538 3554 0
-99 -3538 3539 0
-3539 3555 0
-100 -3539 3540 0
-3540 3556 0
-101 -3540 3541 0
-3541 3557 0
-102 -3541 3542 0
-3542 3558 0
-103 -3542 3543 0
-3543 3559 0
-104 -3543 3544 0
-3544 3560 0
-105 -3544 0
-90 3545 0
-3545 3561 0
-91 -3545 3546 0
-3546 3562 0
-92 -3546 3547 0
-3547 3563 0
-93 -3547 3548 0
-3548 3564 0
-94 -3548 3549 0
-3549 3565 0
-95 -3549 3550 0
-3550 3566 0
-96 -3550 3551 0
-3551 3567 0
-97 -3551 3552 0
-3552 3568 0
-98 -3552 3553 0
-3553 3569 0
-99 -3553 3554 0
-3554 3570 0
-100 -3554 3555 0
-3555 3571 0
-101 -3555 3556 0
-3556 3572 0
-102 -3556 3557 0
-3557 3573 0
-103 -3557 3558 0
-3558 3574 0
-104 -3558 3559 0
-3559 3575 0
-105 -3559 3560 0
-3560 3576 0
-106 -3560 0
-91 3561 0
-3561 3577 0
-92 -3561 3562 0
-3562 3578 0
-93 -3562 3563 0
-3563 3579 0
-94 -3563 3564 0
-3564 3580 0
-95 -3564 3565 0
-3565 3581 0
-96 -3565 3566 0
-3566 3582 0
-97 -3566 3567 0
-3567 3583 0
-98 -3567 3568 0
-3568 3584 0
-99 -3568 3569 0
-3569 3585 0
-100 -3569 3570 0
-3570 3586 0
-101 -3570 3571 0
-3571 3587 0
-102 -3571 3572 0
-3572 3588 0
-103 -3572 3573 0
-3573 3589 0
-104 -3573 3574 0
-3574 3590 0
-105 -3574 3575 0
-3575 3591 0
-106 -3575 3576 0
-3576 3592 0
-107 -3576 0
-92 3577 0
-3577 3593 0
-93 -3577 3578 0
-3578 3594 0
-94 -3578 3579 0
-3579 3595 0
-95 -3579 3580 0
-3580 3596 0
-96 -3580 3581 0
-3581 3597 0
-97 -3581 3582 0
-3582 3598 0
-98 -3582 3583 0
-3583 3599 0
-99 -3583 3584 0
-3584 3600 0
-100 -3584 3585 0
-3585 3601 0
-101 -3585 3586 0
-3586 3602 0
-102 -3586 3587 0
-3587 3603 0
-103 -3587 3588 0
-3588 3604 0
-104 -3588 3589 0
-3589 3605 0
-105 -3589 3590 0
-3590 3606 0
-106 -3590 3591 0
-3591 3607 0
-107 -3591 3592 0
-3592 3608 0
-108 -3592 0
-93 3593 0
-3593 3609 0
-94 -3593 3594 0
-3594 3610 0
-95 -3594 3595 0
-3595 3611 0
-96 -3595 3596 0
-3596 3612 0
-97 -3596 3597 0
-3597 3613 0
-98 -3597 3598 0
-3598 3614 0
-99 -3598 3599 0
-3599 3615 0
-100 -3599 3600 0
-3600 3616 0
-101 -3600 3601 0
-3601 3617 0
-102 -3601 3602 0
-3602 3618 0
-103 -3602 3603 0
-3603 3619 0
-104 -3603 3604 0
-3604 3620 0
-105 -3604 3605 0
-3605 3621 0
-106 -3605 3606 0
-3606 3622 0
-107 -3606 3607 0
-3607 3623 0
-108 -3607 3608 0
-3608 3624 0
-109 -3608 0
-94 3609 0
-3609 3625 0
-95 -3609 3610 0
-3610 3626 0
-96 -3610 3611 0
-3611 3627 0
-97 -3611 3612 0
-3612 3628 0
-98 -3612 3613 0
-3613 3629 0
-99 -3613 3614 0
-3614 3630 0
-100 -3614 3615 0
-3615 3631 0
-101 -3615 3616 0
-3616 3632 0
-102 -3616 3617 0
-3617 3633 0
-103 -3617 3618 0
-3618 3634 0
-104 -3618 3619 0
-3619 3635 0
-105 -3619 3620 0
-3620 3636 0
-106 -3620 3621 0
-3621 3637 0
-107 -3621 3622 0
-3622 3638 0
-108 -3622 3623 0
-3623 3639 0
-109 -3623 3624 0
-3624 3640 0
-110 -3624 0
-95 3625 0
-3625 3641 0
-96 -3625 3626 0
-3626 3642 0
-97 -3626 3627 0
-3627 3643 0
-98 -3627 3628 0
-3628 3644 0
-99 -3628 3629 0
-3629 3645 0
-100 -3629 3630 0
-3630 3646 0
-101 -3630 3631 0
-3631 3647 0
-102 -3631 3632 0
-3632 3648 0
-103 -3632 3633 0
-3633 3649 0
-104 -3633 3634 0
-3634 3650 0
-105 -3634 3635 0
-3635 3651 0
-106 -3635 3636 0
-3636 3652 0
-107 -3636 3637 0
-3637 3653 0
-108 -3637 3638 0
-3638 3654 0
-109 -3638 3639 0
-3639 3655 0
-110 -3639 3640 0
-3640 3656 0
-111 -3640 0
-96 3641 0
-3641 3657 0
-97 -3641 3642 0
-3642 3658 0
-98 -3642 3643 0
-3643 3659 0
-99 -3643 3644 0
-3644 3660 0
-100 -3644 3645 0
-3645 3661 0
-101 -3645 3646 0
-3646 3662 0
-102 -3646 3647 0
-3647 3663 0
-103 -3647 3648 0
-3648 3664 0
-104 -3648 3649 0
-3649 3665 0
-105 -3649 3650 0
-3650 3666 0
-106 -3650 3651 0
-3651 3667 0
-107 -3651 3652 0
-3652 3668 0
-108 -3652 3653 0
-3653 3669 0
-109 -3653 3654 0
-3654 3670 0
-110 -3654 3655 0
-3655 3671 0
-111 -3655 3656 0
-3656 3672 0
-112 -3656 0
-97 3657 0
-3657 3673 0
-98 -3657 3658 0
-3658 3674 0
-99 -3658 3659 0
-3659 3675 0
-100 -3659 3660 0
-3660 3676 0
-101 -3660 3661 0
-3661 3677 0
-102 -3661 3662 0
-3662 3678 0
-103 -3662 3663 0
-3663 3679 0
-104 -3663 3664 0
-3664 3680 0
-105 -3664 3665 0
-3665 3681 0
-106 -3665 3666 0
-3666 3682 0
-107 -3666 3667 0
-3667 3683 0
-108 -3667 3668 0
-3668 3684 0
-109 -3668 3669 0
-3669 3685 0
-110 -3669 3670 0
-3670 3686 0
-111 -3670 3671 0
-3671 3687 0
-112 -3671 3672 0
-3672 3688 0
-113 -3672 0
-98 3673 0
-3673 3689 0
-99 -3673 3674 0
-3674 3690 0
-100 -3674 3675 0
-3675 3691 0
-101 -3675 3676 0
-3676 3692 0
-102 -3676 3677 0
-3677 3693 0
-103 -3677 3678 0
-3678 3694 0
-104 -3678 3679 0
-3679 3695 0
-105 -3679 3680 0
-3680 3696 0
-106 -3680 3681 0
-3681 3697 0
-107 -3681 3682 0
-3682 3698 0
-108 -3682 3683 0
-3683 3699 0
-109 -3683 3684 0
-3684 3700 0
-110 -3684 3685 0
-3685 3701 0
-111 -3685 3686 0
-3686 3702 0
-112 -3686 3687 0
-3687 3703 0
-113 -3687 3688 0
-3688 3704 0
-114 -3688 0
-99 3689 0
-3689 3705 0
-100 -3689 3690 0
-3690 3706 0
-101 -3690 3691 0
-3691 3707 0
-102 -3691 3692 0
-3692 3708 0
-103 -3692 3693 0
-3693 3709 0
-104 -3693 3694 0
-3694 3710 0
-105 -3694 3695 0
-3695 3711 0
-106 -3695 3696 0
-3696 3712 0
-107 -3696 3697 0
-3697 3713 0
-108 -3697 3698 0
-3698 3714 0
-109 -3698 3699 0
-3699 3715 0
-110 -3699 3700 0
-3700 3716 0
-111 -3700 3701 0
-3701 3717 0
-112 -3701 3702 0
-3702 3718 0
-113 -3702 3703 0
-3703 3719 0
-114 -3703 3704 0
-3704 3720 0
-115 -3704 0
-100 3705 0
-3705 3721 0
-101 -3705 3706 0
-3706 3722 0
-102 -3706 3707 0
-3707 3723 0
-103 -3707 3708 0
-3708 3724 0
-104 -3708 3709 0
-3709 3725 0
-105 -3709 3710 0
-3710 3726 0
-106 -3710 3711 0
-3711 3727 0
-107 -3711 3712 0
-3712 3728 0
-108 -3712 3713 0
-3713 3729 0
-109 -3713 3714 0
-3714 3730 0
-110 -3714 3715 0
-3715 3731 0
-111 -3715 3716 0
-3716 3732 0
-112 -3716 3717 0
-3717 3733 0
-113 -3717 3718 0
-3718 3734 0
-114 -3718 3719 0
-3719 3735 0
-115 -3719 3720 0
-3720 3736 0
-116 -3720 0
-101 3721 0
-3721 3737 0
-102 -3721 3722 0
-3722 3738 0
-103 -3722 3723 0
-3723 3739 0
-104 -3723 3724 0
-3724 3740 0
-105 -3724 3725 0
-3725 3741 0
-106 -3725 3726 0
-3726 3742 0
-107 -3726 3727 0
-3727 3743 0
-108 -3727 3728 0
-3728 3744 0
-109 -3728 3729 0
-3729 3745 0
-110 -3729 3730 0
-3730 3746 0
-111 -3730 3731 0
-3731 3747 0
-112 -3731 3732 0
-3732 3748 0
-113 -3732 3733 0
-3733 3749 0
-114 -3733 3734 0
-3734 3750 0
-115 -3734 3735 0
-3735 3751 0
-116 -3735 3736 0
-3736 3752 0
-117 -3736 0
-102 3737 0
-3737 3753 0
-103 -3737 3738 0
-3738 3754 0
-104 -3738 3739 0
-3739 3755 0
-105 -3739 3740 0
-3740 3756 0
-106 -3740 3741 0
-3741 3757 0
-107 -3741 3742 0
-3742 3758 0
-108 -3742 3743 0
-3743 3759 0
-109 -3743 3744 0
-3744 3760 0
-110 -3744 3745 0
-3745 3761 0
-111 -3745 3746 0
-3746 3762 0
-112 -3746 3747 0
-3747 3763 0
-113 -3747 3748 0
-3748 3764 0
-114 -3748 3749 0
-3749 3765 0
-115 -3749 3750 0
-3750 3766 0
-116 -3750 3751 0
-3751 3767 0
-117 -3751 3752 0
-3752 3768 0
-118 -3752 0
-103 3753 0
-3753 3769 0
-104 -3753 3754 0
-3754 3770 0
-105 -3754 3755 0
-3755 3771 0
-106 -3755 3756 0
-3756 3772 0
-107 -3756 3757 0
-3757 3773 0
-108 -3757 3758 0
-3758 3774 0
-109 -3758 3759 0
-3759 3775 0
-110 -3759 3760 0
-3760 3776 0
-111 -3760 3761 0
-3761 3777 0
-112 -3761 3762 0
-3762 3778 0
-113 -3762 3763 0
-3763 3779 0
-114 -3763 3764 0
-3764 3780 0
-115 -3764 3765 0
-3765 3781 0
-116 -3765 3766 0
-3766 3782 0
-117 -3766 3767 0
-3767 3783 0
-118 -3767 3768 0
-3768 3784 0
-119 -3768 0
-104 3769 0
-3769 3785 0
-105 -3769 3770 0
-3770 3786 0
-106 -3770 3771 0
-3771 3787 0
-107 -3771 3772 0
-3772 3788 0
-108 -3772 3773 0
-3773 3789 0
-109 -3773 3774 0
-3774 3790 0
-110 -3774 3775 0
-3775 3791 0
-111 -3775 3776 0
-3776 3792 0
-112 -3776 3777 0
-3777 3793 0
-113 -3777 3778 0
-3778 3794 0
-114 -3778 3779 0
-3779 3795 0
-115 -3779 3780 0
-3780 3796 0
-116 -3780 3781 0
-3781 3797 0
-117 -3781 3782 0
-3782 3798 0
-118 -3782 3783 0
-3783 3799 0
-119 -3783 3784 0
-3784 3800 0
-120 -3784 0
-105 3785 0
-3785 3801 0
-106 -3785 3786 0
-3786 3802 0
-107 -3786 3787 0
-3787 3803 0
-108 -3787 3788 0
-3788 3804 0
-109 -3788 3789 0
-3789 3805 0
-110 -3789 3790 0
-3790 3806 0
-111 -3790 3791 0
-3791 3807 0
-112 -3791 3792 0
-3792 3808 0
-113 -3792 3793 0
-3793 3809 0
-114 -3793 3794 0
-3794 3810 0
-115 -3794 3795 0
-3795 3811 0
-116 -3795 3796 0
-3796 3812 0
-117 -3796 3797 0
-3797 3813 0
-118 -3797 3798 0
-3798 3814 0
-119 -3798 3799 0
-3799 3815 0
-120 -3799 3800 0
-3800 3816 0
-121 -3800 0
-106 3801 0
-3801 3817 0
-107 -3801 3802 0
-3802 3818 0
-108 -3802 3803 0
-3803 3819 0
-109 -3803 3804 0
-3804 3820 0
-110 -3804 3805 0
-3805 3821 0
-111 -3805 3806 0
-3806 3822 0
-112 -3806 3807 0
-3807 3823 0
-113 -3807 3808 0
-3808 3824 0
-114 -3808 3809 0
-3809 3825 0
-115 -3809 3810 0
-3810 3826 0
-116 -3810 3811 0
-3811 3827 0
-117 -3811 3812 0
-3812 3828 0
-118 -3812 3813 0
-3813 3829 0
-119 -3813 3814 0
-3814 3830 0
-120 -3814 3815 0
-3815 3831 0
-121 -3815 3816 0
-3816 3832 0
-122 -3816 0
-107 3817 0
-3817 3833 0
-108 -3817 3818 0
-3818 3834 0
-109 -3818 3819 0
-3819 3835 0
-110 -3819 3820 0
-3820 3836 0
-111 -3820 3821 0
-3821 3837 0
-112 -3821 3822 0
-3822 3838 0
-113 -3822 3823 0
-3823 3839 0
-114 -3823 3824 0
-3824 3840 0
-115 -3824 3825 0
-3825 3841 0
-116 -3825 3826 0
-3826 3842 0
-117 -3826 3827 0
-3827 3843 0
-118 -3827 3828 0
-3828 3844 0
-119 -3828 3829 0
-3829 3845 0
-120 -3829 3830 0
-3830 3846 0
-121 -3830 3831 0
-3831 3847 0
-122 -3831 3832 0
-3832 3848 0
-123 -3832 0
-108 3833 0
-3833 3849 0
-109 -3833 3834 0
-3834 3850 0
-110 -3834 3835 0
-3835 3851 0
-111 -3835 3836 0
-3836 3852 0
-112 -3836 3837 0
-3837 3853 0
-113 -3837 3838 0
-3838 3854 0
-114 -3838 3839 0
-3839 3855 0
-115 -3839 3840 0
-3840 3856 0
-116 -3840 3841 0
-3841 3857 0
-117 -3841 3842 0
-3842 3858 0
-118 -3842 3843 0
-3843 3859 0
-119 -3843 3844 0
-3844 3860 0
-120 -3844 3845 0
-3845 3861 0
-121 -3845 3846 0
-3846 3862 0
-122 -3846 3847 0
-3847 3863 0
-123 -3847 3848 0
-3848 3864 0
-124 -3848 0
-109 3849 0
-3849 3865 0
-110 -3849 3850 0
-3850 3866 0
-111 -3850 3851 0
-3851 3867 0
-112 -3851 3852 0
-3852 3868 0
-113 -3852 3853 0
-3853 3869 0
-114 -3853 3854 0
-3854 3870 0
-115 -3854 3855 0
-3855 3871 0
-116 -3855 3856 0
-3856 3872 0
-117 -3856 3857 0
-3857 3873 0
-118 -3857 3858 0
-3858 3874 0
-119 -3858 3859 0
-3859 3875 0
-120 -3859 3860 0
-3860 3876 0
-121 -3860 3861 0
-3861 3877 0
-122 -3861 3862 0
-3862 3878 0
-123 -3862 3863 0
-3863 3879 0
-124 -3863 3864 0
-3864 3880 0
-125 -3864 0
-110 3865 0
-3865 3881 0
-111 -3865 3866 0
-3866 3882 0
-112 -3866 3867 0
-3867 3883 0
-113 -3867 3868 0
-3868 3884 0
-114 -3868 3869 0
-3869 3885 0
-115 -3869 3870 0
-3870 3886 0
-116 -3870 3871 0
-3871 3887 0
-117 -3871 3872 0
-3872 3888 0
-118 -3872 3873 0
-3873 3889 0
-119 -3873 3874 0
-3874 3890 0
-120 -3874 3875 0
-3875 3891 0
-121 -3875 3876 0
-3876 3892 0
-122 -3876 3877 0
-3877 3893 0
-123 -3877 3878 0
-3878 3894 0
-124 -3878 3879 0
-3879 3895 0
-125 -3879 3880 0
-3880 3896 0
-126 -3880 0
-111 3881 0
-3881 3897 0
-112 -3881 3882 0
-3882 3898 0
-113 -3882 3883 0
-3883 3899 0
-114 -3883 3884 0
-3884 3900 0
-115 -3884 3885 0
-3885 3901 0
-116 -3885 3886 0
-3886 3902 0
-117 -3886 3887 0
-3887 3903 0
-118 -3887 3888 0
-3888 3904 0
-119 -3888 3889 0
-3889 3905 0
-120 -3889 3890 0
-3890 3906 0
-121 -3890 3891 0
-3891 3907 0
-122 -3891 3892 0
-3892 3908 0
-123 -3892 3893 0
-3893 3909 0
-124 -3893 3894 0
-3894 3910 0
-125 -3894 3895 0
-3895 3911 0
-126 -3895 3896 0
-3896 3912 0
-127 -3896 0
-112 3897 0
-3897 3913 0
-113 -3897 3898 0
-3898 3914 0
-114 -3898 3899 0
-3899 3915 0
-115 -3899 3900 0
-3900 3916 0
-116 -3900 3901 0
-3901 3917 0
-117 -3901 3902 0
-3902 3918 0
-118 -3902 3903 0
-3903 3919 0
-119 -3903 3904 0
-3904 3920 0
-120 -3904 3905 0
-3905 3921 0
-121 -3905 3906 0
-3906 3922 0
-122 -3906 3907 0
-3907 3923 0
-123 -3907 3908 0
-3908 3924 0
-124 -3908 3909 0
-3909 3925 0
-125 -3909 3910 0
-3910 3926 0
-126 -3910 3911 0
-3911 3927 0
-127 -3911 3912 0
-3912 3928 0
-128 -3912 0
-113 3913 0
-3913 3929 0
-114 -3913 3914 0
-3914 3930 0
-115 -3914 3915 0
-3915 3931 0
-116 -3915 3916 0
-3916 3932 0
-117 -3916 3917 0
-3917 3933 0
-118 -3917 3918 0
-3918 3934 0
-119 -3918 3919 0
-3919 3935 0
-120 -3919 3920 0
-3920 3936 0
-121 -3920 3921 0
-3921 3937 0
-122 -3921 3922 0
-3922 3938 0
-123 -3922 3923 0
-3923 3939 0
-124 -3923 3924 0
-3924 3940 0
-125 -3924 3925 0
-3925 3941 0
-126 -3925 3926 0
-3926 3942 0
-127 -3926 3927 0
-3927 3943 0
-128 -3927 3928 0
-3928 3944 0
-129 -3928 0
-114 3929 0
-3929 3945 0
-115 -3929 3930 0
-3930 3946 0
-116 -3930 3931 0
-3931 3947 0
-117 -3931 3932 0
-3932 3948 0
-118 -3932 3933 0
-3933 3949 0
-119 -3933 3934 0
-3934 3950 0
-120 -3934 3935 0
-3935 3951 0
-121 -3935 3936 0
-3936 3952 0
-122 -3936 3937 0
-3937 3953 0
-123 -3937 3938 0
-3938 3954 0
-124 -3938 3939 0
-3939 3955 0
-125 -3939 3940 0
-3940 3956 0
-126 -3940 3941 0
-3941 3957 0
-127 -3941 3942 0
-3942 3958 0
-128 -3942 3943 0
-3943 3959 0
-129 -3943 3944 0
-3944 3960 0
-130 -3944 0
-115 3945 0
-3945 3961 0
-116 -3945 3946 0
-3946 3962 0
-117 -3946 3947 0
-3947 3963 0
-118 -3947 3948 0
-3948 3964 0
-119 -3948 3949 0
-3949 3965 0
-120 -3949 3950 0
-3950 3966 0
-121 -3950 3951 0
-3951 3967 0
-122 -3951 3952 0
-3952 3968 0
-123 -3952 3953 0
-3953 3969 0
-124 -3953 3954 0
-3954 3970 0
-125 -3954 3955 0
-3955 3971 0
-126 -3955 3956 0
-3956 3972 0
-127 -3956 3957 0
-3957 3973 0
-128 -3957 3958 0
-3958 3974 0
-129 -3958 3959 0
-3959 3975 0
-130 -3959 3960 0
-3960 3976 0
-131 -3960 0
-116 3961 0
-117 -3961 3962 0
-118 -3962 3963 0
-119 -3963 3964 0
-120 -3964 3965 0
-121 -3965 3966 0
-122 -3966 3967 0
-123 -3967 3968 0
-124 -3968 3969 0
-125 -3969 3970 0
-126 -3970 3971 0
-127 -3971 3972 0
-128 -3972 3973 0
-129 -3973 3974 0
-130 -3974 3975 0
-131 -3975 3976 0
-132 -3976 0
-133 3977 0
-3977 3978 0
-134 -3977 3979 0
-3979 3980 0
-135 -3979 3981 0
-3981 3982 0
-136 -3981 3983 0
-3983 3984 0
-137 -3983 3985 0
-3985 3986 0
-138 -3985 3987 0
-3987 3988 0
-139 -3987 3989 0
-3989 3990 0
-140 -3989 3991 0
-3991 3992 0
-141 -3991 3993 0
-3993 3994 0
-142 -3993 0
-134 3978 0
-3978 3995 0
-135 -3978 3980 0
-3980 3996 0
-136 -3980 3982 0
-3982 3997 0
-137 -3982 3984 0
-3984 3998 0
-138 -3984 3986 0
-3986 3999 0
-139 -3986 3988 0
-3988 4000 0
-140 -3988 3990 0
-3990 4001 0
-141 -3990 3992 0
-3992 4002 0
-142 -3992 3994 0
-3994 4003 0
-143 -3994 0
-135 3995 0
-3995 4004 0
-136 -3995 3996 0
-3996 4005 0
-137 -3996 3997 0
-3997 4006 0
-138 -3997 3998 0
-3998 4007 0
-139 -3998 3999 0
-3999 4008 0
-140 -3999 4000 0
-4000 4009 0
-141 -4000 4001 0
-4001 4010 0
-142 -4001 4002 0
-4002 4011 0
-143 -4002 4003 0
-4003 4012 0
-144 -4003 0
-136 4004 0
-4004 4013 0
-137 -4004 4005 0
-4005 4014 0
-138 -4005 4006 0
-4006 4015 0
-139 -4006 4007 0
-4007 4016 0
-140 -4007 4008 0
-4008 4017 0
-141 -4008 4009 0
-4009 4018 0
-142 -4009 4010 0
-4010 4019 0
-143 -4010 4011 0
-4011 4020 0
-144 -4011 4012 0
-4012 4021 0
-145 -4012 0
-137 4013 0
-4013 4022 0
-138 -4013 4014 0
-4014 4023 0
-139 -4014 4015 0
-4015 4024 0
-140 -4015 4016 0
-4016 4025 0
-141 -4016 4017 0
-4017 4026 0
-142 -4017 4018 0
-4018 4027 0
-143 -4018 4019 0
-4019 4028 0
-144 -4019 4020 0
-4020 4029 0
-145 -4020 4021 0
-4021 4030 0
-146 -4021 0
-138 4022 0
-4022 4031 0
-139 -4022 4023 0
-4023 4032 0
-140 -4023 4024 0
-4024 4033 0
-141 -4024 4025 0
-4025 4034 0
-142 -4025 4026 0
-4026 4035 0
-143 -4026 4027 0
-4027 4036 0
-144 -4027 4028 0
-4028 4037 0
-145 -4028 4029 0
-4029 4038 0
-146 -4029 4030 0
-4030 4039 0
-147 -4030 0
-139 4031 0
-4031 4040 0
-140 -4031 4032 0
-4032 4041 0
-141 -4032 4033 0
-4033 4042 0
-142 -4033 4034 0
-4034 4043 0
-143 -4034 4035 0
-4035 4044 0
-144 -4035 4036 0
-4036 4045 0
-145 -4036 4037 0
-4037 4046 0
-146 -4037 4038 0
-4038 4047 0
-147 -4038 4039 0
-4039 4048 0
-148 -4039 0
-140 4040 0
-4040 4049 0
-141 -4040 4041 0
-4041 4050 0
-142 -4041 4042 0
-4042 4051 0
-143 -4042 4043 0
-4043 4052 0
-144 -4043 4044 0
-4044 4053 0
-145 -4044 4045 0
-4045 4054 0
-146 -4045 4046 0
-4046 4055 0
-147 -4046 4047 0
-4047 4056 0
-148 -4047 4048 0
-4048 4057 0
-149 -4048 0
-141 4049 0
-4049 4058 0
-142 -4049 4050 0
-4050 4059 0
-143 -4050 4051 0
-4051 4060 0
-144 -4051 4052 0
-4052 4061 0
-145 -4052 4053 0
-4053 4062 0
-146 -4053 4054 0
-4054 4063 0
-147 -4054 4055 0
-4055 4064 0
-148 -4055 4056 0
-4056 4065 0
-149 -4056 4057 0
-4057 4066 0
-150 -4057 0
-142 4058 0
-4058 4067 0
-143 -4058 4059 0
-4059 4068 0
-144 -4059 4060 0
-4060 4069 0
-145 -4060 4061 0
-4061 4070 0
-146 -4061 4062 0
-4062 4071 0
-147 -4062 4063 0
-4063 4072 0
-148 -4063 4064 0
-4064 4073 0
-149 -4064 4065 0
-4065 4074 0
-150 -4065 4066 0
-4066 4075 0
-151 -4066 0
-143 4067 0
-4067 4076 0
-144 -4067 4068 0
-4068 4077 0
-145 -4068 4069 0
-4069 4078 0
-146 -4069 4070 0
-4070 4079 0
-147 -4070 4071 0
-4071 4080 0
-148 -4071 4072 0
-4072 4081 0
-149 -4072 4073 0
-4073 4082 0
-150 -4073 4074 0
-4074 4083 0
-151 -4074 4075 0
-4075 4084 0
-152 -4075 0
-144 4076 0
-4076 4085 0
-145 -4076 4077 0
-4077 4086 0
-146 -4077 4078 0
-4078 4087 0
-147 -4078 4079 0
-4079 4088 0
-148 -4079 4080 0
-4080 4089 0
-149 -4080 4081 0
-4081 4090 0
-150 -4081 4082 0
-4082 4091 0
-151 -4082 4083 0
-4083 4092 0
-152 -4083 4084 0
-4084 4093 0
-153 -4084 0
-145 4085 0
-4085 4094 0
-146 -4085 4086 0
-4086 4095 0
-147 -4086 4087 0
-4087 4096 0
-148 -4087 4088 0
-4088 4097 0
-149 -4088 4089 0
-4089 4098 0
-150 -4089 4090 0
-4090 4099 0
-151 -4090 4091 0
-4091 4100 0
-152 -4091 4092 0
-4092 4101 0
-153 -4092 4093 0
-4093 4102 0
-154 -4093 0
-146 4094 0
-4094 4103 0
-147 -4094 4095 0
-4095 4104 0
-148 -4095 4096 0
-4096 4105 0
-149 -4096 4097 0
-4097 4106 0
-150 -4097 4098 0
-4098 4107 0
-151 -4098 4099 0
-4099 4108 0
-152 -4099 4100 0
-4100 4109 0
-153 -4100 4101 0
-4101 4110 0
-154 -4101 4102 0
-4102 4111 0
-155 -4102 0
-147 4103 0
-4103 4112 0
-148 -4103 4104 0
-4104 4113 0
-149 -4104 4105 0
-4105 4114 0
-150 -4105 4106 0
-4106 4115 0
-151 -4106 4107 0
-4107 4116 0
-152 -4107 4108 0
-4108 4117 0
-153 -4108 4109 0
-4109 4118 0
-154 -4109 4110 0
-4110 4119 0
-155 -4110 4111 0
-4111 4120 0
-156 -4111 0
-148 4112 0
-4112 4121 0
-149 -4112 4113 0
-4113 4122 0
-150 -4113 4114 0
-4114 4123 0
-151 -4114 4115 0
-4115 4124 0
-152 -4115 4116 0
-4116 4125 0
-153 -4116 4117 0
-4117 4126 0
-154 -4117 4118 0
-4118 4127 0
-155 -4118 4119 0
-4119 4128 0
-156 -4119 4120 0
-4120 4129 0
-157 -4120 0
-149 4121 0
-4121 4130 0
-150 -4121 4122 0
-4122 4131 0
-151 -4122 4123 0
-4123 4132 0
-152 -4123 4124 0
-4124 4133 0
-153 -4124 4125 0
-4125 4134 0
-154 -4125 4126 0
-4126 4135 0
-155 -4126 4127 0
-4127 4136 0
-156 -4127 4128 0
-4128 4137 0
-157 -4128 4129 0
-4129 4138 0
-158 -4129 0
-150 4130 0
-4130 4139 0
-151 -4130 4131 0
-4131 4140 0
-152 -4131 4132 0
-4132 4141 0
-153 -4132 4133 0
-4133 4142 0
-154 -4133 4134 0
-4134 4143 0
-155 -4134 4135 0
-4135 4144 0
-156 -4135 4136 0
-4136 4145 0
-157 -4136 4137 0
-4137 4146 0
-158 -4137 4138 0
-4138 4147 0
-159 -4138 0
-151 4139 0
-4139 4148 0
-152 -4139 4140 0
-4140 4149 0
-153 -4140 4141 0
-4141 4150 0
-154 -4141 4142 0
-4142 4151 0
-155 -4142 4143 0
-4143 4152 0
-156 -4143 4144 0
-4144 4153 0
-157 -4144 4145 0
-4145 4154 0
-158 -4145 4146 0
-4146 4155 0
-159 -4146 4147 0
-4147 4156 0
-160 -4147 0
-152 4148 0
-4148 4157 0
-153 -4148 4149 0
-4149 4158 0
-154 -4149 4150 0
-4150 4159 0
-155 -4150 4151 0
-4151 4160 0
-156 -4151 4152 0
-4152 4161 0
-157 -4152 4153 0
-4153 4162 0
-158 -4153 4154 0
-4154 4163 0
-159 -4154 4155 0
-4155 4164 0
-160 -4155 4156 0
-4156 4165 0
-161 -4156 0
-153 4157 0
-4157 4166 0
-154 -4157 4158 0
-4158 4167 0
-155 -4158 4159 0
-4159 4168 0
-156 -4159 4160 0
-4160 4169 0
-157 -4160 4161 0
-4161 4170 0
-158 -4161 4162 0
-4162 4171 0
-159 -4162 4163 0
-4163 4172 0
-160 -4163 4164 0
-4164 4173 0
-161 -4164 4165 0
-4165 4174 0
-162 -4165 0
-154 4166 0
-4166 4175 0
-155 -4166 4167 0
-4167 4176 0
-156 -4167 4168 0
-4168 4177 0
-157 -4168 4169 0
-4169 4178 0
-158 -4169 4170 0
-4170 4179 0
-159 -4170 4171 0
-4171 4180 0
-160 -4171 4172 0
-4172 4181 0
-161 -4172 4173 0
-4173 4182 0
-162 -4173 4174 0
-4174 4183 0
-163 -4174 0
-155 4175 0
-4175 4184 0
-156 -4175 4176 0
-4176 4185 0
-157 -4176 4177 0
-4177 4186 0
-158 -4177 4178 0
-4178 4187 0
-159 -4178 4179 0
-4179 4188 0
-160 -4179 4180 0
-4180 4189 0
-161 -4180 4181 0
-4181 4190 0
-162 -4181 4182 0
-4182 4191 0
-163 -4182 4183 0
-4183 4192 0
-164 -4183 0
-156 4184 0
-4184 4193 0
-157 -4184 4185 0
-4185 4194 0
-158 -4185 4186 0
-4186 4195 0
-159 -4186 4187 0
-4187 4196 0
-160 -4187 4188 0
-4188 4197 0
-161 -4188 4189 0
-4189 4198 0
-162 -4189 4190 0
-4190 4199 0
-163 -4190 4191 0
-4191 4200 0
-164 -4191 4192 0
-4192 4201 0
-165 -4192 0
-157 4193 0
-4193 4202 0
-158 -4193 4194 0
-4194 4203 0
-159 -4194 4195 0
-4195 4204 0
-160 -4195 4196 0
-4196 4205 0
-161 -4196 4197 0
-4197 4206 0
-162 -4197 4198 0
-4198 4207 0
-163 -4198 4199 0
-4199 4208 0
-164 -4199 4200 0
-4200 4209 0
-165 -4200 4201 0
-4201 4210 0
-166 -4201 0
-158 4202 0
-4202 4211 0
-159 -4202 4203 0
-4203 4212 0
-160 -4203 4204 0
-4204 4213 0
-161 -4204 4205 0
-4205 4214 0
-162 -4205 4206 0
-4206 4215 0
-163 -4206 4207 0
-4207 4216 0
-164 -4207 4208 0
-4208 4217 0
-165 -4208 4209 0
-4209 4218 0
-166 -4209 4210 0
-4210 4219 0
-167 -4210 0
-159 4211 0
-4211 4220 0
-160 -4211 4212 0
-4212 4221 0
-161 -4212 4213 0
-4213 4222 0
-162 -4213 4214 0
-4214 4223 0
-163 -4214 4215 0
-4215 4224 0
-164 -4215 4216 0
-4216 4225 0
-165 -4216 4217 0
-4217 4226 0
-166 -4217 4218 0
-4218 4227 0
-167 -4218 4219 0
-4219 4228 0
-168 -4219 0
-160 4220 0
-4220 4229 0
-161 -4220 4221 0
-4221 4230 0
-162 -4221 4222 0
-4222 4231 0
-163 -4222 4223 0
-4223 4232 0
-164 -4223 4224 0
-4224 4233 0
-165 -4224 4225 0
-4225 4234 0
-166 -4225 4226 0
-4226 4235 0
-167 -4226 4227 0
-4227 4236 0
-168 -4227 4228 0
-4228 4237 0
-169 -4228 0
-161 4229 0
-4229 4238 0
-162 -4229 4230 0
-4230 4239 0
-163 -4230 4231 0
-4231 4240 0
-164 -4231 4232 0
-4232 4241 0
-165 -4232 4233 0
-4233 4242 0
-166 -4233 4234 0
-4234 4243 0
-167 -4234 4235 0
-4235 4244 0
-168 -4235 4236 0
-4236 4245 0
-169 -4236 4237 0
-4237 4246 0
-170 -4237 0
-162 4238 0
-4238 4247 0
-163 -4238 4239 0
-4239 4248 0
-164 -4239 4240 0
-4240 4249 0
-165 -4240 4241 0
-4241 4250 0
-166 -4241 4242 0
-4242 4251 0
-167 -4242 4243 0
-4243 4252 0
-168 -4243 4244 0
-4244 4253 0
-169 -4244 4245 0
-4245 4254 0
-170 -4245 4246 0
-4246 4255 0
-171 -4246 0
-163 4247 0
-4247 4256 0
-164 -4247 4248 0
-4248 4257 0
-165 -4248 4249 0
-4249 4258 0
-166 -4249 4250 0
-4250 4259 0
-167 -4250 4251 0
-4251 4260 0
-168 -4251 4252 0
-4252 4261 0
-169 -4252 4253 0
-4253 4262 0
-170 -4253 4254 0
-4254 4263 0
-171 -4254 4255 0
-4255 4264 0
-172 -4255 0
-164 4256 0
-4256 4265 0
-165 -4256 4257 0
-4257 4266 0
-166 -4257 4258 0
-4258 4267 0
-167 -4258 4259 0
-4259 4268 0
-168 -4259 4260 0
-4260 4269 0
-169 -4260 4261 0
-4261 4270 0
-170 -4261 4262 0
-4262 4271 0
-171 -4262 4263 0
-4263 4272 0
-172 -4263 4264 0
-4264 4273 0
-173 -4264 0
-165 4265 0
-4265 4274 0
-166 -4265 4266 0
-4266 4275 0
-167 -4266 4267 0
-4267 4276 0
-168 -4267 4268 0
-4268 4277 0
-169 -4268 4269 0
-4269 4278 0
-170 -4269 4270 0
-4270 4279 0
-171 -4270 4271 0
-4271 4280 0
-172 -4271 4272 0
-4272 4281 0
-173 -4272 4273 0
-4273 4282 0
-174 -4273 0
-166 4274 0
-4274 4283 0
-167 -4274 4275 0
-4275 4284 0
-168 -4275 4276 0
-4276 4285 0
-169 -4276 4277 0
-4277 4286 0
-170 -4277 4278 0
-4278 4287 0
-171 -4278 4279 0
-4279 4288 0
-172 -4279 4280 0
-4280 4289 0
-173 -4280 4281 0
-4281 4290 0
-174 -4281 4282 0
-4282 4291 0
-175 -4282 0
-167 4283 0
-4283 4292 0
-168 -4283 4284 0
-4284 4293 0
-169 -4284 4285 0
-4285 4294 0
-170 -4285 4286 0
-4286 4295 0
-171 -4286 4287 0
-4287 4296 0
-172 -4287 4288 0
-4288 4297 0
-173 -4288 4289 0
-4289 4298 0
-174 -4289 4290 0
-4290 4299 0
-175 -4290 4291 0
-4291 4300 0
-176 -4291 0
-168 4292 0
-4292 4301 0
-169 -4292 4293 0
-4293 4302 0
-170 -4293 4294 0
-4294 4303 0
-171 -4294 4295 0
-4295 4304 0
-172 -4295 4296 0
-4296 4305 0
-173 -4296 4297 0
-4297 4306 0
-174 -4297 4298 0
-4298 4307 0
-175 -4298 4299 0
-4299 4308 0
-176 -4299 4300 0
-4300 4309 0
-177 -4300 0
-169 4301 0
-4301 4310 0
-170 -4301 4302 0
-4302 4311 0
-171 -4302 4303 0
-4303 4312 0
-172 -4303 4304 0
-4304 4313 0
-173 -4304 4305 0
-4305 4314 0
-174 -4305 4306 0
-4306 4315 0
-175 -4306 4307 0
-4307 4316 0
-176 -4307 4308 0
-4308 4317 0
-177 -4308 4309 0
-4309 4318 0
-178 -4309 0
-170 4310 0
-4310 4319 0
-171 -4310 4311 0
-4311 4320 0
-172 -4311 4312 0
-4312 4321 0
-173 -4312 4313 0
-4313 4322 0
-174 -4313 4314 0
-4314 4323 0
-175 -4314 4315 0
-4315 4324 0
-176 -4315 4316 0
-4316 4325 0
-177 -4316 4317 0
-4317 4326 0
-178 -4317 4318 0
-4318 4327 0
-179 -4318 0
-171 4319 0
-4319 4328 0
-172 -4319 4320 0
-4320 4329 0
-173 -4320 4321 0
-4321 4330 0
-174 -4321 4322 0
-4322 4331 0
-175 -4322 4323 0
-4323 4332 0
-176 -4323 4324 0
-4324 4333 0
-177 -4324 4325 0
-4325 4334 0
-178 -4325 4326 0
-4326 4335 0
-179 -4326 4327 0
-4327 4336 0
-180 -4327 0
-172 4328 0
-4328 4337 0
-173 -4328 4329 0
-4329 4338 0
-174 -4329 4330 0
-4330 4339 0
-175 -4330 4331 0
-4331 4340 0
-176 -4331 4332 0
-4332 4341 0
-177 -4332 4333 0
-4333 4342 0
-178 -4333 4334 0
-4334 4343 0
-179 -4334 4335 0
-4335 4344 0
-180 -4335 4336 0
-4336 4345 0
-181 -4336 0
-173 4337 0
-4337 4346 0
-174 -4337 4338 0
-4338 4347 0
-175 -4338 4339 0
-4339 4348 0
-176 -4339 4340 0
-4340 4349 0
-177 -4340 4341 0
-4341 4350 0
-178 -4341 4342 0
-4342 4351 0
-179 -4342 4343 0
-4343 4352 0
-180 -4343 4344 0
-4344 4353 0
-181 -4344 4345 0
-4345 4354 0
-182 -4345 0
-174 4346 0
-4346 4355 0
-175 -4346 4347 0
-4347 4356 0
-176 -4347 4348 0
-4348 4357 0
-177 -4348 4349 0
-4349 4358 0
-178 -4349 4350 0
-4350 4359 0
-179 -4350 4351 0
-4351 4360 0
-180 -4351 4352 0
-4352 4361 0
-181 -4352 4353 0
-4353 4362 0
-182 -4353 4354 0
-4354 4363 0
-183 -4354 0
-175 4355 0
-4355 4364 0
-176 -4355 4356 0
-4356 4365 0
-177 -4356 4357 0
-4357 4366 0
-178 -4357 4358 0
-4358 4367 0
-179 -4358 4359 0
-4359 4368 0
-180 -4359 4360 0
-4360 4369 0
-181 -4360 4361 0
-4361 4370 0
-182 -4361 4362 0
-4362 4371 0
-183 -4362 4363 0
-4363 4372 0
-184 -4363 0
-176 4364 0
-4364 4373 0
-177 -4364 4365 0
-4365 4374 0
-178 -4365 4366 0
-4366 4375 0
-179 -4366 4367 0
-4367 4376 0
-180 -4367 4368 0
-4368 4377 0
-181 -4368 4369 0
-4369 4378 0
-182 -4369 4370 0
-4370 4379 0
-183 -4370 4371 0
-4371 4380 0
-184 -4371 4372 0
-4372 4381 0
-185 -4372 0
-177 4373 0
-4373 4382 0
-178 -4373 4374 0
-4374 4383 0
-179 -4374 4375 0
-4375 4384 0
-180 -4375 4376 0
-4376 4385 0
-181 -4376 4377 0
-4377 4386 0
-182 -4377 4378 0
-4378 4387 0
-183 -4378 4379 0
-4379 4388 0
-184 -4379 4380 0
-4380 4389 0
-185 -4380 4381 0
-4381 4390 0
-186 -4381 0
-178 4382 0
-4382 4391 0
-179 -4382 4383 0
-4383 4392 0
-180 -4383 4384 0
-4384 4393 0
-181 -4384 4385 0
-4385 4394 0
-182 -4385 4386 0
-4386 4395 0
-183 -4386 4387 0
-4387 4396 0
-184 -4387 4388 0
-4388 4397 0
-185 -4388 4389 0
-4389 4398 0
-186 -4389 4390 0
-4390 4399 0
-187 -4390 0
-179 4391 0
-4391 4400 0
-180 -4391 4392 0
-4392 4401 0
-181 -4392 4393 0
-4393 4402 0
-182 -4393 4394 0
-4394 4403 0
-183 -4394 4395 0
-4395 4404 0
-184 -4395 4396 0
-4396 4405 0
-185 -4396 4397 0
-4397 4406 0
-186 -4397 4398 0
-4398 4407 0
-187 -4398 4399 0
-4399 4408 0
-188 -4399 0
-180 4400 0
-4400 4409 0
-181 -4400 4401 0
-4401 4410 0
-182 -4401 4402 0
-4402 4411 0
-183 -4402 4403 0
-4403 4412 0
-184 -4403 4404 0
-4404 4413 0
-185 -4404 4405 0
-4405 4414 0
-186 -4405 4406 0
-4406 4415 0
-187 -4406 4407 0
-4407 4416 0
-188 -4407 4408 0
-4408 4417 0
-189 -4408 0
-181 4409 0
-4409 4418 0
-182 -4409 4410 0
-4410 4419 0
-183 -4410 4411 0
-4411 4420 0
-184 -4411 4412 0
-4412 4421 0
-185 -4412 4413 0
-4413 4422 0
-186 -4413 4414 0
-4414 4423 0
-187 -4414 4415 0
-4415 4424 0
-188 -4415 4416 0
-4416 4425 0
-189 -4416 4417 0
-4417 4426 0
-190 -4417 0
-182 4418 0
-4418 4427 0
-183 -4418 4419 0
-4419 4428 0
-184 -4419 4420 0
-4420 4429 0
-185 -4420 4421 0
-4421 4430 0
-186 -4421 4422 0
-4422 4431 0
-187 -4422 4423 0
-4423 4432 0
-188 -4423 4424 0
-4424 4433 0
-189 -4424 4425 0
-4425 4434 0
-190 -4425 4426 0
-4426 4435 0
-191 -4426 0
-183 4427 0
-4427 4436 0
-184 -4427 4428 0
-4428 4437 0
-185 -4428 4429 0
-4429 4438 0
-186 -4429 4430 0
-4430 4439 0
-187 -4430 4431 0
-4431 4440 0
-188 -4431 4432 0
-4432 4441 0
-189 -4432 4433 0
-4433 4442 0
-190 -4433 4434 0
-4434 4443 0
-191 -4434 4435 0
-4435 4444 0
-192 -4435 0
-184 4436 0
-4436 4445 0
-185 -4436 4437 0
-4437 4446 0
-186 -4437 4438 0
-4438 4447 0
-187 -4438 4439 0
-4439 4448 0
-188 -4439 4440 0
-4440 4449 0
-189 -4440 4441 0
-4441 4450 0
-190 -4441 4442 0
-4442 4451 0
-191 -4442 4443 0
-4443 4452 0
-192 -4443 4444 0
-4444 4453 0
-193 -4444 0
-185 4445 0
-4445 4454 0
-186 -4445 4446 0
-4446 4455 0
-187 -4446 4447 0
-4447 4456 0
-188 -4447 4448 0
-4448 4457 0
-189 -4448 4449 0
-4449 4458 0
-190 -4449 4450 0
-4450 4459 0
-191 -4450 4451 0
-4451 4460 0
-192 -4451 4452 0
-4452 4461 0
-193 -4452 4453 0
-4453 4462 0
-194 -4453 0
-186 4454 0
-4454 4463 0
-187 -4454 4455 0
-4455 4464 0
-188 -4455 4456 0
-4456 4465 0
-189 -4456 4457 0
-4457 4466 0
-190 -4457 4458 0
-4458 4467 0
-191 -4458 4459 0
-4459 4468 0
-192 -4459 4460 0
-4460 4469 0
-193 -4460 4461 0
-4461 4470 0
-194 -4461 4462 0
-4462 4471 0
-195 -4462 0
-187 4463 0
-4463 4472 0
-188 -4463 4464 0
-4464 4473 0
-189 -4464 4465 0
-4465 4474 0
-190 -4465 4466 0
-4466 4475 0
-191 -4466 4467 0
-4467 4476 0
-192 -4467 4468 0
-4468 4477 0
-193 -4468 4469 0
-4469 4478 0
-194 -4469 4470 0
-4470 4479 0
-195 -4470 4471 0
-4471 4480 0
-196 -4471 0
-188 4472 0
-4472 4481 0
-189 -4472 4473 0
-4473 4482 0
-190 -4473 4474 0
-4474 4483 0
-191 -4474 4475 0
-4475 4484 0
-192 -4475 4476 0
-4476 4485 0
-193 -4476 4477 0
-4477 4486 0
-194 -4477 4478 0
-4478 4487 0
-195 -4478 4479 0
-4479 4488 0
-196 -4479 4480 0
-4480 4489 0
-197 -4480 0
-189 4481 0
-4481 4490 0
-190 -4481 4482 0
-4482 4491 0
-191 -4482 4483 0
-4483 4492 0
-192 -4483 4484 0
-4484 4493 0
-193 -4484 4485 0
-4485 4494 0
-194 -4485 4486 0
-4486 4495 0
-195 -4486 4487 0
-4487 4496 0
-196 -4487 4488 0
-4488 4497 0
-197 -4488 4489 0
-4489 4498 0
-198 -4489 0
-190 4490 0
-4490 4499 0
-191 -4490 4491 0
-4491 4500 0
-192 -4491 4492 0
-4492 4501 0
-193 -4492 4493 0
-4493 4502 0
-194 -4493 4494 0
-4494 4503 0
-195 -4494 4495 0
-4495 4504 0
-196 -4495 4496 0
-4496 4505 0
-197 -4496 4497 0
-4497 4506 0
-198 -4497 4498 0
-4498 4507 0
-199 -4498 0
-191 4499 0
-4499 4508 0
-192 -4499 4500 0
-4500 4509 0
-193 -4500 4501 0
-4501 4510 0
-194 -4501 4502 0
-4502 4511 0
-195 -4502 4503 0
-4503 4512 0
-196 -4503 4504 0
-4504 4513 0
-197 -4504 4505 0
-4505 4514 0
-198 -4505 4506 0
-4506 4515 0
-199 -4506 4507 0
-4507 4516 0
-200 -4507 0
-192 4508 0
-4508 4517 0
-193 -4508 4509 0
-4509 4518 0
-194 -4509 4510 0
-4510 4519 0
-195 -4510 4511 0
-4511 4520 0
-196 -4511 4512 0
-4512 4521 0
-197 -4512 4513 0
-4513 4522 0
-198 -4513 4514 0
-4514 4523 0
-199 -4514 4515 0
-4515 4524 0
-200 -4515 4516 0
-4516 4525 0
-201 -4516 0
-193 4517 0
-4517 4526 0
-194 -4517 4518 0
-4518 4527 0
-195 -4518 4519 0
-4519 4528 0
-196 -4519 4520 0
-4520 4529 0
-197 -4520 4521 0
-4521 4530 0
-198 -4521 4522 0
-4522 4531 0
-199 -4522 4523 0
-4523 4532 0
-200 -4523 4524 0
-4524 4533 0
-201 -4524 4525 0
-4525 4534 0
-202 -4525 0
-194 4526 0
-4526 4535 0
-195 -4526 4527 0
-4527 4536 0
-196 -4527 4528 0
-4528 4537 0
-197 -4528 4529 0
-4529 4538 0
-198 -4529 4530 0
-4530 4539 0
-199 -4530 4531 0
-4531 4540 0
-200 -4531 4532 0
-4532 4541 0
-201 -4532 4533 0
-4533 4542 0
-202 -4533 4534 0
-4534 4543 0
-203 -4534 0
-195 4535 0
-4535 4544 0
-196 -4535 4536 0
-4536 4545 0
-197 -4536 4537 0
-4537 4546 0
-198 -4537 4538 0
-4538 4547 0
-199 -4538 4539 0
-4539 4548 0
-200 -4539 4540 0
-4540 4549 0
-201 -4540 4541 0
-4541 4550 0
-202 -4541 4542 0
-4542 4551 0
-203 -4542 4543 0
-4543 4552 0
-204 -4543 0
-196 4544 0
-4544 4553 0
-197 -4544 4545 0
-4545 4554 0
-198 -4545 4546 0
-4546 4555 0
-199 -4546 4547 0
-4547 4556 0
-200 -4547 4548 0
-4548 4557 0
-201 -4548 4549 0
-4549 4558 0
-202 -4549 4550 0
-4550 4559 0
-203 -4550 4551 0
-4551 4560 0
-204 -4551 4552 0
-4552 4561 0
-205 -4552 0
-197 4553 0
-4553 4562 0
-198 -4553 4554 0
-4554 4563 0
-199 -4554 4555 0
-4555 4564 0
-200 -4555 4556 0
-4556 4565 0
-201 -4556 4557 0
-4557 4566 0
-202 -4557 4558 0
-4558 4567 0
-203 -4558 4559 0
-4559 4568 0
-204 -4559 4560 0
-4560 4569 0
-205 -4560 4561 0
-4561 4570 0
-206 -4561 0
-198 4562 0
-4562 4571 0
-199 -4562 4563 0
-4563 4572 0
-200 -4563 4564 0
-4564 4573 0
-201 -4564 4565 0
-4565 4574 0
-202 -4565 4566 0
-4566 4575 0
-203 -4566 4567 0
-4567 4576 0
-204 -4567 4568 0
-4568 4577 0
-205 -4568 4569 0
-4569 4578 0
-206 -4569 4570 0
-4570 4579 0
-207 -4570 0
-199 4571 0
-4571 4580 0
-200 -4571 4572 0
-4572 4581 0
-201 -4572 4573 0
-4573 4582 0
-202 -4573 4574 0
-4574 4583 0
-203 -4574 4575 0
-4575 4584 0
-204 -4575 4576 0
-4576 4585 0
-205 -4576 4577 0
-4577 4586 0
-206 -4577 4578 0
-4578 4587 0
-207 -4578 4579 0
-4579 4588 0
-208 -4579 0
-200 4580 0
-4580 4589 0
-201 -4580 4581 0
-4581 4590 0
-202 -4581 4582 0
-4582 4591 0
-203 -4582 4583 0
-4583 4592 0
-204 -4583 4584 0
-4584 4593 0
-205 -4584 4585 0
-4585 4594 0
-206 -4585 4586 0
-4586 4595 0
-207 -4586 4587 0
-4587 4596 0
-208 -4587 4588 0
-4588 4597 0
-209 -4588 0
-201 4589 0
-4589 4598 0
-202 -4589 4590 0
-4590 4599 0
-203 -4590 4591 0
-4591 4600 0
-204 -4591 4592 0
-4592 4601 0
-205 -4592 4593 0
-4593 4602 0
-206 -4593 4594 0
-4594 4603 0
-207 -4594 4595 0
-4595 4604 0
-208 -4595 4596 0
-4596 4605 0
-209 -4596 4597 0
-4597 4606 0
-210 -4597 0
-202 4598 0
-4598 4607 0
-203 -4598 4599 0
-4599 4608 0
-204 -4599 4600 0
-4600 4609 0
-205 -4600 4601 0
-4601 4610 0
-206 -4601 4602 0
-4602 4611 0
-207 -4602 4603 0
-4603 4612 0
-208 -4603 4604 0
-4604 4613 0
-209 -4604 4605 0
-4605 4614 0
-210 -4605 4606 0
-4606 4615 0
-211 -4606 0
-203 4607 0
-4607 4616 0
-204 -4607 4608 0
-4608 4617 0
-205 -4608 4609 0
-4609 4618 0
-206 -4609 4610 0
-4610 4619 0
-207 -4610 4611 0
-4611 4620 0
-208 -4611 4612 0
-4612 4621 0
-209 -4612 4613 0
-4613 4622 0
-210 -4613 4614 0
-4614 4623 0
-211 -4614 4615 0
-4615 4624 0
-212 -4615 0
-204 4616 0
-4616 4625 0
-205 -4616 4617 0
-4617 4626 0
-206 -4617 4618 0
-4618 4627 0
-207 -4618 4619 0
-4619 4628 0
-208 -4619 4620 0
-4620 4629 0
-209 -4620 4621 0
-4621 4630 0
-210 -4621 4622 0
-4622 4631 0
-211 -4622 4623 0
-4623 4632 0
-212 -4623 4624 0
-4624 4633 0
-213 -4624 0
-205 4625 0
-4625 4634 0
-206 -4625 4626 0
-4626 4635 0
-207 -4626 4627 0
-4627 4636 0
-208 -4627 4628 0
-4628 4637 0
-209 -4628 4629 0
-4629 4638 0
-210 -4629 4630 0
-4630 4639 0
-211 -4630 4631 0
-4631 4640 0
-212 -4631 4632 0
-4632 4641 0
-213 -4632 4633 0
-4633 4642 0
-214 -4633 0
-206 4634 0
-4634 4643 0
-207 -4634 4635 0
-4635 4644 0
-208 -4635 4636 0
-4636 4645 0
-209 -4636 4637 0
-4637 4646 0
-210 -4637 4638 0
-4638 4647 0
-211 -4638 4639 0
-4639 4648 0
-212 -4639 4640 0
-4640 4649 0
-213 -4640 4641 0
-4641 4650 0
-214 -4641 4642 0
-4642 4651 0
-215 -4642 0
-207 4643 0
-4643 4652 0
-208 -4643 4644 0
-4644 4653 0
-209 -4644 4645 0
-4645 4654 0
-210 -4645 4646 0
-4646 4655 0
-211 -4646 4647 0
-4647 4656 0
-212 -4647 4648 0
-4648 4657 0
-213 -4648 4649 0
-4649 4658 0
-214 -4649 4650 0
-4650 4659 0
-215 -4650 4651 0
-4651 4660 0
-216 -4651 0
-208 4652 0
-4652 4661 0
-209 -4652 4653 0
-4653 4662 0
-210 -4653 4654 0
-4654 4663 0
-211 -4654 4655 0
-4655 4664 0
-212 -4655 4656 0
-4656 4665 0
-213 -4656 4657 0
-4657 4666 0
-214 -4657 4658 0
-4658 4667 0
-215 -4658 4659 0
-4659 4668 0
-216 -4659 4660 0
-4660 4669 0
-217 -4660 0
-209 4661 0
-4661 4670 0
-210 -4661 4662 0
-4662 4671 0
-211 -4662 4663 0
-4663 4672 0
-212 -4663 4664 0
-4664 4673 0
-213 -4664 4665 0
-4665 4674 0
-214 -4665 4666 0
-4666 4675 0
-215 -4666 4667 0
-4667 4676 0
-216 -4667 4668 0
-4668 4677 0
-217 -4668 4669 0
-4669 4678 0
-218 -4669 0
-210 4670 0
-4670 4679 0
-211 -4670 4671 0
-4671 4680 0
-212 -4671 4672 0
-4672 4681 0
-213 -4672 4673 0
-4673 4682 0
-214 -4673 4674 0
-4674 4683 0
-215 -4674 4675 0
-4675 4684 0
-216 -4675 4676 0
-4676 4685 0
-217 -4676 4677 0
-4677 4686 0
-218 -4677 4678 0
-4678 4687 0
-219 -4678 0
-211 4679 0
-4679 4688 0
-212 -4679 4680 0
-4680 4689 0
-213 -4680 4681 0
-4681 4690 0
-214 -4681 4682 0
-4682 4691 0
-215 -4682 4683 0
-4683 4692 0
-216 -4683 4684 0
-4684 4693 0
-217 -4684 4685 0
-4685 4694 0
-218 -4685 4686 0
-4686 4695 0
-219 -4686 4687 0
-4687 4696 0
-220 -4687 0
-212 4688 0
-4688 4697 0
-213 -4688 4689 0
-4689 4698 0
-214 -4689 4690 0
-4690 4699 0
-215 -4690 4691 0
-4691 4700 0
-216 -4691 4692 0
-4692 4701 0
-217 -4692 4693 0
-4693 4702 0
-218 -4693 4694 0
-4694 4703 0
-219 -4694 4695 0
-4695 4704 0
-220 -4695 4696 0
-4696 4705 0
-221 -4696 0
-213 4697 0
-4697 4706 0
-214 -4697 4698 0
-4698 4707 0
-215 -4698 4699 0
-4699 4708 0
-216 -4699 4700 0
-4700 4709 0
-217 -4700 4701 0
-4701 4710 0
-218 -4701 4702 0
-4702 4711 0
-219 -4702 4703 0
-4703 4712 0
-220 -4703 4704 0
-4704 4713 0
-221 -4704 4705 0
-4705 4714 0
-222 -4705 0
-214 4706 0
-4706 4715 0
-215 -4706 4707 0
-4707 4716 0
-216 -4707 4708 0
-4708 4717 0
-217 -4708 4709 0
-4709 4718 0
-218 -4709 4710 0
-4710 4719 0
-219 -4710 4711 0
-4711 4720 0
-220 -4711 4712 0
-4712 4721 0
-221 -4712 4713 0
-4713 4722 0
-222 -4713 4714 0
-4714 4723 0
-223 -4714 0
-215 4715 0
-4715 4724 0
-216 -4715 4716 0
-4716 4725 0
-217 -4716 4717 0
-4717 4726 0
-218 -4717 4718 0
-4718 4727 0
-219 -4718 4719 0
-4719 4728 0
-220 -4719 4720 0
-4720 4729 0
-221 -4720 4721 0
-4721 4730 0
-222 -4721 4722 0
-4722 4731 0
-223 -4722 4723 0
-4723 4732 0
-224 -4723 0
-216 4724 0
-4724 4733 0
-217 -4724 4725 0
-4725 4734 0
-218 -4725 4726 0
-4726 4735 0
-219 -4726 4727 0
-4727 4736 0
-220 -4727 4728 0
-4728 4737 0
-221 -4728 4729 0
-4729 4738 0
-222 -4729 4730 0
-4730 4739 0
-223 -4730 4731 0
-4731 4740 0
-224 -4731 4732 0
-4732 4741 0
-225 -4732 0
-217 4733 0
-4733 4742 0
-218 -4733 4734 0
-4734 4743 0
-219 -4734 4735 0
-4735 4744 0
-220 -4735 4736 0
-4736 4745 0
-221 -4736 4737 0
-4737 4746 0
-222 -4737 4738 0
-4738 4747 0
-223 -4738 4739 0
-4739 4748 0
-224 -4739 4740 0
-4740 4749 0
-225 -4740 4741 0
-4741 4750 0
-226 -4741 0
-218 4742 0
-4742 4751 0
-219 -4742 4743 0
-4743 4752 0
-220 -4743 4744 0
-4744 4753 0
-221 -4744 4745 0
-4745 4754 0
-222 -4745 4746 0
-4746 4755 0
-223 -4746 4747 0
-4747 4756 0
-224 -4747 4748 0
-4748 4757 0
-225 -4748 4749 0
-4749 4758 0
-226 -4749 4750 0
-4750 4759 0
-227 -4750 0
-219 4751 0
-4751 4760 0
-220 -4751 4752 0
-4752 4761 0
-221 -4752 4753 0
-4753 4762 0
-222 -4753 4754 0
-4754 4763 0
-223 -4754 4755 0
-4755 4764 0
-224 -4755 4756 0
-4756 4765 0
-225 -4756 4757 0
-4757 4766 0
-226 -4757 4758 0
-4758 4767 0
-227 -4758 4759 0
-4759 4768 0
-228 -4759 0
-220 4760 0
-4760 4769 0
-221 -4760 4761 0
-4761 4770 0
-222 -4761 4762 0
-4762 4771 0
-223 -4762 4763 0
-4763 4772 0
-224 -4763 4764 0
-4764 4773 0
-225 -4764 4765 0
-4765 4774 0
-226 -4765 4766 0
-4766 4775 0
-227 -4766 4767 0
-4767 4776 0
-228 -4767 4768 0
-4768 4777 0
-229 -4768 0
-221 4769 0
-4769 4778 0
-222 -4769 4770 0
-4770 4779 0
-223 -4770 4771 0
-4771 4780 0
-224 -4771 4772 0
-4772 4781 0
-225 -4772 4773 0
-4773 4782 0
-226 -4773 4774 0
-4774 4783 0
-227 -4774 4775 0
-4775 4784 0
-228 -4775 4776 0
-4776 4785 0
-229 -4776 4777 0
-4777 4786 0
-230 -4777 0
-222 4778 0
-4778 4787 0
-223 -4778 4779 0
-4779 4788 0
-224 -4779 4780 0
-4780 4789 0
-225 -4780 4781 0
-4781 4790 0
-226 -4781 4782 0
-4782 4791 0
-227 -4782 4783 0
-4783 4792 0
-228 -4783 4784 0
-4784 4793 0
-229 -4784 4785 0
-4785 4794 0
-230 -4785 4786 0
-4786 4795 0
-231 -4786 0
-223 4787 0
-4787 4796 0
-224 -4787 4788 0
-4788 4797 0
-225 -4788 4789 0
-4789 4798 0
-226 -4789 4790 0
-4790 4799 0
-227 -4790 4791 0
-4791 4800 0
-228 -4791 4792 0
-4792 4801 0
-229 -4792 4793 0
-4793 4802 0
-230 -4793 4794 0
-4794 4803 0
-231 -4794 4795 0
-4795 4804 0
-232 -4795 0
-224 4796 0
-4796 4805 0
-225 -4796 4797 0
-4797 4806 0
-226 -4797 4798 0
-4798 4807 0
-227 -4798 4799 0
-4799 4808 0
-228 -4799 4800 0
-4800 4809 0
-229 -4800 4801 0
-4801 4810 0
-230 -4801 4802 0
-4802 4811 0
-231 -4802 4803 0
-4803 4812 0
-232 -4803 4804 0
-4804 4813 0
-233 -4804 0
-225 4805 0
-4805 4814 0
-226 -4805 4806 0
-4806 4815 0
-227 -4806 4807 0
-4807 4816 0
-228 -4807 4808 0
-4808 4817 0
-229 -4808 4809 0
-4809 4818 0
-230 -4809 4810 0
-4810 4819 0
-231 -4810 4811 0
-4811 4820 0
-232 -4811 4812 0
-4812 4821 0
-233 -4812 4813 0
-4813 4822 0
-234 -4813 0
-226 4814 0
-4814 4823 0
-227 -4814 4815 0
-4815 4824 0
-228 -4815 4816 0
-4816 4825 0
-229 -4816 4817 0
-4817 4826 0
-230 -4817 4818 0
-4818 4827 0
-231 -4818 4819 0
-4819 4828 0
-232 -4819 4820 0
-4820 4829 0
-233 -4820 4821 0
-4821 4830 0
-234 -4821 4822 0
-4822 4831 0
-235 -4822 0
-227 4823 0
-4823 4832 0
-228 -4823 4824 0
-4824 4833 0
-229 -4824 4825 0
-4825 4834 0
-230 -4825 4826 0
-4826 4835 0
-231 -4826 4827 0
-4827 4836 0
-232 -4827 4828 0
-4828 4837 0
-233 -4828 4829 0
-4829 4838 0
-234 -4829 4830 0
-4830 4839 0
-235 -4830 4831 0
-4831 4840 0
-236 -4831 0
-228 4832 0
-4832 4841 0
-229 -4832 4833 0
-4833 4842 0
-230 -4833 4834 0
-4834 4843 0
-231 -4834 4835 0
-4835 4844 0
-232 -4835 4836 0
-4836 4845 0
-233 -4836 4837 0
-4837 4846 0
-234 -4837 4838 0
-4838 4847 0
-235 -4838 4839 0
-4839 4848 0
-236 -4839 4840 0
-4840 4849 0
-237 -4840 0
-229 4841 0
-4841 4850 0
-230 -4841 4842 0
-4842 4851 0
-231 -4842 4843 0
-4843 4852 0
-232 -4843 4844 0
-4844 4853 0
-233 -4844 4845 0
-4845 4854 0
-234 -4845 4846 0
-4846 4855 0
-235 -4846 4847 0
-4847 4856 0
-236 -4847 4848 0
-4848 4857 0
-237 -4848 4849 0
-4849 4858 0
-238 -4849 0
-230 4850 0
-4850 4859 0
-231 -4850 4851 0
-4851 4860 0
-232 -4851 4852 0
-4852 4861 0
-233 -4852 4853 0
-4853 4862 0
-234 -4853 4854 0
-4854 4863 0
-235 -4854 4855 0
-4855 4864 0
-236 -4855 4856 0
-4856 4865 0
-237 -4856 4857 0
-4857 4866 0
-238 -4857 4858 0
-4858 4867 0
-239 -4858 0
-231 4859 0
-4859 4868 0
-232 -4859 4860 0
-4860 4869 0
-233 -4860 4861 0
-4861 4870 0
-234 -4861 4862 0
-4862 4871 0
-235 -4862 4863 0
-4863 4872 0
-236 -4863 4864 0
-4864 4873 0
-237 -4864 4865 0
-4865 4874 0
-238 -4865 4866 0
-4866 4875 0
-239 -4866 4867 0
-4867 4876 0
-240 -4867 0
-232 4868 0
-4868 4877 0
-233 -4868 4869 0
-4869 4878 0
-234 -4869 4870 0
-4870 4879 0
-235 -4870 4871 0
-4871 4880 0
-236 -4871 4872 0
-4872 4881 0
-237 -4872 4873 0
-4873 4882 0
-238 -4873 4874 0
-4874 4883 0
-239 -4874 4875 0
-4875 4884 0
-240 -4875 4876 0
-4876 4885 0
-241 -4876 0
-233 4877 0
-4877 4886 0
-234 -4877 4878 0
-4878 4887 0
-235 -4878 4879 0
-4879 4888 0
-236 -4879 4880 0
-4880 4889 0
-237 -4880 4881 0
-4881 4890 0
-238 -4881 4882 0
-4882 4891 0
-239 -4882 4883 0
-4883 4892 0
-240 -4883 4884 0
-4884 4893 0
-241 -4884 4885 0
-4885 4894 0
-242 -4885 0
-234 4886 0
-4886 4895 0
-235 -4886 4887 0
-4887 4896 0
-236 -4887 4888 0
-4888 4897 0
-237 -4888 4889 0
-4889 4898 0
-238 -4889 4890 0
-4890 4899 0
-239 -4890 4891 0
-4891 4900 0
-240 -4891 4892 0
-4892 4901 0
-241 -4892 4893 0
-4893 4902 0
-242 -4893 4894 0
-4894 4903 0
-243 -4894 0
-235 4895 0
-4895 4904 0
-236 -4895 4896 0
-4896 4905 0
-237 -4896 4897 0
-4897 4906 0
-238 -4897 4898 0
-4898 4907 0
-239 -4898 4899 0
-4899 4908 0
-240 -4899 4900 0
-4900 4909 0
-241 -4900 4901 0
-4901 4910 0
-242 -4901 4902 0
-4902 4911 0
-243 -4902 4903 0
-4903 4912 0
-244 -4903 0
-236 4904 0
-4904 4913 0
-237 -4904 4905 0
-4905 4914 0
-238 -4905 4906 0
-4906 4915 0
-239 -4906 4907 0
-4907 4916 0
-240 -4907 4908 0
-4908 4917 0
-241 -4908 4909 0
-4909 4918 0
-242 -4909 4910 0
-4910 4919 0
-243 -4910 4911 0
-4911 4920 0
-244 -4911 4912 0
-4912 4921 0
-245 -4912 0
-237 4913 0
-4913 4922 0
-238 -4913 4914 0
-4914 4923 0
-239 -4914 4915 0
-4915 4924 0
-240 -4915 4916 0
-4916 4925 0
-241 -4916 4917 0
-4917 4926 0
-242 -4917 4918 0
-4918 4927 0
-243 -4918 4919 0
-4919 4928 0
-244 -4919 4920 0
-4920 4929 0
-245 -4920 4921 0
-4921 4930 0
-246 -4921 0
-238 4922 0
-4922 4931 0
-239 -4922 4923 0
-4923 4932 0
-240 -4923 4924 0
-4924 4933 0
-241 -4924 4925 0
-4925 4934 0
-242 -4925 4926 0
-4926 4935 0
-243 -4926 4927 0
-4927 4936 0
-244 -4927 4928 0
-4928 4937 0
-245 -4928 4929 0
-4929 4938 0
-246 -4929 4930 0
-4930 4939 0
-247 -4930 0
-239 4931 0
-4931 4940 0
-240 -4931 4932 0
-4932 4941 0
-241 -4932 4933 0
-4933 4942 0
-242 -4933 4934 0
-4934 4943 0
-243 -4934 4935 0
-4935 4944 0
-244 -4935 4936 0
-4936 4945 0
-245 -4936 4937 0
-4937 4946 0
-246 -4937 4938 0
-4938 4947 0
-247 -4938 4939 0
-4939 4948 0
-248 -4939 0
-240 4940 0
-4940 4949 0
-241 -4940 4941 0
-4941 4950 0
-242 -4941 4942 0
-4942 4951 0
-243 -4942 4943 0
-4943 4952 0
-244 -4943 4944 0
-4944 4953 0
-245 -4944 4945 0
-4945 4954 0
-246 -4945 4946 0
-4946 4955 0
-247 -4946 4947 0
-4947 4956 0
-248 -4947 4948 0
-4948 4957 0
-249 -4948 0
-241 4949 0
-4949 4958 0
-242 -4949 4950 0
-4950 4959 0
-243 -4950 4951 0
-4951 4960 0
-244 -4951 4952 0
-4952 4961 0
-245 -4952 4953 0
-4953 4962 0
-246 -4953 4954 0
-4954 4963 0
-247 -4954 4955 0
-4955 4964 0
-248 -4955 4956 0
-4956 4965 0
-249 -4956 4957 0
-4957 4966 0
-250 -4957 0
-242 4958 0
-4958 4967 0
-243 -4958 4959 0
-4959 4968 0
-244 -4959 4960 0
-4960 4969 0
-245 -4960 4961 0
-4961 4970 0
-246 -4961 4962 0
-4962 4971 0
-247 -4962 4963 0
-4963 4972 0
-248 -4963 4964 0
-4964 4973 0
-249 -4964 4965 0
-4965 4974 0
-250 -4965 4966 0
-4966 4975 0
-251 -4966 0
-243 4967 0
-4967 4976 0
-244 -4967 4968 0
-4968 4977 0
-245 -4968 4969 0
-4969 4978 0
-246 -4969 4970 0
-4970 4979 0
-247 -4970 4971 0
-4971 4980 0
-248 -4971 4972 0
-4972 4981 0
-249 -4972 4973 0
-4973 4982 0
-250 -4973 4974 0
-4974 4983 0
-251 -4974 4975 0
-4975 4984 0
-252 -4975 0
-244 4976 0
-4976 4985 0
-245 -4976 4977 0
-4977 4986 0
-246 -4977 4978 0
-4978 4987 0
-247 -4978 4979 0
-4979 4988 0
-248 -4979 4980 0
-4980 4989 0
-249 -4980 4981 0
-4981 4990 0
-250 -4981 4982 0
-4982 4991 0
-251 -4982 4983 0
-4983 4992 0
-252 -4983 4984 0
-4984 4993 0
-253 -4984 0
-245 4985 0
-4985 4994 0
-246 -4985 4986 0
-4986 4995 0
-247 -4986 4987 0
-4987 4996 0
-248 -4987 4988 0
-4988 4997 0
-249 -4988 4989 0
-4989 4998 0
-250 -4989 4990 0
-4990 4999 0
-251 -4990 4991 0
-4991 5000 0
-252 -4991 4992 0
-4992 5001 0
-253 -4992 4993 0
-4993 5002 0
-254 -4993 0
-246 4994 0
-4994 5003 0
-247 -4994 4995 0
-4995 5004 0
-248 -4995 4996 0
-4996 5005 0
-249 -4996 4997 0
-4997 5006 0
-250 -4997 4998 0
-4998 5007 0
-251 -4998 4999 0
-4999 5008 0
-252 -4999 5000 0
-5000 5009 0
-253 -5000 5001 0
-5001 5010 0
-254 -5001 5002 0
-5002 5011 0
-255 -5002 0
-247 5003 0
-5003 5012 0
-248 -5003 5004 0
-5004 5013 0
-249 -5004 5005 0
-5005 5014 0
-250 -5005 5006 0
-5006 5015 0
-251 -5006 5007 0
-5007 5016 0
-252 -5007 5008 0
-5008 5017 0
-253 -5008 5009 0
-5009 5018 0
-254 -5009 5010 0
-5010 5019 0
-255 -5010 5011 0
-5011 5020 0
-256 -5011 0
-248 5012 0
-5012 5021 0
-249 -5012 5013 0
-5013 5022 0
-250 -5013 5014 0
-5014 5023 0
-251 -5014 5015 0
-5015 5024 0
-252 -5015 5016 0
-5016 5025 0
-253 -5016 5017 0
-5017 5026 0
-254 -5017 5018 0
-5018 5027 0
-255 -5018 5019 0
-5019 5028 0
-256 -5019 5020 0
-5020 5029 0
-257 -5020 0
-249 5021 0
-5021 5030 0
-250 -5021 5022 0
-5022 5031 0
-251 -5022 5023 0
-5023 5032 0
-252 -5023 5024 0
-5024 5033 0
-253 -5024 5025 0
-5025 5034 0
-254 -5025 5026 0
-5026 5035 0
-255 -5026 5027 0
-5027 5036 0
-256 -5027 5028 0
-5028 5037 0
-257 -5028 5029 0
-5029 5038 0
-258 -5029 0
-250 5030 0
-5030 5039 0
-251 -5030 5031 0
-5031 5040 0
-252 -5031 5032 0
-5032 5041 0
-253 -5032 5033 0
-5033 5042 0
-254 -5033 5034 0
-5034 5043 0
-255 -5034 5035 0
-5035 5044 0
-256 -5035 5036 0
-5036 5045 0
-257 -5036 5037 0
-5037 5046 0
-258 -5037 5038 0
-5038 5047 0
-259 -5038 0
-251 5039 0
-5039 5048 0
-252 -5039 5040 0
-5040 5049 0
-253 -5040 5041 0
-5041 5050 0
-254 -5041 5042 0
-5042 5051 0
-255 -5042 5043 0
-5043 5052 0
-256 -5043 5044 0
-5044 5053 0
-257 -5044 5045 0
-5045 5054 0
-258 -5045 5046 0
-5046 5055 0
-259 -5046 5047 0
-5047 5056 0
-260 -5047 0
-252 5048 0
-5048 5057 0
-253 -5048 5049 0
-5049 5058 0
-254 -5049 5050 0
-5050 5059 0
-255 -5050 5051 0
-5051 5060 0
-256 -5051 5052 0
-5052 5061 0
-257 -5052 5053 0
-5053 5062 0
-258 -5053 5054 0
-5054 5063 0
-259 -5054 5055 0
-5055 5064 0
-260 -5055 5056 0
-5056 5065 0
-261 -5056 0
-253 5057 0
-5057 5066 0
-254 -5057 5058 0
-5058 5067 0
-255 -5058 5059 0
-5059 5068 0
-256 -5059 5060 0
-5060 5069 0
-257 -5060 5061 0
-5061 5070 0
-258 -5061 5062 0
-5062 5071 0
-259 -5062 5063 0
-5063 5072 0
-260 -5063 5064 0
-5064 5073 0
-261 -5064 5065 0
-5065 5074 0
-262 -5065 0
-254 5066 0
-5066 5075 0
-255 -5066 5067 0
-5067 5076 0
-256 -5067 5068 0
-5068 5077 0
-257 -5068 5069 0
-5069 5078 0
-258 -5069 5070 0
-5070 5079 0
-259 -5070 5071 0
-5071 5080 0
-260 -5071 5072 0
-5072 5081 0
-261 -5072 5073 0
-5073 5082 0
-262 -5073 5074 0
-5074 5083 0
-263 -5074 0
-255 5075 0
-256 -5075 5076 0
-257 -5076 5077 0
-258 -5077 5078 0
-259 -5078 5079 0
-260 -5079 5080 0
-261 -5080 5081 0
-262 -5081 5082 0
-263 -5082 5083 0
-264 -5083 0
1 67 0
