p cnf 6459 13229
-165 -1 0
-165 2 82 83 0
-2 1 165 0
-82 1 165 0
-83 1 165 0
-166 -2 0
-166 1 3 84 0
-1 2 166 0
-3 2 166 0
-84 2 166 0
-167 -3 0
-167 2 4 85 0
-2 3 167 0
-4 3 167 0
-85 3 167 0
-168 -4 0
-168 3 5 86 0
-3 4 168 0
-5 4 168 0
-86 4 168 0
-169 -5 0
-169 4 6 87 0
-4 5 169 0
-6 5 169 0
-87 5 169 0
-170 -6 0
-170 5 7 88 0
-5 6 170 0
-7 6 170 0
-88 6 170 0
-171 -7 0
-171 6 8 89 0
-6 7 171 0
-8 7 171 0
-89 7 171 0
-172 -8 0
-172 7 9 90 0
-7 8 172 0
-9 8 172 0
-90 8 172 0
-173 -9 0
-173 8 10 91 0
-8 9 173 0
-10 9 173 0
-91 9 173 0
-174 -10 0
-174 9 11 92 0
-9 10 174 0
-11 10 174 0
-92 10 174 0
-175 -11 0
-175 10 12 93 0
-10 11 175 0
-12 11 175 0
-93 11 175 0
-176 -12 0
-176 11 13 94 0
-11 12 176 0
-13 12 176 0
-94 12 176 0
-177 -13 0
-177 12 14 95 0
-12 13 177 0
-14 13 177 0
-95 13 177 0
-178 -14 0
-178 13 15 96 0
-13 14 178 0
-15 14 178 0
-96 14 178 0
-179 -15 0
-179 14 16 97 0
-14 15 179 0
-16 15 179 0
-97 15 179 0
-180 -16 0
-180 15 17 98 0
-15 16 180 0
-17 16 180 0
-98 16 180 0
-181 -17 0
-181 16 18 99 0
-16 17 181 0
-18 17 181 0
-99 17 181 0
-182 -18 0
-182 17 19 100 0
-17 18 182 0
-19 18 182 0
-100 18 182 0
-183 -19 0
-183 18 20 101 0
-18 19 183 0
-20 19 183 0
-101 19 183 0
-184 -20 0
-184 19 21 102 0
-19 20 184 0
-21 20 184 0
-102 20 184 0
-185 -21 0
-185 20 22 103 0
-20 21 185 0
-22 21 185 0
-103 21 185 0
-186 -22 0
-186 21 23 104 0
-21 22 186 0
-23 22 186 0
-104 22 186 0
-187 -23 0
-187 22 24 105 0
-22 23 187 0
-24 23 187 0
-105 23 187 0
-188 -24 0
-188 23 25 106 0
-23 24 188 0
-25 24 188 0
-106 24 188 0
-189 -25 0
-189 24 26 107 0
-24 25 189 0
-26 25 189 0
-107 25 189 0
-190 -26 0
-190 25 27 108 0
-25 26 190 0
-27 26 190 0
-108 26 190 0
-191 -27 0
-191 26 28 109 0
-26 27 191 0
-28 27 191 0
-109 27 191 0
-192 -28 0
-192 27 29 110 0
-27 28 192 0
-29 28 192 0
-110 28 192 0
-193 -29 0
-193 28 30 111 0
-28 29 193 0
-30 29 193 0
-111 29 193 0
-194 -30 0
-194 29 31 112 0
-29 30 194 0
-31 30 194 0
-112 30 194 0
-195 -31 0
-195 30 32 113 0
-30 31 195 0
-32 31 195 0
-113 31 195 0
-196 -32 0
-196 31 33 114 0
-31 32 196 0
-33 32 196 0
-114 32 196 0
-197 -33 0
-197 32 34 115 0
-32 33 197 0
-34 33 197 0
-115 33 197 0
-198 -34 0
-198 33 35 116 0
-33 34 198 0
-35 34 198 0
-116 34 198 0
-199 -35 0
-199 34 36 117 0
-34 35 199 0
-36 35 199 0
-117 35 199 0
-200 -36 0
-200 35 37 118 0
-35 36 200 0
-37 36 200 0
-118 36 200 0
-201 -37 0
-201 36 38 119 0
-36 37 201 0
-38 37 201 0
-119 37 201 0
-202 -38 0
-202 37 39 120 0
-37 38 202 0
-39 38 202 0
-120 38 202 0
-203 -39 0
-203 38 40 121 0
-38 39 203 0
-40 39 203 0
-121 39 203 0
-204 -40 0
-204 39 41 122 0
-39 40 204 0
-41 40 204 0
-122 40 204 0
-205 -41 0
-205 40 42 123 0
-40 41 205 0
-42 41 205 0
-123 41 205 0
-206 -42 0
-206 41 43 124 0
-41 42 206 0
-43 42 206 0
-124 42 206 0
-207 -43 0
-207 42 44 125 0
-42 43 207 0
-44 43 207 0
-125 43 207 0
-208 -44 0
-208 43 45 126 0
-43 44 208 0
-45 44 208 0
-126 44 208 0
-209 -45 0
-209 44 46 127 0
-44 45 209 0
-46 45 209 0
-127 45 209 0
-210 -46 0
-210 45 47 128 0
-45 46 210 0
-47 46 210 0
-128 46 210 0
-211 -47 0
-211 46 48 129 0
-46 47 211 0
-48 47 211 0
-129 47 211 0
-212 -48 0
-212 47 49 130 0
-47 48 212 0
-49 48 212 0
-130 48 212 0
-213 -49 0
-213 48 50 131 0
-48 49 213 0
-50 49 213 0
-131 49 213 0
-214 -50 0
-214 49 51 132 0
-49 50 214 0
-51 50 214 0
-132 50 214 0
-215 -51 0
-215 50 52 133 0
-50 51 215 0
-52 51 215 0
-133 51 215 0
-216 -52 0
-216 51 53 134 0
-51 52 216 0
-53 52 216 0
-134 52 216 0
-217 -53 0
-217 52 54 135 0
-52 53 217 0
-54 53 217 0
-135 53 217 0
-218 -54 0
-218 53 55 136 0
-53 54 218 0
-55 54 218 0
-136 54 218 0
-219 -55 0
-219 54 56 137 0
-54 55 219 0
-56 55 219 0
-137 55 219 0
-220 -56 0
-220 55 57 138 0
-55 56 220 0
-57 56 220 0
-138 56 220 0
-221 -57 0
-221 56 58 139 0
-56 57 221 0
-58 57 221 0
-139 57 221 0
-222 -58 0
-222 57 59 140 0
-57 58 222 0
-59 58 222 0
-140 58 222 0
-223 -59 0
-223 58 60 141 0
-58 59 223 0
-60 59 223 0
-141 59 223 0
-224 -60 0
-224 59 61 142 0
-59 60 224 0
-61 60 224 0
-142 60 224 0
-225 -61 0
-225 60 62 143 0
-60 61 225 0
-62 61 225 0
-143 61 225 0
-226 -62 0
-226 61 63 144 0
-61 62 226 0
-63 62 226 0
-144 62 226 0
-227 -63 0
-227 62 64 145 0
-62 63 227 0
-64 63 227 0
-145 63 227 0
-228 -64 0
-228 63 65 146 0
-63 64 228 0
-65 64 228 0
-146 64 228 0
-229 -65 0
-229 64 66 147 0
-64 65 229 0
-66 65 229 0
-147 65 229 0
-230 -66 0
-230 65 67 148 0
-65 66 230 0
-67 66 230 0
-148 66 230 0
-231 -67 0
-231 66 68 149 0
-66 67 231 0
-68 67 231 0
-149 67 231 0
-232 -68 0
-232 67 69 150 0
-67 68 232 0
-69 68 232 0
-150 68 232 0
-233 -69 0
-233 68 70 151 0
-68 69 233 0
-70 69 233 0
-151 69 233 0
-234 -70 0
-234 69 71 152 0
-69 70 234 0
-71 70 234 0
-152 70 234 0
-235 -71 0
-235 70 72 153 0
-70 71 235 0
-72 71 235 0
-153 71 235 0
-236 -72 0
-236 71 73 154 0
-71 72 236 0
-73 72 236 0
-154 72 236 0
-237 -73 0
-237 72 74 155 0
-72 73 237 0
-74 73 237 0
-155 73 237 0
-238 -74 0
-238 73 75 156 0
-73 74 238 0
-75 74 238 0
-156 74 238 0
-239 -75 0
-239 74 76 157 0
-74 75 239 0
-76 75 239 0
-157 75 239 0
-240 -76 0
-240 75 77 158 0
-75 76 240 0
-77 76 240 0
-158 76 240 0
-241 -77 0
-241 76 78 159 0
-76 77 241 0
-78 77 241 0
-159 77 241 0
-242 -78 0
-242 77 79 160 0
-77 78 242 0
-79 78 242 0
-160 78 242 0
-243 -79 0
-243 78 80 161 0
-78 79 243 0
-80 79 243 0
-161 79 243 0
-244 -80 0
-244 79 81 162 0
-79 80 244 0
-81 80 244 0
-162 80 244 0
-245 -81 0
-245 80 82 163 0
-80 81 245 0
-82 81 245 0
-163 81 245 0
-246 -82 0
-246 1 81 164 0
-1 82 246 0
-81 82 246 0
-164 82 246 0
-247 -83 0
-247 1 87 161 0
-1 83 247 0
-87 83 247 0
-161 83 247 0
-248 -84 0
-248 2 88 162 0
-2 84 248 0
-88 84 248 0
-162 84 248 0
-249 -85 0
-249 3 89 163 0
-3 85 249 0
-89 85 249 0
-163 85 249 0
-250 -86 0
-250 4 90 164 0
-4 86 250 0
-90 86 250 0
-164 86 250 0
-251 -87 0
-251 5 83 91 0
-5 87 251 0
-83 87 251 0
-91 87 251 0
-252 -88 0
-252 6 84 92 0
-6 88 252 0
-84 88 252 0
-92 88 252 0
-253 -89 0
-253 7 85 93 0
-7 89 253 0
-85 89 253 0
-93 89 253 0
-254 -90 0
-254 8 86 94 0
-8 90 254 0
-86 90 254 0
-94 90 254 0
-255 -91 0
-255 9 87 95 0
-9 91 255 0
-87 91 255 0
-95 91 255 0
-256 -92 0
-256 10 88 96 0
-10 92 256 0
-88 92 256 0
-96 92 256 0
-257 -93 0
-257 11 89 97 0
-11 93 257 0
-89 93 257 0
-97 93 257 0
-258 -94 0
-258 12 90 98 0
-12 94 258 0
-90 94 258 0
-98 94 258 0
-259 -95 0
-259 13 91 99 0
-13 95 259 0
-91 95 259 0
-99 95 259 0
-260 -96 0
-260 14 92 100 0
-14 96 260 0
-92 96 260 0
-100 96 260 0
-261 -97 0
-261 15 93 101 0
-15 97 261 0
-93 97 261 0
-101 97 261 0
-262 -98 0
-262 16 94 102 0
-16 98 262 0
-94 98 262 0
-102 98 262 0
-263 -99 0
-263 17 95 103 0
-17 99 263 0
-95 99 263 0
-103 99 263 0
-264 -100 0
-264 18 96 104 0
-18 100 264 0
-96 100 264 0
-104 100 264 0
-265 -101 0
-265 19 97 105 0
-19 101 265 0
-97 101 265 0
-105 101 265 0
-266 -102 0
-266 20 98 106 0
-20 102 266 0
-98 102 266 0
-106 102 266 0
-267 -103 0
-267 21 99 107 0
-21 103 267 0
-99 103 267 0
-107 103 267 0
-268 -104 0
-268 22 100 108 0
-22 104 268 0
-100 104 268 0
-108 104 268 0
-269 -105 0
-269 23 101 109 0
-23 105 269 0
-101 105 269 0
-109 105 269 0
-270 -106 0
-270 24 102 110 0
-24 106 270 0
-102 106 270 0
-110 106 270 0
-271 -107 0
-271 25 103 111 0
-25 107 271 0
-103 107 271 0
-111 107 271 0
-272 -108 0
-272 26 104 112 0
-26 108 272 0
-104 108 272 0
-112 108 272 0
-273 -109 0
-273 27 105 113 0
-27 109 273 0
-105 109 273 0
-113 109 273 0
-274 -110 0
-274 28 106 114 0
-28 110 274 0
-106 110 274 0
-114 110 274 0
-275 -111 0
-275 29 107 115 0
-29 111 275 0
-107 111 275 0
-115 111 275 0
-276 -112 0
-276 30 108 116 0
-30 112 276 0
-108 112 276 0
-116 112 276 0
-277 -113 0
-277 31 109 117 0
-31 113 277 0
-109 113 277 0
-117 113 277 0
-278 -114 0
-278 32 110 118 0
-32 114 278 0
-110 114 278 0
-118 114 278 0
-279 -115 0
-279 33 111 119 0
-33 115 279 0
-111 115 279 0
-119 115 279 0
-280 -116 0
-280 34 112 120 0
-34 116 280 0
-112 116 280 0
-120 116 280 0
-281 -117 0
-281 35 113 121 0
-35 117 281 0
-113 117 281 0
-121 117 281 0
-282 -118 0
-282 36 114 122 0
-36 118 282 0
-114 118 282 0
-122 118 282 0
-283 -119 0
-283 37 115 123 0
-37 119 283 0
-115 119 283 0
-123 119 283 0
-284 -120 0
-284 38 116 124 0
-38 120 284 0
-116 120 284 0
-124 120 284 0
-285 -121 0
-285 39 117 125 0
-39 121 285 0
-117 121 285 0
-125 121 285 0
-286 -122 0
-286 40 118 126 0
-40 122 286 0
-118 122 286 0
-126 122 286 0
-287 -123 0
-287 41 119 127 0
-41 123 287 0
-119 123 287 0
-127 123 287 0
-288 -124 0
-288 42 120 128 0
-42 124 288 0
-120 124 288 0
-128 124 288 0
-289 -125 0
-289 43 121 129 0
-43 125 289 0
-121 125 289 0
-129 125 289 0
-290 -126 0
-290 44 122 130 0
-44 126 290 0
-122 126 290 0
-130 126 290 0
-291 -127 0
-291 45 123 131 0
-45 127 291 0
-123 127 291 0
-131 127 291 0
-292 -128 0
-292 46 124 132 0
-46 128 292 0
-124 128 292 0
-132 128 292 0
-293 -129 0
-293 47 125 133 0
-47 129 293 0
-125 129 293 0
-133 129 293 0
-294 -130 0
-294 48 126 134 0
-48 130 294 0
-126 130 294 0
-134 130 294 0
-295 -131 0
-295 49 127 135 0
-49 131 295 0
-127 131 295 0
-135 131 295 0
-296 -132 0
-296 50 128 136 0
-50 132 296 0
-128 132 296 0
-136 132 296 0
-297 -133 0
-297 51 129 137 0
-51 133 297 0
-129 133 297 0
-137 133 297 0
-298 -134 0
-298 52 130 138 0
-52 134 298 0
-130 134 298 0
-138 134 298 0
-299 -135 0
-299 53 131 139 0
-53 135 299 0
-131 135 299 0
-139 135 299 0
-300 -136 0
-300 54 132 140 0
-54 136 300 0
-132 136 300 0
-140 136 300 0
-301 -137 0
-301 55 133 141 0
-55 137 301 0
-133 137 301 0
-141 137 301 0
-302 -138 0
-302 56 134 142 0
-56 138 302 0
-134 138 302 0
-142 138 302 0
-303 -139 0
-303 57 135 143 0
-57 139 303 0
-135 139 303 0
-143 139 303 0
-304 -140 0
-304 58 136 144 0
-58 140 304 0
-136 140 304 0
-144 140 304 0
-305 -141 0
-305 59 137 145 0
-59 141 305 0
-137 141 305 0
-145 141 305 0
-306 -142 0
-306 60 138 146 0
-60 142 306 0
-138 142 306 0
-146 142 306 0
-307 -143 0
-307 61 139 147 0
-61 143 307 0
-139 143 307 0
-147 143 307 0
-308 -144 0
-308 62 140 148 0
-62 144 308 0
-140 144 308 0
-148 144 308 0
-309 -145 0
-309 63 141 149 0
-63 145 309 0
-141 145 309 0
-149 145 309 0
-310 -146 0
-310 64 142 150 0
-64 146 310 0
-142 146 310 0
-150 146 310 0
-311 -147 0
-311 65 143 151 0
-65 147 311 0
-143 147 311 0
-151 147 311 0
-312 -148 0
-312 66 144 152 0
-66 148 312 0
-144 148 312 0
-152 148 312 0
-313 -149 0
-313 67 145 153 0
-67 149 313 0
-145 149 313 0
-153 149 313 0
-314 -150 0
-314 68 146 154 0
-68 150 314 0
-146 150 314 0
-154 150 314 0
-315 -151 0
-315 69 147 155 0
-69 151 315 0
-147 151 315 0
-155 151 315 0
-316 -152 0
-316 70 148 156 0
-70 152 316 0
-148 152 316 0
-156 152 316 0
-317 -153 0
-317 71 149 157 0
-71 153 317 0
-149 153 317 0
-157 153 317 0
-318 -154 0
-318 72 150 158 0
-72 154 318 0
-150 154 318 0
-158 154 318 0
-319 -155 0
-319 73 151 159 0
-73 155 319 0
-151 155 319 0
-159 155 319 0
-320 -156 0
-320 74 152 160 0
-74 156 320 0
-152 156 320 0
-160 156 320 0
-321 -157 0
-321 75 153 161 0
-75 157 321 0
-153 157 321 0
-161 157 321 0
-322 -158 0
-322 76 154 162 0
-76 158 322 0
-154 158 322 0
-162 158 322 0
-323 -159 0
-323 77 155 163 0
-77 159 323 0
-155 159 323 0
-163 159 323 0
-324 -160 0
-324 78 156 164 0
-78 160 324 0
-156 160 324 0
-164 160 324 0
-325 -161 0
-325 79 83 157 0
-79 161 325 0
-83 161 325 0
-157 161 325 0
-326 -162 0
-326 80 84 158 0
-80 162 326 0
-84 162 326 0
-158 162 326 0
-327 -163 0
-327 81 85 159 0
-81 163 327 0
-85 163 327 0
-159 163 327 0
-328 -164 0
-328 82 86 160 0
-82 164 328 0
-86 164 328 0
-160 164 328 0
1 329 0
-329 330 0
2 -329 331 0
-331 332 0
3 -331 333 0
-333 334 0
4 -333 335 0
-335 336 0
5 -335 337 0
-337 338 0
6 -337 339 0
-339 340 0
7 -339 341 0
-341 342 0
8 -341 343 0
-343 344 0
9 -343 345 0
-345 346 0
10 -345 347 0
-347 348 0
11 -347 349 0
-349 350 0
12 -349 351 0
-351 352 0
13 -351 353 0
-353 354 0
14 -353 355 0
-355 356 0
15 -355 357 0
-357 358 0
16 -357 359 0
-359 360 0
17 -359 361 0
-361 362 0
18 -361 363 0
-363 364 0
19 -363 365 0
-365 366 0
20 -365 367 0
-367 368 0
21 -367 369 0
-369 370 0
22 -369 371 0
-371 372 0
23 -371 373 0
-373 374 0
24 -373 375 0
-375 376 0
25 -375 377 0
-377 378 0
26 -377 379 0
-379 380 0
27 -379 381 0
-381 382 0
28 -381 383 0
-383 384 0
29 -383 385 0
-385 386 0
30 -385 387 0
-387 388 0
31 -387 389 0
-389 390 0
32 -389 391 0
-391 392 0
33 -391 393 0
-393 394 0
34 -393 395 0
-395 396 0
35 -395 397 0
-397 398 0
36 -397 399 0
-399 400 0
37 -399 401 0
-401 402 0
38 -401 403 0
-403 404 0
39 -403 405 0
-405 406 0
40 -405 407 0
-407 408 0
41 -407 409 0
-409 410 0
42 -409 411 0
-411 412 0
43 -411 413 0
-413 414 0
44 -413 415 0
-415 416 0
45 -415 417 0
-417 418 0
46 -417 419 0
-419 420 0
47 -419 421 0
-421 422 0
48 -421 423 0
-423 424 0
49 -423 425 0
-425 426 0
50 -425 427 0
-427 428 0
51 -427 429 0
-429 430 0
52 -429 431 0
-431 432 0
53 -431 433 0
-433 434 0
54 -433 435 0
-435 436 0
55 -435 437 0
-437 438 0
56 -437 439 0
-439 440 0
57 -439 441 0
-441 442 0
58 -441 443 0
-443 444 0
59 -443 445 0
-445 446 0
60 -445 447 0
-447 448 0
61 -447 449 0
-449 450 0
62 -449 451 0
-451 452 0
63 -451 453 0
-453 454 0
64 -453 455 0
-455 456 0
65 -455 457 0
-457 458 0
66 -457 459 0
-459 460 0
67 -459 461 0
-461 462 0
68 -461 463 0
-463 464 0
69 -463 465 0
-465 466 0
70 -465 467 0
-467 468 0
71 -467 469 0
-469 470 0
72 -469 471 0
-471 472 0
73 -471 473 0
-473 474 0
74 -473 475 0
-475 476 0
75 -475 477 0
-477 478 0
76 -477 479 0
-479 480 0
77 -479 481 0
-481 482 0
78 -481 483 0
-483 484 0
79 -483 485 0
-485 486 0
80 -485 487 0
-487 488 0
81 -487 489 0
-489 490 0
82 -489 491 0
-491 492 0
83 -491 493 0
-493 494 0
84 -493 495 0
-495 496 0
85 -495 497 0
-497 498 0
86 -497 499 0
-499 500 0
87 -499 501 0
-501 502 0
88 -501 503 0
-503 504 0
89 -503 505 0
-505 506 0
90 -505 507 0
-507 508 0
91 -507 509 0
-509 510 0
92 -509 511 0
-511 512 0
93 -511 513 0
-513 514 0
94 -513 515 0
-515 516 0
95 -515 517 0
-517 518 0
96 -517 519 0
-519 520 0
97 -519 521 0
-521 522 0
98 -521 523 0
-523 524 0
99 -523 525 0
-525 526 0
100 -525 527 0
-527 528 0
101 -527 529 0
-529 530 0
102 -529 531 0
-531 532 0
103 -531 533 0
-533 534 0
104 -533 535 0
-535 536 0
105 -535 537 0
-537 538 0
106 -537 539 0
-539 540 0
107 -539 541 0
-541 542 0
108 -541 543 0
-543 544 0
109 -543 545 0
-545 546 0
110 -545 547 0
-547 548 0
111 -547 549 0
-549 550 0
112 -549 551 0
-551 552 0
113 -551 553 0
-553 554 0
114 -553 555 0
-555 556 0
115 -555 557 0
-557 558 0
116 -557 559 0
-559 560 0
117 -559 561 0
-561 562 0
118 -561 563 0
-563 564 0
119 -563 565 0
-565 566 0
120 -565 567 0
-567 568 0
121 -567 569 0
-569 570 0
122 -569 571 0
-571 572 0
123 -571 573 0
-573 574 0
124 -573 575 0
-575 576 0
125 -575 577 0
-577 578 0
126 -577 579 0
-579 580 0
127 -579 581 0
-581 582 0
128 -581 583 0
-583 584 0
129 -583 585 0
-585 586 0
130 -585 587 0
-587 588 0
131 -587 589 0
-589 590 0
132 -589 591 0
-591 592 0
133 -591 593 0
-593 594 0
134 -593 595 0
-595 596 0
135 -595 597 0
-597 598 0
136 -597 599 0
-599 600 0
137 -599 601 0
-601 602 0
138 -601 603 0
-603 604 0
139 -603 605 0
-605 606 0
140 -605 607 0
-607 608 0
141 -607 609 0
-609 610 0
142 -609 611 0
-611 612 0
143 -611 613 0
-613 614 0
144 -613 615 0
-615 616 0
145 -615 617 0
-617 618 0
146 -617 619 0
-619 620 0
147 -619 621 0
-621 622 0
148 -621 623 0
-623 624 0
149 -623 0
2 330 0
-330 625 0
3 -330 332 0
-332 626 0
4 -332 334 0
-334 627 0
5 -334 336 0
-336 628 0
6 -336 338 0
-338 629 0
7 -338 340 0
-340 630 0
8 -340 342 0
-342 631 0
9 -342 344 0
-344 632 0
10 -344 346 0
-346 633 0
11 -346 348 0
-348 634 0
12 -348 350 0
-350 635 0
13 -350 352 0
-352 636 0
14 -352 354 0
-354 637 0
15 -354 356 0
-356 638 0
16 -356 358 0
-358 639 0
17 -358 360 0
-360 640 0
18 -360 362 0
-362 641 0
19 -362 364 0
-364 642 0
20 -364 366 0
-366 643 0
21 -366 368 0
-368 644 0
22 -368 370 0
-370 645 0
23 -370 372 0
-372 646 0
24 -372 374 0
-374 647 0
25 -374 376 0
-376 648 0
26 -376 378 0
-378 649 0
27 -378 380 0
-380 650 0
28 -380 382 0
-382 651 0
29 -382 384 0
-384 652 0
30 -384 386 0
-386 653 0
31 -386 388 0
-388 654 0
32 -388 390 0
-390 655 0
33 -390 392 0
-392 656 0
34 -392 394 0
-394 657 0
35 -394 396 0
-396 658 0
36 -396 398 0
-398 659 0
37 -398 400 0
-400 660 0
38 -400 402 0
-402 661 0
39 -402 404 0
-404 662 0
40 -404 406 0
-406 663 0
41 -406 408 0
-408 664 0
42 -408 410 0
-410 665 0
43 -410 412 0
-412 666 0
44 -412 414 0
-414 667 0
45 -414 416 0
-416 668 0
46 -416 418 0
-418 669 0
47 -418 420 0
-420 670 0
48 -420 422 0
-422 671 0
49 -422 424 0
-424 672 0
50 -424 426 0
-426 673 0
51 -426 428 0
-428 674 0
52 -428 430 0
-430 675 0
53 -430 432 0
-432 676 0
54 -432 434 0
-434 677 0
55 -434 436 0
-436 678 0
56 -436 438 0
-438 679 0
57 -438 440 0
-440 680 0
58 -440 442 0
-442 681 0
59 -442 444 0
-444 682 0
60 -444 446 0
-446 683 0
61 -446 448 0
-448 684 0
62 -448 450 0
-450 685 0
63 -450 452 0
-452 686 0
64 -452 454 0
-454 687 0
65 -454 456 0
-456 688 0
66 -456 458 0
-458 689 0
67 -458 460 0
-460 690 0
68 -460 462 0
-462 691 0
69 -462 464 0
-464 692 0
70 -464 466 0
-466 693 0
71 -466 468 0
-468 694 0
72 -468 470 0
-470 695 0
73 -470 472 0
-472 696 0
74 -472 474 0
-474 697 0
75 -474 476 0
-476 698 0
76 -476 478 0
-478 699 0
77 -478 480 0
-480 700 0
78 -480 482 0
-482 701 0
79 -482 484 0
-484 702 0
80 -484 486 0
-486 703 0
81 -486 488 0
-488 704 0
82 -488 490 0
-490 705 0
83 -490 492 0
-492 706 0
84 -492 494 0
-494 707 0
85 -494 496 0
-496 708 0
86 -496 498 0
-498 709 0
87 -498 500 0
-500 710 0
88 -500 502 0
-502 711 0
89 -502 504 0
-504 712 0
90 -504 506 0
-506 713 0
91 -506 508 0
-508 714 0
92 -508 510 0
-510 715 0
93 -510 512 0
-512 716 0
94 -512 514 0
-514 717 0
95 -514 516 0
-516 718 0
96 -516 518 0
-518 719 0
97 -518 520 0
-520 720 0
98 -520 522 0
-522 721 0
99 -522 524 0
-524 722 0
100 -524 526 0
-526 723 0
101 -526 528 0
-528 724 0
102 -528 530 0
-530 725 0
103 -530 532 0
-532 726 0
104 -532 534 0
-534 727 0
105 -534 536 0
-536 728 0
106 -536 538 0
-538 729 0
107 -538 540 0
-540 730 0
108 -540 542 0
-542 731 0
109 -542 544 0
-544 732 0
110 -544 546 0
-546 733 0
111 -546 548 0
-548 734 0
112 -548 550 0
-550 735 0
113 -550 552 0
-552 736 0
114 -552 554 0
-554 737 0
115 -554 556 0
-556 738 0
116 -556 558 0
-558 739 0
117 -558 560 0
-560 740 0
118 -560 562 0
-562 741 0
119 -562 564 0
-564 742 0
120 -564 566 0
-566 743 0
121 -566 568 0
-568 744 0
122 -568 570 0
-570 745 0
123 -570 572 0
-572 746 0
124 -572 574 0
-574 747 0
125 -574 576 0
-576 748 0
126 -576 578 0
-578 749 0
127 -578 580 0
-580 750 0
128 -580 582 0
-582 751 0
129 -582 584 0
-584 752 0
130 -584 586 0
-586 753 0
131 -586 588 0
-588 754 0
132 -588 590 0
-590 755 0
133 -590 592 0
-592 756 0
134 -592 594 0
-594 757 0
135 -594 596 0
-596 758 0
136 -596 598 0
-598 759 0
137 -598 600 0
-600 760 0
138 -600 602 0
-602 761 0
139 -602 604 0
-604 762 0
140 -604 606 0
-606 763 0
141 -606 608 0
-608 764 0
142 -608 610 0
-610 765 0
143 -610 612 0
-612 766 0
144 -612 614 0
-614 767 0
145 -614 616 0
-616 768 0
146 -616 618 0
-618 769 0
147 -618 620 0
-620 770 0
148 -620 622 0
-622 771 0
149 -622 624 0
-624 772 0
150 -624 0
3 625 0
-625 773 0
4 -625 626 0
-626 774 0
5 -626 627 0
-627 775 0
6 -627 628 0
-628 776 0
7 -628 629 0
-629 777 0
8 -629 630 0
-630 778 0
9 -630 631 0
-631 779 0
10 -631 632 0
-632 780 0
11 -632 633 0
-633 781 0
12 -633 634 0
-634 782 0
13 -634 635 0
-635 783 0
14 -635 636 0
-636 784 0
15 -636 637 0
-637 785 0
16 -637 638 0
-638 786 0
17 -638 639 0
-639 787 0
18 -639 640 0
-640 788 0
19 -640 641 0
-641 789 0
20 -641 642 0
-642 790 0
21 -642 643 0
-643 791 0
22 -643 644 0
-644 792 0
23 -644 645 0
-645 793 0
24 -645 646 0
-646 794 0
25 -646 647 0
-647 795 0
26 -647 648 0
-648 796 0
27 -648 649 0
-649 797 0
28 -649 650 0
-650 798 0
29 -650 651 0
-651 799 0
30 -651 652 0
-652 800 0
31 -652 653 0
-653 801 0
32 -653 654 0
-654 802 0
33 -654 655 0
-655 803 0
34 -655 656 0
-656 804 0
35 -656 657 0
-657 805 0
36 -657 658 0
-658 806 0
37 -658 659 0
-659 807 0
38 -659 660 0
-660 808 0
39 -660 661 0
-661 809 0
40 -661 662 0
-662 810 0
41 -662 663 0
-663 811 0
42 -663 664 0
-664 812 0
43 -664 665 0
-665 813 0
44 -665 666 0
-666 814 0
45 -666 667 0
-667 815 0
46 -667 668 0
-668 816 0
47 -668 669 0
-669 817 0
48 -669 670 0
-670 818 0
49 -670 671 0
-671 819 0
50 -671 672 0
-672 820 0
51 -672 673 0
-673 821 0
52 -673 674 0
-674 822 0
53 -674 675 0
-675 823 0
54 -675 676 0
-676 824 0
55 -676 677 0
-677 825 0
56 -677 678 0
-678 826 0
57 -678 679 0
-679 827 0
58 -679 680 0
-680 828 0
59 -680 681 0
-681 829 0
60 -681 682 0
-682 830 0
61 -682 683 0
-683 831 0
62 -683 684 0
-684 832 0
63 -684 685 0
-685 833 0
64 -685 686 0
-686 834 0
65 -686 687 0
-687 835 0
66 -687 688 0
-688 836 0
67 -688 689 0
-689 837 0
68 -689 690 0
-690 838 0
69 -690 691 0
-691 839 0
70 -691 692 0
-692 840 0
71 -692 693 0
-693 841 0
72 -693 694 0
-694 842 0
73 -694 695 0
-695 843 0
74 -695 696 0
-696 844 0
75 -696 697 0
-697 845 0
76 -697 698 0
-698 846 0
77 -698 699 0
-699 847 0
78 -699 700 0
-700 848 0
79 -700 701 0
-701 849 0
80 -701 702 0
-702 850 0
81 -702 703 0
-703 851 0
82 -703 704 0
-704 852 0
83 -704 705 0
-705 853 0
84 -705 706 0
-706 854 0
85 -706 707 0
-707 855 0
86 -707 708 0
-708 856 0
87 -708 709 0
-709 857 0
88 -709 710 0
-710 858 0
89 -710 711 0
-711 859 0
90 -711 712 0
-712 860 0
91 -712 713 0
-713 861 0
92 -713 714 0
-714 862 0
93 -714 715 0
-715 863 0
94 -715 716 0
-716 864 0
95 -716 717 0
-717 865 0
96 -717 718 0
-718 866 0
97 -718 719 0
-719 867 0
98 -719 720 0
-720 868 0
99 -720 721 0
-721 869 0
100 -721 722 0
-722 870 0
101 -722 723 0
-723 871 0
102 -723 724 0
-724 872 0
103 -724 725 0
-725 873 0
104 -725 726 0
-726 874 0
105 -726 727 0
-727 875 0
106 -727 728 0
-728 876 0
107 -728 729 0
-729 877 0
108 -729 730 0
-730 878 0
109 -730 731 0
-731 879 0
110 -731 732 0
-732 880 0
111 -732 733 0
-733 881 0
112 -733 734 0
-734 882 0
113 -734 735 0
-735 883 0
114 -735 736 0
-736 884 0
115 -736 737 0
-737 885 0
116 -737 738 0
-738 886 0
117 -738 739 0
-739 887 0
118 -739 740 0
-740 888 0
119 -740 741 0
-741 889 0
120 -741 742 0
-742 890 0
121 -742 743 0
-743 891 0
122 -743 744 0
-744 892 0
123 -744 745 0
-745 893 0
124 -745 746 0
-746 894 0
125 -746 747 0
-747 895 0
126 -747 748 0
-748 896 0
127 -748 749 0
-749 897 0
128 -749 750 0
-750 898 0
129 -750 751 0
-751 899 0
130 -751 752 0
-752 900 0
131 -752 753 0
-753 901 0
132 -753 754 0
-754 902 0
133 -754 755 0
-755 903 0
134 -755 756 0
-756 904 0
135 -756 757 0
-757 905 0
136 -757 758 0
-758 906 0
137 -758 759 0
-759 907 0
138 -759 760 0
-760 908 0
139 -760 761 0
-761 909 0
140 -761 762 0
-762 910 0
141 -762 763 0
-763 911 0
142 -763 764 0
-764 912 0
143 -764 765 0
-765 913 0
144 -765 766 0
-766 914 0
145 -766 767 0
-767 915 0
146 -767 768 0
-768 916 0
147 -768 769 0
-769 917 0
148 -769 770 0
-770 918 0
149 -770 771 0
-771 919 0
150 -771 772 0
-772 920 0
151 -772 0
4 773 0
-773 921 0
5 -773 774 0
-774 922 0
6 -774 775 0
-775 923 0
7 -775 776 0
-776 924 0
8 -776 777 0
-777 925 0
9 -777 778 0
-778 926 0
10 -778 779 0
-779 927 0
11 -779 780 0
-780 928 0
12 -780 781 0
-781 929 0
13 -781 782 0
-782 930 0
14 -782 783 0
-783 931 0
15 -783 784 0
-784 932 0
16 -784 785 0
-785 933 0
17 -785 786 0
-786 934 0
18 -786 787 0
-787 935 0
19 -787 788 0
-788 936 0
20 -788 789 0
-789 937 0
21 -789 790 0
-790 938 0
22 -790 791 0
-791 939 0
23 -791 792 0
-792 940 0
24 -792 793 0
-793 941 0
25 -793 794 0
-794 942 0
26 -794 795 0
-795 943 0
27 -795 796 0
-796 944 0
28 -796 797 0
-797 945 0
29 -797 798 0
-798 946 0
30 -798 799 0
-799 947 0
31 -799 800 0
-800 948 0
32 -800 801 0
-801 949 0
33 -801 802 0
-802 950 0
34 -802 803 0
-803 951 0
35 -803 804 0
-804 952 0
36 -804 805 0
-805 953 0
37 -805 806 0
-806 954 0
38 -806 807 0
-807 955 0
39 -807 808 0
-808 956 0
40 -808 809 0
-809 957 0
41 -809 810 0
-810 958 0
42 -810 811 0
-811 959 0
43 -811 812 0
-812 960 0
44 -812 813 0
-813 961 0
45 -813 814 0
-814 962 0
46 -814 815 0
-815 963 0
47 -815 816 0
-816 964 0
48 -816 817 0
-817 965 0
49 -817 818 0
-818 966 0
50 -818 819 0
-819 967 0
51 -819 820 0
-820 968 0
52 -820 821 0
-821 969 0
53 -821 822 0
-822 970 0
54 -822 823 0
-823 971 0
55 -823 824 0
-824 972 0
56 -824 825 0
-825 973 0
57 -825 826 0
-826 974 0
58 -826 827 0
-827 975 0
59 -827 828 0
-828 976 0
60 -828 829 0
-829 977 0
61 -829 830 0
-830 978 0
62 -830 831 0
-831 979 0
63 -831 832 0
-832 980 0
64 -832 833 0
-833 981 0
65 -833 834 0
-834 982 0
66 -834 835 0
-835 983 0
67 -835 836 0
-836 984 0
68 -836 837 0
-837 985 0
69 -837 838 0
-838 986 0
70 -838 839 0
-839 987 0
71 -839 840 0
-840 988 0
72 -840 841 0
-841 989 0
73 -841 842 0
-842 990 0
74 -842 843 0
-843 991 0
75 -843 844 0
-844 992 0
76 -844 845 0
-845 993 0
77 -845 846 0
-846 994 0
78 -846 847 0
-847 995 0
79 -847 848 0
-848 996 0
80 -848 849 0
-849 997 0
81 -849 850 0
-850 998 0
82 -850 851 0
-851 999 0
83 -851 852 0
-852 1000 0
84 -852 853 0
-853 1001 0
85 -853 854 0
-854 1002 0
86 -854 855 0
-855 1003 0
87 -855 856 0
-856 1004 0
88 -856 857 0
-857 1005 0
89 -857 858 0
-858 1006 0
90 -858 859 0
-859 1007 0
91 -859 860 0
-860 1008 0
92 -860 861 0
-861 1009 0
93 -861 862 0
-862 1010 0
94 -862 863 0
-863 1011 0
95 -863 864 0
-864 1012 0
96 -864 865 0
-865 1013 0
97 -865 866 0
-866 1014 0
98 -866 867 0
-867 1015 0
99 -867 868 0
-868 1016 0
100 -868 869 0
-869 1017 0
101 -869 870 0
-870 1018 0
102 -870 871 0
-871 1019 0
103 -871 872 0
-872 1020 0
104 -872 873 0
-873 1021 0
105 -873 874 0
-874 1022 0
106 -874 875 0
-875 1023 0
107 -875 876 0
-876 1024 0
108 -876 877 0
-877 1025 0
109 -877 878 0
-878 1026 0
110 -878 879 0
-879 1027 0
111 -879 880 0
-880 1028 0
112 -880 881 0
-881 1029 0
113 -881 882 0
-882 1030 0
114 -882 883 0
-883 1031 0
115 -883 884 0
-884 1032 0
116 -884 885 0
-885 1033 0
117 -885 886 0
-886 1034 0
118 -886 887 0
-887 1035 0
119 -887 888 0
-888 1036 0
120 -888 889 0
-889 1037 0
121 -889 890 0
-890 1038 0
122 -890 891 0
-891 1039 0
123 -891 892 0
-892 1040 0
124 -892 893 0
-893 1041 0
125 -893 894 0
-894 1042 0
126 -894 895 0
-895 1043 0
127 -895 896 0
-896 1044 0
128 -896 897 0
-897 1045 0
129 -897 898 0
-898 1046 0
130 -898 899 0
-899 1047 0
131 -899 900 0
-900 1048 0
132 -900 901 0
-901 1049 0
133 -901 902 0
-902 1050 0
134 -902 903 0
-903 1051 0
135 -903 904 0
-904 1052 0
136 -904 905 0
-905 1053 0
137 -905 906 0
-906 1054 0
138 -906 907 0
-907 1055 0
139 -907 908 0
-908 1056 0
140 -908 909 0
-909 1057 0
141 -909 910 0
-910 1058 0
142 -910 911 0
-911 1059 0
143 -911 912 0
-912 1060 0
144 -912 913 0
-913 1061 0
145 -913 914 0
-914 1062 0
146 -914 915 0
-915 1063 0
147 -915 916 0
-916 1064 0
148 -916 917 0
-917 1065 0
149 -917 918 0
-918 1066 0
150 -918 919 0
-919 1067 0
151 -919 920 0
-920 1068 0
152 -920 0
5 921 0
-921 1069 0
6 -921 922 0
-922 1070 0
7 -922 923 0
-923 1071 0
8 -923 924 0
-924 1072 0
9 -924 925 0
-925 1073 0
10 -925 926 0
-926 1074 0
11 -926 927 0
-927 1075 0
12 -927 928 0
-928 1076 0
13 -928 929 0
-929 1077 0
14 -929 930 0
-930 1078 0
15 -930 931 0
-931 1079 0
16 -931 932 0
-932 1080 0
17 -932 933 0
-933 1081 0
18 -933 934 0
-934 1082 0
19 -934 935 0
-935 1083 0
20 -935 936 0
-936 1084 0
21 -936 937 0
-937 1085 0
22 -937 938 0
-938 1086 0
23 -938 939 0
-939 1087 0
24 -939 940 0
-940 1088 0
25 -940 941 0
-941 1089 0
26 -941 942 0
-942 1090 0
27 -942 943 0
-943 1091 0
28 -943 944 0
-944 1092 0
29 -944 945 0
-945 1093 0
30 -945 946 0
-946 1094 0
31 -946 947 0
-947 1095 0
32 -947 948 0
-948 1096 0
33 -948 949 0
-949 1097 0
34 -949 950 0
-950 1098 0
35 -950 951 0
-951 1099 0
36 -951 952 0
-952 1100 0
37 -952 953 0
-953 1101 0
38 -953 954 0
-954 1102 0
39 -954 955 0
-955 1103 0
40 -955 956 0
-956 1104 0
41 -956 957 0
-957 1105 0
42 -957 958 0
-958 1106 0
43 -958 959 0
-959 1107 0
44 -959 960 0
-960 1108 0
45 -960 961 0
-961 1109 0
46 -961 962 0
-962 1110 0
47 -962 963 0
-963 1111 0
48 -963 964 0
-964 1112 0
49 -964 965 0
-965 1113 0
50 -965 966 0
-966 1114 0
51 -966 967 0
-967 1115 0
52 -967 968 0
-968 1116 0
53 -968 969 0
-969 1117 0
54 -969 970 0
-970 1118 0
55 -970 971 0
-971 1119 0
56 -971 972 0
-972 1120 0
57 -972 973 0
-973 1121 0
58 -973 974 0
-974 1122 0
59 -974 975 0
-975 1123 0
60 -975 976 0
-976 1124 0
61 -976 977 0
-977 1125 0
62 -977 978 0
-978 1126 0
63 -978 979 0
-979 1127 0
64 -979 980 0
-980 1128 0
65 -980 981 0
-981 1129 0
66 -981 982 0
-982 1130 0
67 -982 983 0
-983 1131 0
68 -983 984 0
-984 1132 0
69 -984 985 0
-985 1133 0
70 -985 986 0
-986 1134 0
71 -986 987 0
-987 1135 0
72 -987 988 0
-988 1136 0
73 -988 989 0
-989 1137 0
74 -989 990 0
-990 1138 0
75 -990 991 0
-991 1139 0
76 -991 992 0
-992 1140 0
77 -992 993 0
-993 1141 0
78 -993 994 0
-994 1142 0
79 -994 995 0
-995 1143 0
80 -995 996 0
-996 1144 0
81 -996 997 0
-997 1145 0
82 -997 998 0
-998 1146 0
83 -998 999 0
-999 1147 0
84 -999 1000 0
-1000 1148 0
85 -1000 1001 0
-1001 1149 0
86 -1001 1002 0
-1002 1150 0
87 -1002 1003 0
-1003 1151 0
88 -1003 1004 0
-1004 1152 0
89 -1004 1005 0
-1005 1153 0
90 -1005 1006 0
-1006 1154 0
91 -1006 1007 0
-1007 1155 0
92 -1007 1008 0
-1008 1156 0
93 -1008 1009 0
-1009 1157 0
94 -1009 1010 0
-1010 1158 0
95 -1010 1011 0
-1011 1159 0
96 -1011 1012 0
-1012 1160 0
97 -1012 1013 0
-1013 1161 0
98 -1013 1014 0
-1014 1162 0
99 -1014 1015 0
-1015 1163 0
100 -1015 1016 0
-1016 1164 0
101 -1016 1017 0
-1017 1165 0
102 -1017 1018 0
-1018 1166 0
103 -1018 1019 0
-1019 1167 0
104 -1019 1020 0
-1020 1168 0
105 -1020 1021 0
-1021 1169 0
106 -1021 1022 0
-1022 1170 0
107 -1022 1023 0
-1023 1171 0
108 -1023 1024 0
-1024 1172 0
109 -1024 1025 0
-1025 1173 0
110 -1025 1026 0
-1026 1174 0
111 -1026 1027 0
-1027 1175 0
112 -1027 1028 0
-1028 1176 0
113 -1028 1029 0
-1029 1177 0
114 -1029 1030 0
-1030 1178 0
115 -1030 1031 0
-1031 1179 0
116 -1031 1032 0
-1032 1180 0
117 -1032 1033 0
-1033 1181 0
118 -1033 1034 0
-1034 1182 0
119 -1034 1035 0
-1035 1183 0
120 -1035 1036 0
-1036 1184 0
121 -1036 1037 0
-1037 1185 0
122 -1037 1038 0
-1038 1186 0
123 -1038 1039 0
-1039 1187 0
124 -1039 1040 0
-1040 1188 0
125 -1040 1041 0
-1041 1189 0
126 -1041 1042 0
-1042 1190 0
127 -1042 1043 0
-1043 1191 0
128 -1043 1044 0
-1044 1192 0
129 -1044 1045 0
-1045 1193 0
130 -1045 1046 0
-1046 1194 0
131 -1046 1047 0
-1047 1195 0
132 -1047 1048 0
-1048 1196 0
133 -1048 1049 0
-1049 1197 0
134 -1049 1050 0
-1050 1198 0
135 -1050 1051 0
-1051 1199 0
136 -1051 1052 0
-1052 1200 0
137 -1052 1053 0
-1053 1201 0
138 -1053 1054 0
-1054 1202 0
139 -1054 1055 0
-1055 1203 0
140 -1055 1056 0
-1056 1204 0
141 -1056 1057 0
-1057 1205 0
142 -1057 1058 0
-1058 1206 0
143 -1058 1059 0
-1059 1207 0
144 -1059 1060 0
-1060 1208 0
145 -1060 1061 0
-1061 1209 0
146 -1061 1062 0
-1062 1210 0
147 -1062 1063 0
-1063 1211 0
148 -1063 1064 0
-1064 1212 0
149 -1064 1065 0
-1065 1213 0
150 -1065 1066 0
-1066 1214 0
151 -1066 1067 0
-1067 1215 0
152 -1067 1068 0
-1068 1216 0
153 -1068 0
6 1069 0
-1069 1217 0
7 -1069 1070 0
-1070 1218 0
8 -1070 1071 0
-1071 1219 0
9 -1071 1072 0
-1072 1220 0
10 -1072 1073 0
-1073 1221 0
11 -1073 1074 0
-1074 1222 0
12 -1074 1075 0
-1075 1223 0
13 -1075 1076 0
-1076 1224 0
14 -1076 1077 0
-1077 1225 0
15 -1077 1078 0
-1078 1226 0
16 -1078 1079 0
-1079 1227 0
17 -1079 1080 0
-1080 1228 0
18 -1080 1081 0
-1081 1229 0
19 -1081 1082 0
-1082 1230 0
20 -1082 1083 0
-1083 1231 0
21 -1083 1084 0
-1084 1232 0
22 -1084 1085 0
-1085 1233 0
23 -1085 1086 0
-1086 1234 0
24 -1086 1087 0
-1087 1235 0
25 -1087 1088 0
-1088 1236 0
26 -1088 1089 0
-1089 1237 0
27 -1089 1090 0
-1090 1238 0
28 -1090 1091 0
-1091 1239 0
29 -1091 1092 0
-1092 1240 0
30 -1092 1093 0
-1093 1241 0
31 -1093 1094 0
-1094 1242 0
32 -1094 1095 0
-1095 1243 0
33 -1095 1096 0
-1096 1244 0
34 -1096 1097 0
-1097 1245 0
35 -1097 1098 0
-1098 1246 0
36 -1098 1099 0
-1099 1247 0
37 -1099 1100 0
-1100 1248 0
38 -1100 1101 0
-1101 1249 0
39 -1101 1102 0
-1102 1250 0
40 -1102 1103 0
-1103 1251 0
41 -1103 1104 0
-1104 1252 0
42 -1104 1105 0
-1105 1253 0
43 -1105 1106 0
-1106 1254 0
44 -1106 1107 0
-1107 1255 0
45 -1107 1108 0
-1108 1256 0
46 -1108 1109 0
-1109 1257 0
47 -1109 1110 0
-1110 1258 0
48 -1110 1111 0
-1111 1259 0
49 -1111 1112 0
-1112 1260 0
50 -1112 1113 0
-1113 1261 0
51 -1113 1114 0
-1114 1262 0
52 -1114 1115 0
-1115 1263 0
53 -1115 1116 0
-1116 1264 0
54 -1116 1117 0
-1117 1265 0
55 -1117 1118 0
-1118 1266 0
56 -1118 1119 0
-1119 1267 0
57 -1119 1120 0
-1120 1268 0
58 -1120 1121 0
-1121 1269 0
59 -1121 1122 0
-1122 1270 0
60 -1122 1123 0
-1123 1271 0
61 -1123 1124 0
-1124 1272 0
62 -1124 1125 0
-1125 1273 0
63 -1125 1126 0
-1126 1274 0
64 -1126 1127 0
-1127 1275 0
65 -1127 1128 0
-1128 1276 0
66 -1128 1129 0
-1129 1277 0
67 -1129 1130 0
-1130 1278 0
68 -1130 1131 0
-1131 1279 0
69 -1131 1132 0
-1132 1280 0
70 -1132 1133 0
-1133 1281 0
71 -1133 1134 0
-1134 1282 0
72 -1134 1135 0
-1135 1283 0
73 -1135 1136 0
-1136 1284 0
74 -1136 1137 0
-1137 1285 0
75 -1137 1138 0
-1138 1286 0
76 -1138 1139 0
-1139 1287 0
77 -1139 1140 0
-1140 1288 0
78 -1140 1141 0
-1141 1289 0
79 -1141 1142 0
-1142 1290 0
80 -1142 1143 0
-1143 1291 0
81 -1143 1144 0
-1144 1292 0
82 -1144 1145 0
-1145 1293 0
83 -1145 1146 0
-1146 1294 0
84 -1146 1147 0
-1147 1295 0
85 -1147 1148 0
-1148 1296 0
86 -1148 1149 0
-1149 1297 0
87 -1149 1150 0
-1150 1298 0
88 -1150 1151 0
-1151 1299 0
89 -1151 1152 0
-1152 1300 0
90 -1152 1153 0
-1153 1301 0
91 -1153 1154 0
-1154 1302 0
92 -1154 1155 0
-1155 1303 0
93 -1155 1156 0
-1156 1304 0
94 -1156 1157 0
-1157 1305 0
95 -1157 1158 0
-1158 1306 0
96 -1158 1159 0
-1159 1307 0
97 -1159 1160 0
-1160 1308 0
98 -1160 1161 0
-1161 1309 0
99 -1161 1162 0
-1162 1310 0
100 -1162 1163 0
-1163 1311 0
101 -1163 1164 0
-1164 1312 0
102 -1164 1165 0
-1165 1313 0
103 -1165 1166 0
-1166 1314 0
104 -1166 1167 0
-1167 1315 0
105 -1167 1168 0
-1168 1316 0
106 -1168 1169 0
-1169 1317 0
107 -1169 1170 0
-1170 1318 0
108 -1170 1171 0
-1171 1319 0
109 -1171 1172 0
-1172 1320 0
110 -1172 1173 0
-1173 1321 0
111 -1173 1174 0
-1174 1322 0
112 -1174 1175 0
-1175 1323 0
113 -1175 1176 0
-1176 1324 0
114 -1176 1177 0
-1177 1325 0
115 -1177 1178 0
-1178 1326 0
116 -1178 1179 0
-1179 1327 0
117 -1179 1180 0
-1180 1328 0
118 -1180 1181 0
-1181 1329 0
119 -1181 1182 0
-1182 1330 0
120 -1182 1183 0
-1183 1331 0
121 -1183 1184 0
-1184 1332 0
122 -1184 1185 0
-1185 1333 0
123 -1185 1186 0
-1186 1334 0
124 -1186 1187 0
-1187 1335 0
125 -1187 1188 0
-1188 1336 0
126 -1188 1189 0
-1189 1337 0
127 -1189 1190 0
-1190 1338 0
128 -1190 1191 0
-1191 1339 0
129 -1191 1192 0
-1192 1340 0
130 -1192 1193 0
-1193 1341 0
131 -1193 1194 0
-1194 1342 0
132 -1194 1195 0
-1195 1343 0
133 -1195 1196 0
-1196 1344 0
134 -1196 1197 0
-1197 1345 0
135 -1197 1198 0
-1198 1346 0
136 -1198 1199 0
-1199 1347 0
137 -1199 1200 0
-1200 1348 0
138 -1200 1201 0
-1201 1349 0
139 -1201 1202 0
-1202 1350 0
140 -1202 1203 0
-1203 1351 0
141 -1203 1204 0
-1204 1352 0
142 -1204 1205 0
-1205 1353 0
143 -1205 1206 0
-1206 1354 0
144 -1206 1207 0
-1207 1355 0
145 -1207 1208 0
-1208 1356 0
146 -1208 1209 0
-1209 1357 0
147 -1209 1210 0
-1210 1358 0
148 -1210 1211 0
-1211 1359 0
149 -1211 1212 0
-1212 1360 0
150 -1212 1213 0
-1213 1361 0
151 -1213 1214 0
-1214 1362 0
152 -1214 1215 0
-1215 1363 0
153 -1215 1216 0
-1216 1364 0
154 -1216 0
7 1217 0
-1217 1365 0
8 -1217 1218 0
-1218 1366 0
9 -1218 1219 0
-1219 1367 0
10 -1219 1220 0
-1220 1368 0
11 -1220 1221 0
-1221 1369 0
12 -1221 1222 0
-1222 1370 0
13 -1222 1223 0
-1223 1371 0
14 -1223 1224 0
-1224 1372 0
15 -1224 1225 0
-1225 1373 0
16 -1225 1226 0
-1226 1374 0
17 -1226 1227 0
-1227 1375 0
18 -1227 1228 0
-1228 1376 0
19 -1228 1229 0
-1229 1377 0
20 -1229 1230 0
-1230 1378 0
21 -1230 1231 0
-1231 1379 0
22 -1231 1232 0
-1232 1380 0
23 -1232 1233 0
-1233 1381 0
24 -1233 1234 0
-1234 1382 0
25 -1234 1235 0
-1235 1383 0
26 -1235 1236 0
-1236 1384 0
27 -1236 1237 0
-1237 1385 0
28 -1237 1238 0
-1238 1386 0
29 -1238 1239 0
-1239 1387 0
30 -1239 1240 0
-1240 1388 0
31 -1240 1241 0
-1241 1389 0
32 -1241 1242 0
-1242 1390 0
33 -1242 1243 0
-1243 1391 0
34 -1243 1244 0
-1244 1392 0
35 -1244 1245 0
-1245 1393 0
36 -1245 1246 0
-1246 1394 0
37 -1246 1247 0
-1247 1395 0
38 -1247 1248 0
-1248 1396 0
39 -1248 1249 0
-1249 1397 0
40 -1249 1250 0
-1250 1398 0
41 -1250 1251 0
-1251 1399 0
42 -1251 1252 0
-1252 1400 0
43 -1252 1253 0
-1253 1401 0
44 -1253 1254 0
-1254 1402 0
45 -1254 1255 0
-1255 1403 0
46 -1255 1256 0
-1256 1404 0
47 -1256 1257 0
-1257 1405 0
48 -1257 1258 0
-1258 1406 0
49 -1258 1259 0
-1259 1407 0
50 -1259 1260 0
-1260 1408 0
51 -1260 1261 0
-1261 1409 0
52 -1261 1262 0
-1262 1410 0
53 -1262 1263 0
-1263 1411 0
54 -1263 1264 0
-1264 1412 0
55 -1264 1265 0
-1265 1413 0
56 -1265 1266 0
-1266 1414 0
57 -1266 1267 0
-1267 1415 0
58 -1267 1268 0
-1268 1416 0
59 -1268 1269 0
-1269 1417 0
60 -1269 1270 0
-1270 1418 0
61 -1270 1271 0
-1271 1419 0
62 -1271 1272 0
-1272 1420 0
63 -1272 1273 0
-1273 1421 0
64 -1273 1274 0
-1274 1422 0
65 -1274 1275 0
-1275 1423 0
66 -1275 1276 0
-1276 1424 0
67 -1276 1277 0
-1277 1425 0
68 -1277 1278 0
-1278 1426 0
69 -1278 1279 0
-1279 1427 0
70 -1279 1280 0
-1280 1428 0
71 -1280 1281 0
-1281 1429 0
72 -1281 1282 0
-1282 1430 0
73 -1282 1283 0
-1283 1431 0
74 -1283 1284 0
-1284 1432 0
75 -1284 1285 0
-1285 1433 0
76 -1285 1286 0
-1286 1434 0
77 -1286 1287 0
-1287 1435 0
78 -1287 1288 0
-1288 1436 0
79 -1288 1289 0
-1289 1437 0
80 -1289 1290 0
-1290 1438 0
81 -1290 1291 0
-1291 1439 0
82 -1291 1292 0
-1292 1440 0
83 -1292 1293 0
-1293 1441 0
84 -1293 1294 0
-1294 1442 0
85 -1294 1295 0
-1295 1443 0
86 -1295 1296 0
-1296 1444 0
87 -1296 1297 0
-1297 1445 0
88 -1297 1298 0
-1298 1446 0
89 -1298 1299 0
-1299 1447 0
90 -1299 1300 0
-1300 1448 0
91 -1300 1301 0
-1301 1449 0
92 -1301 1302 0
-1302 1450 0
93 -1302 1303 0
-1303 1451 0
94 -1303 1304 0
-1304 1452 0
95 -1304 1305 0
-1305 1453 0
96 -1305 1306 0
-1306 1454 0
97 -1306 1307 0
-1307 1455 0
98 -1307 1308 0
-1308 1456 0
99 -1308 1309 0
-1309 1457 0
100 -1309 1310 0
-1310 1458 0
101 -1310 1311 0
-1311 1459 0
102 -1311 1312 0
-1312 1460 0
103 -1312 1313 0
-1313 1461 0
104 -1313 1314 0
-1314 1462 0
105 -1314 1315 0
-1315 1463 0
106 -1315 1316 0
-1316 1464 0
107 -1316 1317 0
-1317 1465 0
108 -1317 1318 0
-1318 1466 0
109 -1318 1319 0
-1319 1467 0
110 -1319 1320 0
-1320 1468 0
111 -1320 1321 0
-1321 1469 0
112 -1321 1322 0
-1322 1470 0
113 -1322 1323 0
-1323 1471 0
114 -1323 1324 0
-1324 1472 0
115 -1324 1325 0
-1325 1473 0
116 -1325 1326 0
-1326 1474 0
117 -1326 1327 0
-1327 1475 0
118 -1327 1328 0
-1328 1476 0
119 -1328 1329 0
-1329 1477 0
120 -1329 1330 0
-1330 1478 0
121 -1330 1331 0
-1331 1479 0
122 -1331 1332 0
-1332 1480 0
123 -1332 1333 0
-1333 1481 0
124 -1333 1334 0
-1334 1482 0
125 -1334 1335 0
-1335 1483 0
126 -1335 1336 0
-1336 1484 0
127 -1336 1337 0
-1337 1485 0
128 -1337 1338 0
-1338 1486 0
129 -1338 1339 0
-1339 1487 0
130 -1339 1340 0
-1340 1488 0
131 -1340 1341 0
-1341 1489 0
132 -1341 1342 0
-1342 1490 0
133 -1342 1343 0
-1343 1491 0
134 -1343 1344 0
-1344 1492 0
135 -1344 1345 0
-1345 1493 0
136 -1345 1346 0
-1346 1494 0
137 -1346 1347 0
-1347 1495 0
138 -1347 1348 0
-1348 1496 0
139 -1348 1349 0
-1349 1497 0
140 -1349 1350 0
-1350 1498 0
141 -1350 1351 0
-1351 1499 0
142 -1351 1352 0
-1352 1500 0
143 -1352 1353 0
-1353 1501 0
144 -1353 1354 0
-1354 1502 0
145 -1354 1355 0
-1355 1503 0
146 -1355 1356 0
-1356 1504 0
147 -1356 1357 0
-1357 1505 0
148 -1357 1358 0
-1358 1506 0
149 -1358 1359 0
-1359 1507 0
150 -1359 1360 0
-1360 1508 0
151 -1360 1361 0
-1361 1509 0
152 -1361 1362 0
-1362 1510 0
153 -1362 1363 0
-1363 1511 0
154 -1363 1364 0
-1364 1512 0
155 -1364 0
8 1365 0
-1365 1513 0
9 -1365 1366 0
-1366 1514 0
10 -1366 1367 0
-1367 1515 0
11 -1367 1368 0
-1368 1516 0
12 -1368 1369 0
-1369 1517 0
13 -1369 1370 0
-1370 1518 0
14 -1370 1371 0
-1371 1519 0
15 -1371 1372 0
-1372 1520 0
16 -1372 1373 0
-1373 1521 0
17 -1373 1374 0
-1374 1522 0
18 -1374 1375 0
-1375 1523 0
19 -1375 1376 0
-1376 1524 0
20 -1376 1377 0
-1377 1525 0
21 -1377 1378 0
-1378 1526 0
22 -1378 1379 0
-1379 1527 0
23 -1379 1380 0
-1380 1528 0
24 -1380 1381 0
-1381 1529 0
25 -1381 1382 0
-1382 1530 0
26 -1382 1383 0
-1383 1531 0
27 -1383 1384 0
-1384 1532 0
28 -1384 1385 0
-1385 1533 0
29 -1385 1386 0
-1386 1534 0
30 -1386 1387 0
-1387 1535 0
31 -1387 1388 0
-1388 1536 0
32 -1388 1389 0
-1389 1537 0
33 -1389 1390 0
-1390 1538 0
34 -1390 1391 0
-1391 1539 0
35 -1391 1392 0
-1392 1540 0
36 -1392 1393 0
-1393 1541 0
37 -1393 1394 0
-1394 1542 0
38 -1394 1395 0
-1395 1543 0
39 -1395 1396 0
-1396 1544 0
40 -1396 1397 0
-1397 1545 0
41 -1397 1398 0
-1398 1546 0
42 -1398 1399 0
-1399 1547 0
43 -1399 1400 0
-1400 1548 0
44 -1400 1401 0
-1401 1549 0
45 -1401 1402 0
-1402 1550 0
46 -1402 1403 0
-1403 1551 0
47 -1403 1404 0
-1404 1552 0
48 -1404 1405 0
-1405 1553 0
49 -1405 1406 0
-1406 1554 0
50 -1406 1407 0
-1407 1555 0
51 -1407 1408 0
-1408 1556 0
52 -1408 1409 0
-1409 1557 0
53 -1409 1410 0
-1410 1558 0
54 -1410 1411 0
-1411 1559 0
55 -1411 1412 0
-1412 1560 0
56 -1412 1413 0
-1413 1561 0
57 -1413 1414 0
-1414 1562 0
58 -1414 1415 0
-1415 1563 0
59 -1415 1416 0
-1416 1564 0
60 -1416 1417 0
-1417 1565 0
61 -1417 1418 0
-1418 1566 0
62 -1418 1419 0
-1419 1567 0
63 -1419 1420 0
-1420 1568 0
64 -1420 1421 0
-1421 1569 0
65 -1421 1422 0
-1422 1570 0
66 -1422 1423 0
-1423 1571 0
67 -1423 1424 0
-1424 1572 0
68 -1424 1425 0
-1425 1573 0
69 -1425 1426 0
-1426 1574 0
70 -1426 1427 0
-1427 1575 0
71 -1427 1428 0
-1428 1576 0
72 -1428 1429 0
-1429 1577 0
73 -1429 1430 0
-1430 1578 0
74 -1430 1431 0
-1431 1579 0
75 -1431 1432 0
-1432 1580 0
76 -1432 1433 0
-1433 1581 0
77 -1433 1434 0
-1434 1582 0
78 -1434 1435 0
-1435 1583 0
79 -1435 1436 0
-1436 1584 0
80 -1436 1437 0
-1437 1585 0
81 -1437 1438 0
-1438 1586 0
82 -1438 1439 0
-1439 1587 0
83 -1439 1440 0
-1440 1588 0
84 -1440 1441 0
-1441 1589 0
85 -1441 1442 0
-1442 1590 0
86 -1442 1443 0
-1443 1591 0
87 -1443 1444 0
-1444 1592 0
88 -1444 1445 0
-1445 1593 0
89 -1445 1446 0
-1446 1594 0
90 -1446 1447 0
-1447 1595 0
91 -1447 1448 0
-1448 1596 0
92 -1448 1449 0
-1449 1597 0
93 -1449 1450 0
-1450 1598 0
94 -1450 1451 0
-1451 1599 0
95 -1451 1452 0
-1452 1600 0
96 -1452 1453 0
-1453 1601 0
97 -1453 1454 0
-1454 1602 0
98 -1454 1455 0
-1455 1603 0
99 -1455 1456 0
-1456 1604 0
100 -1456 1457 0
-1457 1605 0
101 -1457 1458 0
-1458 1606 0
102 -1458 1459 0
-1459 1607 0
103 -1459 1460 0
-1460 1608 0
104 -1460 1461 0
-1461 1609 0
105 -1461 1462 0
-1462 1610 0
106 -1462 1463 0
-1463 1611 0
107 -1463 1464 0
-1464 1612 0
108 -1464 1465 0
-1465 1613 0
109 -1465 1466 0
-1466 1614 0
110 -1466 1467 0
-1467 1615 0
111 -1467 1468 0
-1468 1616 0
112 -1468 1469 0
-1469 1617 0
113 -1469 1470 0
-1470 1618 0
114 -1470 1471 0
-1471 1619 0
115 -1471 1472 0
-1472 1620 0
116 -1472 1473 0
-1473 1621 0
117 -1473 1474 0
-1474 1622 0
118 -1474 1475 0
-1475 1623 0
119 -1475 1476 0
-1476 1624 0
120 -1476 1477 0
-1477 1625 0
121 -1477 1478 0
-1478 1626 0
122 -1478 1479 0
-1479 1627 0
123 -1479 1480 0
-1480 1628 0
124 -1480 1481 0
-1481 1629 0
125 -1481 1482 0
-1482 1630 0
126 -1482 1483 0
-1483 1631 0
127 -1483 1484 0
-1484 1632 0
128 -1484 1485 0
-1485 1633 0
129 -1485 1486 0
-1486 1634 0
130 -1486 1487 0
-1487 1635 0
131 -1487 1488 0
-1488 1636 0
132 -1488 1489 0
-1489 1637 0
133 -1489 1490 0
-1490 1638 0
134 -1490 1491 0
-1491 1639 0
135 -1491 1492 0
-1492 1640 0
136 -1492 1493 0
-1493 1641 0
137 -1493 1494 0
-1494 1642 0
138 -1494 1495 0
-1495 1643 0
139 -1495 1496 0
-1496 1644 0
140 -1496 1497 0
-1497 1645 0
141 -1497 1498 0
-1498 1646 0
142 -1498 1499 0
-1499 1647 0
143 -1499 1500 0
-1500 1648 0
144 -1500 1501 0
-1501 1649 0
145 -1501 1502 0
-1502 1650 0
146 -1502 1503 0
-1503 1651 0
147 -1503 1504 0
-1504 1652 0
148 -1504 1505 0
-1505 1653 0
149 -1505 1506 0
-1506 1654 0
150 -1506 1507 0
-1507 1655 0
151 -1507 1508 0
-1508 1656 0
152 -1508 1509 0
-1509 1657 0
153 -1509 1510 0
-1510 1658 0
154 -1510 1511 0
-1511 1659 0
155 -1511 1512 0
-1512 1660 0
156 -1512 0
9 1513 0
-1513 1661 0
10 -1513 1514 0
-1514 1662 0
11 -1514 1515 0
-1515 1663 0
12 -1515 1516 0
-1516 1664 0
13 -1516 1517 0
-1517 1665 0
14 -1517 1518 0
-1518 1666 0
15 -1518 1519 0
-1519 1667 0
16 -1519 1520 0
-1520 1668 0
17 -1520 1521 0
-1521 1669 0
18 -1521 1522 0
-1522 1670 0
19 -1522 1523 0
-1523 1671 0
20 -1523 1524 0
-1524 1672 0
21 -1524 1525 0
-1525 1673 0
22 -1525 1526 0
-1526 1674 0
23 -1526 1527 0
-1527 1675 0
24 -1527 1528 0
-1528 1676 0
25 -1528 1529 0
-1529 1677 0
26 -1529 1530 0
-1530 1678 0
27 -1530 1531 0
-1531 1679 0
28 -1531 1532 0
-1532 1680 0
29 -1532 1533 0
-1533 1681 0
30 -1533 1534 0
-1534 1682 0
31 -1534 1535 0
-1535 1683 0
32 -1535 1536 0
-1536 1684 0
33 -1536 1537 0
-1537 1685 0
34 -1537 1538 0
-1538 1686 0
35 -1538 1539 0
-1539 1687 0
36 -1539 1540 0
-1540 1688 0
37 -1540 1541 0
-1541 1689 0
38 -1541 1542 0
-1542 1690 0
39 -1542 1543 0
-1543 1691 0
40 -1543 1544 0
-1544 1692 0
41 -1544 1545 0
-1545 1693 0
42 -1545 1546 0
-1546 1694 0
43 -1546 1547 0
-1547 1695 0
44 -1547 1548 0
-1548 1696 0
45 -1548 1549 0
-1549 1697 0
46 -1549 1550 0
-1550 1698 0
47 -1550 1551 0
-1551 1699 0
48 -1551 1552 0
-1552 1700 0
49 -1552 1553 0
-1553 1701 0
50 -1553 1554 0
-1554 1702 0
51 -1554 1555 0
-1555 1703 0
52 -1555 1556 0
-1556 1704 0
53 -1556 1557 0
-1557 1705 0
54 -1557 1558 0
-1558 1706 0
55 -1558 1559 0
-1559 1707 0
56 -1559 1560 0
-1560 1708 0
57 -1560 1561 0
-1561 1709 0
58 -1561 1562 0
-1562 1710 0
59 -1562 1563 0
-1563 1711 0
60 -1563 1564 0
-1564 1712 0
61 -1564 1565 0
-1565 1713 0
62 -1565 1566 0
-1566 1714 0
63 -1566 1567 0
-1567 1715 0
64 -1567 1568 0
-1568 1716 0
65 -1568 1569 0
-1569 1717 0
66 -1569 1570 0
-1570 1718 0
67 -1570 1571 0
-1571 1719 0
68 -1571 1572 0
-1572 1720 0
69 -1572 1573 0
-1573 1721 0
70 -1573 1574 0
-1574 1722 0
71 -1574 1575 0
-1575 1723 0
72 -1575 1576 0
-1576 1724 0
73 -1576 1577 0
-1577 1725 0
74 -1577 1578 0
-1578 1726 0
75 -1578 1579 0
-1579 1727 0
76 -1579 1580 0
-1580 1728 0
77 -1580 1581 0
-1581 1729 0
78 -1581 1582 0
-1582 1730 0
79 -1582 1583 0
-1583 1731 0
80 -1583 1584 0
-1584 1732 0
81 -1584 1585 0
-1585 1733 0
82 -1585 1586 0
-1586 1734 0
83 -1586 1587 0
-1587 1735 0
84 -1587 1588 0
-1588 1736 0
85 -1588 1589 0
-1589 1737 0
86 -1589 1590 0
-1590 1738 0
87 -1590 1591 0
-1591 1739 0
88 -1591 1592 0
-1592 1740 0
89 -1592 1593 0
-1593 1741 0
90 -1593 1594 0
-1594 1742 0
91 -1594 1595 0
-1595 1743 0
92 -1595 1596 0
-1596 1744 0
93 -1596 1597 0
-1597 1745 0
94 -1597 1598 0
-1598 1746 0
95 -1598 1599 0
-1599 1747 0
96 -1599 1600 0
-1600 1748 0
97 -1600 1601 0
-1601 1749 0
98 -1601 1602 0
-1602 1750 0
99 -1602 1603 0
-1603 1751 0
100 -1603 1604 0
-1604 1752 0
101 -1604 1605 0
-1605 1753 0
102 -1605 1606 0
-1606 1754 0
103 -1606 1607 0
-1607 1755 0
104 -1607 1608 0
-1608 1756 0
105 -1608 1609 0
-1609 1757 0
106 -1609 1610 0
-1610 1758 0
107 -1610 1611 0
-1611 1759 0
108 -1611 1612 0
-1612 1760 0
109 -1612 1613 0
-1613 1761 0
110 -1613 1614 0
-1614 1762 0
111 -1614 1615 0
-1615 1763 0
112 -1615 1616 0
-1616 1764 0
113 -1616 1617 0
-1617 1765 0
114 -1617 1618 0
-1618 1766 0
115 -1618 1619 0
-1619 1767 0
116 -1619 1620 0
-1620 1768 0
117 -1620 1621 0
-1621 1769 0
118 -1621 1622 0
-1622 1770 0
119 -1622 1623 0
-1623 1771 0
120 -1623 1624 0
-1624 1772 0
121 -1624 1625 0
-1625 1773 0
122 -1625 1626 0
-1626 1774 0
123 -1626 1627 0
-1627 1775 0
124 -1627 1628 0
-1628 1776 0
125 -1628 1629 0
-1629 1777 0
126 -1629 1630 0
-1630 1778 0
127 -1630 1631 0
-1631 1779 0
128 -1631 1632 0
-1632 1780 0
129 -1632 1633 0
-1633 1781 0
130 -1633 1634 0
-1634 1782 0
131 -1634 1635 0
-1635 1783 0
132 -1635 1636 0
-1636 1784 0
133 -1636 1637 0
-1637 1785 0
134 -1637 1638 0
-1638 1786 0
135 -1638 1639 0
-1639 1787 0
136 -1639 1640 0
-1640 1788 0
137 -1640 1641 0
-1641 1789 0
138 -1641 1642 0
-1642 1790 0
139 -1642 1643 0
-1643 1791 0
140 -1643 1644 0
-1644 1792 0
141 -1644 1645 0
-1645 1793 0
142 -1645 1646 0
-1646 1794 0
143 -1646 1647 0
-1647 1795 0
144 -1647 1648 0
-1648 1796 0
145 -1648 1649 0
-1649 1797 0
146 -1649 1650 0
-1650 1798 0
147 -1650 1651 0
-1651 1799 0
148 -1651 1652 0
-1652 1800 0
149 -1652 1653 0
-1653 1801 0
150 -1653 1654 0
-1654 1802 0
151 -1654 1655 0
-1655 1803 0
152 -1655 1656 0
-1656 1804 0
153 -1656 1657 0
-1657 1805 0
154 -1657 1658 0
-1658 1806 0
155 -1658 1659 0
-1659 1807 0
156 -1659 1660 0
-1660 1808 0
157 -1660 0
10 1661 0
-1661 1809 0
11 -1661 1662 0
-1662 1810 0
12 -1662 1663 0
-1663 1811 0
13 -1663 1664 0
-1664 1812 0
14 -1664 1665 0
-1665 1813 0
15 -1665 1666 0
-1666 1814 0
16 -1666 1667 0
-1667 1815 0
17 -1667 1668 0
-1668 1816 0
18 -1668 1669 0
-1669 1817 0
19 -1669 1670 0
-1670 1818 0
20 -1670 1671 0
-1671 1819 0
21 -1671 1672 0
-1672 1820 0
22 -1672 1673 0
-1673 1821 0
23 -1673 1674 0
-1674 1822 0
24 -1674 1675 0
-1675 1823 0
25 -1675 1676 0
-1676 1824 0
26 -1676 1677 0
-1677 1825 0
27 -1677 1678 0
-1678 1826 0
28 -1678 1679 0
-1679 1827 0
29 -1679 1680 0
-1680 1828 0
30 -1680 1681 0
-1681 1829 0
31 -1681 1682 0
-1682 1830 0
32 -1682 1683 0
-1683 1831 0
33 -1683 1684 0
-1684 1832 0
34 -1684 1685 0
-1685 1833 0
35 -1685 1686 0
-1686 1834 0
36 -1686 1687 0
-1687 1835 0
37 -1687 1688 0
-1688 1836 0
38 -1688 1689 0
-1689 1837 0
39 -1689 1690 0
-1690 1838 0
40 -1690 1691 0
-1691 1839 0
41 -1691 1692 0
-1692 1840 0
42 -1692 1693 0
-1693 1841 0
43 -1693 1694 0
-1694 1842 0
44 -1694 1695 0
-1695 1843 0
45 -1695 1696 0
-1696 1844 0
46 -1696 1697 0
-1697 1845 0
47 -1697 1698 0
-1698 1846 0
48 -1698 1699 0
-1699 1847 0
49 -1699 1700 0
-1700 1848 0
50 -1700 1701 0
-1701 1849 0
51 -1701 1702 0
-1702 1850 0
52 -1702 1703 0
-1703 1851 0
53 -1703 1704 0
-1704 1852 0
54 -1704 1705 0
-1705 1853 0
55 -1705 1706 0
-1706 1854 0
56 -1706 1707 0
-1707 1855 0
57 -1707 1708 0
-1708 1856 0
58 -1708 1709 0
-1709 1857 0
59 -1709 1710 0
-1710 1858 0
60 -1710 1711 0
-1711 1859 0
61 -1711 1712 0
-1712 1860 0
62 -1712 1713 0
-1713 1861 0
63 -1713 1714 0
-1714 1862 0
64 -1714 1715 0
-1715 1863 0
65 -1715 1716 0
-1716 1864 0
66 -1716 1717 0
-1717 1865 0
67 -1717 1718 0
-1718 1866 0
68 -1718 1719 0
-1719 1867 0
69 -1719 1720 0
-1720 1868 0
70 -1720 1721 0
-1721 1869 0
71 -1721 1722 0
-1722 1870 0
72 -1722 1723 0
-1723 1871 0
73 -1723 1724 0
-1724 1872 0
74 -1724 1725 0
-1725 1873 0
75 -1725 1726 0
-1726 1874 0
76 -1726 1727 0
-1727 1875 0
77 -1727 1728 0
-1728 1876 0
78 -1728 1729 0
-1729 1877 0
79 -1729 1730 0
-1730 1878 0
80 -1730 1731 0
-1731 1879 0
81 -1731 1732 0
-1732 1880 0
82 -1732 1733 0
-1733 1881 0
83 -1733 1734 0
-1734 1882 0
84 -1734 1735 0
-1735 1883 0
85 -1735 1736 0
-1736 1884 0
86 -1736 1737 0
-1737 1885 0
87 -1737 1738 0
-1738 1886 0
88 -1738 1739 0
-1739 1887 0
89 -1739 1740 0
-1740 1888 0
90 -1740 1741 0
-1741 1889 0
91 -1741 1742 0
-1742 1890 0
92 -1742 1743 0
-1743 1891 0
93 -1743 1744 0
-1744 1892 0
94 -1744 1745 0
-1745 1893 0
95 -1745 1746 0
-1746 1894 0
96 -1746 1747 0
-1747 1895 0
97 -1747 1748 0
-1748 1896 0
98 -1748 1749 0
-1749 1897 0
99 -1749 1750 0
-1750 1898 0
100 -1750 1751 0
-1751 1899 0
101 -1751 1752 0
-1752 1900 0
102 -1752 1753 0
-1753 1901 0
103 -1753 1754 0
-1754 1902 0
104 -1754 1755 0
-1755 1903 0
105 -1755 1756 0
-1756 1904 0
106 -1756 1757 0
-1757 1905 0
107 -1757 1758 0
-1758 1906 0
108 -1758 1759 0
-1759 1907 0
109 -1759 1760 0
-1760 1908 0
110 -1760 1761 0
-1761 1909 0
111 -1761 1762 0
-1762 1910 0
112 -1762 1763 0
-1763 1911 0
113 -1763 1764 0
-1764 1912 0
114 -1764 1765 0
-1765 1913 0
115 -1765 1766 0
-1766 1914 0
116 -1766 1767 0
-1767 1915 0
117 -1767 1768 0
-1768 1916 0
118 -1768 1769 0
-1769 1917 0
119 -1769 1770 0
-1770 1918 0
120 -1770 1771 0
-1771 1919 0
121 -1771 1772 0
-1772 1920 0
122 -1772 1773 0
-1773 1921 0
123 -1773 1774 0
-1774 1922 0
124 -1774 1775 0
-1775 1923 0
125 -1775 1776 0
-1776 1924 0
126 -1776 1777 0
-1777 1925 0
127 -1777 1778 0
-1778 1926 0
128 -1778 1779 0
-1779 1927 0
129 -1779 1780 0
-1780 1928 0
130 -1780 1781 0
-1781 1929 0
131 -1781 1782 0
-1782 1930 0
132 -1782 1783 0
-1783 1931 0
133 -1783 1784 0
-1784 1932 0
134 -1784 1785 0
-1785 1933 0
135 -1785 1786 0
-1786 1934 0
136 -1786 1787 0
-1787 1935 0
137 -1787 1788 0
-1788 1936 0
138 -1788 1789 0
-1789 1937 0
139 -1789 1790 0
-1790 1938 0
140 -1790 1791 0
-1791 1939 0
141 -1791 1792 0
-1792 1940 0
142 -1792 1793 0
-1793 1941 0
143 -1793 1794 0
-1794 1942 0
144 -1794 1795 0
-1795 1943 0
145 -1795 1796 0
-1796 1944 0
146 -1796 1797 0
-1797 1945 0
147 -1797 1798 0
-1798 1946 0
148 -1798 1799 0
-1799 1947 0
149 -1799 1800 0
-1800 1948 0
150 -1800 1801 0
-1801 1949 0
151 -1801 1802 0
-1802 1950 0
152 -1802 1803 0
-1803 1951 0
153 -1803 1804 0
-1804 1952 0
154 -1804 1805 0
-1805 1953 0
155 -1805 1806 0
-1806 1954 0
156 -1806 1807 0
-1807 1955 0
157 -1807 1808 0
-1808 1956 0
158 -1808 0
11 1809 0
-1809 1957 0
12 -1809 1810 0
-1810 1958 0
13 -1810 1811 0
-1811 1959 0
14 -1811 1812 0
-1812 1960 0
15 -1812 1813 0
-1813 1961 0
16 -1813 1814 0
-1814 1962 0
17 -1814 1815 0
-1815 1963 0
18 -1815 1816 0
-1816 1964 0
19 -1816 1817 0
-1817 1965 0
20 -1817 1818 0
-1818 1966 0
21 -1818 1819 0
-1819 1967 0
22 -1819 1820 0
-1820 1968 0
23 -1820 1821 0
-1821 1969 0
24 -1821 1822 0
-1822 1970 0
25 -1822 1823 0
-1823 1971 0
26 -1823 1824 0
-1824 1972 0
27 -1824 1825 0
-1825 1973 0
28 -1825 1826 0
-1826 1974 0
29 -1826 1827 0
-1827 1975 0
30 -1827 1828 0
-1828 1976 0
31 -1828 1829 0
-1829 1977 0
32 -1829 1830 0
-1830 1978 0
33 -1830 1831 0
-1831 1979 0
34 -1831 1832 0
-1832 1980 0
35 -1832 1833 0
-1833 1981 0
36 -1833 1834 0
-1834 1982 0
37 -1834 1835 0
-1835 1983 0
38 -1835 1836 0
-1836 1984 0
39 -1836 1837 0
-1837 1985 0
40 -1837 1838 0
-1838 1986 0
41 -1838 1839 0
-1839 1987 0
42 -1839 1840 0
-1840 1988 0
43 -1840 1841 0
-1841 1989 0
44 -1841 1842 0
-1842 1990 0
45 -1842 1843 0
-1843 1991 0
46 -1843 1844 0
-1844 1992 0
47 -1844 1845 0
-1845 1993 0
48 -1845 1846 0
-1846 1994 0
49 -1846 1847 0
-1847 1995 0
50 -1847 1848 0
-1848 1996 0
51 -1848 1849 0
-1849 1997 0
52 -1849 1850 0
-1850 1998 0
53 -1850 1851 0
-1851 1999 0
54 -1851 1852 0
-1852 2000 0
55 -1852 1853 0
-1853 2001 0
56 -1853 1854 0
-1854 2002 0
57 -1854 1855 0
-1855 2003 0
58 -1855 1856 0
-1856 2004 0
59 -1856 1857 0
-1857 2005 0
60 -1857 1858 0
-1858 2006 0
61 -1858 1859 0
-1859 2007 0
62 -1859 1860 0
-1860 2008 0
63 -1860 1861 0
-1861 2009 0
64 -1861 1862 0
-1862 2010 0
65 -1862 1863 0
-1863 2011 0
66 -1863 1864 0
-1864 2012 0
67 -1864 1865 0
-1865 2013 0
68 -1865 1866 0
-1866 2014 0
69 -1866 1867 0
-1867 2015 0
70 -1867 1868 0
-1868 2016 0
71 -1868 1869 0
-1869 2017 0
72 -1869 1870 0
-1870 2018 0
73 -1870 1871 0
-1871 2019 0
74 -1871 1872 0
-1872 2020 0
75 -1872 1873 0
-1873 2021 0
76 -1873 1874 0
-1874 2022 0
77 -1874 1875 0
-1875 2023 0
78 -1875 1876 0
-1876 2024 0
79 -1876 1877 0
-1877 2025 0
80 -1877 1878 0
-1878 2026 0
81 -1878 1879 0
-1879 2027 0
82 -1879 1880 0
-1880 2028 0
83 -1880 1881 0
-1881 2029 0
84 -1881 1882 0
-1882 2030 0
85 -1882 1883 0
-1883 2031 0
86 -1883 1884 0
-1884 2032 0
87 -1884 1885 0
-1885 2033 0
88 -1885 1886 0
-1886 2034 0
89 -1886 1887 0
-1887 2035 0
90 -1887 1888 0
-1888 2036 0
91 -1888 1889 0
-1889 2037 0
92 -1889 1890 0
-1890 2038 0
93 -1890 1891 0
-1891 2039 0
94 -1891 1892 0
-1892 2040 0
95 -1892 1893 0
-1893 2041 0
96 -1893 1894 0
-1894 2042 0
97 -1894 1895 0
-1895 2043 0
98 -1895 1896 0
-1896 2044 0
99 -1896 1897 0
-1897 2045 0
100 -1897 1898 0
-1898 2046 0
101 -1898 1899 0
-1899 2047 0
102 -1899 1900 0
-1900 2048 0
103 -1900 1901 0
-1901 2049 0
104 -1901 1902 0
-1902 2050 0
105 -1902 1903 0
-1903 2051 0
106 -1903 1904 0
-1904 2052 0
107 -1904 1905 0
-1905 2053 0
108 -1905 1906 0
-1906 2054 0
109 -1906 1907 0
-1907 2055 0
110 -1907 1908 0
-1908 2056 0
111 -1908 1909 0
-1909 2057 0
112 -1909 1910 0
-1910 2058 0
113 -1910 1911 0
-1911 2059 0
114 -1911 1912 0
-1912 2060 0
115 -1912 1913 0
-1913 2061 0
116 -1913 1914 0
-1914 2062 0
117 -1914 1915 0
-1915 2063 0
118 -1915 1916 0
-1916 2064 0
119 -1916 1917 0
-1917 2065 0
120 -1917 1918 0
-1918 2066 0
121 -1918 1919 0
-1919 2067 0
122 -1919 1920 0
-1920 2068 0
123 -1920 1921 0
-1921 2069 0
124 -1921 1922 0
-1922 2070 0
125 -1922 1923 0
-1923 2071 0
126 -1923 1924 0
-1924 2072 0
127 -1924 1925 0
-1925 2073 0
128 -1925 1926 0
-1926 2074 0
129 -1926 1927 0
-1927 2075 0
130 -1927 1928 0
-1928 2076 0
131 -1928 1929 0
-1929 2077 0
132 -1929 1930 0
-1930 2078 0
133 -1930 1931 0
-1931 2079 0
134 -1931 1932 0
-1932 2080 0
135 -1932 1933 0
-1933 2081 0
136 -1933 1934 0
-1934 2082 0
137 -1934 1935 0
-1935 2083 0
138 -1935 1936 0
-1936 2084 0
139 -1936 1937 0
-1937 2085 0
140 -1937 1938 0
-1938 2086 0
141 -1938 1939 0
-1939 2087 0
142 -1939 1940 0
-1940 2088 0
143 -1940 1941 0
-1941 2089 0
144 -1941 1942 0
-1942 2090 0
145 -1942 1943 0
-1943 2091 0
146 -1943 1944 0
-1944 2092 0
147 -1944 1945 0
-1945 2093 0
148 -1945 1946 0
-1946 2094 0
149 -1946 1947 0
-1947 2095 0
150 -1947 1948 0
-1948 2096 0
151 -1948 1949 0
-1949 2097 0
152 -1949 1950 0
-1950 2098 0
153 -1950 1951 0
-1951 2099 0
154 -1951 1952 0
-1952 2100 0
155 -1952 1953 0
-1953 2101 0
156 -1953 1954 0
-1954 2102 0
157 -1954 1955 0
-1955 2103 0
158 -1955 1956 0
-1956 2104 0
159 -1956 0
12 1957 0
-1957 2105 0
13 -1957 1958 0
-1958 2106 0
14 -1958 1959 0
-1959 2107 0
15 -1959 1960 0
-1960 2108 0
16 -1960 1961 0
-1961 2109 0
17 -1961 1962 0
-1962 2110 0
18 -1962 1963 0
-1963 2111 0
19 -1963 1964 0
-1964 2112 0
20 -1964 1965 0
-1965 2113 0
21 -1965 1966 0
-1966 2114 0
22 -1966 1967 0
-1967 2115 0
23 -1967 1968 0
-1968 2116 0
24 -1968 1969 0
-1969 2117 0
25 -1969 1970 0
-1970 2118 0
26 -1970 1971 0
-1971 2119 0
27 -1971 1972 0
-1972 2120 0
28 -1972 1973 0
-1973 2121 0
29 -1973 1974 0
-1974 2122 0
30 -1974 1975 0
-1975 2123 0
31 -1975 1976 0
-1976 2124 0
32 -1976 1977 0
-1977 2125 0
33 -1977 1978 0
-1978 2126 0
34 -1978 1979 0
-1979 2127 0
35 -1979 1980 0
-1980 2128 0
36 -1980 1981 0
-1981 2129 0
37 -1981 1982 0
-1982 2130 0
38 -1982 1983 0
-1983 2131 0
39 -1983 1984 0
-1984 2132 0
40 -1984 1985 0
-1985 2133 0
41 -1985 1986 0
-1986 2134 0
42 -1986 1987 0
-1987 2135 0
43 -1987 1988 0
-1988 2136 0
44 -1988 1989 0
-1989 2137 0
45 -1989 1990 0
-1990 2138 0
46 -1990 1991 0
-1991 2139 0
47 -1991 1992 0
-1992 2140 0
48 -1992 1993 0
-1993 2141 0
49 -1993 1994 0
-1994 2142 0
50 -1994 1995 0
-1995 2143 0
51 -1995 1996 0
-1996 2144 0
52 -1996 1997 0
-1997 2145 0
53 -1997 1998 0
-1998 2146 0
54 -1998 1999 0
-1999 2147 0
55 -1999 2000 0
-2000 2148 0
56 -2000 2001 0
-2001 2149 0
57 -2001 2002 0
-2002 2150 0
58 -2002 2003 0
-2003 2151 0
59 -2003 2004 0
-2004 2152 0
60 -2004 2005 0
-2005 2153 0
61 -2005 2006 0
-2006 2154 0
62 -2006 2007 0
-2007 2155 0
63 -2007 2008 0
-2008 2156 0
64 -2008 2009 0
-2009 2157 0
65 -2009 2010 0
-2010 2158 0
66 -2010 2011 0
-2011 2159 0
67 -2011 2012 0
-2012 2160 0
68 -2012 2013 0
-2013 2161 0
69 -2013 2014 0
-2014 2162 0
70 -2014 2015 0
-2015 2163 0
71 -2015 2016 0
-2016 2164 0
72 -2016 2017 0
-2017 2165 0
73 -2017 2018 0
-2018 2166 0
74 -2018 2019 0
-2019 2167 0
75 -2019 2020 0
-2020 2168 0
76 -2020 2021 0
-2021 2169 0
77 -2021 2022 0
-2022 2170 0
78 -2022 2023 0
-2023 2171 0
79 -2023 2024 0
-2024 2172 0
80 -2024 2025 0
-2025 2173 0
81 -2025 2026 0
-2026 2174 0
82 -2026 2027 0
-2027 2175 0
83 -2027 2028 0
-2028 2176 0
84 -2028 2029 0
-2029 2177 0
85 -2029 2030 0
-2030 2178 0
86 -2030 2031 0
-2031 2179 0
87 -2031 2032 0
-2032 2180 0
88 -2032 2033 0
-2033 2181 0
89 -2033 2034 0
-2034 2182 0
90 -2034 2035 0
-2035 2183 0
91 -2035 2036 0
-2036 2184 0
92 -2036 2037 0
-2037 2185 0
93 -2037 2038 0
-2038 2186 0
94 -2038 2039 0
-2039 2187 0
95 -2039 2040 0
-2040 2188 0
96 -2040 2041 0
-2041 2189 0
97 -2041 2042 0
-2042 2190 0
98 -2042 2043 0
-2043 2191 0
99 -2043 2044 0
-2044 2192 0
100 -2044 2045 0
-2045 2193 0
101 -2045 2046 0
-2046 2194 0
102 -2046 2047 0
-2047 2195 0
103 -2047 2048 0
-2048 2196 0
104 -2048 2049 0
-2049 2197 0
105 -2049 2050 0
-2050 2198 0
106 -2050 2051 0
-2051 2199 0
107 -2051 2052 0
-2052 2200 0
108 -2052 2053 0
-2053 2201 0
109 -2053 2054 0
-2054 2202 0
110 -2054 2055 0
-2055 2203 0
111 -2055 2056 0
-2056 2204 0
112 -2056 2057 0
-2057 2205 0
113 -2057 2058 0
-2058 2206 0
114 -2058 2059 0
-2059 2207 0
115 -2059 2060 0
-2060 2208 0
116 -2060 2061 0
-2061 2209 0
117 -2061 2062 0
-2062 2210 0
118 -2062 2063 0
-2063 2211 0
119 -2063 2064 0
-2064 2212 0
120 -2064 2065 0
-2065 2213 0
121 -2065 2066 0
-2066 2214 0
122 -2066 2067 0
-2067 2215 0
123 -2067 2068 0
-2068 2216 0
124 -2068 2069 0
-2069 2217 0
125 -2069 2070 0
-2070 2218 0
126 -2070 2071 0
-2071 2219 0
127 -2071 2072 0
-2072 2220 0
128 -2072 2073 0
-2073 2221 0
129 -2073 2074 0
-2074 2222 0
130 -2074 2075 0
-2075 2223 0
131 -2075 2076 0
-2076 2224 0
132 -2076 2077 0
-2077 2225 0
133 -2077 2078 0
-2078 2226 0
134 -2078 2079 0
-2079 2227 0
135 -2079 2080 0
-2080 2228 0
136 -2080 2081 0
-2081 2229 0
137 -2081 2082 0
-2082 2230 0
138 -2082 2083 0
-2083 2231 0
139 -2083 2084 0
-2084 2232 0
140 -2084 2085 0
-2085 2233 0
141 -2085 2086 0
-2086 2234 0
142 -2086 2087 0
-2087 2235 0
143 -2087 2088 0
-2088 2236 0
144 -2088 2089 0
-2089 2237 0
145 -2089 2090 0
-2090 2238 0
146 -2090 2091 0
-2091 2239 0
147 -2091 2092 0
-2092 2240 0
148 -2092 2093 0
-2093 2241 0
149 -2093 2094 0
-2094 2242 0
150 -2094 2095 0
-2095 2243 0
151 -2095 2096 0
-2096 2244 0
152 -2096 2097 0
-2097 2245 0
153 -2097 2098 0
-2098 2246 0
154 -2098 2099 0
-2099 2247 0
155 -2099 2100 0
-2100 2248 0
156 -2100 2101 0
-2101 2249 0
157 -2101 2102 0
-2102 2250 0
158 -2102 2103 0
-2103 2251 0
159 -2103 2104 0
-2104 2252 0
160 -2104 0
13 2105 0
-2105 2253 0
14 -2105 2106 0
-2106 2254 0
15 -2106 2107 0
-2107 2255 0
16 -2107 2108 0
-2108 2256 0
17 -2108 2109 0
-2109 2257 0
18 -2109 2110 0
-2110 2258 0
19 -2110 2111 0
-2111 2259 0
20 -2111 2112 0
-2112 2260 0
21 -2112 2113 0
-2113 2261 0
22 -2113 2114 0
-2114 2262 0
23 -2114 2115 0
-2115 2263 0
24 -2115 2116 0
-2116 2264 0
25 -2116 2117 0
-2117 2265 0
26 -2117 2118 0
-2118 2266 0
27 -2118 2119 0
-2119 2267 0
28 -2119 2120 0
-2120 2268 0
29 -2120 2121 0
-2121 2269 0
30 -2121 2122 0
-2122 2270 0
31 -2122 2123 0
-2123 2271 0
32 -2123 2124 0
-2124 2272 0
33 -2124 2125 0
-2125 2273 0
34 -2125 2126 0
-2126 2274 0
35 -2126 2127 0
-2127 2275 0
36 -2127 2128 0
-2128 2276 0
37 -2128 2129 0
-2129 2277 0
38 -2129 2130 0
-2130 2278 0
39 -2130 2131 0
-2131 2279 0
40 -2131 2132 0
-2132 2280 0
41 -2132 2133 0
-2133 2281 0
42 -2133 2134 0
-2134 2282 0
43 -2134 2135 0
-2135 2283 0
44 -2135 2136 0
-2136 2284 0
45 -2136 2137 0
-2137 2285 0
46 -2137 2138 0
-2138 2286 0
47 -2138 2139 0
-2139 2287 0
48 -2139 2140 0
-2140 2288 0
49 -2140 2141 0
-2141 2289 0
50 -2141 2142 0
-2142 2290 0
51 -2142 2143 0
-2143 2291 0
52 -2143 2144 0
-2144 2292 0
53 -2144 2145 0
-2145 2293 0
54 -2145 2146 0
-2146 2294 0
55 -2146 2147 0
-2147 2295 0
56 -2147 2148 0
-2148 2296 0
57 -2148 2149 0
-2149 2297 0
58 -2149 2150 0
-2150 2298 0
59 -2150 2151 0
-2151 2299 0
60 -2151 2152 0
-2152 2300 0
61 -2152 2153 0
-2153 2301 0
62 -2153 2154 0
-2154 2302 0
63 -2154 2155 0
-2155 2303 0
64 -2155 2156 0
-2156 2304 0
65 -2156 2157 0
-2157 2305 0
66 -2157 2158 0
-2158 2306 0
67 -2158 2159 0
-2159 2307 0
68 -2159 2160 0
-2160 2308 0
69 -2160 2161 0
-2161 2309 0
70 -2161 2162 0
-2162 2310 0
71 -2162 2163 0
-2163 2311 0
72 -2163 2164 0
-2164 2312 0
73 -2164 2165 0
-2165 2313 0
74 -2165 2166 0
-2166 2314 0
75 -2166 2167 0
-2167 2315 0
76 -2167 2168 0
-2168 2316 0
77 -2168 2169 0
-2169 2317 0
78 -2169 2170 0
-2170 2318 0
79 -2170 2171 0
-2171 2319 0
80 -2171 2172 0
-2172 2320 0
81 -2172 2173 0
-2173 2321 0
82 -2173 2174 0
-2174 2322 0
83 -2174 2175 0
-2175 2323 0
84 -2175 2176 0
-2176 2324 0
85 -2176 2177 0
-2177 2325 0
86 -2177 2178 0
-2178 2326 0
87 -2178 2179 0
-2179 2327 0
88 -2179 2180 0
-2180 2328 0
89 -2180 2181 0
-2181 2329 0
90 -2181 2182 0
-2182 2330 0
91 -2182 2183 0
-2183 2331 0
92 -2183 2184 0
-2184 2332 0
93 -2184 2185 0
-2185 2333 0
94 -2185 2186 0
-2186 2334 0
95 -2186 2187 0
-2187 2335 0
96 -2187 2188 0
-2188 2336 0
97 -2188 2189 0
-2189 2337 0
98 -2189 2190 0
-2190 2338 0
99 -2190 2191 0
-2191 2339 0
100 -2191 2192 0
-2192 2340 0
101 -2192 2193 0
-2193 2341 0
102 -2193 2194 0
-2194 2342 0
103 -2194 2195 0
-2195 2343 0
104 -2195 2196 0
-2196 2344 0
105 -2196 2197 0
-2197 2345 0
106 -2197 2198 0
-2198 2346 0
107 -2198 2199 0
-2199 2347 0
108 -2199 2200 0
-2200 2348 0
109 -2200 2201 0
-2201 2349 0
110 -2201 2202 0
-2202 2350 0
111 -2202 2203 0
-2203 2351 0
112 -2203 2204 0
-2204 2352 0
113 -2204 2205 0
-2205 2353 0
114 -2205 2206 0
-2206 2354 0
115 -2206 2207 0
-2207 2355 0
116 -2207 2208 0
-2208 2356 0
117 -2208 2209 0
-2209 2357 0
118 -2209 2210 0
-2210 2358 0
119 -2210 2211 0
-2211 2359 0
120 -2211 2212 0
-2212 2360 0
121 -2212 2213 0
-2213 2361 0
122 -2213 2214 0
-2214 2362 0
123 -2214 2215 0
-2215 2363 0
124 -2215 2216 0
-2216 2364 0
125 -2216 2217 0
-2217 2365 0
126 -2217 2218 0
-2218 2366 0
127 -2218 2219 0
-2219 2367 0
128 -2219 2220 0
-2220 2368 0
129 -2220 2221 0
-2221 2369 0
130 -2221 2222 0
-2222 2370 0
131 -2222 2223 0
-2223 2371 0
132 -2223 2224 0
-2224 2372 0
133 -2224 2225 0
-2225 2373 0
134 -2225 2226 0
-2226 2374 0
135 -2226 2227 0
-2227 2375 0
136 -2227 2228 0
-2228 2376 0
137 -2228 2229 0
-2229 2377 0
138 -2229 2230 0
-2230 2378 0
139 -2230 2231 0
-2231 2379 0
140 -2231 2232 0
-2232 2380 0
141 -2232 2233 0
-2233 2381 0
142 -2233 2234 0
-2234 2382 0
143 -2234 2235 0
-2235 2383 0
144 -2235 2236 0
-2236 2384 0
145 -2236 2237 0
-2237 2385 0
146 -2237 2238 0
-2238 2386 0
147 -2238 2239 0
-2239 2387 0
148 -2239 2240 0
-2240 2388 0
149 -2240 2241 0
-2241 2389 0
150 -2241 2242 0
-2242 2390 0
151 -2242 2243 0
-2243 2391 0
152 -2243 2244 0
-2244 2392 0
153 -2244 2245 0
-2245 2393 0
154 -2245 2246 0
-2246 2394 0
155 -2246 2247 0
-2247 2395 0
156 -2247 2248 0
-2248 2396 0
157 -2248 2249 0
-2249 2397 0
158 -2249 2250 0
-2250 2398 0
159 -2250 2251 0
-2251 2399 0
160 -2251 2252 0
-2252 2400 0
161 -2252 0
14 2253 0
-2253 2401 0
15 -2253 2254 0
-2254 2402 0
16 -2254 2255 0
-2255 2403 0
17 -2255 2256 0
-2256 2404 0
18 -2256 2257 0
-2257 2405 0
19 -2257 2258 0
-2258 2406 0
20 -2258 2259 0
-2259 2407 0
21 -2259 2260 0
-2260 2408 0
22 -2260 2261 0
-2261 2409 0
23 -2261 2262 0
-2262 2410 0
24 -2262 2263 0
-2263 2411 0
25 -2263 2264 0
-2264 2412 0
26 -2264 2265 0
-2265 2413 0
27 -2265 2266 0
-2266 2414 0
28 -2266 2267 0
-2267 2415 0
29 -2267 2268 0
-2268 2416 0
30 -2268 2269 0
-2269 2417 0
31 -2269 2270 0
-2270 2418 0
32 -2270 2271 0
-2271 2419 0
33 -2271 2272 0
-2272 2420 0
34 -2272 2273 0
-2273 2421 0
35 -2273 2274 0
-2274 2422 0
36 -2274 2275 0
-2275 2423 0
37 -2275 2276 0
-2276 2424 0
38 -2276 2277 0
-2277 2425 0
39 -2277 2278 0
-2278 2426 0
40 -2278 2279 0
-2279 2427 0
41 -2279 2280 0
-2280 2428 0
42 -2280 2281 0
-2281 2429 0
43 -2281 2282 0
-2282 2430 0
44 -2282 2283 0
-2283 2431 0
45 -2283 2284 0
-2284 2432 0
46 -2284 2285 0
-2285 2433 0
47 -2285 2286 0
-2286 2434 0
48 -2286 2287 0
-2287 2435 0
49 -2287 2288 0
-2288 2436 0
50 -2288 2289 0
-2289 2437 0
51 -2289 2290 0
-2290 2438 0
52 -2290 2291 0
-2291 2439 0
53 -2291 2292 0
-2292 2440 0
54 -2292 2293 0
-2293 2441 0
55 -2293 2294 0
-2294 2442 0
56 -2294 2295 0
-2295 2443 0
57 -2295 2296 0
-2296 2444 0
58 -2296 2297 0
-2297 2445 0
59 -2297 2298 0
-2298 2446 0
60 -2298 2299 0
-2299 2447 0
61 -2299 2300 0
-2300 2448 0
62 -2300 2301 0
-2301 2449 0
63 -2301 2302 0
-2302 2450 0
64 -2302 2303 0
-2303 2451 0
65 -2303 2304 0
-2304 2452 0
66 -2304 2305 0
-2305 2453 0
67 -2305 2306 0
-2306 2454 0
68 -2306 2307 0
-2307 2455 0
69 -2307 2308 0
-2308 2456 0
70 -2308 2309 0
-2309 2457 0
71 -2309 2310 0
-2310 2458 0
72 -2310 2311 0
-2311 2459 0
73 -2311 2312 0
-2312 2460 0
74 -2312 2313 0
-2313 2461 0
75 -2313 2314 0
-2314 2462 0
76 -2314 2315 0
-2315 2463 0
77 -2315 2316 0
-2316 2464 0
78 -2316 2317 0
-2317 2465 0
79 -2317 2318 0
-2318 2466 0
80 -2318 2319 0
-2319 2467 0
81 -2319 2320 0
-2320 2468 0
82 -2320 2321 0
-2321 2469 0
83 -2321 2322 0
-2322 2470 0
84 -2322 2323 0
-2323 2471 0
85 -2323 2324 0
-2324 2472 0
86 -2324 2325 0
-2325 2473 0
87 -2325 2326 0
-2326 2474 0
88 -2326 2327 0
-2327 2475 0
89 -2327 2328 0
-2328 2476 0
90 -2328 2329 0
-2329 2477 0
91 -2329 2330 0
-2330 2478 0
92 -2330 2331 0
-2331 2479 0
93 -2331 2332 0
-2332 2480 0
94 -2332 2333 0
-2333 2481 0
95 -2333 2334 0
-2334 2482 0
96 -2334 2335 0
-2335 2483 0
97 -2335 2336 0
-2336 2484 0
98 -2336 2337 0
-2337 2485 0
99 -2337 2338 0
-2338 2486 0
100 -2338 2339 0
-2339 2487 0
101 -2339 2340 0
-2340 2488 0
102 -2340 2341 0
-2341 2489 0
103 -2341 2342 0
-2342 2490 0
104 -2342 2343 0
-2343 2491 0
105 -2343 2344 0
-2344 2492 0
106 -2344 2345 0
-2345 2493 0
107 -2345 2346 0
-2346 2494 0
108 -2346 2347 0
-2347 2495 0
109 -2347 2348 0
-2348 2496 0
110 -2348 2349 0
-2349 2497 0
111 -2349 2350 0
-2350 2498 0
112 -2350 2351 0
-2351 2499 0
113 -2351 2352 0
-2352 2500 0
114 -2352 2353 0
-2353 2501 0
115 -2353 2354 0
-2354 2502 0
116 -2354 2355 0
-2355 2503 0
117 -2355 2356 0
-2356 2504 0
118 -2356 2357 0
-2357 2505 0
119 -2357 2358 0
-2358 2506 0
120 -2358 2359 0
-2359 2507 0
121 -2359 2360 0
-2360 2508 0
122 -2360 2361 0
-2361 2509 0
123 -2361 2362 0
-2362 2510 0
124 -2362 2363 0
-2363 2511 0
125 -2363 2364 0
-2364 2512 0
126 -2364 2365 0
-2365 2513 0
127 -2365 2366 0
-2366 2514 0
128 -2366 2367 0
-2367 2515 0
129 -2367 2368 0
-2368 2516 0
130 -2368 2369 0
-2369 2517 0
131 -2369 2370 0
-2370 2518 0
132 -2370 2371 0
-2371 2519 0
133 -2371 2372 0
-2372 2520 0
134 -2372 2373 0
-2373 2521 0
135 -2373 2374 0
-2374 2522 0
136 -2374 2375 0
-2375 2523 0
137 -2375 2376 0
-2376 2524 0
138 -2376 2377 0
-2377 2525 0
139 -2377 2378 0
-2378 2526 0
140 -2378 2379 0
-2379 2527 0
141 -2379 2380 0
-2380 2528 0
142 -2380 2381 0
-2381 2529 0
143 -2381 2382 0
-2382 2530 0
144 -2382 2383 0
-2383 2531 0
145 -2383 2384 0
-2384 2532 0
146 -2384 2385 0
-2385 2533 0
147 -2385 2386 0
-2386 2534 0
148 -2386 2387 0
-2387 2535 0
149 -2387 2388 0
-2388 2536 0
150 -2388 2389 0
-2389 2537 0
151 -2389 2390 0
-2390 2538 0
152 -2390 2391 0
-2391 2539 0
153 -2391 2392 0
-2392 2540 0
154 -2392 2393 0
-2393 2541 0
155 -2393 2394 0
-2394 2542 0
156 -2394 2395 0
-2395 2543 0
157 -2395 2396 0
-2396 2544 0
158 -2396 2397 0
-2397 2545 0
159 -2397 2398 0
-2398 2546 0
160 -2398 2399 0
-2399 2547 0
161 -2399 2400 0
-2400 2548 0
162 -2400 0
15 2401 0
-2401 2549 0
16 -2401 2402 0
-2402 2550 0
17 -2402 2403 0
-2403 2551 0
18 -2403 2404 0
-2404 2552 0
19 -2404 2405 0
-2405 2553 0
20 -2405 2406 0
-2406 2554 0
21 -2406 2407 0
-2407 2555 0
22 -2407 2408 0
-2408 2556 0
23 -2408 2409 0
-2409 2557 0
24 -2409 2410 0
-2410 2558 0
25 -2410 2411 0
-2411 2559 0
26 -2411 2412 0
-2412 2560 0
27 -2412 2413 0
-2413 2561 0
28 -2413 2414 0
-2414 2562 0
29 -2414 2415 0
-2415 2563 0
30 -2415 2416 0
-2416 2564 0
31 -2416 2417 0
-2417 2565 0
32 -2417 2418 0
-2418 2566 0
33 -2418 2419 0
-2419 2567 0
34 -2419 2420 0
-2420 2568 0
35 -2420 2421 0
-2421 2569 0
36 -2421 2422 0
-2422 2570 0
37 -2422 2423 0
-2423 2571 0
38 -2423 2424 0
-2424 2572 0
39 -2424 2425 0
-2425 2573 0
40 -2425 2426 0
-2426 2574 0
41 -2426 2427 0
-2427 2575 0
42 -2427 2428 0
-2428 2576 0
43 -2428 2429 0
-2429 2577 0
44 -2429 2430 0
-2430 2578 0
45 -2430 2431 0
-2431 2579 0
46 -2431 2432 0
-2432 2580 0
47 -2432 2433 0
-2433 2581 0
48 -2433 2434 0
-2434 2582 0
49 -2434 2435 0
-2435 2583 0
50 -2435 2436 0
-2436 2584 0
51 -2436 2437 0
-2437 2585 0
52 -2437 2438 0
-2438 2586 0
53 -2438 2439 0
-2439 2587 0
54 -2439 2440 0
-2440 2588 0
55 -2440 2441 0
-2441 2589 0
56 -2441 2442 0
-2442 2590 0
57 -2442 2443 0
-2443 2591 0
58 -2443 2444 0
-2444 2592 0
59 -2444 2445 0
-2445 2593 0
60 -2445 2446 0
-2446 2594 0
61 -2446 2447 0
-2447 2595 0
62 -2447 2448 0
-2448 2596 0
63 -2448 2449 0
-2449 2597 0
64 -2449 2450 0
-2450 2598 0
65 -2450 2451 0
-2451 2599 0
66 -2451 2452 0
-2452 2600 0
67 -2452 2453 0
-2453 2601 0
68 -2453 2454 0
-2454 2602 0
69 -2454 2455 0
-2455 2603 0
70 -2455 2456 0
-2456 2604 0
71 -2456 2457 0
-2457 2605 0
72 -2457 2458 0
-2458 2606 0
73 -2458 2459 0
-2459 2607 0
74 -2459 2460 0
-2460 2608 0
75 -2460 2461 0
-2461 2609 0
76 -2461 2462 0
-2462 2610 0
77 -2462 2463 0
-2463 2611 0
78 -2463 2464 0
-2464 2612 0
79 -2464 2465 0
-2465 2613 0
80 -2465 2466 0
-2466 2614 0
81 -2466 2467 0
-2467 2615 0
82 -2467 2468 0
-2468 2616 0
83 -2468 2469 0
-2469 2617 0
84 -2469 2470 0
-2470 2618 0
85 -2470 2471 0
-2471 2619 0
86 -2471 2472 0
-2472 2620 0
87 -2472 2473 0
-2473 2621 0
88 -2473 2474 0
-2474 2622 0
89 -2474 2475 0
-2475 2623 0
90 -2475 2476 0
-2476 2624 0
91 -2476 2477 0
-2477 2625 0
92 -2477 2478 0
-2478 2626 0
93 -2478 2479 0
-2479 2627 0
94 -2479 2480 0
-2480 2628 0
95 -2480 2481 0
-2481 2629 0
96 -2481 2482 0
-2482 2630 0
97 -2482 2483 0
-2483 2631 0
98 -2483 2484 0
-2484 2632 0
99 -2484 2485 0
-2485 2633 0
100 -2485 2486 0
-2486 2634 0
101 -2486 2487 0
-2487 2635 0
102 -2487 2488 0
-2488 2636 0
103 -2488 2489 0
-2489 2637 0
104 -2489 2490 0
-2490 2638 0
105 -2490 2491 0
-2491 2639 0
106 -2491 2492 0
-2492 2640 0
107 -2492 2493 0
-2493 2641 0
108 -2493 2494 0
-2494 2642 0
109 -2494 2495 0
-2495 2643 0
110 -2495 2496 0
-2496 2644 0
111 -2496 2497 0
-2497 2645 0
112 -2497 2498 0
-2498 2646 0
113 -2498 2499 0
-2499 2647 0
114 -2499 2500 0
-2500 2648 0
115 -2500 2501 0
-2501 2649 0
116 -2501 2502 0
-2502 2650 0
117 -2502 2503 0
-2503 2651 0
118 -2503 2504 0
-2504 2652 0
119 -2504 2505 0
-2505 2653 0
120 -2505 2506 0
-2506 2654 0
121 -2506 2507 0
-2507 2655 0
122 -2507 2508 0
-2508 2656 0
123 -2508 2509 0
-2509 2657 0
124 -2509 2510 0
-2510 2658 0
125 -2510 2511 0
-2511 2659 0
126 -2511 2512 0
-2512 2660 0
127 -2512 2513 0
-2513 2661 0
128 -2513 2514 0
-2514 2662 0
129 -2514 2515 0
-2515 2663 0
130 -2515 2516 0
-2516 2664 0
131 -2516 2517 0
-2517 2665 0
132 -2517 2518 0
-2518 2666 0
133 -2518 2519 0
-2519 2667 0
134 -2519 2520 0
-2520 2668 0
135 -2520 2521 0
-2521 2669 0
136 -2521 2522 0
-2522 2670 0
137 -2522 2523 0
-2523 2671 0
138 -2523 2524 0
-2524 2672 0
139 -2524 2525 0
-2525 2673 0
140 -2525 2526 0
-2526 2674 0
141 -2526 2527 0
-2527 2675 0
142 -2527 2528 0
-2528 2676 0
143 -2528 2529 0
-2529 2677 0
144 -2529 2530 0
-2530 2678 0
145 -2530 2531 0
-2531 2679 0
146 -2531 2532 0
-2532 2680 0
147 -2532 2533 0
-2533 2681 0
148 -2533 2534 0
-2534 2682 0
149 -2534 2535 0
-2535 2683 0
150 -2535 2536 0
-2536 2684 0
151 -2536 2537 0
-2537 2685 0
152 -2537 2538 0
-2538 2686 0
153 -2538 2539 0
-2539 2687 0
154 -2539 2540 0
-2540 2688 0
155 -2540 2541 0
-2541 2689 0
156 -2541 2542 0
-2542 2690 0
157 -2542 2543 0
-2543 2691 0
158 -2543 2544 0
-2544 2692 0
159 -2544 2545 0
-2545 2693 0
160 -2545 2546 0
-2546 2694 0
161 -2546 2547 0
-2547 2695 0
162 -2547 2548 0
-2548 2696 0
163 -2548 0
16 2549 0
17 -2549 2550 0
18 -2550 2551 0
19 -2551 2552 0
20 -2552 2553 0
21 -2553 2554 0
22 -2554 2555 0
23 -2555 2556 0
24 -2556 2557 0
25 -2557 2558 0
26 -2558 2559 0
27 -2559 2560 0
28 -2560 2561 0
29 -2561 2562 0
30 -2562 2563 0
31 -2563 2564 0
32 -2564 2565 0
33 -2565 2566 0
34 -2566 2567 0
35 -2567 2568 0
36 -2568 2569 0
37 -2569 2570 0
38 -2570 2571 0
39 -2571 2572 0
40 -2572 2573 0
41 -2573 2574 0
42 -2574 2575 0
43 -2575 2576 0
44 -2576 2577 0
45 -2577 2578 0
46 -2578 2579 0
47 -2579 2580 0
48 -2580 2581 0
49 -2581 2582 0
50 -2582 2583 0
51 -2583 2584 0
52 -2584 2585 0
53 -2585 2586 0
54 -2586 2587 0
55 -2587 2588 0
56 -2588 2589 0
57 -2589 2590 0
58 -2590 2591 0
59 -2591 2592 0
60 -2592 2593 0
61 -2593 2594 0
62 -2594 2595 0
63 -2595 2596 0
64 -2596 2597 0
65 -2597 2598 0
66 -2598 2599 0
67 -2599 2600 0
68 -2600 2601 0
69 -2601 2602 0
70 -2602 2603 0
71 -2603 2604 0
72 -2604 2605 0
73 -2605 2606 0
74 -2606 2607 0
75 -2607 2608 0
76 -2608 2609 0
77 -2609 2610 0
78 -2610 2611 0
79 -2611 2612 0
80 -2612 2613 0
81 -2613 2614 0
82 -2614 2615 0
83 -2615 2616 0
84 -2616 2617 0
85 -2617 2618 0
86 -2618 2619 0
87 -2619 2620 0
88 -2620 2621 0
89 -2621 2622 0
90 -2622 2623 0
91 -2623 2624 0
92 -2624 2625 0
93 -2625 2626 0
94 -2626 2627 0
95 -2627 2628 0
96 -2628 2629 0
97 -2629 2630 0
98 -2630 2631 0
99 -2631 2632 0
100 -2632 2633 0
101 -2633 2634 0
102 -2634 2635 0
103 -2635 2636 0
104 -2636 2637 0
105 -2637 2638 0
106 -2638 2639 0
107 -2639 2640 0
108 -2640 2641 0
109 -2641 2642 0
110 -2642 2643 0
111 -2643 2644 0
112 -2644 2645 0
113 -2645 2646 0
114 -2646 2647 0
115 -2647 2648 0
116 -2648 2649 0
117 -2649 2650 0
118 -2650 2651 0
119 -2651 2652 0
120 -2652 2653 0
121 -2653 2654 0
122 -2654 2655 0
123 -2655 2656 0
124 -2656 2657 0
125 -2657 2658 0
126 -2658 2659 0
127 -2659 2660 0
128 -2660 2661 0
129 -2661 2662 0
130 -2662 2663 0
131 -2663 2664 0
132 -2664 2665 0
133 -2665 2666 0
134 -2666 2667 0
135 -2667 2668 0
136 -2668 2669 0
137 -2669 2670 0
138 -2670 2671 0
139 -2671 2672 0
140 -2672 2673 0
141 -2673 2674 0
142 -2674 2675 0
143 -2675 2676 0
144 -2676 2677 0
145 -2677 2678 0
146 -2678 2679 0
147 -2679 2680 0
148 -2680 2681 0
149 -2681 2682 0
150 -2682 2683 0
151 -2683 2684 0
152 -2684 2685 0
153 -2685 2686 0
154 -2686 2687 0
155 -2687 2688 0
156 -2688 2689 0
157 -2689 2690 0
158 -2690 2691 0
159 -2691 2692 0
160 -2692 2693 0
161 -2693 2694 0
162 -2694 2695 0
163 -2695 2696 0
164 -2696 0
-1 2697 0
-2697 2698 0
-2 -2697 2699 0
-2699 2700 0
-3 -2699 2701 0
-2701 2702 0
-4 -2701 2703 0
-2703 2704 0
-5 -2703 2705 0
-2705 2706 0
-6 -2705 2707 0
-2707 2708 0
-7 -2707 2709 0
-2709 2710 0
-8 -2709 2711 0
-2711 2712 0
-9 -2711 2713 0
-2713 2714 0
-10 -2713 2715 0
-2715 2716 0
-11 -2715 2717 0
-2717 2718 0
-12 -2717 2719 0
-2719 2720 0
-13 -2719 2721 0
-2721 2722 0
-14 -2721 2723 0
-2723 2724 0
-15 -2723 2725 0
-2725 2726 0
-16 -2725 2727 0
-2727 2728 0
-17 -2727 0
-2 2698 0
-2698 2729 0
-3 -2698 2700 0
-2700 2730 0
-4 -2700 2702 0
-2702 2731 0
-5 -2702 2704 0
-2704 2732 0
-6 -2704 2706 0
-2706 2733 0
-7 -2706 2708 0
-2708 2734 0
-8 -2708 2710 0
-2710 2735 0
-9 -2710 2712 0
-2712 2736 0
-10 -2712 2714 0
-2714 2737 0
-11 -2714 2716 0
-2716 2738 0
-12 -2716 2718 0
-2718 2739 0
-13 -2718 2720 0
-2720 2740 0
-14 -2720 2722 0
-2722 2741 0
-15 -2722 2724 0
-2724 2742 0
-16 -2724 2726 0
-2726 2743 0
-17 -2726 2728 0
-2728 2744 0
-18 -2728 0
-3 2729 0
-2729 2745 0
-4 -2729 2730 0
-2730 2746 0
-5 -2730 2731 0
-2731 2747 0
-6 -2731 2732 0
-2732 2748 0
-7 -2732 2733 0
-2733 2749 0
-8 -2733 2734 0
-2734 2750 0
-9 -2734 2735 0
-2735 2751 0
-10 -2735 2736 0
-2736 2752 0
-11 -2736 2737 0
-2737 2753 0
-12 -2737 2738 0
-2738 2754 0
-13 -2738 2739 0
-2739 2755 0
-14 -2739 2740 0
-2740 2756 0
-15 -2740 2741 0
-2741 2757 0
-16 -2741 2742 0
-2742 2758 0
-17 -2742 2743 0
-2743 2759 0
-18 -2743 2744 0
-2744 2760 0
-19 -2744 0
-4 2745 0
-2745 2761 0
-5 -2745 2746 0
-2746 2762 0
-6 -2746 2747 0
-2747 2763 0
-7 -2747 2748 0
-2748 2764 0
-8 -2748 2749 0
-2749 2765 0
-9 -2749 2750 0
-2750 2766 0
-10 -2750 2751 0
-2751 2767 0
-11 -2751 2752 0
-2752 2768 0
-12 -2752 2753 0
-2753 2769 0
-13 -2753 2754 0
-2754 2770 0
-14 -2754 2755 0
-2755 2771 0
-15 -2755 2756 0
-2756 2772 0
-16 -2756 2757 0
-2757 2773 0
-17 -2757 2758 0
-2758 2774 0
-18 -2758 2759 0
-2759 2775 0
-19 -2759 2760 0
-2760 2776 0
-20 -2760 0
-5 2761 0
-2761 2777 0
-6 -2761 2762 0
-2762 2778 0
-7 -2762 2763 0
-2763 2779 0
-8 -2763 2764 0
-2764 2780 0
-9 -2764 2765 0
-2765 2781 0
-10 -2765 2766 0
-2766 2782 0
-11 -2766 2767 0
-2767 2783 0
-12 -2767 2768 0
-2768 2784 0
-13 -2768 2769 0
-2769 2785 0
-14 -2769 2770 0
-2770 2786 0
-15 -2770 2771 0
-2771 2787 0
-16 -2771 2772 0
-2772 2788 0
-17 -2772 2773 0
-2773 2789 0
-18 -2773 2774 0
-2774 2790 0
-19 -2774 2775 0
-2775 2791 0
-20 -2775 2776 0
-2776 2792 0
-21 -2776 0
-6 2777 0
-2777 2793 0
-7 -2777 2778 0
-2778 2794 0
-8 -2778 2779 0
-2779 2795 0
-9 -2779 2780 0
-2780 2796 0
-10 -2780 2781 0
-2781 2797 0
-11 -2781 2782 0
-2782 2798 0
-12 -2782 2783 0
-2783 2799 0
-13 -2783 2784 0
-2784 2800 0
-14 -2784 2785 0
-2785 2801 0
-15 -2785 2786 0
-2786 2802 0
-16 -2786 2787 0
-2787 2803 0
-17 -2787 2788 0
-2788 2804 0
-18 -2788 2789 0
-2789 2805 0
-19 -2789 2790 0
-2790 2806 0
-20 -2790 2791 0
-2791 2807 0
-21 -2791 2792 0
-2792 2808 0
-22 -2792 0
-7 2793 0
-2793 2809 0
-8 -2793 2794 0
-2794 2810 0
-9 -2794 2795 0
-2795 2811 0
-10 -2795 2796 0
-2796 2812 0
-11 -2796 2797 0
-2797 2813 0
-12 -2797 2798 0
-2798 2814 0
-13 -2798 2799 0
-2799 2815 0
-14 -2799 2800 0
-2800 2816 0
-15 -2800 2801 0
-2801 2817 0
-16 -2801 2802 0
-2802 2818 0
-17 -2802 2803 0
-2803 2819 0
-18 -2803 2804 0
-2804 2820 0
-19 -2804 2805 0
-2805 2821 0
-20 -2805 2806 0
-2806 2822 0
-21 -2806 2807 0
-2807 2823 0
-22 -2807 2808 0
-2808 2824 0
-23 -2808 0
-8 2809 0
-2809 2825 0
-9 -2809 2810 0
-2810 2826 0
-10 -2810 2811 0
-2811 2827 0
-11 -2811 2812 0
-2812 2828 0
-12 -2812 2813 0
-2813 2829 0
-13 -2813 2814 0
-2814 2830 0
-14 -2814 2815 0
-2815 2831 0
-15 -2815 2816 0
-2816 2832 0
-16 -2816 2817 0
-2817 2833 0
-17 -2817 2818 0
-2818 2834 0
-18 -2818 2819 0
-2819 2835 0
-19 -2819 2820 0
-2820 2836 0
-20 -2820 2821 0
-2821 2837 0
-21 -2821 2822 0
-2822 2838 0
-22 -2822 2823 0
-2823 2839 0
-23 -2823 2824 0
-2824 2840 0
-24 -2824 0
-9 2825 0
-2825 2841 0
-10 -2825 2826 0
-2826 2842 0
-11 -2826 2827 0
-2827 2843 0
-12 -2827 2828 0
-2828 2844 0
-13 -2828 2829 0
-2829 2845 0
-14 -2829 2830 0
-2830 2846 0
-15 -2830 2831 0
-2831 2847 0
-16 -2831 2832 0
-2832 2848 0
-17 -2832 2833 0
-2833 2849 0
-18 -2833 2834 0
-2834 2850 0
-19 -2834 2835 0
-2835 2851 0
-20 -2835 2836 0
-2836 2852 0
-21 -2836 2837 0
-2837 2853 0
-22 -2837 2838 0
-2838 2854 0
-23 -2838 2839 0
-2839 2855 0
-24 -2839 2840 0
-2840 2856 0
-25 -2840 0
-10 2841 0
-2841 2857 0
-11 -2841 2842 0
-2842 2858 0
-12 -2842 2843 0
-2843 2859 0
-13 -2843 2844 0
-2844 2860 0
-14 -2844 2845 0
-2845 2861 0
-15 -2845 2846 0
-2846 2862 0
-16 -2846 2847 0
-2847 2863 0
-17 -2847 2848 0
-2848 2864 0
-18 -2848 2849 0
-2849 2865 0
-19 -2849 2850 0
-2850 2866 0
-20 -2850 2851 0
-2851 2867 0
-21 -2851 2852 0
-2852 2868 0
-22 -2852 2853 0
-2853 2869 0
-23 -2853 2854 0
-2854 2870 0
-24 -2854 2855 0
-2855 2871 0
-25 -2855 2856 0
-2856 2872 0
-26 -2856 0
-11 2857 0
-2857 2873 0
-12 -2857 2858 0
-2858 2874 0
-13 -2858 2859 0
-2859 2875 0
-14 -2859 2860 0
-2860 2876 0
-15 -2860 2861 0
-2861 2877 0
-16 -2861 2862 0
-2862 2878 0
-17 -2862 2863 0
-2863 2879 0
-18 -2863 2864 0
-2864 2880 0
-19 -2864 2865 0
-2865 2881 0
-20 -2865 2866 0
-2866 2882 0
-21 -2866 2867 0
-2867 2883 0
-22 -2867 2868 0
-2868 2884 0
-23 -2868 2869 0
-2869 2885 0
-24 -2869 2870 0
-2870 2886 0
-25 -2870 2871 0
-2871 2887 0
-26 -2871 2872 0
-2872 2888 0
-27 -2872 0
-12 2873 0
-2873 2889 0
-13 -2873 2874 0
-2874 2890 0
-14 -2874 2875 0
-2875 2891 0
-15 -2875 2876 0
-2876 2892 0
-16 -2876 2877 0
-2877 2893 0
-17 -2877 2878 0
-2878 2894 0
-18 -2878 2879 0
-2879 2895 0
-19 -2879 2880 0
-2880 2896 0
-20 -2880 2881 0
-2881 2897 0
-21 -2881 2882 0
-2882 2898 0
-22 -2882 2883 0
-2883 2899 0
-23 -2883 2884 0
-2884 2900 0
-24 -2884 2885 0
-2885 2901 0
-25 -2885 2886 0
-2886 2902 0
-26 -2886 2887 0
-2887 2903 0
-27 -2887 2888 0
-2888 2904 0
-28 -2888 0
-13 2889 0
-2889 2905 0
-14 -2889 2890 0
-2890 2906 0
-15 -2890 2891 0
-2891 2907 0
-16 -2891 2892 0
-2892 2908 0
-17 -2892 2893 0
-2893 2909 0
-18 -2893 2894 0
-2894 2910 0
-19 -2894 2895 0
-2895 2911 0
-20 -2895 2896 0
-2896 2912 0
-21 -2896 2897 0
-2897 2913 0
-22 -2897 2898 0
-2898 2914 0
-23 -2898 2899 0
-2899 2915 0
-24 -2899 2900 0
-2900 2916 0
-25 -2900 2901 0
-2901 2917 0
-26 -2901 2902 0
-2902 2918 0
-27 -2902 2903 0
-2903 2919 0
-28 -2903 2904 0
-2904 2920 0
-29 -2904 0
-14 2905 0
-2905 2921 0
-15 -2905 2906 0
-2906 2922 0
-16 -2906 2907 0
-2907 2923 0
-17 -2907 2908 0
-2908 2924 0
-18 -2908 2909 0
-2909 2925 0
-19 -2909 2910 0
-2910 2926 0
-20 -2910 2911 0
-2911 2927 0
-21 -2911 2912 0
-2912 2928 0
-22 -2912 2913 0
-2913 2929 0
-23 -2913 2914 0
-2914 2930 0
-24 -2914 2915 0
-2915 2931 0
-25 -2915 2916 0
-2916 2932 0
-26 -2916 2917 0
-2917 2933 0
-27 -2917 2918 0
-2918 2934 0
-28 -2918 2919 0
-2919 2935 0
-29 -2919 2920 0
-2920 2936 0
-30 -2920 0
-15 2921 0
-2921 2937 0
-16 -2921 2922 0
-2922 2938 0
-17 -2922 2923 0
-2923 2939 0
-18 -2923 2924 0
-2924 2940 0
-19 -2924 2925 0
-2925 2941 0
-20 -2925 2926 0
-2926 2942 0
-21 -2926 2927 0
-2927 2943 0
-22 -2927 2928 0
-2928 2944 0
-23 -2928 2929 0
-2929 2945 0
-24 -2929 2930 0
-2930 2946 0
-25 -2930 2931 0
-2931 2947 0
-26 -2931 2932 0
-2932 2948 0
-27 -2932 2933 0
-2933 2949 0
-28 -2933 2934 0
-2934 2950 0
-29 -2934 2935 0
-2935 2951 0
-30 -2935 2936 0
-2936 2952 0
-31 -2936 0
-16 2937 0
-2937 2953 0
-17 -2937 2938 0
-2938 2954 0
-18 -2938 2939 0
-2939 2955 0
-19 -2939 2940 0
-2940 2956 0
-20 -2940 2941 0
-2941 2957 0
-21 -2941 2942 0
-2942 2958 0
-22 -2942 2943 0
-2943 2959 0
-23 -2943 2944 0
-2944 2960 0
-24 -2944 2945 0
-2945 2961 0
-25 -2945 2946 0
-2946 2962 0
-26 -2946 2947 0
-2947 2963 0
-27 -2947 2948 0
-2948 2964 0
-28 -2948 2949 0
-2949 2965 0
-29 -2949 2950 0
-2950 2966 0
-30 -2950 2951 0
-2951 2967 0
-31 -2951 2952 0
-2952 2968 0
-32 -2952 0
-17 2953 0
-2953 2969 0
-18 -2953 2954 0
-2954 2970 0
-19 -2954 2955 0
-2955 2971 0
-20 -2955 2956 0
-2956 2972 0
-21 -2956 2957 0
-2957 2973 0
-22 -2957 2958 0
-2958 2974 0
-23 -2958 2959 0
-2959 2975 0
-24 -2959 2960 0
-2960 2976 0
-25 -2960 2961 0
-2961 2977 0
-26 -2961 2962 0
-2962 2978 0
-27 -2962 2963 0
-2963 2979 0
-28 -2963 2964 0
-2964 2980 0
-29 -2964 2965 0
-2965 2981 0
-30 -2965 2966 0
-2966 2982 0
-31 -2966 2967 0
-2967 2983 0
-32 -2967 2968 0
-2968 2984 0
-33 -2968 0
-18 2969 0
-2969 2985 0
-19 -2969 2970 0
-2970 2986 0
-20 -2970 2971 0
-2971 2987 0
-21 -2971 2972 0
-2972 2988 0
-22 -2972 2973 0
-2973 2989 0
-23 -2973 2974 0
-2974 2990 0
-24 -2974 2975 0
-2975 2991 0
-25 -2975 2976 0
-2976 2992 0
-26 -2976 2977 0
-2977 2993 0
-27 -2977 2978 0
-2978 2994 0
-28 -2978 2979 0
-2979 2995 0
-29 -2979 2980 0
-2980 2996 0
-30 -2980 2981 0
-2981 2997 0
-31 -2981 2982 0
-2982 2998 0
-32 -2982 2983 0
-2983 2999 0
-33 -2983 2984 0
-2984 3000 0
-34 -2984 0
-19 2985 0
-2985 3001 0
-20 -2985 2986 0
-2986 3002 0
-21 -2986 2987 0
-2987 3003 0
-22 -2987 2988 0
-2988 3004 0
-23 -2988 2989 0
-2989 3005 0
-24 -2989 2990 0
-2990 3006 0
-25 -2990 2991 0
-2991 3007 0
-26 -2991 2992 0
-2992 3008 0
-27 -2992 2993 0
-2993 3009 0
-28 -2993 2994 0
-2994 3010 0
-29 -2994 2995 0
-2995 3011 0
-30 -2995 2996 0
-2996 3012 0
-31 -2996 2997 0
-2997 3013 0
-32 -2997 2998 0
-2998 3014 0
-33 -2998 2999 0
-2999 3015 0
-34 -2999 3000 0
-3000 3016 0
-35 -3000 0
-20 3001 0
-3001 3017 0
-21 -3001 3002 0
-3002 3018 0
-22 -3002 3003 0
-3003 3019 0
-23 -3003 3004 0
-3004 3020 0
-24 -3004 3005 0
-3005 3021 0
-25 -3005 3006 0
-3006 3022 0
-26 -3006 3007 0
-3007 3023 0
-27 -3007 3008 0
-3008 3024 0
-28 -3008 3009 0
-3009 3025 0
-29 -3009 3010 0
-3010 3026 0
-30 -3010 3011 0
-3011 3027 0
-31 -3011 3012 0
-3012 3028 0
-32 -3012 3013 0
-3013 3029 0
-33 -3013 3014 0
-3014 3030 0
-34 -3014 3015 0
-3015 3031 0
-35 -3015 3016 0
-3016 3032 0
-36 -3016 0
-21 3017 0
-3017 3033 0
-22 -3017 3018 0
-3018 3034 0
-23 -3018 3019 0
-3019 3035 0
-24 -3019 3020 0
-3020 3036 0
-25 -3020 3021 0
-3021 3037 0
-26 -3021 3022 0
-3022 3038 0
-27 -3022 3023 0
-3023 3039 0
-28 -3023 3024 0
-3024 3040 0
-29 -3024 3025 0
-3025 3041 0
-30 -3025 3026 0
-3026 3042 0
-31 -3026 3027 0
-3027 3043 0
-32 -3027 3028 0
-3028 3044 0
-33 -3028 3029 0
-3029 3045 0
-34 -3029 3030 0
-3030 3046 0
-35 -3030 3031 0
-3031 3047 0
-36 -3031 3032 0
-3032 3048 0
-37 -3032 0
-22 3033 0
-3033 3049 0
-23 -3033 3034 0
-3034 3050 0
-24 -3034 3035 0
-3035 3051 0
-25 -3035 3036 0
-3036 3052 0
-26 -3036 3037 0
-3037 3053 0
-27 -3037 3038 0
-3038 3054 0
-28 -3038 3039 0
-3039 3055 0
-29 -3039 3040 0
-3040 3056 0
-30 -3040 3041 0
-3041 3057 0
-31 -3041 3042 0
-3042 3058 0
-32 -3042 3043 0
-3043 3059 0
-33 -3043 3044 0
-3044 3060 0
-34 -3044 3045 0
-3045 3061 0
-35 -3045 3046 0
-3046 3062 0
-36 -3046 3047 0
-3047 3063 0
-37 -3047 3048 0
-3048 3064 0
-38 -3048 0
-23 3049 0
-3049 3065 0
-24 -3049 3050 0
-3050 3066 0
-25 -3050 3051 0
-3051 3067 0
-26 -3051 3052 0
-3052 3068 0
-27 -3052 3053 0
-3053 3069 0
-28 -3053 3054 0
-3054 3070 0
-29 -3054 3055 0
-3055 3071 0
-30 -3055 3056 0
-3056 3072 0
-31 -3056 3057 0
-3057 3073 0
-32 -3057 3058 0
-3058 3074 0
-33 -3058 3059 0
-3059 3075 0
-34 -3059 3060 0
-3060 3076 0
-35 -3060 3061 0
-3061 3077 0
-36 -3061 3062 0
-3062 3078 0
-37 -3062 3063 0
-3063 3079 0
-38 -3063 3064 0
-3064 3080 0
-39 -3064 0
-24 3065 0
-3065 3081 0
-25 -3065 3066 0
-3066 3082 0
-26 -3066 3067 0
-3067 3083 0
-27 -3067 3068 0
-3068 3084 0
-28 -3068 3069 0
-3069 3085 0
-29 -3069 3070 0
-3070 3086 0
-30 -3070 3071 0
-3071 3087 0
-31 -3071 3072 0
-3072 3088 0
-32 -3072 3073 0
-3073 3089 0
-33 -3073 3074 0
-3074 3090 0
-34 -3074 3075 0
-3075 3091 0
-35 -3075 3076 0
-3076 3092 0
-36 -3076 3077 0
-3077 3093 0
-37 -3077 3078 0
-3078 3094 0
-38 -3078 3079 0
-3079 3095 0
-39 -3079 3080 0
-3080 3096 0
-40 -3080 0
-25 3081 0
-3081 3097 0
-26 -3081 3082 0
-3082 3098 0
-27 -3082 3083 0
-3083 3099 0
-28 -3083 3084 0
-3084 3100 0
-29 -3084 3085 0
-3085 3101 0
-30 -3085 3086 0
-3086 3102 0
-31 -3086 3087 0
-3087 3103 0
-32 -3087 3088 0
-3088 3104 0
-33 -3088 3089 0
-3089 3105 0
-34 -3089 3090 0
-3090 3106 0
-35 -3090 3091 0
-3091 3107 0
-36 -3091 3092 0
-3092 3108 0
-37 -3092 3093 0
-3093 3109 0
-38 -3093 3094 0
-3094 3110 0
-39 -3094 3095 0
-3095 3111 0
-40 -3095 3096 0
-3096 3112 0
-41 -3096 0
-26 3097 0
-3097 3113 0
-27 -3097 3098 0
-3098 3114 0
-28 -3098 3099 0
-3099 3115 0
-29 -3099 3100 0
-3100 3116 0
-30 -3100 3101 0
-3101 3117 0
-31 -3101 3102 0
-3102 3118 0
-32 -3102 3103 0
-3103 3119 0
-33 -3103 3104 0
-3104 3120 0
-34 -3104 3105 0
-3105 3121 0
-35 -3105 3106 0
-3106 3122 0
-36 -3106 3107 0
-3107 3123 0
-37 -3107 3108 0
-3108 3124 0
-38 -3108 3109 0
-3109 3125 0
-39 -3109 3110 0
-3110 3126 0
-40 -3110 3111 0
-3111 3127 0
-41 -3111 3112 0
-3112 3128 0
-42 -3112 0
-27 3113 0
-3113 3129 0
-28 -3113 3114 0
-3114 3130 0
-29 -3114 3115 0
-3115 3131 0
-30 -3115 3116 0
-3116 3132 0
-31 -3116 3117 0
-3117 3133 0
-32 -3117 3118 0
-3118 3134 0
-33 -3118 3119 0
-3119 3135 0
-34 -3119 3120 0
-3120 3136 0
-35 -3120 3121 0
-3121 3137 0
-36 -3121 3122 0
-3122 3138 0
-37 -3122 3123 0
-3123 3139 0
-38 -3123 3124 0
-3124 3140 0
-39 -3124 3125 0
-3125 3141 0
-40 -3125 3126 0
-3126 3142 0
-41 -3126 3127 0
-3127 3143 0
-42 -3127 3128 0
-3128 3144 0
-43 -3128 0
-28 3129 0
-3129 3145 0
-29 -3129 3130 0
-3130 3146 0
-30 -3130 3131 0
-3131 3147 0
-31 -3131 3132 0
-3132 3148 0
-32 -3132 3133 0
-3133 3149 0
-33 -3133 3134 0
-3134 3150 0
-34 -3134 3135 0
-3135 3151 0
-35 -3135 3136 0
-3136 3152 0
-36 -3136 3137 0
-3137 3153 0
-37 -3137 3138 0
-3138 3154 0
-38 -3138 3139 0
-3139 3155 0
-39 -3139 3140 0
-3140 3156 0
-40 -3140 3141 0
-3141 3157 0
-41 -3141 3142 0
-3142 3158 0
-42 -3142 3143 0
-3143 3159 0
-43 -3143 3144 0
-3144 3160 0
-44 -3144 0
-29 3145 0
-3145 3161 0
-30 -3145 3146 0
-3146 3162 0
-31 -3146 3147 0
-3147 3163 0
-32 -3147 3148 0
-3148 3164 0
-33 -3148 3149 0
-3149 3165 0
-34 -3149 3150 0
-3150 3166 0
-35 -3150 3151 0
-3151 3167 0
-36 -3151 3152 0
-3152 3168 0
-37 -3152 3153 0
-3153 3169 0
-38 -3153 3154 0
-3154 3170 0
-39 -3154 3155 0
-3155 3171 0
-40 -3155 3156 0
-3156 3172 0
-41 -3156 3157 0
-3157 3173 0
-42 -3157 3158 0
-3158 3174 0
-43 -3158 3159 0
-3159 3175 0
-44 -3159 3160 0
-3160 3176 0
-45 -3160 0
-30 3161 0
-3161 3177 0
-31 -3161 3162 0
-3162 3178 0
-32 -3162 3163 0
-3163 3179 0
-33 -3163 3164 0
-3164 3180 0
-34 -3164 3165 0
-3165 3181 0
-35 -3165 3166 0
-3166 3182 0
-36 -3166 3167 0
-3167 3183 0
-37 -3167 3168 0
-3168 3184 0
-38 -3168 3169 0
-3169 3185 0
-39 -3169 3170 0
-3170 3186 0
-40 -3170 3171 0
-3171 3187 0
-41 -3171 3172 0
-3172 3188 0
-42 -3172 3173 0
-3173 3189 0
-43 -3173 3174 0
-3174 3190 0
-44 -3174 3175 0
-3175 3191 0
-45 -3175 3176 0
-3176 3192 0
-46 -3176 0
-31 3177 0
-3177 3193 0
-32 -3177 3178 0
-3178 3194 0
-33 -3178 3179 0
-3179 3195 0
-34 -3179 3180 0
-3180 3196 0
-35 -3180 3181 0
-3181 3197 0
-36 -3181 3182 0
-3182 3198 0
-37 -3182 3183 0
-3183 3199 0
-38 -3183 3184 0
-3184 3200 0
-39 -3184 3185 0
-3185 3201 0
-40 -3185 3186 0
-3186 3202 0
-41 -3186 3187 0
-3187 3203 0
-42 -3187 3188 0
-3188 3204 0
-43 -3188 3189 0
-3189 3205 0
-44 -3189 3190 0
-3190 3206 0
-45 -3190 3191 0
-3191 3207 0
-46 -3191 3192 0
-3192 3208 0
-47 -3192 0
-32 3193 0
-3193 3209 0
-33 -3193 3194 0
-3194 3210 0
-34 -3194 3195 0
-3195 3211 0
-35 -3195 3196 0
-3196 3212 0
-36 -3196 3197 0
-3197 3213 0
-37 -3197 3198 0
-3198 3214 0
-38 -3198 3199 0
-3199 3215 0
-39 -3199 3200 0
-3200 3216 0
-40 -3200 3201 0
-3201 3217 0
-41 -3201 3202 0
-3202 3218 0
-42 -3202 3203 0
-3203 3219 0
-43 -3203 3204 0
-3204 3220 0
-44 -3204 3205 0
-3205 3221 0
-45 -3205 3206 0
-3206 3222 0
-46 -3206 3207 0
-3207 3223 0
-47 -3207 3208 0
-3208 3224 0
-48 -3208 0
-33 3209 0
-3209 3225 0
-34 -3209 3210 0
-3210 3226 0
-35 -3210 3211 0
-3211 3227 0
-36 -3211 3212 0
-3212 3228 0
-37 -3212 3213 0
-3213 3229 0
-38 -3213 3214 0
-3214 3230 0
-39 -3214 3215 0
-3215 3231 0
-40 -3215 3216 0
-3216 3232 0
-41 -3216 3217 0
-3217 3233 0
-42 -3217 3218 0
-3218 3234 0
-43 -3218 3219 0
-3219 3235 0
-44 -3219 3220 0
-3220 3236 0
-45 -3220 3221 0
-3221 3237 0
-46 -3221 3222 0
-3222 3238 0
-47 -3222 3223 0
-3223 3239 0
-48 -3223 3224 0
-3224 3240 0
-49 -3224 0
-34 3225 0
-3225 3241 0
-35 -3225 3226 0
-3226 3242 0
-36 -3226 3227 0
-3227 3243 0
-37 -3227 3228 0
-3228 3244 0
-38 -3228 3229 0
-3229 3245 0
-39 -3229 3230 0
-3230 3246 0
-40 -3230 3231 0
-3231 3247 0
-41 -3231 3232 0
-3232 3248 0
-42 -3232 3233 0
-3233 3249 0
-43 -3233 3234 0
-3234 3250 0
-44 -3234 3235 0
-3235 3251 0
-45 -3235 3236 0
-3236 3252 0
-46 -3236 3237 0
-3237 3253 0
-47 -3237 3238 0
-3238 3254 0
-48 -3238 3239 0
-3239 3255 0
-49 -3239 3240 0
-3240 3256 0
-50 -3240 0
-35 3241 0
-3241 3257 0
-36 -3241 3242 0
-3242 3258 0
-37 -3242 3243 0
-3243 3259 0
-38 -3243 3244 0
-3244 3260 0
-39 -3244 3245 0
-3245 3261 0
-40 -3245 3246 0
-3246 3262 0
-41 -3246 3247 0
-3247 3263 0
-42 -3247 3248 0
-3248 3264 0
-43 -3248 3249 0
-3249 3265 0
-44 -3249 3250 0
-3250 3266 0
-45 -3250 3251 0
-3251 3267 0
-46 -3251 3252 0
-3252 3268 0
-47 -3252 3253 0
-3253 3269 0
-48 -3253 3254 0
-3254 3270 0
-49 -3254 3255 0
-3255 3271 0
-50 -3255 3256 0
-3256 3272 0
-51 -3256 0
-36 3257 0
-3257 3273 0
-37 -3257 3258 0
-3258 3274 0
-38 -3258 3259 0
-3259 3275 0
-39 -3259 3260 0
-3260 3276 0
-40 -3260 3261 0
-3261 3277 0
-41 -3261 3262 0
-3262 3278 0
-42 -3262 3263 0
-3263 3279 0
-43 -3263 3264 0
-3264 3280 0
-44 -3264 3265 0
-3265 3281 0
-45 -3265 3266 0
-3266 3282 0
-46 -3266 3267 0
-3267 3283 0
-47 -3267 3268 0
-3268 3284 0
-48 -3268 3269 0
-3269 3285 0
-49 -3269 3270 0
-3270 3286 0
-50 -3270 3271 0
-3271 3287 0
-51 -3271 3272 0
-3272 3288 0
-52 -3272 0
-37 3273 0
-3273 3289 0
-38 -3273 3274 0
-3274 3290 0
-39 -3274 3275 0
-3275 3291 0
-40 -3275 3276 0
-3276 3292 0
-41 -3276 3277 0
-3277 3293 0
-42 -3277 3278 0
-3278 3294 0
-43 -3278 3279 0
-3279 3295 0
-44 -3279 3280 0
-3280 3296 0
-45 -3280 3281 0
-3281 3297 0
-46 -3281 3282 0
-3282 3298 0
-47 -3282 3283 0
-3283 3299 0
-48 -3283 3284 0
-3284 3300 0
-49 -3284 3285 0
-3285 3301 0
-50 -3285 3286 0
-3286 3302 0
-51 -3286 3287 0
-3287 3303 0
-52 -3287 3288 0
-3288 3304 0
-53 -3288 0
-38 3289 0
-3289 3305 0
-39 -3289 3290 0
-3290 3306 0
-40 -3290 3291 0
-3291 3307 0
-41 -3291 3292 0
-3292 3308 0
-42 -3292 3293 0
-3293 3309 0
-43 -3293 3294 0
-3294 3310 0
-44 -3294 3295 0
-3295 3311 0
-45 -3295 3296 0
-3296 3312 0
-46 -3296 3297 0
-3297 3313 0
-47 -3297 3298 0
-3298 3314 0
-48 -3298 3299 0
-3299 3315 0
-49 -3299 3300 0
-3300 3316 0
-50 -3300 3301 0
-3301 3317 0
-51 -3301 3302 0
-3302 3318 0
-52 -3302 3303 0
-3303 3319 0
-53 -3303 3304 0
-3304 3320 0
-54 -3304 0
-39 3305 0
-3305 3321 0
-40 -3305 3306 0
-3306 3322 0
-41 -3306 3307 0
-3307 3323 0
-42 -3307 3308 0
-3308 3324 0
-43 -3308 3309 0
-3309 3325 0
-44 -3309 3310 0
-3310 3326 0
-45 -3310 3311 0
-3311 3327 0
-46 -3311 3312 0
-3312 3328 0
-47 -3312 3313 0
-3313 3329 0
-48 -3313 3314 0
-3314 3330 0
-49 -3314 3315 0
-3315 3331 0
-50 -3315 3316 0
-3316 3332 0
-51 -3316 3317 0
-3317 3333 0
-52 -3317 3318 0
-3318 3334 0
-53 -3318 3319 0
-3319 3335 0
-54 -3319 3320 0
-3320 3336 0
-55 -3320 0
-40 3321 0
-3321 3337 0
-41 -3321 3322 0
-3322 3338 0
-42 -3322 3323 0
-3323 3339 0
-43 -3323 3324 0
-3324 3340 0
-44 -3324 3325 0
-3325 3341 0
-45 -3325 3326 0
-3326 3342 0
-46 -3326 3327 0
-3327 3343 0
-47 -3327 3328 0
-3328 3344 0
-48 -3328 3329 0
-3329 3345 0
-49 -3329 3330 0
-3330 3346 0
-50 -3330 3331 0
-3331 3347 0
-51 -3331 3332 0
-3332 3348 0
-52 -3332 3333 0
-3333 3349 0
-53 -3333 3334 0
-3334 3350 0
-54 -3334 3335 0
-3335 3351 0
-55 -3335 3336 0
-3336 3352 0
-56 -3336 0
-41 3337 0
-3337 3353 0
-42 -3337 3338 0
-3338 3354 0
-43 -3338 3339 0
-3339 3355 0
-44 -3339 3340 0
-3340 3356 0
-45 -3340 3341 0
-3341 3357 0
-46 -3341 3342 0
-3342 3358 0
-47 -3342 3343 0
-3343 3359 0
-48 -3343 3344 0
-3344 3360 0
-49 -3344 3345 0
-3345 3361 0
-50 -3345 3346 0
-3346 3362 0
-51 -3346 3347 0
-3347 3363 0
-52 -3347 3348 0
-3348 3364 0
-53 -3348 3349 0
-3349 3365 0
-54 -3349 3350 0
-3350 3366 0
-55 -3350 3351 0
-3351 3367 0
-56 -3351 3352 0
-3352 3368 0
-57 -3352 0
-42 3353 0
-3353 3369 0
-43 -3353 3354 0
-3354 3370 0
-44 -3354 3355 0
-3355 3371 0
-45 -3355 3356 0
-3356 3372 0
-46 -3356 3357 0
-3357 3373 0
-47 -3357 3358 0
-3358 3374 0
-48 -3358 3359 0
-3359 3375 0
-49 -3359 3360 0
-3360 3376 0
-50 -3360 3361 0
-3361 3377 0
-51 -3361 3362 0
-3362 3378 0
-52 -3362 3363 0
-3363 3379 0
-53 -3363 3364 0
-3364 3380 0
-54 -3364 3365 0
-3365 3381 0
-55 -3365 3366 0
-3366 3382 0
-56 -3366 3367 0
-3367 3383 0
-57 -3367 3368 0
-3368 3384 0
-58 -3368 0
-43 3369 0
-3369 3385 0
-44 -3369 3370 0
-3370 3386 0
-45 -3370 3371 0
-3371 3387 0
-46 -3371 3372 0
-3372 3388 0
-47 -3372 3373 0
-3373 3389 0
-48 -3373 3374 0
-3374 3390 0
-49 -3374 3375 0
-3375 3391 0
-50 -3375 3376 0
-3376 3392 0
-51 -3376 3377 0
-3377 3393 0
-52 -3377 3378 0
-3378 3394 0
-53 -3378 3379 0
-3379 3395 0
-54 -3379 3380 0
-3380 3396 0
-55 -3380 3381 0
-3381 3397 0
-56 -3381 3382 0
-3382 3398 0
-57 -3382 3383 0
-3383 3399 0
-58 -3383 3384 0
-3384 3400 0
-59 -3384 0
-44 3385 0
-3385 3401 0
-45 -3385 3386 0
-3386 3402 0
-46 -3386 3387 0
-3387 3403 0
-47 -3387 3388 0
-3388 3404 0
-48 -3388 3389 0
-3389 3405 0
-49 -3389 3390 0
-3390 3406 0
-50 -3390 3391 0
-3391 3407 0
-51 -3391 3392 0
-3392 3408 0
-52 -3392 3393 0
-3393 3409 0
-53 -3393 3394 0
-3394 3410 0
-54 -3394 3395 0
-3395 3411 0
-55 -3395 3396 0
-3396 3412 0
-56 -3396 3397 0
-3397 3413 0
-57 -3397 3398 0
-3398 3414 0
-58 -3398 3399 0
-3399 3415 0
-59 -3399 3400 0
-3400 3416 0
-60 -3400 0
-45 3401 0
-3401 3417 0
-46 -3401 3402 0
-3402 3418 0
-47 -3402 3403 0
-3403 3419 0
-48 -3403 3404 0
-3404 3420 0
-49 -3404 3405 0
-3405 3421 0
-50 -3405 3406 0
-3406 3422 0
-51 -3406 3407 0
-3407 3423 0
-52 -3407 3408 0
-3408 3424 0
-53 -3408 3409 0
-3409 3425 0
-54 -3409 3410 0
-3410 3426 0
-55 -3410 3411 0
-3411 3427 0
-56 -3411 3412 0
-3412 3428 0
-57 -3412 3413 0
-3413 3429 0
-58 -3413 3414 0
-3414 3430 0
-59 -3414 3415 0
-3415 3431 0
-60 -3415 3416 0
-3416 3432 0
-61 -3416 0
-46 3417 0
-3417 3433 0
-47 -3417 3418 0
-3418 3434 0
-48 -3418 3419 0
-3419 3435 0
-49 -3419 3420 0
-3420 3436 0
-50 -3420 3421 0
-3421 3437 0
-51 -3421 3422 0
-3422 3438 0
-52 -3422 3423 0
-3423 3439 0
-53 -3423 3424 0
-3424 3440 0
-54 -3424 3425 0
-3425 3441 0
-55 -3425 3426 0
-3426 3442 0
-56 -3426 3427 0
-3427 3443 0
-57 -3427 3428 0
-3428 3444 0
-58 -3428 3429 0
-3429 3445 0
-59 -3429 3430 0
-3430 3446 0
-60 -3430 3431 0
-3431 3447 0
-61 -3431 3432 0
-3432 3448 0
-62 -3432 0
-47 3433 0
-3433 3449 0
-48 -3433 3434 0
-3434 3450 0
-49 -3434 3435 0
-3435 3451 0
-50 -3435 3436 0
-3436 3452 0
-51 -3436 3437 0
-3437 3453 0
-52 -3437 3438 0
-3438 3454 0
-53 -3438 3439 0
-3439 3455 0
-54 -3439 3440 0
-3440 3456 0
-55 -3440 3441 0
-3441 3457 0
-56 -3441 3442 0
-3442 3458 0
-57 -3442 3443 0
-3443 3459 0
-58 -3443 3444 0
-3444 3460 0
-59 -3444 3445 0
-3445 3461 0
-60 -3445 3446 0
-3446 3462 0
-61 -3446 3447 0
-3447 3463 0
-62 -3447 3448 0
-3448 3464 0
-63 -3448 0
-48 3449 0
-3449 3465 0
-49 -3449 3450 0
-3450 3466 0
-50 -3450 3451 0
-3451 3467 0
-51 -3451 3452 0
-3452 3468 0
-52 -3452 3453 0
-3453 3469 0
-53 -3453 3454 0
-3454 3470 0
-54 -3454 3455 0
-3455 3471 0
-55 -3455 3456 0
-3456 3472 0
-56 -3456 3457 0
-3457 3473 0
-57 -3457 3458 0
-3458 3474 0
-58 -3458 3459 0
-3459 3475 0
-59 -3459 3460 0
-3460 3476 0
-60 -3460 3461 0
-3461 3477 0
-61 -3461 3462 0
-3462 3478 0
-62 -3462 3463 0
-3463 3479 0
-63 -3463 3464 0
-3464 3480 0
-64 -3464 0
-49 3465 0
-3465 3481 0
-50 -3465 3466 0
-3466 3482 0
-51 -3466 3467 0
-3467 3483 0
-52 -3467 3468 0
-3468 3484 0
-53 -3468 3469 0
-3469 3485 0
-54 -3469 3470 0
-3470 3486 0
-55 -3470 3471 0
-3471 3487 0
-56 -3471 3472 0
-3472 3488 0
-57 -3472 3473 0
-3473 3489 0
-58 -3473 3474 0
-3474 3490 0
-59 -3474 3475 0
-3475 3491 0
-60 -3475 3476 0
-3476 3492 0
-61 -3476 3477 0
-3477 3493 0
-62 -3477 3478 0
-3478 3494 0
-63 -3478 3479 0
-3479 3495 0
-64 -3479 3480 0
-3480 3496 0
-65 -3480 0
-50 3481 0
-3481 3497 0
-51 -3481 3482 0
-3482 3498 0
-52 -3482 3483 0
-3483 3499 0
-53 -3483 3484 0
-3484 3500 0
-54 -3484 3485 0
-3485 3501 0
-55 -3485 3486 0
-3486 3502 0
-56 -3486 3487 0
-3487 3503 0
-57 -3487 3488 0
-3488 3504 0
-58 -3488 3489 0
-3489 3505 0
-59 -3489 3490 0
-3490 3506 0
-60 -3490 3491 0
-3491 3507 0
-61 -3491 3492 0
-3492 3508 0
-62 -3492 3493 0
-3493 3509 0
-63 -3493 3494 0
-3494 3510 0
-64 -3494 3495 0
-3495 3511 0
-65 -3495 3496 0
-3496 3512 0
-66 -3496 0
-51 3497 0
-3497 3513 0
-52 -3497 3498 0
-3498 3514 0
-53 -3498 3499 0
-3499 3515 0
-54 -3499 3500 0
-3500 3516 0
-55 -3500 3501 0
-3501 3517 0
-56 -3501 3502 0
-3502 3518 0
-57 -3502 3503 0
-3503 3519 0
-58 -3503 3504 0
-3504 3520 0
-59 -3504 3505 0
-3505 3521 0
-60 -3505 3506 0
-3506 3522 0
-61 -3506 3507 0
-3507 3523 0
-62 -3507 3508 0
-3508 3524 0
-63 -3508 3509 0
-3509 3525 0
-64 -3509 3510 0
-3510 3526 0
-65 -3510 3511 0
-3511 3527 0
-66 -3511 3512 0
-3512 3528 0
-67 -3512 0
-52 3513 0
-3513 3529 0
-53 -3513 3514 0
-3514 3530 0
-54 -3514 3515 0
-3515 3531 0
-55 -3515 3516 0
-3516 3532 0
-56 -3516 3517 0
-3517 3533 0
-57 -3517 3518 0
-3518 3534 0
-58 -3518 3519 0
-3519 3535 0
-59 -3519 3520 0
-3520 3536 0
-60 -3520 3521 0
-3521 3537 0
-61 -3521 3522 0
-3522 3538 0
-62 -3522 3523 0
-3523 3539 0
-63 -3523 3524 0
-3524 3540 0
-64 -3524 3525 0
-3525 3541 0
-65 -3525 3526 0
-3526 3542 0
-66 -3526 3527 0
-3527 3543 0
-67 -3527 3528 0
-3528 3544 0
-68 -3528 0
-53 3529 0
-3529 3545 0
-54 -3529 3530 0
-3530 3546 0
-55 -3530 3531 0
-3531 3547 0
-56 -3531 3532 0
-3532 3548 0
-57 -3532 3533 0
-3533 3549 0
-58 -3533 3534 0
-3534 3550 0
-59 -3534 3535 0
-3535 3551 0
-60 -3535 3536 0
-3536 3552 0
-61 -3536 3537 0
-3537 3553 0
-62 -3537 3538 0
-3538 3554 0
-63 -3538 3539 0
-3539 3555 0
-64 -3539 3540 0
-3540 3556 0
-65 -3540 3541 0
-3541 3557 0
-66 -3541 3542 0
-3542 3558 0
-67 -3542 3543 0
-3543 3559 0
-68 -3543 3544 0
-3544 3560 0
-69 -3544 0
-54 3545 0
-3545 3561 0
-55 -3545 3546 0
-3546 3562 0
-56 -3546 3547 0
-3547 3563 0
-57 -3547 3548 0
-3548 3564 0
-58 -3548 3549 0
-3549 3565 0
-59 -3549 3550 0
-3550 3566 0
-60 -3550 3551 0
-3551 3567 0
-61 -3551 3552 0
-3552 3568 0
-62 -3552 3553 0
-3553 3569 0
-63 -3553 3554 0
-3554 3570 0
-64 -3554 3555 0
-3555 3571 0
-65 -3555 3556 0
-3556 3572 0
-66 -3556 3557 0
-3557 3573 0
-67 -3557 3558 0
-3558 3574 0
-68 -3558 3559 0
-3559 3575 0
-69 -3559 3560 0
-3560 3576 0
-70 -3560 0
-55 3561 0
-3561 3577 0
-56 -3561 3562 0
-3562 3578 0
-57 -3562 3563 0
-3563 3579 0
-58 -3563 3564 0
-3564 3580 0
-59 -3564 3565 0
-3565 3581 0
-60 -3565 3566 0
-3566 3582 0
-61 -3566 3567 0
-3567 3583 0
-62 -3567 3568 0
-3568 3584 0
-63 -3568 3569 0
-3569 3585 0
-64 -3569 3570 0
-3570 3586 0
-65 -3570 3571 0
-3571 3587 0
-66 -3571 3572 0
-3572 3588 0
-67 -3572 3573 0
-3573 3589 0
-68 -3573 3574 0
-3574 3590 0
-69 -3574 3575 0
-3575 3591 0
-70 -3575 3576 0
-3576 3592 0
-71 -3576 0
-56 3577 0
-3577 3593 0
-57 -3577 3578 0
-3578 3594 0
-58 -3578 3579 0
-3579 3595 0
-59 -3579 3580 0
-3580 3596 0
-60 -3580 3581 0
-3581 3597 0
-61 -3581 3582 0
-3582 3598 0
-62 -3582 3583 0
-3583 3599 0
-63 -3583 3584 0
-3584 3600 0
-64 -3584 3585 0
-3585 3601 0
-65 -3585 3586 0
-3586 3602 0
-66 -3586 3587 0
-3587 3603 0
-67 -3587 3588 0
-3588 3604 0
-68 -3588 3589 0
-3589 3605 0
-69 -3589 3590 0
-3590 3606 0
-70 -3590 3591 0
-3591 3607 0
-71 -3591 3592 0
-3592 3608 0
-72 -3592 0
-57 3593 0
-3593 3609 0
-58 -3593 3594 0
-3594 3610 0
-59 -3594 3595 0
-3595 3611 0
-60 -3595 3596 0
-3596 3612 0
-61 -3596 3597 0
-3597 3613 0
-62 -3597 3598 0
-3598 3614 0
-63 -3598 3599 0
-3599 3615 0
-64 -3599 3600 0
-3600 3616 0
-65 -3600 3601 0
-3601 3617 0
-66 -3601 3602 0
-3602 3618 0
-67 -3602 3603 0
-3603 3619 0
-68 -3603 3604 0
-3604 3620 0
-69 -3604 3605 0
-3605 3621 0
-70 -3605 3606 0
-3606 3622 0
-71 -3606 3607 0
-3607 3623 0
-72 -3607 3608 0
-3608 3624 0
-73 -3608 0
-58 3609 0
-3609 3625 0
-59 -3609 3610 0
-3610 3626 0
-60 -3610 3611 0
-3611 3627 0
-61 -3611 3612 0
-3612 3628 0
-62 -3612 3613 0
-3613 3629 0
-63 -3613 3614 0
-3614 3630 0
-64 -3614 3615 0
-3615 3631 0
-65 -3615 3616 0
-3616 3632 0
-66 -3616 3617 0
-3617 3633 0
-67 -3617 3618 0
-3618 3634 0
-68 -3618 3619 0
-3619 3635 0
-69 -3619 3620 0
-3620 3636 0
-70 -3620 3621 0
-3621 3637 0
-71 -3621 3622 0
-3622 3638 0
-72 -3622 3623 0
-3623 3639 0
-73 -3623 3624 0
-3624 3640 0
-74 -3624 0
-59 3625 0
-3625 3641 0
-60 -3625 3626 0
-3626 3642 0
-61 -3626 3627 0
-3627 3643 0
-62 -3627 3628 0
-3628 3644 0
-63 -3628 3629 0
-3629 3645 0
-64 -3629 3630 0
-3630 3646 0
-65 -3630 3631 0
-3631 3647 0
-66 -3631 3632 0
-3632 3648 0
-67 -3632 3633 0
-3633 3649 0
-68 -3633 3634 0
-3634 3650 0
-69 -3634 3635 0
-3635 3651 0
-70 -3635 3636 0
-3636 3652 0
-71 -3636 3637 0
-3637 3653 0
-72 -3637 3638 0
-3638 3654 0
-73 -3638 3639 0
-3639 3655 0
-74 -3639 3640 0
-3640 3656 0
-75 -3640 0
-60 3641 0
-3641 3657 0
-61 -3641 3642 0
-3642 3658 0
-62 -3642 3643 0
-3643 3659 0
-63 -3643 3644 0
-3644 3660 0
-64 -3644 3645 0
-3645 3661 0
-65 -3645 3646 0
-3646 3662 0
-66 -3646 3647 0
-3647 3663 0
-67 -3647 3648 0
-3648 3664 0
-68 -3648 3649 0
-3649 3665 0
-69 -3649 3650 0
-3650 3666 0
-70 -3650 3651 0
-3651 3667 0
-71 -3651 3652 0
-3652 3668 0
-72 -3652 3653 0
-3653 3669 0
-73 -3653 3654 0
-3654 3670 0
-74 -3654 3655 0
-3655 3671 0
-75 -3655 3656 0
-3656 3672 0
-76 -3656 0
-61 3657 0
-3657 3673 0
-62 -3657 3658 0
-3658 3674 0
-63 -3658 3659 0
-3659 3675 0
-64 -3659 3660 0
-3660 3676 0
-65 -3660 3661 0
-3661 3677 0
-66 -3661 3662 0
-3662 3678 0
-67 -3662 3663 0
-3663 3679 0
-68 -3663 3664 0
-3664 3680 0
-69 -3664 3665 0
-3665 3681 0
-70 -3665 3666 0
-3666 3682 0
-71 -3666 3667 0
-3667 3683 0
-72 -3667 3668 0
-3668 3684 0
-73 -3668 3669 0
-3669 3685 0
-74 -3669 3670 0
-3670 3686 0
-75 -3670 3671 0
-3671 3687 0
-76 -3671 3672 0
-3672 3688 0
-77 -3672 0
-62 3673 0
-3673 3689 0
-63 -3673 3674 0
-3674 3690 0
-64 -3674 3675 0
-3675 3691 0
-65 -3675 3676 0
-3676 3692 0
-66 -3676 3677 0
-3677 3693 0
-67 -3677 3678 0
-3678 3694 0
-68 -3678 3679 0
-3679 3695 0
-69 -3679 3680 0
-3680 3696 0
-70 -3680 3681 0
-3681 3697 0
-71 -3681 3682 0
-3682 3698 0
-72 -3682 3683 0
-3683 3699 0
-73 -3683 3684 0
-3684 3700 0
-74 -3684 3685 0
-3685 3701 0
-75 -3685 3686 0
-3686 3702 0
-76 -3686 3687 0
-3687 3703 0
-77 -3687 3688 0
-3688 3704 0
-78 -3688 0
-63 3689 0
-3689 3705 0
-64 -3689 3690 0
-3690 3706 0
-65 -3690 3691 0
-3691 3707 0
-66 -3691 3692 0
-3692 3708 0
-67 -3692 3693 0
-3693 3709 0
-68 -3693 3694 0
-3694 3710 0
-69 -3694 3695 0
-3695 3711 0
-70 -3695 3696 0
-3696 3712 0
-71 -3696 3697 0
-3697 3713 0
-72 -3697 3698 0
-3698 3714 0
-73 -3698 3699 0
-3699 3715 0
-74 -3699 3700 0
-3700 3716 0
-75 -3700 3701 0
-3701 3717 0
-76 -3701 3702 0
-3702 3718 0
-77 -3702 3703 0
-3703 3719 0
-78 -3703 3704 0
-3704 3720 0
-79 -3704 0
-64 3705 0
-3705 3721 0
-65 -3705 3706 0
-3706 3722 0
-66 -3706 3707 0
-3707 3723 0
-67 -3707 3708 0
-3708 3724 0
-68 -3708 3709 0
-3709 3725 0
-69 -3709 3710 0
-3710 3726 0
-70 -3710 3711 0
-3711 3727 0
-71 -3711 3712 0
-3712 3728 0
-72 -3712 3713 0
-3713 3729 0
-73 -3713 3714 0
-3714 3730 0
-74 -3714 3715 0
-3715 3731 0
-75 -3715 3716 0
-3716 3732 0
-76 -3716 3717 0
-3717 3733 0
-77 -3717 3718 0
-3718 3734 0
-78 -3718 3719 0
-3719 3735 0
-79 -3719 3720 0
-3720 3736 0
-80 -3720 0
-65 3721 0
-3721 3737 0
-66 -3721 3722 0
-3722 3738 0
-67 -3722 3723 0
-3723 3739 0
-68 -3723 3724 0
-3724 3740 0
-69 -3724 3725 0
-3725 3741 0
-70 -3725 3726 0
-3726 3742 0
-71 -3726 3727 0
-3727 3743 0
-72 -3727 3728 0
-3728 3744 0
-73 -3728 3729 0
-3729 3745 0
-74 -3729 3730 0
-3730 3746 0
-75 -3730 3731 0
-3731 3747 0
-76 -3731 3732 0
-3732 3748 0
-77 -3732 3733 0
-3733 3749 0
-78 -3733 3734 0
-3734 3750 0
-79 -3734 3735 0
-3735 3751 0
-80 -3735 3736 0
-3736 3752 0
-81 -3736 0
-66 3737 0
-3737 3753 0
-67 -3737 3738 0
-3738 3754 0
-68 -3738 3739 0
-3739 3755 0
-69 -3739 3740 0
-3740 3756 0
-70 -3740 3741 0
-3741 3757 0
-71 -3741 3742 0
-3742 3758 0
-72 -3742 3743 0
-3743 3759 0
-73 -3743 3744 0
-3744 3760 0
-74 -3744 3745 0
-3745 3761 0
-75 -3745 3746 0
-3746 3762 0
-76 -3746 3747 0
-3747 3763 0
-77 -3747 3748 0
-3748 3764 0
-78 -3748 3749 0
-3749 3765 0
-79 -3749 3750 0
-3750 3766 0
-80 -3750 3751 0
-3751 3767 0
-81 -3751 3752 0
-3752 3768 0
-82 -3752 0
-67 3753 0
-3753 3769 0
-68 -3753 3754 0
-3754 3770 0
-69 -3754 3755 0
-3755 3771 0
-70 -3755 3756 0
-3756 3772 0
-71 -3756 3757 0
-3757 3773 0
-72 -3757 3758 0
-3758 3774 0
-73 -3758 3759 0
-3759 3775 0
-74 -3759 3760 0
-3760 3776 0
-75 -3760 3761 0
-3761 3777 0
-76 -3761 3762 0
-3762 3778 0
-77 -3762 3763 0
-3763 3779 0
-78 -3763 3764 0
-3764 3780 0
-79 -3764 3765 0
-3765 3781 0
-80 -3765 3766 0
-3766 3782 0
-81 -3766 3767 0
-3767 3783 0
-82 -3767 3768 0
-3768 3784 0
-83 -3768 0
-68 3769 0
-3769 3785 0
-69 -3769 3770 0
-3770 3786 0
-70 -3770 3771 0
-3771 3787 0
-71 -3771 3772 0
-3772 3788 0
-72 -3772 3773 0
-3773 3789 0
-73 -3773 3774 0
-3774 3790 0
-74 -3774 3775 0
-3775 3791 0
-75 -3775 3776 0
-3776 3792 0
-76 -3776 3777 0
-3777 3793 0
-77 -3777 3778 0
-3778 3794 0
-78 -3778 3779 0
-3779 3795 0
-79 -3779 3780 0
-3780 3796 0
-80 -3780 3781 0
-3781 3797 0
-81 -3781 3782 0
-3782 3798 0
-82 -3782 3783 0
-3783 3799 0
-83 -3783 3784 0
-3784 3800 0
-84 -3784 0
-69 3785 0
-3785 3801 0
-70 -3785 3786 0
-3786 3802 0
-71 -3786 3787 0
-3787 3803 0
-72 -3787 3788 0
-3788 3804 0
-73 -3788 3789 0
-3789 3805 0
-74 -3789 3790 0
-3790 3806 0
-75 -3790 3791 0
-3791 3807 0
-76 -3791 3792 0
-3792 3808 0
-77 -3792 3793 0
-3793 3809 0
-78 -3793 3794 0
-3794 3810 0
-79 -3794 3795 0
-3795 3811 0
-80 -3795 3796 0
-3796 3812 0
-81 -3796 3797 0
-3797 3813 0
-82 -3797 3798 0
-3798 3814 0
-83 -3798 3799 0
-3799 3815 0
-84 -3799 3800 0
-3800 3816 0
-85 -3800 0
-70 3801 0
-3801 3817 0
-71 -3801 3802 0
-3802 3818 0
-72 -3802 3803 0
-3803 3819 0
-73 -3803 3804 0
-3804 3820 0
-74 -3804 3805 0
-3805 3821 0
-75 -3805 3806 0
-3806 3822 0
-76 -3806 3807 0
-3807 3823 0
-77 -3807 3808 0
-3808 3824 0
-78 -3808 3809 0
-3809 3825 0
-79 -3809 3810 0
-3810 3826 0
-80 -3810 3811 0
-3811 3827 0
-81 -3811 3812 0
-3812 3828 0
-82 -3812 3813 0
-3813 3829 0
-83 -3813 3814 0
-3814 3830 0
-84 -3814 3815 0
-3815 3831 0
-85 -3815 3816 0
-3816 3832 0
-86 -3816 0
-71 3817 0
-3817 3833 0
-72 -3817 3818 0
-3818 3834 0
-73 -3818 3819 0
-3819 3835 0
-74 -3819 3820 0
-3820 3836 0
-75 -3820 3821 0
-3821 3837 0
-76 -3821 3822 0
-3822 3838 0
-77 -3822 3823 0
-3823 3839 0
-78 -3823 3824 0
-3824 3840 0
-79 -3824 3825 0
-3825 3841 0
-80 -3825 3826 0
-3826 3842 0
-81 -3826 3827 0
-3827 3843 0
-82 -3827 3828 0
-3828 3844 0
-83 -3828 3829 0
-3829 3845 0
-84 -3829 3830 0
-3830 3846 0
-85 -3830 3831 0
-3831 3847 0
-86 -3831 3832 0
-3832 3848 0
-87 -3832 0
-72 3833 0
-3833 3849 0
-73 -3833 3834 0
-3834 3850 0
-74 -3834 3835 0
-3835 3851 0
-75 -3835 3836 0
-3836 3852 0
-76 -3836 3837 0
-3837 3853 0
-77 -3837 3838 0
-3838 3854 0
-78 -3838 3839 0
-3839 3855 0
-79 -3839 3840 0
-3840 3856 0
-80 -3840 3841 0
-3841 3857 0
-81 -3841 3842 0
-3842 3858 0
-82 -3842 3843 0
-3843 3859 0
-83 -3843 3844 0
-3844 3860 0
-84 -3844 3845 0
-3845 3861 0
-85 -3845 3846 0
-3846 3862 0
-86 -3846 3847 0
-3847 3863 0
-87 -3847 3848 0
-3848 3864 0
-88 -3848 0
-73 3849 0
-3849 3865 0
-74 -3849 3850 0
-3850 3866 0
-75 -3850 3851 0
-3851 3867 0
-76 -3851 3852 0
-3852 3868 0
-77 -3852 3853 0
-3853 3869 0
-78 -3853 3854 0
-3854 3870 0
-79 -3854 3855 0
-3855 3871 0
-80 -3855 3856 0
-3856 3872 0
-81 -3856 3857 0
-3857 3873 0
-82 -3857 3858 0
-3858 3874 0
-83 -3858 3859 0
-3859 3875 0
-84 -3859 3860 0
-3860 3876 0
-85 -3860 3861 0
-3861 3877 0
-86 -3861 3862 0
-3862 3878 0
-87 -3862 3863 0
-3863 3879 0
-88 -3863 3864 0
-3864 3880 0
-89 -3864 0
-74 3865 0
-3865 3881 0
-75 -3865 3866 0
-3866 3882 0
-76 -3866 3867 0
-3867 3883 0
-77 -3867 3868 0
-3868 3884 0
-78 -3868 3869 0
-3869 3885 0
-79 -3869 3870 0
-3870 3886 0
-80 -3870 3871 0
-3871 3887 0
-81 -3871 3872 0
-3872 3888 0
-82 -3872 3873 0
-3873 3889 0
-83 -3873 3874 0
-3874 3890 0
-84 -3874 3875 0
-3875 3891 0
-85 -3875 3876 0
-3876 3892 0
-86 -3876 3877 0
-3877 3893 0
-87 -3877 3878 0
-3878 3894 0
-88 -3878 3879 0
-3879 3895 0
-89 -3879 3880 0
-3880 3896 0
-90 -3880 0
-75 3881 0
-3881 3897 0
-76 -3881 3882 0
-3882 3898 0
-77 -3882 3883 0
-3883 3899 0
-78 -3883 3884 0
-3884 3900 0
-79 -3884 3885 0
-3885 3901 0
-80 -3885 3886 0
-3886 3902 0
-81 -3886 3887 0
-3887 3903 0
-82 -3887 3888 0
-3888 3904 0
-83 -3888 3889 0
-3889 3905 0
-84 -3889 3890 0
-3890 3906 0
-85 -3890 3891 0
-3891 3907 0
-86 -3891 3892 0
-3892 3908 0
-87 -3892 3893 0
-3893 3909 0
-88 -3893 3894 0
-3894 3910 0
-89 -3894 3895 0
-3895 3911 0
-90 -3895 3896 0
-3896 3912 0
-91 -3896 0
-76 3897 0
-3897 3913 0
-77 -3897 3898 0
-3898 3914 0
-78 -3898 3899 0
-3899 3915 0
-79 -3899 3900 0
-3900 3916 0
-80 -3900 3901 0
-3901 3917 0
-81 -3901 3902 0
-3902 3918 0
-82 -3902 3903 0
-3903 3919 0
-83 -3903 3904 0
-3904 3920 0
-84 -3904 3905 0
-3905 3921 0
-85 -3905 3906 0
-3906 3922 0
-86 -3906 3907 0
-3907 3923 0
-87 -3907 3908 0
-3908 3924 0
-88 -3908 3909 0
-3909 3925 0
-89 -3909 3910 0
-3910 3926 0
-90 -3910 3911 0
-3911 3927 0
-91 -3911 3912 0
-3912 3928 0
-92 -3912 0
-77 3913 0
-3913 3929 0
-78 -3913 3914 0
-3914 3930 0
-79 -3914 3915 0
-3915 3931 0
-80 -3915 3916 0
-3916 3932 0
-81 -3916 3917 0
-3917 3933 0
-82 -3917 3918 0
-3918 3934 0
-83 -3918 3919 0
-3919 3935 0
-84 -3919 3920 0
-3920 3936 0
-85 -3920 3921 0
-3921 3937 0
-86 -3921 3922 0
-3922 3938 0
-87 -3922 3923 0
-3923 3939 0
-88 -3923 3924 0
-3924 3940 0
-89 -3924 3925 0
-3925 3941 0
-90 -3925 3926 0
-3926 3942 0
-91 -3926 3927 0
-3927 3943 0
-92 -3927 3928 0
-3928 3944 0
-93 -3928 0
-78 3929 0
-3929 3945 0
-79 -3929 3930 0
-3930 3946 0
-80 -3930 3931 0
-3931 3947 0
-81 -3931 3932 0
-3932 3948 0
-82 -3932 3933 0
-3933 3949 0
-83 -3933 3934 0
-3934 3950 0
-84 -3934 3935 0
-3935 3951 0
-85 -3935 3936 0
-3936 3952 0
-86 -3936 3937 0
-3937 3953 0
-87 -3937 3938 0
-3938 3954 0
-88 -3938 3939 0
-3939 3955 0
-89 -3939 3940 0
-3940 3956 0
-90 -3940 3941 0
-3941 3957 0
-91 -3941 3942 0
-3942 3958 0
-92 -3942 3943 0
-3943 3959 0
-93 -3943 3944 0
-3944 3960 0
-94 -3944 0
-79 3945 0
-3945 3961 0
-80 -3945 3946 0
-3946 3962 0
-81 -3946 3947 0
-3947 3963 0
-82 -3947 3948 0
-3948 3964 0
-83 -3948 3949 0
-3949 3965 0
-84 -3949 3950 0
-3950 3966 0
-85 -3950 3951 0
-3951 3967 0
-86 -3951 3952 0
-3952 3968 0
-87 -3952 3953 0
-3953 3969 0
-88 -3953 3954 0
-3954 3970 0
-89 -3954 3955 0
-3955 3971 0
-90 -3955 3956 0
-3956 3972 0
-91 -3956 3957 0
-3957 3973 0
-92 -3957 3958 0
-3958 3974 0
-93 -3958 3959 0
-3959 3975 0
-94 -3959 3960 0
-3960 3976 0
-95 -3960 0
-80 3961 0
-3961 3977 0
-81 -3961 3962 0
-3962 3978 0
-82 -3962 3963 0
-3963 3979 0
-83 -3963 3964 0
-3964 3980 0
-84 -3964 3965 0
-3965 3981 0
-85 -3965 3966 0
-3966 3982 0
-86 -3966 3967 0
-3967 3983 0
-87 -3967 3968 0
-3968 3984 0
-88 -3968 3969 0
-3969 3985 0
-89 -3969 3970 0
-3970 3986 0
-90 -3970 3971 0
-3971 3987 0
-91 -3971 3972 0
-3972 3988 0
-92 -3972 3973 0
-3973 3989 0
-93 -3973 3974 0
-3974 3990 0
-94 -3974 3975 0
-3975 3991 0
-95 -3975 3976 0
-3976 3992 0
-96 -3976 0
-81 3977 0
-3977 3993 0
-82 -3977 3978 0
-3978 3994 0
-83 -3978 3979 0
-3979 3995 0
-84 -3979 3980 0
-3980 3996 0
-85 -3980 3981 0
-3981 3997 0
-86 -3981 3982 0
-3982 3998 0
-87 -3982 3983 0
-3983 3999 0
-88 -3983 3984 0
-3984 4000 0
-89 -3984 3985 0
-3985 4001 0
-90 -3985 3986 0
-3986 4002 0
-91 -3986 3987 0
-3987 4003 0
-92 -3987 3988 0
-3988 4004 0
-93 -3988 3989 0
-3989 4005 0
-94 -3989 3990 0
-3990 4006 0
-95 -3990 3991 0
-3991 4007 0
-96 -3991 3992 0
-3992 4008 0
-97 -3992 0
-82 3993 0
-3993 4009 0
-83 -3993 3994 0
-3994 4010 0
-84 -3994 3995 0
-3995 4011 0
-85 -3995 3996 0
-3996 4012 0
-86 -3996 3997 0
-3997 4013 0
-87 -3997 3998 0
-3998 4014 0
-88 -3998 3999 0
-3999 4015 0
-89 -3999 4000 0
-4000 4016 0
-90 -4000 4001 0
-4001 4017 0
-91 -4001 4002 0
-4002 4018 0
-92 -4002 4003 0
-4003 4019 0
-93 -4003 4004 0
-4004 4020 0
-94 -4004 4005 0
-4005 4021 0
-95 -4005 4006 0
-4006 4022 0
-96 -4006 4007 0
-4007 4023 0
-97 -4007 4008 0
-4008 4024 0
-98 -4008 0
-83 4009 0
-4009 4025 0
-84 -4009 4010 0
-4010 4026 0
-85 -4010 4011 0
-4011 4027 0
-86 -4011 4012 0
-4012 4028 0
-87 -4012 4013 0
-4013 4029 0
-88 -4013 4014 0
-4014 4030 0
-89 -4014 4015 0
-4015 4031 0
-90 -4015 4016 0
-4016 4032 0
-91 -4016 4017 0
-4017 4033 0
-92 -4017 4018 0
-4018 4034 0
-93 -4018 4019 0
-4019 4035 0
-94 -4019 4020 0
-4020 4036 0
-95 -4020 4021 0
-4021 4037 0
-96 -4021 4022 0
-4022 4038 0
-97 -4022 4023 0
-4023 4039 0
-98 -4023 4024 0
-4024 4040 0
-99 -4024 0
-84 4025 0
-4025 4041 0
-85 -4025 4026 0
-4026 4042 0
-86 -4026 4027 0
-4027 4043 0
-87 -4027 4028 0
-4028 4044 0
-88 -4028 4029 0
-4029 4045 0
-89 -4029 4030 0
-4030 4046 0
-90 -4030 4031 0
-4031 4047 0
-91 -4031 4032 0
-4032 4048 0
-92 -4032 4033 0
-4033 4049 0
-93 -4033 4034 0
-4034 4050 0
-94 -4034 4035 0
-4035 4051 0
-95 -4035 4036 0
-4036 4052 0
-96 -4036 4037 0
-4037 4053 0
-97 -4037 4038 0
-4038 4054 0
-98 -4038 4039 0
-4039 4055 0
-99 -4039 4040 0
-4040 4056 0
-100 -4040 0
-85 4041 0
-4041 4057 0
-86 -4041 4042 0
-4042 4058 0
-87 -4042 4043 0
-4043 4059 0
-88 -4043 4044 0
-4044 4060 0
-89 -4044 4045 0
-4045 4061 0
-90 -4045 4046 0
-4046 4062 0
-91 -4046 4047 0
-4047 4063 0
-92 -4047 4048 0
-4048 4064 0
-93 -4048 4049 0
-4049 4065 0
-94 -4049 4050 0
-4050 4066 0
-95 -4050 4051 0
-4051 4067 0
-96 -4051 4052 0
-4052 4068 0
-97 -4052 4053 0
-4053 4069 0
-98 -4053 4054 0
-4054 4070 0
-99 -4054 4055 0
-4055 4071 0
-100 -4055 4056 0
-4056 4072 0
-101 -4056 0
-86 4057 0
-4057 4073 0
-87 -4057 4058 0
-4058 4074 0
-88 -4058 4059 0
-4059 4075 0
-89 -4059 4060 0
-4060 4076 0
-90 -4060 4061 0
-4061 4077 0
-91 -4061 4062 0
-4062 4078 0
-92 -4062 4063 0
-4063 4079 0
-93 -4063 4064 0
-4064 4080 0
-94 -4064 4065 0
-4065 4081 0
-95 -4065 4066 0
-4066 4082 0
-96 -4066 4067 0
-4067 4083 0
-97 -4067 4068 0
-4068 4084 0
-98 -4068 4069 0
-4069 4085 0
-99 -4069 4070 0
-4070 4086 0
-100 -4070 4071 0
-4071 4087 0
-101 -4071 4072 0
-4072 4088 0
-102 -4072 0
-87 4073 0
-4073 4089 0
-88 -4073 4074 0
-4074 4090 0
-89 -4074 4075 0
-4075 4091 0
-90 -4075 4076 0
-4076 4092 0
-91 -4076 4077 0
-4077 4093 0
-92 -4077 4078 0
-4078 4094 0
-93 -4078 4079 0
-4079 4095 0
-94 -4079 4080 0
-4080 4096 0
-95 -4080 4081 0
-4081 4097 0
-96 -4081 4082 0
-4082 4098 0
-97 -4082 4083 0
-4083 4099 0
-98 -4083 4084 0
-4084 4100 0
-99 -4084 4085 0
-4085 4101 0
-100 -4085 4086 0
-4086 4102 0
-101 -4086 4087 0
-4087 4103 0
-102 -4087 4088 0
-4088 4104 0
-103 -4088 0
-88 4089 0
-4089 4105 0
-89 -4089 4090 0
-4090 4106 0
-90 -4090 4091 0
-4091 4107 0
-91 -4091 4092 0
-4092 4108 0
-92 -4092 4093 0
-4093 4109 0
-93 -4093 4094 0
-4094 4110 0
-94 -4094 4095 0
-4095 4111 0
-95 -4095 4096 0
-4096 4112 0
-96 -4096 4097 0
-4097 4113 0
-97 -4097 4098 0
-4098 4114 0
-98 -4098 4099 0
-4099 4115 0
-99 -4099 4100 0
-4100 4116 0
-100 -4100 4101 0
-4101 4117 0
-101 -4101 4102 0
-4102 4118 0
-102 -4102 4103 0
-4103 4119 0
-103 -4103 4104 0
-4104 4120 0
-104 -4104 0
-89 4105 0
-4105 4121 0
-90 -4105 4106 0
-4106 4122 0
-91 -4106 4107 0
-4107 4123 0
-92 -4107 4108 0
-4108 4124 0
-93 -4108 4109 0
-4109 4125 0
-94 -4109 4110 0
-4110 4126 0
-95 -4110 4111 0
-4111 4127 0
-96 -4111 4112 0
-4112 4128 0
-97 -4112 4113 0
-4113 4129 0
-98 -4113 4114 0
-4114 4130 0
-99 -4114 4115 0
-4115 4131 0
-100 -4115 4116 0
-4116 4132 0
-101 -4116 4117 0
-4117 4133 0
-102 -4117 4118 0
-4118 4134 0
-103 -4118 4119 0
-4119 4135 0
-104 -4119 4120 0
-4120 4136 0
-105 -4120 0
-90 4121 0
-4121 4137 0
-91 -4121 4122 0
-4122 4138 0
-92 -4122 4123 0
-4123 4139 0
-93 -4123 4124 0
-4124 4140 0
-94 -4124 4125 0
-4125 4141 0
-95 -4125 4126 0
-4126 4142 0
-96 -4126 4127 0
-4127 4143 0
-97 -4127 4128 0
-4128 4144 0
-98 -4128 4129 0
-4129 4145 0
-99 -4129 4130 0
-4130 4146 0
-100 -4130 4131 0
-4131 4147 0
-101 -4131 4132 0
-4132 4148 0
-102 -4132 4133 0
-4133 4149 0
-103 -4133 4134 0
-4134 4150 0
-104 -4134 4135 0
-4135 4151 0
-105 -4135 4136 0
-4136 4152 0
-106 -4136 0
-91 4137 0
-4137 4153 0
-92 -4137 4138 0
-4138 4154 0
-93 -4138 4139 0
-4139 4155 0
-94 -4139 4140 0
-4140 4156 0
-95 -4140 4141 0
-4141 4157 0
-96 -4141 4142 0
-4142 4158 0
-97 -4142 4143 0
-4143 4159 0
-98 -4143 4144 0
-4144 4160 0
-99 -4144 4145 0
-4145 4161 0
-100 -4145 4146 0
-4146 4162 0
-101 -4146 4147 0
-4147 4163 0
-102 -4147 4148 0
-4148 4164 0
-103 -4148 4149 0
-4149 4165 0
-104 -4149 4150 0
-4150 4166 0
-105 -4150 4151 0
-4151 4167 0
-106 -4151 4152 0
-4152 4168 0
-107 -4152 0
-92 4153 0
-4153 4169 0
-93 -4153 4154 0
-4154 4170 0
-94 -4154 4155 0
-4155 4171 0
-95 -4155 4156 0
-4156 4172 0
-96 -4156 4157 0
-4157 4173 0
-97 -4157 4158 0
-4158 4174 0
-98 -4158 4159 0
-4159 4175 0
-99 -4159 4160 0
-4160 4176 0
-100 -4160 4161 0
-4161 4177 0
-101 -4161 4162 0
-4162 4178 0
-102 -4162 4163 0
-4163 4179 0
-103 -4163 4164 0
-4164 4180 0
-104 -4164 4165 0
-4165 4181 0
-105 -4165 4166 0
-4166 4182 0
-106 -4166 4167 0
-4167 4183 0
-107 -4167 4168 0
-4168 4184 0
-108 -4168 0
-93 4169 0
-4169 4185 0
-94 -4169 4170 0
-4170 4186 0
-95 -4170 4171 0
-4171 4187 0
-96 -4171 4172 0
-4172 4188 0
-97 -4172 4173 0
-4173 4189 0
-98 -4173 4174 0
-4174 4190 0
-99 -4174 4175 0
-4175 4191 0
-100 -4175 4176 0
-4176 4192 0
-101 -4176 4177 0
-4177 4193 0
-102 -4177 4178 0
-4178 4194 0
-103 -4178 4179 0
-4179 4195 0
-104 -4179 4180 0
-4180 4196 0
-105 -4180 4181 0
-4181 4197 0
-106 -4181 4182 0
-4182 4198 0
-107 -4182 4183 0
-4183 4199 0
-108 -4183 4184 0
-4184 4200 0
-109 -4184 0
-94 4185 0
-4185 4201 0
-95 -4185 4186 0
-4186 4202 0
-96 -4186 4187 0
-4187 4203 0
-97 -4187 4188 0
-4188 4204 0
-98 -4188 4189 0
-4189 4205 0
-99 -4189 4190 0
-4190 4206 0
-100 -4190 4191 0
-4191 4207 0
-101 -4191 4192 0
-4192 4208 0
-102 -4192 4193 0
-4193 4209 0
-103 -4193 4194 0
-4194 4210 0
-104 -4194 4195 0
-4195 4211 0
-105 -4195 4196 0
-4196 4212 0
-106 -4196 4197 0
-4197 4213 0
-107 -4197 4198 0
-4198 4214 0
-108 -4198 4199 0
-4199 4215 0
-109 -4199 4200 0
-4200 4216 0
-110 -4200 0
-95 4201 0
-4201 4217 0
-96 -4201 4202 0
-4202 4218 0
-97 -4202 4203 0
-4203 4219 0
-98 -4203 4204 0
-4204 4220 0
-99 -4204 4205 0
-4205 4221 0
-100 -4205 4206 0
-4206 4222 0
-101 -4206 4207 0
-4207 4223 0
-102 -4207 4208 0
-4208 4224 0
-103 -4208 4209 0
-4209 4225 0
-104 -4209 4210 0
-4210 4226 0
-105 -4210 4211 0
-4211 4227 0
-106 -4211 4212 0
-4212 4228 0
-107 -4212 4213 0
-4213 4229 0
-108 -4213 4214 0
-4214 4230 0
-109 -4214 4215 0
-4215 4231 0
-110 -4215 4216 0
-4216 4232 0
-111 -4216 0
-96 4217 0
-4217 4233 0
-97 -4217 4218 0
-4218 4234 0
-98 -4218 4219 0
-4219 4235 0
-99 -4219 4220 0
-4220 4236 0
-100 -4220 4221 0
-4221 4237 0
-101 -4221 4222 0
-4222 4238 0
-102 -4222 4223 0
-4223 4239 0
-103 -4223 4224 0
-4224 4240 0
-104 -4224 4225 0
-4225 4241 0
-105 -4225 4226 0
-4226 4242 0
-106 -4226 4227 0
-4227 4243 0
-107 -4227 4228 0
-4228 4244 0
-108 -4228 4229 0
-4229 4245 0
-109 -4229 4230 0
-4230 4246 0
-110 -4230 4231 0
-4231 4247 0
-111 -4231 4232 0
-4232 4248 0
-112 -4232 0
-97 4233 0
-4233 4249 0
-98 -4233 4234 0
-4234 4250 0
-99 -4234 4235 0
-4235 4251 0
-100 -4235 4236 0
-4236 4252 0
-101 -4236 4237 0
-4237 4253 0
-102 -4237 4238 0
-4238 4254 0
-103 -4238 4239 0
-4239 4255 0
-104 -4239 4240 0
-4240 4256 0
-105 -4240 4241 0
-4241 4257 0
-106 -4241 4242 0
-4242 4258 0
-107 -4242 4243 0
-4243 4259 0
-108 -4243 4244 0
-4244 4260 0
-109 -4244 4245 0
-4245 4261 0
-110 -4245 4246 0
-4246 4262 0
-111 -4246 4247 0
-4247 4263 0
-112 -4247 4248 0
-4248 4264 0
-113 -4248 0
-98 4249 0
-4249 4265 0
-99 -4249 4250 0
-4250 4266 0
-100 -4250 4251 0
-4251 4267 0
-101 -4251 4252 0
-4252 4268 0
-102 -4252 4253 0
-4253 4269 0
-103 -4253 4254 0
-4254 4270 0
-104 -4254 4255 0
-4255 4271 0
-105 -4255 4256 0
-4256 4272 0
-106 -4256 4257 0
-4257 4273 0
-107 -4257 4258 0
-4258 4274 0
-108 -4258 4259 0
-4259 4275 0
-109 -4259 4260 0
-4260 4276 0
-110 -4260 4261 0
-4261 4277 0
-111 -4261 4262 0
-4262 4278 0
-112 -4262 4263 0
-4263 4279 0
-113 -4263 4264 0
-4264 4280 0
-114 -4264 0
-99 4265 0
-4265 4281 0
-100 -4265 4266 0
-4266 4282 0
-101 -4266 4267 0
-4267 4283 0
-102 -4267 4268 0
-4268 4284 0
-103 -4268 4269 0
-4269 4285 0
-104 -4269 4270 0
-4270 4286 0
-105 -4270 4271 0
-4271 4287 0
-106 -4271 4272 0
-4272 4288 0
-107 -4272 4273 0
-4273 4289 0
-108 -4273 4274 0
-4274 4290 0
-109 -4274 4275 0
-4275 4291 0
-110 -4275 4276 0
-4276 4292 0
-111 -4276 4277 0
-4277 4293 0
-112 -4277 4278 0
-4278 4294 0
-113 -4278 4279 0
-4279 4295 0
-114 -4279 4280 0
-4280 4296 0
-115 -4280 0
-100 4281 0
-4281 4297 0
-101 -4281 4282 0
-4282 4298 0
-102 -4282 4283 0
-4283 4299 0
-103 -4283 4284 0
-4284 4300 0
-104 -4284 4285 0
-4285 4301 0
-105 -4285 4286 0
-4286 4302 0
-106 -4286 4287 0
-4287 4303 0
-107 -4287 4288 0
-4288 4304 0
-108 -4288 4289 0
-4289 4305 0
-109 -4289 4290 0
-4290 4306 0
-110 -4290 4291 0
-4291 4307 0
-111 -4291 4292 0
-4292 4308 0
-112 -4292 4293 0
-4293 4309 0
-113 -4293 4294 0
-4294 4310 0
-114 -4294 4295 0
-4295 4311 0
-115 -4295 4296 0
-4296 4312 0
-116 -4296 0
-101 4297 0
-4297 4313 0
-102 -4297 4298 0
-4298 4314 0
-103 -4298 4299 0
-4299 4315 0
-104 -4299 4300 0
-4300 4316 0
-105 -4300 4301 0
-4301 4317 0
-106 -4301 4302 0
-4302 4318 0
-107 -4302 4303 0
-4303 4319 0
-108 -4303 4304 0
-4304 4320 0
-109 -4304 4305 0
-4305 4321 0
-110 -4305 4306 0
-4306 4322 0
-111 -4306 4307 0
-4307 4323 0
-112 -4307 4308 0
-4308 4324 0
-113 -4308 4309 0
-4309 4325 0
-114 -4309 4310 0
-4310 4326 0
-115 -4310 4311 0
-4311 4327 0
-116 -4311 4312 0
-4312 4328 0
-117 -4312 0
-102 4313 0
-4313 4329 0
-103 -4313 4314 0
-4314 4330 0
-104 -4314 4315 0
-4315 4331 0
-105 -4315 4316 0
-4316 4332 0
-106 -4316 4317 0
-4317 4333 0
-107 -4317 4318 0
-4318 4334 0
-108 -4318 4319 0
-4319 4335 0
-109 -4319 4320 0
-4320 4336 0
-110 -4320 4321 0
-4321 4337 0
-111 -4321 4322 0
-4322 4338 0
-112 -4322 4323 0
-4323 4339 0
-113 -4323 4324 0
-4324 4340 0
-114 -4324 4325 0
-4325 4341 0
-115 -4325 4326 0
-4326 4342 0
-116 -4326 4327 0
-4327 4343 0
-117 -4327 4328 0
-4328 4344 0
-118 -4328 0
-103 4329 0
-4329 4345 0
-104 -4329 4330 0
-4330 4346 0
-105 -4330 4331 0
-4331 4347 0
-106 -4331 4332 0
-4332 4348 0
-107 -4332 4333 0
-4333 4349 0
-108 -4333 4334 0
-4334 4350 0
-109 -4334 4335 0
-4335 4351 0
-110 -4335 4336 0
-4336 4352 0
-111 -4336 4337 0
-4337 4353 0
-112 -4337 4338 0
-4338 4354 0
-113 -4338 4339 0
-4339 4355 0
-114 -4339 4340 0
-4340 4356 0
-115 -4340 4341 0
-4341 4357 0
-116 -4341 4342 0
-4342 4358 0
-117 -4342 4343 0
-4343 4359 0
-118 -4343 4344 0
-4344 4360 0
-119 -4344 0
-104 4345 0
-4345 4361 0
-105 -4345 4346 0
-4346 4362 0
-106 -4346 4347 0
-4347 4363 0
-107 -4347 4348 0
-4348 4364 0
-108 -4348 4349 0
-4349 4365 0
-109 -4349 4350 0
-4350 4366 0
-110 -4350 4351 0
-4351 4367 0
-111 -4351 4352 0
-4352 4368 0
-112 -4352 4353 0
-4353 4369 0
-113 -4353 4354 0
-4354 4370 0
-114 -4354 4355 0
-4355 4371 0
-115 -4355 4356 0
-4356 4372 0
-116 -4356 4357 0
-4357 4373 0
-117 -4357 4358 0
-4358 4374 0
-118 -4358 4359 0
-4359 4375 0
-119 -4359 4360 0
-4360 4376 0
-120 -4360 0
-105 4361 0
-4361 4377 0
-106 -4361 4362 0
-4362 4378 0
-107 -4362 4363 0
-4363 4379 0
-108 -4363 4364 0
-4364 4380 0
-109 -4364 4365 0
-4365 4381 0
-110 -4365 4366 0
-4366 4382 0
-111 -4366 4367 0
-4367 4383 0
-112 -4367 4368 0
-4368 4384 0
-113 -4368 4369 0
-4369 4385 0
-114 -4369 4370 0
-4370 4386 0
-115 -4370 4371 0
-4371 4387 0
-116 -4371 4372 0
-4372 4388 0
-117 -4372 4373 0
-4373 4389 0
-118 -4373 4374 0
-4374 4390 0
-119 -4374 4375 0
-4375 4391 0
-120 -4375 4376 0
-4376 4392 0
-121 -4376 0
-106 4377 0
-4377 4393 0
-107 -4377 4378 0
-4378 4394 0
-108 -4378 4379 0
-4379 4395 0
-109 -4379 4380 0
-4380 4396 0
-110 -4380 4381 0
-4381 4397 0
-111 -4381 4382 0
-4382 4398 0
-112 -4382 4383 0
-4383 4399 0
-113 -4383 4384 0
-4384 4400 0
-114 -4384 4385 0
-4385 4401 0
-115 -4385 4386 0
-4386 4402 0
-116 -4386 4387 0
-4387 4403 0
-117 -4387 4388 0
-4388 4404 0
-118 -4388 4389 0
-4389 4405 0
-119 -4389 4390 0
-4390 4406 0
-120 -4390 4391 0
-4391 4407 0
-121 -4391 4392 0
-4392 4408 0
-122 -4392 0
-107 4393 0
-4393 4409 0
-108 -4393 4394 0
-4394 4410 0
-109 -4394 4395 0
-4395 4411 0
-110 -4395 4396 0
-4396 4412 0
-111 -4396 4397 0
-4397 4413 0
-112 -4397 4398 0
-4398 4414 0
-113 -4398 4399 0
-4399 4415 0
-114 -4399 4400 0
-4400 4416 0
-115 -4400 4401 0
-4401 4417 0
-116 -4401 4402 0
-4402 4418 0
-117 -4402 4403 0
-4403 4419 0
-118 -4403 4404 0
-4404 4420 0
-119 -4404 4405 0
-4405 4421 0
-120 -4405 4406 0
-4406 4422 0
-121 -4406 4407 0
-4407 4423 0
-122 -4407 4408 0
-4408 4424 0
-123 -4408 0
-108 4409 0
-4409 4425 0
-109 -4409 4410 0
-4410 4426 0
-110 -4410 4411 0
-4411 4427 0
-111 -4411 4412 0
-4412 4428 0
-112 -4412 4413 0
-4413 4429 0
-113 -4413 4414 0
-4414 4430 0
-114 -4414 4415 0
-4415 4431 0
-115 -4415 4416 0
-4416 4432 0
-116 -4416 4417 0
-4417 4433 0
-117 -4417 4418 0
-4418 4434 0
-118 -4418 4419 0
-4419 4435 0
-119 -4419 4420 0
-4420 4436 0
-120 -4420 4421 0
-4421 4437 0
-121 -4421 4422 0
-4422 4438 0
-122 -4422 4423 0
-4423 4439 0
-123 -4423 4424 0
-4424 4440 0
-124 -4424 0
-109 4425 0
-4425 4441 0
-110 -4425 4426 0
-4426 4442 0
-111 -4426 4427 0
-4427 4443 0
-112 -4427 4428 0
-4428 4444 0
-113 -4428 4429 0
-4429 4445 0
-114 -4429 4430 0
-4430 4446 0
-115 -4430 4431 0
-4431 4447 0
-116 -4431 4432 0
-4432 4448 0
-117 -4432 4433 0
-4433 4449 0
-118 -4433 4434 0
-4434 4450 0
-119 -4434 4435 0
-4435 4451 0
-120 -4435 4436 0
-4436 4452 0
-121 -4436 4437 0
-4437 4453 0
-122 -4437 4438 0
-4438 4454 0
-123 -4438 4439 0
-4439 4455 0
-124 -4439 4440 0
-4440 4456 0
-125 -4440 0
-110 4441 0
-4441 4457 0
-111 -4441 4442 0
-4442 4458 0
-112 -4442 4443 0
-4443 4459 0
-113 -4443 4444 0
-4444 4460 0
-114 -4444 4445 0
-4445 4461 0
-115 -4445 4446 0
-4446 4462 0
-116 -4446 4447 0
-4447 4463 0
-117 -4447 4448 0
-4448 4464 0
-118 -4448 4449 0
-4449 4465 0
-119 -4449 4450 0
-4450 4466 0
-120 -4450 4451 0
-4451 4467 0
-121 -4451 4452 0
-4452 4468 0
-122 -4452 4453 0
-4453 4469 0
-123 -4453 4454 0
-4454 4470 0
-124 -4454 4455 0
-4455 4471 0
-125 -4455 4456 0
-4456 4472 0
-126 -4456 0
-111 4457 0
-4457 4473 0
-112 -4457 4458 0
-4458 4474 0
-113 -4458 4459 0
-4459 4475 0
-114 -4459 4460 0
-4460 4476 0
-115 -4460 4461 0
-4461 4477 0
-116 -4461 4462 0
-4462 4478 0
-117 -4462 4463 0
-4463 4479 0
-118 -4463 4464 0
-4464 4480 0
-119 -4464 4465 0
-4465 4481 0
-120 -4465 4466 0
-4466 4482 0
-121 -4466 4467 0
-4467 4483 0
-122 -4467 4468 0
-4468 4484 0
-123 -4468 4469 0
-4469 4485 0
-124 -4469 4470 0
-4470 4486 0
-125 -4470 4471 0
-4471 4487 0
-126 -4471 4472 0
-4472 4488 0
-127 -4472 0
-112 4473 0
-4473 4489 0
-113 -4473 4474 0
-4474 4490 0
-114 -4474 4475 0
-4475 4491 0
-115 -4475 4476 0
-4476 4492 0
-116 -4476 4477 0
-4477 4493 0
-117 -4477 4478 0
-4478 4494 0
-118 -4478 4479 0
-4479 4495 0
-119 -4479 4480 0
-4480 4496 0
-120 -4480 4481 0
-4481 4497 0
-121 -4481 4482 0
-4482 4498 0
-122 -4482 4483 0
-4483 4499 0
-123 -4483 4484 0
-4484 4500 0
-124 -4484 4485 0
-4485 4501 0
-125 -4485 4486 0
-4486 4502 0
-126 -4486 4487 0
-4487 4503 0
-127 -4487 4488 0
-4488 4504 0
-128 -4488 0
-113 4489 0
-4489 4505 0
-114 -4489 4490 0
-4490 4506 0
-115 -4490 4491 0
-4491 4507 0
-116 -4491 4492 0
-4492 4508 0
-117 -4492 4493 0
-4493 4509 0
-118 -4493 4494 0
-4494 4510 0
-119 -4494 4495 0
-4495 4511 0
-120 -4495 4496 0
-4496 4512 0
-121 -4496 4497 0
-4497 4513 0
-122 -4497 4498 0
-4498 4514 0
-123 -4498 4499 0
-4499 4515 0
-124 -4499 4500 0
-4500 4516 0
-125 -4500 4501 0
-4501 4517 0
-126 -4501 4502 0
-4502 4518 0
-127 -4502 4503 0
-4503 4519 0
-128 -4503 4504 0
-4504 4520 0
-129 -4504 0
-114 4505 0
-4505 4521 0
-115 -4505 4506 0
-4506 4522 0
-116 -4506 4507 0
-4507 4523 0
-117 -4507 4508 0
-4508 4524 0
-118 -4508 4509 0
-4509 4525 0
-119 -4509 4510 0
-4510 4526 0
-120 -4510 4511 0
-4511 4527 0
-121 -4511 4512 0
-4512 4528 0
-122 -4512 4513 0
-4513 4529 0
-123 -4513 4514 0
-4514 4530 0
-124 -4514 4515 0
-4515 4531 0
-125 -4515 4516 0
-4516 4532 0
-126 -4516 4517 0
-4517 4533 0
-127 -4517 4518 0
-4518 4534 0
-128 -4518 4519 0
-4519 4535 0
-129 -4519 4520 0
-4520 4536 0
-130 -4520 0
-115 4521 0
-4521 4537 0
-116 -4521 4522 0
-4522 4538 0
-117 -4522 4523 0
-4523 4539 0
-118 -4523 4524 0
-4524 4540 0
-119 -4524 4525 0
-4525 4541 0
-120 -4525 4526 0
-4526 4542 0
-121 -4526 4527 0
-4527 4543 0
-122 -4527 4528 0
-4528 4544 0
-123 -4528 4529 0
-4529 4545 0
-124 -4529 4530 0
-4530 4546 0
-125 -4530 4531 0
-4531 4547 0
-126 -4531 4532 0
-4532 4548 0
-127 -4532 4533 0
-4533 4549 0
-128 -4533 4534 0
-4534 4550 0
-129 -4534 4535 0
-4535 4551 0
-130 -4535 4536 0
-4536 4552 0
-131 -4536 0
-116 4537 0
-4537 4553 0
-117 -4537 4538 0
-4538 4554 0
-118 -4538 4539 0
-4539 4555 0
-119 -4539 4540 0
-4540 4556 0
-120 -4540 4541 0
-4541 4557 0
-121 -4541 4542 0
-4542 4558 0
-122 -4542 4543 0
-4543 4559 0
-123 -4543 4544 0
-4544 4560 0
-124 -4544 4545 0
-4545 4561 0
-125 -4545 4546 0
-4546 4562 0
-126 -4546 4547 0
-4547 4563 0
-127 -4547 4548 0
-4548 4564 0
-128 -4548 4549 0
-4549 4565 0
-129 -4549 4550 0
-4550 4566 0
-130 -4550 4551 0
-4551 4567 0
-131 -4551 4552 0
-4552 4568 0
-132 -4552 0
-117 4553 0
-4553 4569 0
-118 -4553 4554 0
-4554 4570 0
-119 -4554 4555 0
-4555 4571 0
-120 -4555 4556 0
-4556 4572 0
-121 -4556 4557 0
-4557 4573 0
-122 -4557 4558 0
-4558 4574 0
-123 -4558 4559 0
-4559 4575 0
-124 -4559 4560 0
-4560 4576 0
-125 -4560 4561 0
-4561 4577 0
-126 -4561 4562 0
-4562 4578 0
-127 -4562 4563 0
-4563 4579 0
-128 -4563 4564 0
-4564 4580 0
-129 -4564 4565 0
-4565 4581 0
-130 -4565 4566 0
-4566 4582 0
-131 -4566 4567 0
-4567 4583 0
-132 -4567 4568 0
-4568 4584 0
-133 -4568 0
-118 4569 0
-4569 4585 0
-119 -4569 4570 0
-4570 4586 0
-120 -4570 4571 0
-4571 4587 0
-121 -4571 4572 0
-4572 4588 0
-122 -4572 4573 0
-4573 4589 0
-123 -4573 4574 0
-4574 4590 0
-124 -4574 4575 0
-4575 4591 0
-125 -4575 4576 0
-4576 4592 0
-126 -4576 4577 0
-4577 4593 0
-127 -4577 4578 0
-4578 4594 0
-128 -4578 4579 0
-4579 4595 0
-129 -4579 4580 0
-4580 4596 0
-130 -4580 4581 0
-4581 4597 0
-131 -4581 4582 0
-4582 4598 0
-132 -4582 4583 0
-4583 4599 0
-133 -4583 4584 0
-4584 4600 0
-134 -4584 0
-119 4585 0
-4585 4601 0
-120 -4585 4586 0
-4586 4602 0
-121 -4586 4587 0
-4587 4603 0
-122 -4587 4588 0
-4588 4604 0
-123 -4588 4589 0
-4589 4605 0
-124 -4589 4590 0
-4590 4606 0
-125 -4590 4591 0
-4591 4607 0
-126 -4591 4592 0
-4592 4608 0
-127 -4592 4593 0
-4593 4609 0
-128 -4593 4594 0
-4594 4610 0
-129 -4594 4595 0
-4595 4611 0
-130 -4595 4596 0
-4596 4612 0
-131 -4596 4597 0
-4597 4613 0
-132 -4597 4598 0
-4598 4614 0
-133 -4598 4599 0
-4599 4615 0
-134 -4599 4600 0
-4600 4616 0
-135 -4600 0
-120 4601 0
-4601 4617 0
-121 -4601 4602 0
-4602 4618 0
-122 -4602 4603 0
-4603 4619 0
-123 -4603 4604 0
-4604 4620 0
-124 -4604 4605 0
-4605 4621 0
-125 -4605 4606 0
-4606 4622 0
-126 -4606 4607 0
-4607 4623 0
-127 -4607 4608 0
-4608 4624 0
-128 -4608 4609 0
-4609 4625 0
-129 -4609 4610 0
-4610 4626 0
-130 -4610 4611 0
-4611 4627 0
-131 -4611 4612 0
-4612 4628 0
-132 -4612 4613 0
-4613 4629 0
-133 -4613 4614 0
-4614 4630 0
-134 -4614 4615 0
-4615 4631 0
-135 -4615 4616 0
-4616 4632 0
-136 -4616 0
-121 4617 0
-4617 4633 0
-122 -4617 4618 0
-4618 4634 0
-123 -4618 4619 0
-4619 4635 0
-124 -4619 4620 0
-4620 4636 0
-125 -4620 4621 0
-4621 4637 0
-126 -4621 4622 0
-4622 4638 0
-127 -4622 4623 0
-4623 4639 0
-128 -4623 4624 0
-4624 4640 0
-129 -4624 4625 0
-4625 4641 0
-130 -4625 4626 0
-4626 4642 0
-131 -4626 4627 0
-4627 4643 0
-132 -4627 4628 0
-4628 4644 0
-133 -4628 4629 0
-4629 4645 0
-134 -4629 4630 0
-4630 4646 0
-135 -4630 4631 0
-4631 4647 0
-136 -4631 4632 0
-4632 4648 0
-137 -4632 0
-122 4633 0
-4633 4649 0
-123 -4633 4634 0
-4634 4650 0
-124 -4634 4635 0
-4635 4651 0
-125 -4635 4636 0
-4636 4652 0
-126 -4636 4637 0
-4637 4653 0
-127 -4637 4638 0
-4638 4654 0
-128 -4638 4639 0
-4639 4655 0
-129 -4639 4640 0
-4640 4656 0
-130 -4640 4641 0
-4641 4657 0
-131 -4641 4642 0
-4642 4658 0
-132 -4642 4643 0
-4643 4659 0
-133 -4643 4644 0
-4644 4660 0
-134 -4644 4645 0
-4645 4661 0
-135 -4645 4646 0
-4646 4662 0
-136 -4646 4647 0
-4647 4663 0
-137 -4647 4648 0
-4648 4664 0
-138 -4648 0
-123 4649 0
-4649 4665 0
-124 -4649 4650 0
-4650 4666 0
-125 -4650 4651 0
-4651 4667 0
-126 -4651 4652 0
-4652 4668 0
-127 -4652 4653 0
-4653 4669 0
-128 -4653 4654 0
-4654 4670 0
-129 -4654 4655 0
-4655 4671 0
-130 -4655 4656 0
-4656 4672 0
-131 -4656 4657 0
-4657 4673 0
-132 -4657 4658 0
-4658 4674 0
-133 -4658 4659 0
-4659 4675 0
-134 -4659 4660 0
-4660 4676 0
-135 -4660 4661 0
-4661 4677 0
-136 -4661 4662 0
-4662 4678 0
-137 -4662 4663 0
-4663 4679 0
-138 -4663 4664 0
-4664 4680 0
-139 -4664 0
-124 4665 0
-4665 4681 0
-125 -4665 4666 0
-4666 4682 0
-126 -4666 4667 0
-4667 4683 0
-127 -4667 4668 0
-4668 4684 0
-128 -4668 4669 0
-4669 4685 0
-129 -4669 4670 0
-4670 4686 0
-130 -4670 4671 0
-4671 4687 0
-131 -4671 4672 0
-4672 4688 0
-132 -4672 4673 0
-4673 4689 0
-133 -4673 4674 0
-4674 4690 0
-134 -4674 4675 0
-4675 4691 0
-135 -4675 4676 0
-4676 4692 0
-136 -4676 4677 0
-4677 4693 0
-137 -4677 4678 0
-4678 4694 0
-138 -4678 4679 0
-4679 4695 0
-139 -4679 4680 0
-4680 4696 0
-140 -4680 0
-125 4681 0
-4681 4697 0
-126 -4681 4682 0
-4682 4698 0
-127 -4682 4683 0
-4683 4699 0
-128 -4683 4684 0
-4684 4700 0
-129 -4684 4685 0
-4685 4701 0
-130 -4685 4686 0
-4686 4702 0
-131 -4686 4687 0
-4687 4703 0
-132 -4687 4688 0
-4688 4704 0
-133 -4688 4689 0
-4689 4705 0
-134 -4689 4690 0
-4690 4706 0
-135 -4690 4691 0
-4691 4707 0
-136 -4691 4692 0
-4692 4708 0
-137 -4692 4693 0
-4693 4709 0
-138 -4693 4694 0
-4694 4710 0
-139 -4694 4695 0
-4695 4711 0
-140 -4695 4696 0
-4696 4712 0
-141 -4696 0
-126 4697 0
-4697 4713 0
-127 -4697 4698 0
-4698 4714 0
-128 -4698 4699 0
-4699 4715 0
-129 -4699 4700 0
-4700 4716 0
-130 -4700 4701 0
-4701 4717 0
-131 -4701 4702 0
-4702 4718 0
-132 -4702 4703 0
-4703 4719 0
-133 -4703 4704 0
-4704 4720 0
-134 -4704 4705 0
-4705 4721 0
-135 -4705 4706 0
-4706 4722 0
-136 -4706 4707 0
-4707 4723 0
-137 -4707 4708 0
-4708 4724 0
-138 -4708 4709 0
-4709 4725 0
-139 -4709 4710 0
-4710 4726 0
-140 -4710 4711 0
-4711 4727 0
-141 -4711 4712 0
-4712 4728 0
-142 -4712 0
-127 4713 0
-4713 4729 0
-128 -4713 4714 0
-4714 4730 0
-129 -4714 4715 0
-4715 4731 0
-130 -4715 4716 0
-4716 4732 0
-131 -4716 4717 0
-4717 4733 0
-132 -4717 4718 0
-4718 4734 0
-133 -4718 4719 0
-4719 4735 0
-134 -4719 4720 0
-4720 4736 0
-135 -4720 4721 0
-4721 4737 0
-136 -4721 4722 0
-4722 4738 0
-137 -4722 4723 0
-4723 4739 0
-138 -4723 4724 0
-4724 4740 0
-139 -4724 4725 0
-4725 4741 0
-140 -4725 4726 0
-4726 4742 0
-141 -4726 4727 0
-4727 4743 0
-142 -4727 4728 0
-4728 4744 0
-143 -4728 0
-128 4729 0
-4729 4745 0
-129 -4729 4730 0
-4730 4746 0
-130 -4730 4731 0
-4731 4747 0
-131 -4731 4732 0
-4732 4748 0
-132 -4732 4733 0
-4733 4749 0
-133 -4733 4734 0
-4734 4750 0
-134 -4734 4735 0
-4735 4751 0
-135 -4735 4736 0
-4736 4752 0
-136 -4736 4737 0
-4737 4753 0
-137 -4737 4738 0
-4738 4754 0
-138 -4738 4739 0
-4739 4755 0
-139 -4739 4740 0
-4740 4756 0
-140 -4740 4741 0
-4741 4757 0
-141 -4741 4742 0
-4742 4758 0
-142 -4742 4743 0
-4743 4759 0
-143 -4743 4744 0
-4744 4760 0
-144 -4744 0
-129 4745 0
-4745 4761 0
-130 -4745 4746 0
-4746 4762 0
-131 -4746 4747 0
-4747 4763 0
-132 -4747 4748 0
-4748 4764 0
-133 -4748 4749 0
-4749 4765 0
-134 -4749 4750 0
-4750 4766 0
-135 -4750 4751 0
-4751 4767 0
-136 -4751 4752 0
-4752 4768 0
-137 -4752 4753 0
-4753 4769 0
-138 -4753 4754 0
-4754 4770 0
-139 -4754 4755 0
-4755 4771 0
-140 -4755 4756 0
-4756 4772 0
-141 -4756 4757 0
-4757 4773 0
-142 -4757 4758 0
-4758 4774 0
-143 -4758 4759 0
-4759 4775 0
-144 -4759 4760 0
-4760 4776 0
-145 -4760 0
-130 4761 0
-4761 4777 0
-131 -4761 4762 0
-4762 4778 0
-132 -4762 4763 0
-4763 4779 0
-133 -4763 4764 0
-4764 4780 0
-134 -4764 4765 0
-4765 4781 0
-135 -4765 4766 0
-4766 4782 0
-136 -4766 4767 0
-4767 4783 0
-137 -4767 4768 0
-4768 4784 0
-138 -4768 4769 0
-4769 4785 0
-139 -4769 4770 0
-4770 4786 0
-140 -4770 4771 0
-4771 4787 0
-141 -4771 4772 0
-4772 4788 0
-142 -4772 4773 0
-4773 4789 0
-143 -4773 4774 0
-4774 4790 0
-144 -4774 4775 0
-4775 4791 0
-145 -4775 4776 0
-4776 4792 0
-146 -4776 0
-131 4777 0
-4777 4793 0
-132 -4777 4778 0
-4778 4794 0
-133 -4778 4779 0
-4779 4795 0
-134 -4779 4780 0
-4780 4796 0
-135 -4780 4781 0
-4781 4797 0
-136 -4781 4782 0
-4782 4798 0
-137 -4782 4783 0
-4783 4799 0
-138 -4783 4784 0
-4784 4800 0
-139 -4784 4785 0
-4785 4801 0
-140 -4785 4786 0
-4786 4802 0
-141 -4786 4787 0
-4787 4803 0
-142 -4787 4788 0
-4788 4804 0
-143 -4788 4789 0
-4789 4805 0
-144 -4789 4790 0
-4790 4806 0
-145 -4790 4791 0
-4791 4807 0
-146 -4791 4792 0
-4792 4808 0
-147 -4792 0
-132 4793 0
-4793 4809 0
-133 -4793 4794 0
-4794 4810 0
-134 -4794 4795 0
-4795 4811 0
-135 -4795 4796 0
-4796 4812 0
-136 -4796 4797 0
-4797 4813 0
-137 -4797 4798 0
-4798 4814 0
-138 -4798 4799 0
-4799 4815 0
-139 -4799 4800 0
-4800 4816 0
-140 -4800 4801 0
-4801 4817 0
-141 -4801 4802 0
-4802 4818 0
-142 -4802 4803 0
-4803 4819 0
-143 -4803 4804 0
-4804 4820 0
-144 -4804 4805 0
-4805 4821 0
-145 -4805 4806 0
-4806 4822 0
-146 -4806 4807 0
-4807 4823 0
-147 -4807 4808 0
-4808 4824 0
-148 -4808 0
-133 4809 0
-4809 4825 0
-134 -4809 4810 0
-4810 4826 0
-135 -4810 4811 0
-4811 4827 0
-136 -4811 4812 0
-4812 4828 0
-137 -4812 4813 0
-4813 4829 0
-138 -4813 4814 0
-4814 4830 0
-139 -4814 4815 0
-4815 4831 0
-140 -4815 4816 0
-4816 4832 0
-141 -4816 4817 0
-4817 4833 0
-142 -4817 4818 0
-4818 4834 0
-143 -4818 4819 0
-4819 4835 0
-144 -4819 4820 0
-4820 4836 0
-145 -4820 4821 0
-4821 4837 0
-146 -4821 4822 0
-4822 4838 0
-147 -4822 4823 0
-4823 4839 0
-148 -4823 4824 0
-4824 4840 0
-149 -4824 0
-134 4825 0
-4825 4841 0
-135 -4825 4826 0
-4826 4842 0
-136 -4826 4827 0
-4827 4843 0
-137 -4827 4828 0
-4828 4844 0
-138 -4828 4829 0
-4829 4845 0
-139 -4829 4830 0
-4830 4846 0
-140 -4830 4831 0
-4831 4847 0
-141 -4831 4832 0
-4832 4848 0
-142 -4832 4833 0
-4833 4849 0
-143 -4833 4834 0
-4834 4850 0
-144 -4834 4835 0
-4835 4851 0
-145 -4835 4836 0
-4836 4852 0
-146 -4836 4837 0
-4837 4853 0
-147 -4837 4838 0
-4838 4854 0
-148 -4838 4839 0
-4839 4855 0
-149 -4839 4840 0
-4840 4856 0
-150 -4840 0
-135 4841 0
-4841 4857 0
-136 -4841 4842 0
-4842 4858 0
-137 -4842 4843 0
-4843 4859 0
-138 -4843 4844 0
-4844 4860 0
-139 -4844 4845 0
-4845 4861 0
-140 -4845 4846 0
-4846 4862 0
-141 -4846 4847 0
-4847 4863 0
-142 -4847 4848 0
-4848 4864 0
-143 -4848 4849 0
-4849 4865 0
-144 -4849 4850 0
-4850 4866 0
-145 -4850 4851 0
-4851 4867 0
-146 -4851 4852 0
-4852 4868 0
-147 -4852 4853 0
-4853 4869 0
-148 -4853 4854 0
-4854 4870 0
-149 -4854 4855 0
-4855 4871 0
-150 -4855 4856 0
-4856 4872 0
-151 -4856 0
-136 4857 0
-4857 4873 0
-137 -4857 4858 0
-4858 4874 0
-138 -4858 4859 0
-4859 4875 0
-139 -4859 4860 0
-4860 4876 0
-140 -4860 4861 0
-4861 4877 0
-141 -4861 4862 0
-4862 4878 0
-142 -4862 4863 0
-4863 4879 0
-143 -4863 4864 0
-4864 4880 0
-144 -4864 4865 0
-4865 4881 0
-145 -4865 4866 0
-4866 4882 0
-146 -4866 4867 0
-4867 4883 0
-147 -4867 4868 0
-4868 4884 0
-148 -4868 4869 0
-4869 4885 0
-149 -4869 4870 0
-4870 4886 0
-150 -4870 4871 0
-4871 4887 0
-151 -4871 4872 0
-4872 4888 0
-152 -4872 0
-137 4873 0
-4873 4889 0
-138 -4873 4874 0
-4874 4890 0
-139 -4874 4875 0
-4875 4891 0
-140 -4875 4876 0
-4876 4892 0
-141 -4876 4877 0
-4877 4893 0
-142 -4877 4878 0
-4878 4894 0
-143 -4878 4879 0
-4879 4895 0
-144 -4879 4880 0
-4880 4896 0
-145 -4880 4881 0
-4881 4897 0
-146 -4881 4882 0
-4882 4898 0
-147 -4882 4883 0
-4883 4899 0
-148 -4883 4884 0
-4884 4900 0
-149 -4884 4885 0
-4885 4901 0
-150 -4885 4886 0
-4886 4902 0
-151 -4886 4887 0
-4887 4903 0
-152 -4887 4888 0
-4888 4904 0
-153 -4888 0
-138 4889 0
-4889 4905 0
-139 -4889 4890 0
-4890 4906 0
-140 -4890 4891 0
-4891 4907 0
-141 -4891 4892 0
-4892 4908 0
-142 -4892 4893 0
-4893 4909 0
-143 -4893 4894 0
-4894 4910 0
-144 -4894 4895 0
-4895 4911 0
-145 -4895 4896 0
-4896 4912 0
-146 -4896 4897 0
-4897 4913 0
-147 -4897 4898 0
-4898 4914 0
-148 -4898 4899 0
-4899 4915 0
-149 -4899 4900 0
-4900 4916 0
-150 -4900 4901 0
-4901 4917 0
-151 -4901 4902 0
-4902 4918 0
-152 -4902 4903 0
-4903 4919 0
-153 -4903 4904 0
-4904 4920 0
-154 -4904 0
-139 4905 0
-4905 4921 0
-140 -4905 4906 0
-4906 4922 0
-141 -4906 4907 0
-4907 4923 0
-142 -4907 4908 0
-4908 4924 0
-143 -4908 4909 0
-4909 4925 0
-144 -4909 4910 0
-4910 4926 0
-145 -4910 4911 0
-4911 4927 0
-146 -4911 4912 0
-4912 4928 0
-147 -4912 4913 0
-4913 4929 0
-148 -4913 4914 0
-4914 4930 0
-149 -4914 4915 0
-4915 4931 0
-150 -4915 4916 0
-4916 4932 0
-151 -4916 4917 0
-4917 4933 0
-152 -4917 4918 0
-4918 4934 0
-153 -4918 4919 0
-4919 4935 0
-154 -4919 4920 0
-4920 4936 0
-155 -4920 0
-140 4921 0
-4921 4937 0
-141 -4921 4922 0
-4922 4938 0
-142 -4922 4923 0
-4923 4939 0
-143 -4923 4924 0
-4924 4940 0
-144 -4924 4925 0
-4925 4941 0
-145 -4925 4926 0
-4926 4942 0
-146 -4926 4927 0
-4927 4943 0
-147 -4927 4928 0
-4928 4944 0
-148 -4928 4929 0
-4929 4945 0
-149 -4929 4930 0
-4930 4946 0
-150 -4930 4931 0
-4931 4947 0
-151 -4931 4932 0
-4932 4948 0
-152 -4932 4933 0
-4933 4949 0
-153 -4933 4934 0
-4934 4950 0
-154 -4934 4935 0
-4935 4951 0
-155 -4935 4936 0
-4936 4952 0
-156 -4936 0
-141 4937 0
-4937 4953 0
-142 -4937 4938 0
-4938 4954 0
-143 -4938 4939 0
-4939 4955 0
-144 -4939 4940 0
-4940 4956 0
-145 -4940 4941 0
-4941 4957 0
-146 -4941 4942 0
-4942 4958 0
-147 -4942 4943 0
-4943 4959 0
-148 -4943 4944 0
-4944 4960 0
-149 -4944 4945 0
-4945 4961 0
-150 -4945 4946 0
-4946 4962 0
-151 -4946 4947 0
-4947 4963 0
-152 -4947 4948 0
-4948 4964 0
-153 -4948 4949 0
-4949 4965 0
-154 -4949 4950 0
-4950 4966 0
-155 -4950 4951 0
-4951 4967 0
-156 -4951 4952 0
-4952 4968 0
-157 -4952 0
-142 4953 0
-4953 4969 0
-143 -4953 4954 0
-4954 4970 0
-144 -4954 4955 0
-4955 4971 0
-145 -4955 4956 0
-4956 4972 0
-146 -4956 4957 0
-4957 4973 0
-147 -4957 4958 0
-4958 4974 0
-148 -4958 4959 0
-4959 4975 0
-149 -4959 4960 0
-4960 4976 0
-150 -4960 4961 0
-4961 4977 0
-151 -4961 4962 0
-4962 4978 0
-152 -4962 4963 0
-4963 4979 0
-153 -4963 4964 0
-4964 4980 0
-154 -4964 4965 0
-4965 4981 0
-155 -4965 4966 0
-4966 4982 0
-156 -4966 4967 0
-4967 4983 0
-157 -4967 4968 0
-4968 4984 0
-158 -4968 0
-143 4969 0
-4969 4985 0
-144 -4969 4970 0
-4970 4986 0
-145 -4970 4971 0
-4971 4987 0
-146 -4971 4972 0
-4972 4988 0
-147 -4972 4973 0
-4973 4989 0
-148 -4973 4974 0
-4974 4990 0
-149 -4974 4975 0
-4975 4991 0
-150 -4975 4976 0
-4976 4992 0
-151 -4976 4977 0
-4977 4993 0
-152 -4977 4978 0
-4978 4994 0
-153 -4978 4979 0
-4979 4995 0
-154 -4979 4980 0
-4980 4996 0
-155 -4980 4981 0
-4981 4997 0
-156 -4981 4982 0
-4982 4998 0
-157 -4982 4983 0
-4983 4999 0
-158 -4983 4984 0
-4984 5000 0
-159 -4984 0
-144 4985 0
-4985 5001 0
-145 -4985 4986 0
-4986 5002 0
-146 -4986 4987 0
-4987 5003 0
-147 -4987 4988 0
-4988 5004 0
-148 -4988 4989 0
-4989 5005 0
-149 -4989 4990 0
-4990 5006 0
-150 -4990 4991 0
-4991 5007 0
-151 -4991 4992 0
-4992 5008 0
-152 -4992 4993 0
-4993 5009 0
-153 -4993 4994 0
-4994 5010 0
-154 -4994 4995 0
-4995 5011 0
-155 -4995 4996 0
-4996 5012 0
-156 -4996 4997 0
-4997 5013 0
-157 -4997 4998 0
-4998 5014 0
-158 -4998 4999 0
-4999 5015 0
-159 -4999 5000 0
-5000 5016 0
-160 -5000 0
-145 5001 0
-5001 5017 0
-146 -5001 5002 0
-5002 5018 0
-147 -5002 5003 0
-5003 5019 0
-148 -5003 5004 0
-5004 5020 0
-149 -5004 5005 0
-5005 5021 0
-150 -5005 5006 0
-5006 5022 0
-151 -5006 5007 0
-5007 5023 0
-152 -5007 5008 0
-5008 5024 0
-153 -5008 5009 0
-5009 5025 0
-154 -5009 5010 0
-5010 5026 0
-155 -5010 5011 0
-5011 5027 0
-156 -5011 5012 0
-5012 5028 0
-157 -5012 5013 0
-5013 5029 0
-158 -5013 5014 0
-5014 5030 0
-159 -5014 5015 0
-5015 5031 0
-160 -5015 5016 0
-5016 5032 0
-161 -5016 0
-146 5017 0
-5017 5033 0
-147 -5017 5018 0
-5018 5034 0
-148 -5018 5019 0
-5019 5035 0
-149 -5019 5020 0
-5020 5036 0
-150 -5020 5021 0
-5021 5037 0
-151 -5021 5022 0
-5022 5038 0
-152 -5022 5023 0
-5023 5039 0
-153 -5023 5024 0
-5024 5040 0
-154 -5024 5025 0
-5025 5041 0
-155 -5025 5026 0
-5026 5042 0
-156 -5026 5027 0
-5027 5043 0
-157 -5027 5028 0
-5028 5044 0
-158 -5028 5029 0
-5029 5045 0
-159 -5029 5030 0
-5030 5046 0
-160 -5030 5031 0
-5031 5047 0
-161 -5031 5032 0
-5032 5048 0
-162 -5032 0
-147 5033 0
-5033 5049 0
-148 -5033 5034 0
-5034 5050 0
-149 -5034 5035 0
-5035 5051 0
-150 -5035 5036 0
-5036 5052 0
-151 -5036 5037 0
-5037 5053 0
-152 -5037 5038 0
-5038 5054 0
-153 -5038 5039 0
-5039 5055 0
-154 -5039 5040 0
-5040 5056 0
-155 -5040 5041 0
-5041 5057 0
-156 -5041 5042 0
-5042 5058 0
-157 -5042 5043 0
-5043 5059 0
-158 -5043 5044 0
-5044 5060 0
-159 -5044 5045 0
-5045 5061 0
-160 -5045 5046 0
-5046 5062 0
-161 -5046 5047 0
-5047 5063 0
-162 -5047 5048 0
-5048 5064 0
-163 -5048 0
-148 5049 0
-149 -5049 5050 0
-150 -5050 5051 0
-151 -5051 5052 0
-152 -5052 5053 0
-153 -5053 5054 0
-154 -5054 5055 0
-155 -5055 5056 0
-156 -5056 5057 0
-157 -5057 5058 0
-158 -5058 5059 0
-159 -5059 5060 0
-160 -5060 5061 0
-161 -5061 5062 0
-162 -5062 5063 0
-163 -5063 5064 0
-164 -5064 0
-165 5065 0
-5065 5066 0
-166 -5065 5067 0
-5067 5068 0
-167 -5067 5069 0
-5069 5070 0
-168 -5069 5071 0
-5071 5072 0
-169 -5071 5073 0
-5073 5074 0
-170 -5073 5075 0
-5075 5076 0
-171 -5075 5077 0
-5077 5078 0
-172 -5077 5079 0
-5079 5080 0
-173 -5079 5081 0
-5081 5082 0
-174 -5081 0
-166 5066 0
-5066 5083 0
-167 -5066 5068 0
-5068 5084 0
-168 -5068 5070 0
-5070 5085 0
-169 -5070 5072 0
-5072 5086 0
-170 -5072 5074 0
-5074 5087 0
-171 -5074 5076 0
-5076 5088 0
-172 -5076 5078 0
-5078 5089 0
-173 -5078 5080 0
-5080 5090 0
-174 -5080 5082 0
-5082 5091 0
-175 -5082 0
-167 5083 0
-5083 5092 0
-168 -5083 5084 0
-5084 5093 0
-169 -5084 5085 0
-5085 5094 0
-170 -5085 5086 0
-5086 5095 0
-171 -5086 5087 0
-5087 5096 0
-172 -5087 5088 0
-5088 5097 0
-173 -5088 5089 0
-5089 5098 0
-174 -5089 5090 0
-5090 5099 0
-175 -5090 5091 0
-5091 5100 0
-176 -5091 0
-168 5092 0
-5092 5101 0
-169 -5092 5093 0
-5093 5102 0
-170 -5093 5094 0
-5094 5103 0
-171 -5094 5095 0
-5095 5104 0
-172 -5095 5096 0
-5096 5105 0
-173 -5096 5097 0
-5097 5106 0
-174 -5097 5098 0
-5098 5107 0
-175 -5098 5099 0
-5099 5108 0
-176 -5099 5100 0
-5100 5109 0
-177 -5100 0
-169 5101 0
-5101 5110 0
-170 -5101 5102 0
-5102 5111 0
-171 -5102 5103 0
-5103 5112 0
-172 -5103 5104 0
-5104 5113 0
-173 -5104 5105 0
-5105 5114 0
-174 -5105 5106 0
-5106 5115 0
-175 -5106 5107 0
-5107 5116 0
-176 -5107 5108 0
-5108 5117 0
-177 -5108 5109 0
-5109 5118 0
-178 -5109 0
-170 5110 0
-5110 5119 0
-171 -5110 5111 0
-5111 5120 0
-172 -5111 5112 0
-5112 5121 0
-173 -5112 5113 0
-5113 5122 0
-174 -5113 5114 0
-5114 5123 0
-175 -5114 5115 0
-5115 5124 0
-176 -5115 5116 0
-5116 5125 0
-177 -5116 5117 0
-5117 5126 0
-178 -5117 5118 0
-5118 5127 0
-179 -5118 0
-171 5119 0
-5119 5128 0
-172 -5119 5120 0
-5120 5129 0
-173 -5120 5121 0
-5121 5130 0
-174 -5121 5122 0
-5122 5131 0
-175 -5122 5123 0
-5123 5132 0
-176 -5123 5124 0
-5124 5133 0
-177 -5124 5125 0
-5125 5134 0
-178 -5125 5126 0
-5126 5135 0
-179 -5126 5127 0
-5127 5136 0
-180 -5127 0
-172 5128 0
-5128 5137 0
-173 -5128 5129 0
-5129 5138 0
-174 -5129 5130 0
-5130 5139 0
-175 -5130 5131 0
-5131 5140 0
-176 -5131 5132 0
-5132 5141 0
-177 -5132 5133 0
-5133 5142 0
-178 -5133 5134 0
-5134 5143 0
-179 -5134 5135 0
-5135 5144 0
-180 -5135 5136 0
-5136 5145 0
-181 -5136 0
-173 5137 0
-5137 5146 0
-174 -5137 5138 0
-5138 5147 0
-175 -5138 5139 0
-5139 5148 0
-176 -5139 5140 0
-5140 5149 0
-177 -5140 5141 0
-5141 5150 0
-178 -5141 5142 0
-5142 5151 0
-179 -5142 5143 0
-5143 5152 0
-180 -5143 5144 0
-5144 5153 0
-181 -5144 5145 0
-5145 5154 0
-182 -5145 0
-174 5146 0
-5146 5155 0
-175 -5146 5147 0
-5147 5156 0
-176 -5147 5148 0
-5148 5157 0
-177 -5148 5149 0
-5149 5158 0
-178 -5149 5150 0
-5150 5159 0
-179 -5150 5151 0
-5151 5160 0
-180 -5151 5152 0
-5152 5161 0
-181 -5152 5153 0
-5153 5162 0
-182 -5153 5154 0
-5154 5163 0
-183 -5154 0
-175 5155 0
-5155 5164 0
-176 -5155 5156 0
-5156 5165 0
-177 -5156 5157 0
-5157 5166 0
-178 -5157 5158 0
-5158 5167 0
-179 -5158 5159 0
-5159 5168 0
-180 -5159 5160 0
-5160 5169 0
-181 -5160 5161 0
-5161 5170 0
-182 -5161 5162 0
-5162 5171 0
-183 -5162 5163 0
-5163 5172 0
-184 -5163 0
-176 5164 0
-5164 5173 0
-177 -5164 5165 0
-5165 5174 0
-178 -5165 5166 0
-5166 5175 0
-179 -5166 5167 0
-5167 5176 0
-180 -5167 5168 0
-5168 5177 0
-181 -5168 5169 0
-5169 5178 0
-182 -5169 5170 0
-5170 5179 0
-183 -5170 5171 0
-5171 5180 0
-184 -5171 5172 0
-5172 5181 0
-185 -5172 0
-177 5173 0
-5173 5182 0
-178 -5173 5174 0
-5174 5183 0
-179 -5174 5175 0
-5175 5184 0
-180 -5175 5176 0
-5176 5185 0
-181 -5176 5177 0
-5177 5186 0
-182 -5177 5178 0
-5178 5187 0
-183 -5178 5179 0
-5179 5188 0
-184 -5179 5180 0
-5180 5189 0
-185 -5180 5181 0
-5181 5190 0
-186 -5181 0
-178 5182 0
-5182 5191 0
-179 -5182 5183 0
-5183 5192 0
-180 -5183 5184 0
-5184 5193 0
-181 -5184 5185 0
-5185 5194 0
-182 -5185 5186 0
-5186 5195 0
-183 -5186 5187 0
-5187 5196 0
-184 -5187 5188 0
-5188 5197 0
-185 -5188 5189 0
-5189 5198 0
-186 -5189 5190 0
-5190 5199 0
-187 -5190 0
-179 5191 0
-5191 5200 0
-180 -5191 5192 0
-5192 5201 0
-181 -5192 5193 0
-5193 5202 0
-182 -5193 5194 0
-5194 5203 0
-183 -5194 5195 0
-5195 5204 0
-184 -5195 5196 0
-5196 5205 0
-185 -5196 5197 0
-5197 5206 0
-186 -5197 5198 0
-5198 5207 0
-187 -5198 5199 0
-5199 5208 0
-188 -5199 0
-180 5200 0
-5200 5209 0
-181 -5200 5201 0
-5201 5210 0
-182 -5201 5202 0
-5202 5211 0
-183 -5202 5203 0
-5203 5212 0
-184 -5203 5204 0
-5204 5213 0
-185 -5204 5205 0
-5205 5214 0
-186 -5205 5206 0
-5206 5215 0
-187 -5206 5207 0
-5207 5216 0
-188 -5207 5208 0
-5208 5217 0
-189 -5208 0
-181 5209 0
-5209 5218 0
-182 -5209 5210 0
-5210 5219 0
-183 -5210 5211 0
-5211 5220 0
-184 -5211 5212 0
-5212 5221 0
-185 -5212 5213 0
-5213 5222 0
-186 -5213 5214 0
-5214 5223 0
-187 -5214 5215 0
-5215 5224 0
-188 -5215 5216 0
-5216 5225 0
-189 -5216 5217 0
-5217 5226 0
-190 -5217 0
-182 5218 0
-5218 5227 0
-183 -5218 5219 0
-5219 5228 0
-184 -5219 5220 0
-5220 5229 0
-185 -5220 5221 0
-5221 5230 0
-186 -5221 5222 0
-5222 5231 0
-187 -5222 5223 0
-5223 5232 0
-188 -5223 5224 0
-5224 5233 0
-189 -5224 5225 0
-5225 5234 0
-190 -5225 5226 0
-5226 5235 0
-191 -5226 0
-183 5227 0
-5227 5236 0
-184 -5227 5228 0
-5228 5237 0
-185 -5228 5229 0
-5229 5238 0
-186 -5229 5230 0
-5230 5239 0
-187 -5230 5231 0
-5231 5240 0
-188 -5231 5232 0
-5232 5241 0
-189 -5232 5233 0
-5233 5242 0
-190 -5233 5234 0
-5234 5243 0
-191 -5234 5235 0
-5235 5244 0
-192 -5235 0
-184 5236 0
-5236 5245 0
-185 -5236 5237 0
-5237 5246 0
-186 -5237 5238 0
-5238 5247 0
-187 -5238 5239 0
-5239 5248 0
-188 -5239 5240 0
-5240 5249 0
-189 -5240 5241 0
-5241 5250 0
-190 -5241 5242 0
-5242 5251 0
-191 -5242 5243 0
-5243 5252 0
-192 -5243 5244 0
-5244 5253 0
-193 -5244 0
-185 5245 0
-5245 5254 0
-186 -5245 5246 0
-5246 5255 0
-187 -5246 5247 0
-5247 5256 0
-188 -5247 5248 0
-5248 5257 0
-189 -5248 5249 0
-5249 5258 0
-190 -5249 5250 0
-5250 5259 0
-191 -5250 5251 0
-5251 5260 0
-192 -5251 5252 0
-5252 5261 0
-193 -5252 5253 0
-5253 5262 0
-194 -5253 0
-186 5254 0
-5254 5263 0
-187 -5254 5255 0
-5255 5264 0
-188 -5255 5256 0
-5256 5265 0
-189 -5256 5257 0
-5257 5266 0
-190 -5257 5258 0
-5258 5267 0
-191 -5258 5259 0
-5259 5268 0
-192 -5259 5260 0
-5260 5269 0
-193 -5260 5261 0
-5261 5270 0
-194 -5261 5262 0
-5262 5271 0
-195 -5262 0
-187 5263 0
-5263 5272 0
-188 -5263 5264 0
-5264 5273 0
-189 -5264 5265 0
-5265 5274 0
-190 -5265 5266 0
-5266 5275 0
-191 -5266 5267 0
-5267 5276 0
-192 -5267 5268 0
-5268 5277 0
-193 -5268 5269 0
-5269 5278 0
-194 -5269 5270 0
-5270 5279 0
-195 -5270 5271 0
-5271 5280 0
-196 -5271 0
-188 5272 0
-5272 5281 0
-189 -5272 5273 0
-5273 5282 0
-190 -5273 5274 0
-5274 5283 0
-191 -5274 5275 0
-5275 5284 0
-192 -5275 5276 0
-5276 5285 0
-193 -5276 5277 0
-5277 5286 0
-194 -5277 5278 0
-5278 5287 0
-195 -5278 5279 0
-5279 5288 0
-196 -5279 5280 0
-5280 5289 0
-197 -5280 0
-189 5281 0
-5281 5290 0
-190 -5281 5282 0
-5282 5291 0
-191 -5282 5283 0
-5283 5292 0
-192 -5283 5284 0
-5284 5293 0
-193 -5284 5285 0
-5285 5294 0
-194 -5285 5286 0
-5286 5295 0
-195 -5286 5287 0
-5287 5296 0
-196 -5287 5288 0
-5288 5297 0
-197 -5288 5289 0
-5289 5298 0
-198 -5289 0
-190 5290 0
-5290 5299 0
-191 -5290 5291 0
-5291 5300 0
-192 -5291 5292 0
-5292 5301 0
-193 -5292 5293 0
-5293 5302 0
-194 -5293 5294 0
-5294 5303 0
-195 -5294 5295 0
-5295 5304 0
-196 -5295 5296 0
-5296 5305 0
-197 -5296 5297 0
-5297 5306 0
-198 -5297 5298 0
-5298 5307 0
-199 -5298 0
-191 5299 0
-5299 5308 0
-192 -5299 5300 0
-5300 5309 0
-193 -5300 5301 0
-5301 5310 0
-194 -5301 5302 0
-5302 5311 0
-195 -5302 5303 0
-5303 5312 0
-196 -5303 5304 0
-5304 5313 0
-197 -5304 5305 0
-5305 5314 0
-198 -5305 5306 0
-5306 5315 0
-199 -5306 5307 0
-5307 5316 0
-200 -5307 0
-192 5308 0
-5308 5317 0
-193 -5308 5309 0
-5309 5318 0
-194 -5309 5310 0
-5310 5319 0
-195 -5310 5311 0
-5311 5320 0
-196 -5311 5312 0
-5312 5321 0
-197 -5312 5313 0
-5313 5322 0
-198 -5313 5314 0
-5314 5323 0
-199 -5314 5315 0
-5315 5324 0
-200 -5315 5316 0
-5316 5325 0
-201 -5316 0
-193 5317 0
-5317 5326 0
-194 -5317 5318 0
-5318 5327 0
-195 -5318 5319 0
-5319 5328 0
-196 -5319 5320 0
-5320 5329 0
-197 -5320 5321 0
-5321 5330 0
-198 -5321 5322 0
-5322 5331 0
-199 -5322 5323 0
-5323 5332 0
-200 -5323 5324 0
-5324 5333 0
-201 -5324 5325 0
-5325 5334 0
-202 -5325 0
-194 5326 0
-5326 5335 0
-195 -5326 5327 0
-5327 5336 0
-196 -5327 5328 0
-5328 5337 0
-197 -5328 5329 0
-5329 5338 0
-198 -5329 5330 0
-5330 5339 0
-199 -5330 5331 0
-5331 5340 0
-200 -5331 5332 0
-5332 5341 0
-201 -5332 5333 0
-5333 5342 0
-202 -5333 5334 0
-5334 5343 0
-203 -5334 0
-195 5335 0
-5335 5344 0
-196 -5335 5336 0
-5336 5345 0
-197 -5336 5337 0
-5337 5346 0
-198 -5337 5338 0
-5338 5347 0
-199 -5338 5339 0
-5339 5348 0
-200 -5339 5340 0
-5340 5349 0
-201 -5340 5341 0
-5341 5350 0
-202 -5341 5342 0
-5342 5351 0
-203 -5342 5343 0
-5343 5352 0
-204 -5343 0
-196 5344 0
-5344 5353 0
-197 -5344 5345 0
-5345 5354 0
-198 -5345 5346 0
-5346 5355 0
-199 -5346 5347 0
-5347 5356 0
-200 -5347 5348 0
-5348 5357 0
-201 -5348 5349 0
-5349 5358 0
-202 -5349 5350 0
-5350 5359 0
-203 -5350 5351 0
-5351 5360 0
-204 -5351 5352 0
-5352 5361 0
-205 -5352 0
-197 5353 0
-5353 5362 0
-198 -5353 5354 0
-5354 5363 0
-199 -5354 5355 0
-5355 5364 0
-200 -5355 5356 0
-5356 5365 0
-201 -5356 5357 0
-5357 5366 0
-202 -5357 5358 0
-5358 5367 0
-203 -5358 5359 0
-5359 5368 0
-204 -5359 5360 0
-5360 5369 0
-205 -5360 5361 0
-5361 5370 0
-206 -5361 0
-198 5362 0
-5362 5371 0
-199 -5362 5363 0
-5363 5372 0
-200 -5363 5364 0
-5364 5373 0
-201 -5364 5365 0
-5365 5374 0
-202 -5365 5366 0
-5366 5375 0
-203 -5366 5367 0
-5367 5376 0
-204 -5367 5368 0
-5368 5377 0
-205 -5368 5369 0
-5369 5378 0
-206 -5369 5370 0
-5370 5379 0
-207 -5370 0
-199 5371 0
-5371 5380 0
-200 -5371 5372 0
-5372 5381 0
-201 -5372 5373 0
-5373 5382 0
-202 -5373 5374 0
-5374 5383 0
-203 -5374 5375 0
-5375 5384 0
-204 -5375 5376 0
-5376 5385 0
-205 -5376 5377 0
-5377 5386 0
-206 -5377 5378 0
-5378 5387 0
-207 -5378 5379 0
-5379 5388 0
-208 -5379 0
-200 5380 0
-5380 5389 0
-201 -5380 5381 0
-5381 5390 0
-202 -5381 5382 0
-5382 5391 0
-203 -5382 5383 0
-5383 5392 0
-204 -5383 5384 0
-5384 5393 0
-205 -5384 5385 0
-5385 5394 0
-206 -5385 5386 0
-5386 5395 0
-207 -5386 5387 0
-5387 5396 0
-208 -5387 5388 0
-5388 5397 0
-209 -5388 0
-201 5389 0
-5389 5398 0
-202 -5389 5390 0
-5390 5399 0
-203 -5390 5391 0
-5391 5400 0
-204 -5391 5392 0
-5392 5401 0
-205 -5392 5393 0
-5393 5402 0
-206 -5393 5394 0
-5394 5403 0
-207 -5394 5395 0
-5395 5404 0
-208 -5395 5396 0
-5396 5405 0
-209 -5396 5397 0
-5397 5406 0
-210 -5397 0
-202 5398 0
-5398 5407 0
-203 -5398 5399 0
-5399 5408 0
-204 -5399 5400 0
-5400 5409 0
-205 -5400 5401 0
-5401 5410 0
-206 -5401 5402 0
-5402 5411 0
-207 -5402 5403 0
-5403 5412 0
-208 -5403 5404 0
-5404 5413 0
-209 -5404 5405 0
-5405 5414 0
-210 -5405 5406 0
-5406 5415 0
-211 -5406 0
-203 5407 0
-5407 5416 0
-204 -5407 5408 0
-5408 5417 0
-205 -5408 5409 0
-5409 5418 0
-206 -5409 5410 0
-5410 5419 0
-207 -5410 5411 0
-5411 5420 0
-208 -5411 5412 0
-5412 5421 0
-209 -5412 5413 0
-5413 5422 0
-210 -5413 5414 0
-5414 5423 0
-211 -5414 5415 0
-5415 5424 0
-212 -5415 0
-204 5416 0
-5416 5425 0
-205 -5416 5417 0
-5417 5426 0
-206 -5417 5418 0
-5418 5427 0
-207 -5418 5419 0
-5419 5428 0
-208 -5419 5420 0
-5420 5429 0
-209 -5420 5421 0
-5421 5430 0
-210 -5421 5422 0
-5422 5431 0
-211 -5422 5423 0
-5423 5432 0
-212 -5423 5424 0
-5424 5433 0
-213 -5424 0
-205 5425 0
-5425 5434 0
-206 -5425 5426 0
-5426 5435 0
-207 -5426 5427 0
-5427 5436 0
-208 -5427 5428 0
-5428 5437 0
-209 -5428 5429 0
-5429 5438 0
-210 -5429 5430 0
-5430 5439 0
-211 -5430 5431 0
-5431 5440 0
-212 -5431 5432 0
-5432 5441 0
-213 -5432 5433 0
-5433 5442 0
-214 -5433 0
-206 5434 0
-5434 5443 0
-207 -5434 5435 0
-5435 5444 0
-208 -5435 5436 0
-5436 5445 0
-209 -5436 5437 0
-5437 5446 0
-210 -5437 5438 0
-5438 5447 0
-211 -5438 5439 0
-5439 5448 0
-212 -5439 5440 0
-5440 5449 0
-213 -5440 5441 0
-5441 5450 0
-214 -5441 5442 0
-5442 5451 0
-215 -5442 0
-207 5443 0
-5443 5452 0
-208 -5443 5444 0
-5444 5453 0
-209 -5444 5445 0
-5445 5454 0
-210 -5445 5446 0
-5446 5455 0
-211 -5446 5447 0
-5447 5456 0
-212 -5447 5448 0
-5448 5457 0
-213 -5448 5449 0
-5449 5458 0
-214 -5449 5450 0
-5450 5459 0
-215 -5450 5451 0
-5451 5460 0
-216 -5451 0
-208 5452 0
-5452 5461 0
-209 -5452 5453 0
-5453 5462 0
-210 -5453 5454 0
-5454 5463 0
-211 -5454 5455 0
-5455 5464 0
-212 -5455 5456 0
-5456 5465 0
-213 -5456 5457 0
-5457 5466 0
-214 -5457 5458 0
-5458 5467 0
-215 -5458 5459 0
-5459 5468 0
-216 -5459 5460 0
-5460 5469 0
-217 -5460 0
-209 5461 0
-5461 5470 0
-210 -5461 5462 0
-5462 5471 0
-211 -5462 5463 0
-5463 5472 0
-212 -5463 5464 0
-5464 5473 0
-213 -5464 5465 0
-5465 5474 0
-214 -5465 5466 0
-5466 5475 0
-215 -5466 5467 0
-5467 5476 0
-216 -5467 5468 0
-5468 5477 0
-217 -5468 5469 0
-5469 5478 0
-218 -5469 0
-210 5470 0
-5470 5479 0
-211 -5470 5471 0
-5471 5480 0
-212 -5471 5472 0
-5472 5481 0
-213 -5472 5473 0
-5473 5482 0
-214 -5473 5474 0
-5474 5483 0
-215 -5474 5475 0
-5475 5484 0
-216 -5475 5476 0
-5476 5485 0
-217 -5476 5477 0
-5477 5486 0
-218 -5477 5478 0
-5478 5487 0
-219 -5478 0
-211 5479 0
-5479 5488 0
-212 -5479 5480 0
-5480 5489 0
-213 -5480 5481 0
-5481 5490 0
-214 -5481 5482 0
-5482 5491 0
-215 -5482 5483 0
-5483 5492 0
-216 -5483 5484 0
-5484 5493 0
-217 -5484 5485 0
-5485 5494 0
-218 -5485 5486 0
-5486 5495 0
-219 -5486 5487 0
-5487 5496 0
-220 -5487 0
-212 5488 0
-5488 5497 0
-213 -5488 5489 0
-5489 5498 0
-214 -5489 5490 0
-5490 5499 0
-215 -5490 5491 0
-5491 5500 0
-216 -5491 5492 0
-5492 5501 0
-217 -5492 5493 0
-5493 5502 0
-218 -5493 5494 0
-5494 5503 0
-219 -5494 5495 0
-5495 5504 0
-220 -5495 5496 0
-5496 5505 0
-221 -5496 0
-213 5497 0
-5497 5506 0
-214 -5497 5498 0
-5498 5507 0
-215 -5498 5499 0
-5499 5508 0
-216 -5499 5500 0
-5500 5509 0
-217 -5500 5501 0
-5501 5510 0
-218 -5501 5502 0
-5502 5511 0
-219 -5502 5503 0
-5503 5512 0
-220 -5503 5504 0
-5504 5513 0
-221 -5504 5505 0
-5505 5514 0
-222 -5505 0
-214 5506 0
-5506 5515 0
-215 -5506 5507 0
-5507 5516 0
-216 -5507 5508 0
-5508 5517 0
-217 -5508 5509 0
-5509 5518 0
-218 -5509 5510 0
-5510 5519 0
-219 -5510 5511 0
-5511 5520 0
-220 -5511 5512 0
-5512 5521 0
-221 -5512 5513 0
-5513 5522 0
-222 -5513 5514 0
-5514 5523 0
-223 -5514 0
-215 5515 0
-5515 5524 0
-216 -5515 5516 0
-5516 5525 0
-217 -5516 5517 0
-5517 5526 0
-218 -5517 5518 0
-5518 5527 0
-219 -5518 5519 0
-5519 5528 0
-220 -5519 5520 0
-5520 5529 0
-221 -5520 5521 0
-5521 5530 0
-222 -5521 5522 0
-5522 5531 0
-223 -5522 5523 0
-5523 5532 0
-224 -5523 0
-216 5524 0
-5524 5533 0
-217 -5524 5525 0
-5525 5534 0
-218 -5525 5526 0
-5526 5535 0
-219 -5526 5527 0
-5527 5536 0
-220 -5527 5528 0
-5528 5537 0
-221 -5528 5529 0
-5529 5538 0
-222 -5529 5530 0
-5530 5539 0
-223 -5530 5531 0
-5531 5540 0
-224 -5531 5532 0
-5532 5541 0
-225 -5532 0
-217 5533 0
-5533 5542 0
-218 -5533 5534 0
-5534 5543 0
-219 -5534 5535 0
-5535 5544 0
-220 -5535 5536 0
-5536 5545 0
-221 -5536 5537 0
-5537 5546 0
-222 -5537 5538 0
-5538 5547 0
-223 -5538 5539 0
-5539 5548 0
-224 -5539 5540 0
-5540 5549 0
-225 -5540 5541 0
-5541 5550 0
-226 -5541 0
-218 5542 0
-5542 5551 0
-219 -5542 5543 0
-5543 5552 0
-220 -5543 5544 0
-5544 5553 0
-221 -5544 5545 0
-5545 5554 0
-222 -5545 5546 0
-5546 5555 0
-223 -5546 5547 0
-5547 5556 0
-224 -5547 5548 0
-5548 5557 0
-225 -5548 5549 0
-5549 5558 0
-226 -5549 5550 0
-5550 5559 0
-227 -5550 0
-219 5551 0
-5551 5560 0
-220 -5551 5552 0
-5552 5561 0
-221 -5552 5553 0
-5553 5562 0
-222 -5553 5554 0
-5554 5563 0
-223 -5554 5555 0
-5555 5564 0
-224 -5555 5556 0
-5556 5565 0
-225 -5556 5557 0
-5557 5566 0
-226 -5557 5558 0
-5558 5567 0
-227 -5558 5559 0
-5559 5568 0
-228 -5559 0
-220 5560 0
-5560 5569 0
-221 -5560 5561 0
-5561 5570 0
-222 -5561 5562 0
-5562 5571 0
-223 -5562 5563 0
-5563 5572 0
-224 -5563 5564 0
-5564 5573 0
-225 -5564 5565 0
-5565 5574 0
-226 -5565 5566 0
-5566 5575 0
-227 -5566 5567 0
-5567 5576 0
-228 -5567 5568 0
-5568 5577 0
-229 -5568 0
-221 5569 0
-5569 5578 0
-222 -5569 5570 0
-5570 5579 0
-223 -5570 5571 0
-5571 5580 0
-224 -5571 5572 0
-5572 5581 0
-225 -5572 5573 0
-5573 5582 0
-226 -5573 5574 0
-5574 5583 0
-227 -5574 5575 0
-5575 5584 0
-228 -5575 5576 0
-5576 5585 0
-229 -5576 5577 0
-5577 5586 0
-230 -5577 0
-222 5578 0
-5578 5587 0
-223 -5578 5579 0
-5579 5588 0
-224 -5579 5580 0
-5580 5589 0
-225 -5580 5581 0
-5581 5590 0
-226 -5581 5582 0
-5582 5591 0
-227 -5582 5583 0
-5583 5592 0
-228 -5583 5584 0
-5584 5593 0
-229 -5584 5585 0
-5585 5594 0
-230 -5585 5586 0
-5586 5595 0
-231 -5586 0
-223 5587 0
-5587 5596 0
-224 -5587 5588 0
-5588 5597 0
-225 -5588 5589 0
-5589 5598 0
-226 -5589 5590 0
-5590 5599 0
-227 -5590 5591 0
-5591 5600 0
-228 -5591 5592 0
-5592 5601 0
-229 -5592 5593 0
-5593 5602 0
-230 -5593 5594 0
-5594 5603 0
-231 -5594 5595 0
-5595 5604 0
-232 -5595 0
-224 5596 0
-5596 5605 0
-225 -5596 5597 0
-5597 5606 0
-226 -5597 5598 0
-5598 5607 0
-227 -5598 5599 0
-5599 5608 0
-228 -5599 5600 0
-5600 5609 0
-229 -5600 5601 0
-5601 5610 0
-230 -5601 5602 0
-5602 5611 0
-231 -5602 5603 0
-5603 5612 0
-232 -5603 5604 0
-5604 5613 0
-233 -5604 0
-225 5605 0
-5605 5614 0
-226 -5605 5606 0
-5606 5615 0
-227 -5606 5607 0
-5607 5616 0
-228 -5607 5608 0
-5608 5617 0
-229 -5608 5609 0
-5609 5618 0
-230 -5609 5610 0
-5610 5619 0
-231 -5610 5611 0
-5611 5620 0
-232 -5611 5612 0
-5612 5621 0
-233 -5612 5613 0
-5613 5622 0
-234 -5613 0
-226 5614 0
-5614 5623 0
-227 -5614 5615 0
-5615 5624 0
-228 -5615 5616 0
-5616 5625 0
-229 -5616 5617 0
-5617 5626 0
-230 -5617 5618 0
-5618 5627 0
-231 -5618 5619 0
-5619 5628 0
-232 -5619 5620 0
-5620 5629 0
-233 -5620 5621 0
-5621 5630 0
-234 -5621 5622 0
-5622 5631 0
-235 -5622 0
-227 5623 0
-5623 5632 0
-228 -5623 5624 0
-5624 5633 0
-229 -5624 5625 0
-5625 5634 0
-230 -5625 5626 0
-5626 5635 0
-231 -5626 5627 0
-5627 5636 0
-232 -5627 5628 0
-5628 5637 0
-233 -5628 5629 0
-5629 5638 0
-234 -5629 5630 0
-5630 5639 0
-235 -5630 5631 0
-5631 5640 0
-236 -5631 0
-228 5632 0
-5632 5641 0
-229 -5632 5633 0
-5633 5642 0
-230 -5633 5634 0
-5634 5643 0
-231 -5634 5635 0
-5635 5644 0
-232 -5635 5636 0
-5636 5645 0
-233 -5636 5637 0
-5637 5646 0
-234 -5637 5638 0
-5638 5647 0
-235 -5638 5639 0
-5639 5648 0
-236 -5639 5640 0
-5640 5649 0
-237 -5640 0
-229 5641 0
-5641 5650 0
-230 -5641 5642 0
-5642 5651 0
-231 -5642 5643 0
-5643 5652 0
-232 -5643 5644 0
-5644 5653 0
-233 -5644 5645 0
-5645 5654 0
-234 -5645 5646 0
-5646 5655 0
-235 -5646 5647 0
-5647 5656 0
-236 -5647 5648 0
-5648 5657 0
-237 -5648 5649 0
-5649 5658 0
-238 -5649 0
-230 5650 0
-5650 5659 0
-231 -5650 5651 0
-5651 5660 0
-232 -5651 5652 0
-5652 5661 0
-233 -5652 5653 0
-5653 5662 0
-234 -5653 5654 0
-5654 5663 0
-235 -5654 5655 0
-5655 5664 0
-236 -5655 5656 0
-5656 5665 0
-237 -5656 5657 0
-5657 5666 0
-238 -5657 5658 0
-5658 5667 0
-239 -5658 0
-231 5659 0
-5659 5668 0
-232 -5659 5660 0
-5660 5669 0
-233 -5660 5661 0
-5661 5670 0
-234 -5661 5662 0
-5662 5671 0
-235 -5662 5663 0
-5663 5672 0
-236 -5663 5664 0
-5664 5673 0
-237 -5664 5665 0
-5665 5674 0
-238 -5665 5666 0
-5666 5675 0
-239 -5666 5667 0
-5667 5676 0
-240 -5667 0
-232 5668 0
-5668 5677 0
-233 -5668 5669 0
-5669 5678 0
-234 -5669 5670 0
-5670 5679 0
-235 -5670 5671 0
-5671 5680 0
-236 -5671 5672 0
-5672 5681 0
-237 -5672 5673 0
-5673 5682 0
-238 -5673 5674 0
-5674 5683 0
-239 -5674 5675 0
-5675 5684 0
-240 -5675 5676 0
-5676 5685 0
-241 -5676 0
-233 5677 0
-5677 5686 0
-234 -5677 5678 0
-5678 5687 0
-235 -5678 5679 0
-5679 5688 0
-236 -5679 5680 0
-5680 5689 0
-237 -5680 5681 0
-5681 5690 0
-238 -5681 5682 0
-5682 5691 0
-239 -5682 5683 0
-5683 5692 0
-240 -5683 5684 0
-5684 5693 0
-241 -5684 5685 0
-5685 5694 0
-242 -5685 0
-234 5686 0
-5686 5695 0
-235 -5686 5687 0
-5687 5696 0
-236 -5687 5688 0
-5688 5697 0
-237 -5688 5689 0
-5689 5698 0
-238 -5689 5690 0
-5690 5699 0
-239 -5690 5691 0
-5691 5700 0
-240 -5691 5692 0
-5692 5701 0
-241 -5692 5693 0
-5693 5702 0
-242 -5693 5694 0
-5694 5703 0
-243 -5694 0
-235 5695 0
-5695 5704 0
-236 -5695 5696 0
-5696 5705 0
-237 -5696 5697 0
-5697 5706 0
-238 -5697 5698 0
-5698 5707 0
-239 -5698 5699 0
-5699 5708 0
-240 -5699 5700 0
-5700 5709 0
-241 -5700 5701 0
-5701 5710 0
-242 -5701 5702 0
-5702 5711 0
-243 -5702 5703 0
-5703 5712 0
-244 -5703 0
-236 5704 0
-5704 5713 0
-237 -5704 5705 0
-5705 5714 0
-238 -5705 5706 0
-5706 5715 0
-239 -5706 5707 0
-5707 5716 0
-240 -5707 5708 0
-5708 5717 0
-241 -5708 5709 0
-5709 5718 0
-242 -5709 5710 0
-5710 5719 0
-243 -5710 5711 0
-5711 5720 0
-244 -5711 5712 0
-5712 5721 0
-245 -5712 0
-237 5713 0
-5713 5722 0
-238 -5713 5714 0
-5714 5723 0
-239 -5714 5715 0
-5715 5724 0
-240 -5715 5716 0
-5716 5725 0
-241 -5716 5717 0
-5717 5726 0
-242 -5717 5718 0
-5718 5727 0
-243 -5718 5719 0
-5719 5728 0
-244 -5719 5720 0
-5720 5729 0
-245 -5720 5721 0
-5721 5730 0
-246 -5721 0
-238 5722 0
-5722 5731 0
-239 -5722 5723 0
-5723 5732 0
-240 -5723 5724 0
-5724 5733 0
-241 -5724 5725 0
-5725 5734 0
-242 -5725 5726 0
-5726 5735 0
-243 -5726 5727 0
-5727 5736 0
-244 -5727 5728 0
-5728 5737 0
-245 -5728 5729 0
-5729 5738 0
-246 -5729 5730 0
-5730 5739 0
-247 -5730 0
-239 5731 0
-5731 5740 0
-240 -5731 5732 0
-5732 5741 0
-241 -5732 5733 0
-5733 5742 0
-242 -5733 5734 0
-5734 5743 0
-243 -5734 5735 0
-5735 5744 0
-244 -5735 5736 0
-5736 5745 0
-245 -5736 5737 0
-5737 5746 0
-246 -5737 5738 0
-5738 5747 0
-247 -5738 5739 0
-5739 5748 0
-248 -5739 0
-240 5740 0
-5740 5749 0
-241 -5740 5741 0
-5741 5750 0
-242 -5741 5742 0
-5742 5751 0
-243 -5742 5743 0
-5743 5752 0
-244 -5743 5744 0
-5744 5753 0
-245 -5744 5745 0
-5745 5754 0
-246 -5745 5746 0
-5746 5755 0
-247 -5746 5747 0
-5747 5756 0
-248 -5747 5748 0
-5748 5757 0
-249 -5748 0
-241 5749 0
-5749 5758 0
-242 -5749 5750 0
-5750 5759 0
-243 -5750 5751 0
-5751 5760 0
-244 -5751 5752 0
-5752 5761 0
-245 -5752 5753 0
-5753 5762 0
-246 -5753 5754 0
-5754 5763 0
-247 -5754 5755 0
-5755 5764 0
-248 -5755 5756 0
-5756 5765 0
-249 -5756 5757 0
-5757 5766 0
-250 -5757 0
-242 5758 0
-5758 5767 0
-243 -5758 5759 0
-5759 5768 0
-244 -5759 5760 0
-5760 5769 0
-245 -5760 5761 0
-5761 5770 0
-246 -5761 5762 0
-5762 5771 0
-247 -5762 5763 0
-5763 5772 0
-248 -5763 5764 0
-5764 5773 0
-249 -5764 5765 0
-5765 5774 0
-250 -5765 5766 0
-5766 5775 0
-251 -5766 0
-243 5767 0
-5767 5776 0
-244 -5767 5768 0
-5768 5777 0
-245 -5768 5769 0
-5769 5778 0
-246 -5769 5770 0
-5770 5779 0
-247 -5770 5771 0
-5771 5780 0
-248 -5771 5772 0
-5772 5781 0
-249 -5772 5773 0
-5773 5782 0
-250 -5773 5774 0
-5774 5783 0
-251 -5774 5775 0
-5775 5784 0
-252 -5775 0
-244 5776 0
-5776 5785 0
-245 -5776 5777 0
-5777 5786 0
-246 -5777 5778 0
-5778 5787 0
-247 -5778 5779 0
-5779 5788 0
-248 -5779 5780 0
-5780 5789 0
-249 -5780 5781 0
-5781 5790 0
-250 -5781 5782 0
-5782 5791 0
-251 -5782 5783 0
-5783 5792 0
-252 -5783 5784 0
-5784 5793 0
-253 -5784 0
-245 5785 0
-5785 5794 0
-246 -5785 5786 0
-5786 5795 0
-247 -5786 5787 0
-5787 5796 0
-248 -5787 5788 0
-5788 5797 0
-249 -5788 5789 0
-5789 5798 0
-250 -5789 5790 0
-5790 5799 0
-251 -5790 5791 0
-5791 5800 0
-252 -5791 5792 0
-5792 5801 0
-253 -5792 5793 0
-5793 5802 0
-254 -5793 0
-246 5794 0
-5794 5803 0
-247 -5794 5795 0
-5795 5804 0
-248 -5795 5796 0
-5796 5805 0
-249 -5796 5797 0
-5797 5806 0
-250 -5797 5798 0
-5798 5807 0
-251 -5798 5799 0
-5799 5808 0
-252 -5799 5800 0
-5800 5809 0
-253 -5800 5801 0
-5801 5810 0
-254 -5801 5802 0
-5802 5811 0
-255 -5802 0
-247 5803 0
-5803 5812 0
-248 -5803 5804 0
-5804 5813 0
-249 -5804 5805 0
-5805 5814 0
-250 -5805 5806 0
-5806 5815 0
-251 -5806 5807 0
-5807 5816 0
-252 -5807 5808 0
-5808 5817 0
-253 -5808 5809 0
-5809 5818 0
-254 -5809 5810 0
-5810 5819 0
-255 -5810 5811 0
-5811 5820 0
-256 -5811 0
-248 5812 0
-5812 5821 0
-249 -5812 5813 0
-5813 5822 0
-250 -5813 5814 0
-5814 5823 0
-251 -5814 5815 0
-5815 5824 0
-252 -5815 5816 0
-5816 5825 0
-253 -5816 5817 0
-5817 5826 0
-254 -5817 5818 0
-5818 5827 0
-255 -5818 5819 0
-5819 5828 0
-256 -5819 5820 0
-5820 5829 0
-257 -5820 0
-249 5821 0
-5821 5830 0
-250 -5821 5822 0
-5822 5831 0
-251 -5822 5823 0
-5823 5832 0
-252 -5823 5824 0
-5824 5833 0
-253 -5824 5825 0
-5825 5834 0
-254 -5825 5826 0
-5826 5835 0
-255 -5826 5827 0
-5827 5836 0
-256 -5827 5828 0
-5828 5837 0
-257 -5828 5829 0
-5829 5838 0
-258 -5829 0
-250 5830 0
-5830 5839 0
-251 -5830 5831 0
-5831 5840 0
-252 -5831 5832 0
-5832 5841 0
-253 -5832 5833 0
-5833 5842 0
-254 -5833 5834 0
-5834 5843 0
-255 -5834 5835 0
-5835 5844 0
-256 -5835 5836 0
-5836 5845 0
-257 -5836 5837 0
-5837 5846 0
-258 -5837 5838 0
-5838 5847 0
-259 -5838 0
-251 5839 0
-5839 5848 0
-252 -5839 5840 0
-5840 5849 0
-253 -5840 5841 0
-5841 5850 0
-254 -5841 5842 0
-5842 5851 0
-255 -5842 5843 0
-5843 5852 0
-256 -5843 5844 0
-5844 5853 0
-257 -5844 5845 0
-5845 5854 0
-258 -5845 5846 0
-5846 5855 0
-259 -5846 5847 0
-5847 5856 0
-260 -5847 0
-252 5848 0
-5848 5857 0
-253 -5848 5849 0
-5849 5858 0
-254 -5849 5850 0
-5850 5859 0
-255 -5850 5851 0
-5851 5860 0
-256 -5851 5852 0
-5852 5861 0
-257 -5852 5853 0
-5853 5862 0
-258 -5853 5854 0
-5854 5863 0
-259 -5854 5855 0
-5855 5864 0
-260 -5855 5856 0
-5856 5865 0
-261 -5856 0
-253 5857 0
-5857 5866 0
-254 -5857 5858 0
-5858 5867 0
-255 -5858 5859 0
-5859 5868 0
-256 -5859 5860 0
-5860 5869 0
-257 -5860 5861 0
-5861 5870 0
-258 -5861 5862 0
-5862 5871 0
-259 -5862 5863 0
-5863 5872 0
-260 -5863 5864 0
-5864 5873 0
-261 -5864 5865 0
-5865 5874 0
-262 -5865 0
-254 5866 0
-5866 5875 0
-255 -5866 5867 0
-5867 5876 0
-256 -5867 5868 0
-5868 5877 0
-257 -5868 5869 0
-5869 5878 0
-258 -5869 5870 0
-5870 5879 0
-259 -5870 5871 0
-5871 5880 0
-260 -5871 5872 0
-5872 5881 0
-261 -5872 5873 0
-5873 5882 0
-262 -5873 5874 0
-5874 5883 0
-263 -5874 0
-255 5875 0
-5875 5884 0
-256 -5875 5876 0
-5876 5885 0
-257 -5876 5877 0
-5877 5886 0
-258 -5877 5878 0
-5878 5887 0
-259 -5878 5879 0
-5879 5888 0
-260 -5879 5880 0
-5880 5889 0
-261 -5880 5881 0
-5881 5890 0
-262 -5881 5882 0
-5882 5891 0
-263 -5882 5883 0
-5883 5892 0
-264 -5883 0
-256 5884 0
-5884 5893 0
-257 -5884 5885 0
-5885 5894 0
-258 -5885 5886 0
-5886 5895 0
-259 -5886 5887 0
-5887 5896 0
-260 -5887 5888 0
-5888 5897 0
-261 -5888 5889 0
-5889 5898 0
-262 -5889 5890 0
-5890 5899 0
-263 -5890 5891 0
-5891 5900 0
-264 -5891 5892 0
-5892 5901 0
-265 -5892 0
-257 5893 0
-5893 5902 0
-258 -5893 5894 0
-5894 5903 0
-259 -5894 5895 0
-5895 5904 0
-260 -5895 5896 0
-5896 5905 0
-261 -5896 5897 0
-5897 5906 0
-262 -5897 5898 0
-5898 5907 0
-263 -5898 5899 0
-5899 5908 0
-264 -5899 5900 0
-5900 5909 0
-265 -5900 5901 0
-5901 5910 0
-266 -5901 0
-258 5902 0
-5902 5911 0
-259 -5902 5903 0
-5903 5912 0
-260 -5903 5904 0
-5904 5913 0
-261 -5904 5905 0
-5905 5914 0
-262 -5905 5906 0
-5906 5915 0
-263 -5906 5907 0
-5907 5916 0
-264 -5907 5908 0
-5908 5917 0
-265 -5908 5909 0
-5909 5918 0
-266 -5909 5910 0
-5910 5919 0
-267 -5910 0
-259 5911 0
-5911 5920 0
-260 -5911 5912 0
-5912 5921 0
-261 -5912 5913 0
-5913 5922 0
-262 -5913 5914 0
-5914 5923 0
-263 -5914 5915 0
-5915 5924 0
-264 -5915 5916 0
-5916 5925 0
-265 -5916 5917 0
-5917 5926 0
-266 -5917 5918 0
-5918 5927 0
-267 -5918 5919 0
-5919 5928 0
-268 -5919 0
-260 5920 0
-5920 5929 0
-261 -5920 5921 0
-5921 5930 0
-262 -5921 5922 0
-5922 5931 0
-263 -5922 5923 0
-5923 5932 0
-264 -5923 5924 0
-5924 5933 0
-265 -5924 5925 0
-5925 5934 0
-266 -5925 5926 0
-5926 5935 0
-267 -5926 5927 0
-5927 5936 0
-268 -5927 5928 0
-5928 5937 0
-269 -5928 0
-261 5929 0
-5929 5938 0
-262 -5929 5930 0
-5930 5939 0
-263 -5930 5931 0
-5931 5940 0
-264 -5931 5932 0
-5932 5941 0
-265 -5932 5933 0
-5933 5942 0
-266 -5933 5934 0
-5934 5943 0
-267 -5934 5935 0
-5935 5944 0
-268 -5935 5936 0
-5936 5945 0
-269 -5936 5937 0
-5937 5946 0
-270 -5937 0
-262 5938 0
-5938 5947 0
-263 -5938 5939 0
-5939 5948 0
-264 -5939 5940 0
-5940 5949 0
-265 -5940 5941 0
-5941 5950 0
-266 -5941 5942 0
-5942 5951 0
-267 -5942 5943 0
-5943 5952 0
-268 -5943 5944 0
-5944 5953 0
-269 -5944 5945 0
-5945 5954 0
-270 -5945 5946 0
-5946 5955 0
-271 -5946 0
-263 5947 0
-5947 5956 0
-264 -5947 5948 0
-5948 5957 0
-265 -5948 5949 0
-5949 5958 0
-266 -5949 5950 0
-5950 5959 0
-267 -5950 5951 0
-5951 5960 0
-268 -5951 5952 0
-5952 5961 0
-269 -5952 5953 0
-5953 5962 0
-270 -5953 5954 0
-5954 5963 0
-271 -5954 5955 0
-5955 5964 0
-272 -5955 0
-264 5956 0
-5956 5965 0
-265 -5956 5957 0
-5957 5966 0
-266 -5957 5958 0
-5958 5967 0
-267 -5958 5959 0
-5959 5968 0
-268 -5959 5960 0
-5960 5969 0
-269 -5960 5961 0
-5961 5970 0
-270 -5961 5962 0
-5962 5971 0
-271 -5962 5963 0
-5963 5972 0
-272 -5963 5964 0
-5964 5973 0
-273 -5964 0
-265 5965 0
-5965 5974 0
-266 -5965 5966 0
-5966 5975 0
-267 -5966 5967 0
-5967 5976 0
-268 -5967 5968 0
-5968 5977 0
-269 -5968 5969 0
-5969 5978 0
-270 -5969 5970 0
-5970 5979 0
-271 -5970 5971 0
-5971 5980 0
-272 -5971 5972 0
-5972 5981 0
-273 -5972 5973 0
-5973 5982 0
-274 -5973 0
-266 5974 0
-5974 5983 0
-267 -5974 5975 0
-5975 5984 0
-268 -5975 5976 0
-5976 5985 0
-269 -5976 5977 0
-5977 5986 0
-270 -5977 5978 0
-5978 5987 0
-271 -5978 5979 0
-5979 5988 0
-272 -5979 5980 0
-5980 5989 0
-273 -5980 5981 0
-5981 5990 0
-274 -5981 5982 0
-5982 5991 0
-275 -5982 0
-267 5983 0
-5983 5992 0
-268 -5983 5984 0
-5984 5993 0
-269 -5984 5985 0
-5985 5994 0
-270 -5985 5986 0
-5986 5995 0
-271 -5986 5987 0
-5987 5996 0
-272 -5987 5988 0
-5988 5997 0
-273 -5988 5989 0
-5989 5998 0
-274 -5989 5990 0
-5990 5999 0
-275 -5990 5991 0
-5991 6000 0
-276 -5991 0
-268 5992 0
-5992 6001 0
-269 -5992 5993 0
-5993 6002 0
-270 -5993 5994 0
-5994 6003 0
-271 -5994 5995 0
-5995 6004 0
-272 -5995 5996 0
-5996 6005 0
-273 -5996 5997 0
-5997 6006 0
-274 -5997 5998 0
-5998 6007 0
-275 -5998 5999 0
-5999 6008 0
-276 -5999 6000 0
-6000 6009 0
-277 -6000 0
-269 6001 0
-6001 6010 0
-270 -6001 6002 0
-6002 6011 0
-271 -6002 6003 0
-6003 6012 0
-272 -6003 6004 0
-6004 6013 0
-273 -6004 6005 0
-6005 6014 0
-274 -6005 6006 0
-6006 6015 0
-275 -6006 6007 0
-6007 6016 0
-276 -6007 6008 0
-6008 6017 0
-277 -6008 6009 0
-6009 6018 0
-278 -6009 0
-270 6010 0
-6010 6019 0
-271 -6010 6011 0
-6011 6020 0
-272 -6011 6012 0
-6012 6021 0
-273 -6012 6013 0
-6013 6022 0
-274 -6013 6014 0
-6014 6023 0
-275 -6014 6015 0
-6015 6024 0
-276 -6015 6016 0
-6016 6025 0
-277 -6016 6017 0
-6017 6026 0
-278 -6017 6018 0
-6018 6027 0
-279 -6018 0
-271 6019 0
-6019 6028 0
-272 -6019 6020 0
-6020 6029 0
-273 -6020 6021 0
-6021 6030 0
-274 -6021 6022 0
-6022 6031 0
-275 -6022 6023 0
-6023 6032 0
-276 -6023 6024 0
-6024 6033 0
-277 -6024 6025 0
-6025 6034 0
-278 -6025 6026 0
-6026 6035 0
-279 -6026 6027 0
-6027 6036 0
-280 -6027 0
-272 6028 0
-6028 6037 0
-273 -6028 6029 0
-6029 6038 0
-274 -6029 6030 0
-6030 6039 0
-275 -6030 6031 0
-6031 6040 0
-276 -6031 6032 0
-6032 6041 0
-277 -6032 6033 0
-6033 6042 0
-278 -6033 6034 0
-6034 6043 0
-279 -6034 6035 0
-6035 6044 0
-280 -6035 6036 0
-6036 6045 0
-281 -6036 0
-273 6037 0
-6037 6046 0
-274 -6037 6038 0
-6038 6047 0
-275 -6038 6039 0
-6039 6048 0
-276 -6039 6040 0
-6040 6049 0
-277 -6040 6041 0
-6041 6050 0
-278 -6041 6042 0
-6042 6051 0
-279 -6042 6043 0
-6043 6052 0
-280 -6043 6044 0
-6044 6053 0
-281 -6044 6045 0
-6045 6054 0
-282 -6045 0
-274 6046 0
-6046 6055 0
-275 -6046 6047 0
-6047 6056 0
-276 -6047 6048 0
-6048 6057 0
-277 -6048 6049 0
-6049 6058 0
-278 -6049 6050 0
-6050 6059 0
-279 -6050 6051 0
-6051 6060 0
-280 -6051 6052 0
-6052 6061 0
-281 -6052 6053 0
-6053 6062 0
-282 -6053 6054 0
-6054 6063 0
-283 -6054 0
-275 6055 0
-6055 6064 0
-276 -6055 6056 0
-6056 6065 0
-277 -6056 6057 0
-6057 6066 0
-278 -6057 6058 0
-6058 6067 0
-279 -6058 6059 0
-6059 6068 0
-280 -6059 6060 0
-6060 6069 0
-281 -6060 6061 0
-6061 6070 0
-282 -6061 6062 0
-6062 6071 0
-283 -6062 6063 0
-6063 6072 0
-284 -6063 0
-276 6064 0
-6064 6073 0
-277 -6064 6065 0
-6065 6074 0
-278 -6065 6066 0
-6066 6075 0
-279 -6066 6067 0
-6067 6076 0
-280 -6067 6068 0
-6068 6077 0
-281 -6068 6069 0
-6069 6078 0
-282 -6069 6070 0
-6070 6079 0
-283 -6070 6071 0
-6071 6080 0
-284 -6071 6072 0
-6072 6081 0
-285 -6072 0
-277 6073 0
-6073 6082 0
-278 -6073 6074 0
-6074 6083 0
-279 -6074 6075 0
-6075 6084 0
-280 -6075 6076 0
-6076 6085 0
-281 -6076 6077 0
-6077 6086 0
-282 -6077 6078 0
-6078 6087 0
-283 -6078 6079 0
-6079 6088 0
-284 -6079 6080 0
-6080 6089 0
-285 -6080 6081 0
-6081 6090 0
-286 -6081 0
-278 6082 0
-6082 6091 0
-279 -6082 6083 0
-6083 6092 0
-280 -6083 6084 0
-6084 6093 0
-281 -6084 6085 0
-6085 6094 0
-282 -6085 6086 0
-6086 6095 0
-283 -6086 6087 0
-6087 6096 0
-284 -6087 6088 0
-6088 6097 0
-285 -6088 6089 0
-6089 6098 0
-286 -6089 6090 0
-6090 6099 0
-287 -6090 0
-279 6091 0
-6091 6100 0
-280 -6091 6092 0
-6092 6101 0
-281 -6092 6093 0
-6093 6102 0
-282 -6093 6094 0
-6094 6103 0
-283 -6094 6095 0
-6095 6104 0
-284 -6095 6096 0
-6096 6105 0
-285 -6096 6097 0
-6097 6106 0
-286 -6097 6098 0
-6098 6107 0
-287 -6098 6099 0
-6099 6108 0
-288 -6099 0
-280 6100 0
-6100 6109 0
-281 -6100 6101 0
-6101 6110 0
-282 -6101 6102 0
-6102 6111 0
-283 -6102 6103 0
-6103 6112 0
-284 -6103 6104 0
-6104 6113 0
-285 -6104 6105 0
-6105 6114 0
-286 -6105 6106 0
-6106 6115 0
-287 -6106 6107 0
-6107 6116 0
-288 -6107 6108 0
-6108 6117 0
-289 -6108 0
-281 6109 0
-6109 6118 0
-282 -6109 6110 0
-6110 6119 0
-283 -6110 6111 0
-6111 6120 0
-284 -6111 6112 0
-6112 6121 0
-285 -6112 6113 0
-6113 6122 0
-286 -6113 6114 0
-6114 6123 0
-287 -6114 6115 0
-6115 6124 0
-288 -6115 6116 0
-6116 6125 0
-289 -6116 6117 0
-6117 6126 0
-290 -6117 0
-282 6118 0
-6118 6127 0
-283 -6118 6119 0
-6119 6128 0
-284 -6119 6120 0
-6120 6129 0
-285 -6120 6121 0
-6121 6130 0
-286 -6121 6122 0
-6122 6131 0
-287 -6122 6123 0
-6123 6132 0
-288 -6123 6124 0
-6124 6133 0
-289 -6124 6125 0
-6125 6134 0
-290 -6125 6126 0
-6126 6135 0
-291 -6126 0
-283 6127 0
-6127 6136 0
-284 -6127 6128 0
-6128 6137 0
-285 -6128 6129 0
-6129 6138 0
-286 -6129 6130 0
-6130 6139 0
-287 -6130 6131 0
-6131 6140 0
-288 -6131 6132 0
-6132 6141 0
-289 -6132 6133 0
-6133 6142 0
-290 -6133 6134 0
-6134 6143 0
-291 -6134 6135 0
-6135 6144 0
-292 -6135 0
-284 6136 0
-6136 6145 0
-285 -6136 6137 0
-6137 6146 0
-286 -6137 6138 0
-6138 6147 0
-287 -6138 6139 0
-6139 6148 0
-288 -6139 6140 0
-6140 6149 0
-289 -6140 6141 0
-6141 6150 0
-290 -6141 6142 0
-6142 6151 0
-291 -6142 6143 0
-6143 6152 0
-292 -6143 6144 0
-6144 6153 0
-293 -6144 0
-285 6145 0
-6145 6154 0
-286 -6145 6146 0
-6146 6155 0
-287 -6146 6147 0
-6147 6156 0
-288 -6147 6148 0
-6148 6157 0
-289 -6148 6149 0
-6149 6158 0
-290 -6149 6150 0
-6150 6159 0
-291 -6150 6151 0
-6151 6160 0
-292 -6151 6152 0
-6152 6161 0
-293 -6152 6153 0
-6153 6162 0
-294 -6153 0
-286 6154 0
-6154 6163 0
-287 -6154 6155 0
-6155 6164 0
-288 -6155 6156 0
-6156 6165 0
-289 -6156 6157 0
-6157 6166 0
-290 -6157 6158 0
-6158 6167 0
-291 -6158 6159 0
-6159 6168 0
-292 -6159 6160 0
-6160 6169 0
-293 -6160 6161 0
-6161 6170 0
-294 -6161 6162 0
-6162 6171 0
-295 -6162 0
-287 6163 0
-6163 6172 0
-288 -6163 6164 0
-6164 6173 0
-289 -6164 6165 0
-6165 6174 0
-290 -6165 6166 0
-6166 6175 0
-291 -6166 6167 0
-6167 6176 0
-292 -6167 6168 0
-6168 6177 0
-293 -6168 6169 0
-6169 6178 0
-294 -6169 6170 0
-6170 6179 0
-295 -6170 6171 0
-6171 6180 0
-296 -6171 0
-288 6172 0
-6172 6181 0
-289 -6172 6173 0
-6173 6182 0
-290 -6173 6174 0
-6174 6183 0
-291 -6174 6175 0
-6175 6184 0
-292 -6175 6176 0
-6176 6185 0
-293 -6176 6177 0
-6177 6186 0
-294 -6177 6178 0
-6178 6187 0
-295 -6178 6179 0
-6179 6188 0
-296 -6179 6180 0
-6180 6189 0
-297 -6180 0
-289 6181 0
-6181 6190 0
-290 -6181 6182 0
-6182 6191 0
-291 -6182 6183 0
-6183 6192 0
-292 -6183 6184 0
-6184 6193 0
-293 -6184 6185 0
-6185 6194 0
-294 -6185 6186 0
-6186 6195 0
-295 -6186 6187 0
-6187 6196 0
-296 -6187 6188 0
-6188 6197 0
-297 -6188 6189 0
-6189 6198 0
-298 -6189 0
-290 6190 0
-6190 6199 0
-291 -6190 6191 0
-6191 6200 0
-292 -6191 6192 0
-6192 6201 0
-293 -6192 6193 0
-6193 6202 0
-294 -6193 6194 0
-6194 6203 0
-295 -6194 6195 0
-6195 6204 0
-296 -6195 6196 0
-6196 6205 0
-297 -6196 6197 0
-6197 6206 0
-298 -6197 6198 0
-6198 6207 0
-299 -6198 0
-291 6199 0
-6199 6208 0
-292 -6199 6200 0
-6200 6209 0
-293 -6200 6201 0
-6201 6210 0
-294 -6201 6202 0
-6202 6211 0
-295 -6202 6203 0
-6203 6212 0
-296 -6203 6204 0
-6204 6213 0
-297 -6204 6205 0
-6205 6214 0
-298 -6205 6206 0
-6206 6215 0
-299 -6206 6207 0
-6207 6216 0
-300 -6207 0
-292 6208 0
-6208 6217 0
-293 -6208 6209 0
-6209 6218 0
-294 -6209 6210 0
-6210 6219 0
-295 -6210 6211 0
-6211 6220 0
-296 -6211 6212 0
-6212 6221 0
-297 -6212 6213 0
-6213 6222 0
-298 -6213 6214 0
-6214 6223 0
-299 -6214 6215 0
-6215 6224 0
-300 -6215 6216 0
-6216 6225 0
-301 -6216 0
-293 6217 0
-6217 6226 0
-294 -6217 6218 0
-6218 6227 0
-295 -6218 6219 0
-6219 6228 0
-296 -6219 6220 0
-6220 6229 0
-297 -6220 6221 0
-6221 6230 0
-298 -6221 6222 0
-6222 6231 0
-299 -6222 6223 0
-6223 6232 0
-300 -6223 6224 0
-6224 6233 0
-301 -6224 6225 0
-6225 6234 0
-302 -6225 0
-294 6226 0
-6226 6235 0
-295 -6226 6227 0
-6227 6236 0
-296 -6227 6228 0
-6228 6237 0
-297 -6228 6229 0
-6229 6238 0
-298 -6229 6230 0
-6230 6239 0
-299 -6230 6231 0
-6231 6240 0
-300 -6231 6232 0
-6232 6241 0
-301 -6232 6233 0
-6233 6242 0
-302 -6233 6234 0
-6234 6243 0
-303 -6234 0
-295 6235 0
-6235 6244 0
-296 -6235 6236 0
-6236 6245 0
-297 -6236 6237 0
-6237 6246 0
-298 -6237 6238 0
-6238 6247 0
-299 -6238 6239 0
-6239 6248 0
-300 -6239 6240 0
-6240 6249 0
-301 -6240 6241 0
-6241 6250 0
-302 -6241 6242 0
-6242 6251 0
-303 -6242 6243 0
-6243 6252 0
-304 -6243 0
-296 6244 0
-6244 6253 0
-297 -6244 6245 0
-6245 6254 0
-298 -6245 6246 0
-6246 6255 0
-299 -6246 6247 0
-6247 6256 0
-300 -6247 6248 0
-6248 6257 0
-301 -6248 6249 0
-6249 6258 0
-302 -6249 6250 0
-6250 6259 0
-303 -6250 6251 0
-6251 6260 0
-304 -6251 6252 0
-6252 6261 0
-305 -6252 0
-297 6253 0
-6253 6262 0
-298 -6253 6254 0
-6254 6263 0
-299 -6254 6255 0
-6255 6264 0
-300 -6255 6256 0
-6256 6265 0
-301 -6256 6257 0
-6257 6266 0
-302 -6257 6258 0
-6258 6267 0
-303 -6258 6259 0
-6259 6268 0
-304 -6259 6260 0
-6260 6269 0
-305 -6260 6261 0
-6261 6270 0
-306 -6261 0
-298 6262 0
-6262 6271 0
-299 -6262 6263 0
-6263 6272 0
-300 -6263 6264 0
-6264 6273 0
-301 -6264 6265 0
-6265 6274 0
-302 -6265 6266 0
-6266 6275 0
-303 -6266 6267 0
-6267 6276 0
-304 -6267 6268 0
-6268 6277 0
-305 -6268 6269 0
-6269 6278 0
-306 -6269 6270 0
-6270 6279 0
-307 -6270 0
-299 6271 0
-6271 6280 0
-300 -6271 6272 0
-6272 6281 0
-301 -6272 6273 0
-6273 6282 0
-302 -6273 6274 0
-6274 6283 0
-303 -6274 6275 0
-6275 6284 0
-304 -6275 6276 0
-6276 6285 0
-305 -6276 6277 0
-6277 6286 0
-306 -6277 6278 0
-6278 6287 0
-307 -6278 6279 0
-6279 6288 0
-308 -6279 0
-300 6280 0
-6280 6289 0
-301 -6280 6281 0
-6281 6290 0
-302 -6281 6282 0
-6282 6291 0
-303 -6282 6283 0
-6283 6292 0
-304 -6283 6284 0
-6284 6293 0
-305 -6284 6285 0
-6285 6294 0
-306 -6285 6286 0
-6286 6295 0
-307 -6286 6287 0
-6287 6296 0
-308 -6287 6288 0
-6288 6297 0
-309 -6288 0
-301 6289 0
-6289 6298 0
-302 -6289 6290 0
-6290 6299 0
-303 -6290 6291 0
-6291 6300 0
-304 -6291 6292 0
-6292 6301 0
-305 -6292 6293 0
-6293 6302 0
-306 -6293 6294 0
-6294 6303 0
-307 -6294 6295 0
-6295 6304 0
-308 -6295 6296 0
-6296 6305 0
-309 -6296 6297 0
-6297 6306 0
-310 -6297 0
-302 6298 0
-6298 6307 0
-303 -6298 6299 0
-6299 6308 0
-304 -6299 6300 0
-6300 6309 0
-305 -6300 6301 0
-6301 6310 0
-306 -6301 6302 0
-6302 6311 0
-307 -6302 6303 0
-6303 6312 0
-308 -6303 6304 0
-6304 6313 0
-309 -6304 6305 0
-6305 6314 0
-310 -6305 6306 0
-6306 6315 0
-311 -6306 0
-303 6307 0
-6307 6316 0
-304 -6307 6308 0
-6308 6317 0
-305 -6308 6309 0
-6309 6318 0
-306 -6309 6310 0
-6310 6319 0
-307 -6310 6311 0
-6311 6320 0
-308 -6311 6312 0
-6312 6321 0
-309 -6312 6313 0
-6313 6322 0
-310 -6313 6314 0
-6314 6323 0
-311 -6314 6315 0
-6315 6324 0
-312 -6315 0
-304 6316 0
-6316 6325 0
-305 -6316 6317 0
-6317 6326 0
-306 -6317 6318 0
-6318 6327 0
-307 -6318 6319 0
-6319 6328 0
-308 -6319 6320 0
-6320 6329 0
-309 -6320 6321 0
-6321 6330 0
-310 -6321 6322 0
-6322 6331 0
-311 -6322 6323 0
-6323 6332 0
-312 -6323 6324 0
-6324 6333 0
-313 -6324 0
-305 6325 0
-6325 6334 0
-306 -6325 6326 0
-6326 6335 0
-307 -6326 6327 0
-6327 6336 0
-308 -6327 6328 0
-6328 6337 0
-309 -6328 6329 0
-6329 6338 0
-310 -6329 6330 0
-6330 6339 0
-311 -6330 6331 0
-6331 6340 0
-312 -6331 6332 0
-6332 6341 0
-313 -6332 6333 0
-6333 6342 0
-314 -6333 0
-306 6334 0
-6334 6343 0
-307 -6334 6335 0
-6335 6344 0
-308 -6335 6336 0
-6336 6345 0
-309 -6336 6337 0
-6337 6346 0
-310 -6337 6338 0
-6338 6347 0
-311 -6338 6339 0
-6339 6348 0
-312 -6339 6340 0
-6340 6349 0
-313 -6340 6341 0
-6341 6350 0
-314 -6341 6342 0
-6342 6351 0
-315 -6342 0
-307 6343 0
-6343 6352 0
-308 -6343 6344 0
-6344 6353 0
-309 -6344 6345 0
-6345 6354 0
-310 -6345 6346 0
-6346 6355 0
-311 -6346 6347 0
-6347 6356 0
-312 -6347 6348 0
-6348 6357 0
-313 -6348 6349 0
-6349 6358 0
-314 -6349 6350 0
-6350 6359 0
-315 -6350 6351 0
-6351 6360 0
-316 -6351 0
-308 6352 0
-6352 6361 0
-309 -6352 6353 0
-6353 6362 0
-310 -6353 6354 0
-6354 6363 0
-311 -6354 6355 0
-6355 6364 0
-312 -6355 6356 0
-6356 6365 0
-313 -6356 6357 0
-6357 6366 0
-314 -6357 6358 0
-6358 6367 0
-315 -6358 6359 0
-6359 6368 0
-316 -6359 6360 0
-6360 6369 0
-317 -6360 0
-309 6361 0
-6361 6370 0
-310 -6361 6362 0
-6362 6371 0
-311 -6362 6363 0
-6363 6372 0
-312 -6363 6364 0
-6364 6373 0
-313 -6364 6365 0
-6365 6374 0
-314 -6365 6366 0
-6366 6375 0
-315 -6366 6367 0
-6367 6376 0
-316 -6367 6368 0
-6368 6377 0
-317 -6368 6369 0
-6369 6378 0
-318 -6369 0
-310 6370 0
-6370 6379 0
-311 -6370 6371 0
-6371 6380 0
-312 -6371 6372 0
-6372 6381 0
-313 -6372 6373 0
-6373 6382 0
-314 -6373 6374 0
-6374 6383 0
-315 -6374 6375 0
-6375 6384 0
-316 -6375 6376 0
-6376 6385 0
-317 -6376 6377 0
-6377 6386 0
-318 -6377 6378 0
-6378 6387 0
-319 -6378 0
-311 6379 0
-6379 6388 0
-312 -6379 6380 0
-6380 6389 0
-313 -6380 6381 0
-6381 6390 0
-314 -6381 6382 0
-6382 6391 0
-315 -6382 6383 0
-6383 6392 0
-316 -6383 6384 0
-6384 6393 0
-317 -6384 6385 0
-6385 6394 0
-318 -6385 6386 0
-6386 6395 0
-319 -6386 6387 0
-6387 6396 0
-320 -6387 0
-312 6388 0
-6388 6397 0
-313 -6388 6389 0
-6389 6398 0
-314 -6389 6390 0
-6390 6399 0
-315 -6390 6391 0
-6391 6400 0
-316 -6391 6392 0
-6392 6401 0
-317 -6392 6393 0
-6393 6402 0
-318 -6393 6394 0
-6394 6403 0
-319 -6394 6395 0
-6395 6404 0
-320 -6395 6396 0
-6396 6405 0
-321 -6396 0
-313 6397 0
-6397 6406 0
-314 -6397 6398 0
-6398 6407 0
-315 -6398 6399 0
-6399 6408 0
-316 -6399 6400 0
-6400 6409 0
-317 -6400 6401 0
-6401 6410 0
-318 -6401 6402 0
-6402 6411 0
-319 -6402 6403 0
-6403 6412 0
-320 -6403 6404 0
-6404 6413 0
-321 -6404 6405 0
-6405 6414 0
-322 -6405 0
-314 6406 0
-6406 6415 0
-315 -6406 6407 0
-6407 6416 0
-316 -6407 6408 0
-6408 6417 0
-317 -6408 6409 0
-6409 6418 0
-318 -6409 6410 0
-6410 6419 0
-319 -6410 6411 0
-6411 6420 0
-320 -6411 6412 0
-6412 6421 0
-321 -6412 6413 0
-6413 6422 0
-322 -6413 6414 0
-6414 6423 0
-323 -6414 0
-315 6415 0
-6415 6424 0
-316 -6415 6416 0
-6416 6425 0
-317 -6416 6417 0
-6417 6426 0
-318 -6417 6418 0
-6418 6427 0
-319 -6418 6419 0
-6419 6428 0
-320 -6419 6420 0
-6420 6429 0
-321 -6420 6421 0
-6421 6430 0
-322 -6421 6422 0
-6422 6431 0
-323 -6422 6423 0
-6423 6432 0
-324 -6423 0
-316 6424 0
-6424 6433 0
-317 -6424 6425 0
-6425 6434 0
-318 -6425 6426 0
-6426 6435 0
-319 -6426 6427 0
-6427 6436 0
-320 -6427 6428 0
-6428 6437 0
-321 -6428 6429 0
-6429 6438 0
-322 -6429 6430 0
-6430 6439 0
-323 -6430 6431 0
-6431 6440 0
-324 -6431 6432 0
-6432 6441 0
-325 -6432 0
-317 6433 0
-6433 6442 0
-318 -6433 6434 0
-6434 6443 0
-319 -6434 6435 0
-6435 6444 0
-320 -6435 6436 0
-6436 6445 0
-321 -6436 6437 0
-6437 6446 0
-322 -6437 6438 0
-6438 6447 0
-323 -6438 6439 0
-6439 6448 0
-324 -6439 6440 0
-6440 6449 0
-325 -6440 6441 0
-6441 6450 0
-326 -6441 0
-318 6442 0
-6442 6451 0
-319 -6442 6443 0
-6443 6452 0
-320 -6443 6444 0
-6444 6453 0
-321 -6444 6445 0
-6445 6454 0
-322 -6445 6446 0
-6446 6455 0
-323 -6446 6447 0
-6447 6456 0
-324 -6447 6448 0
-6448 6457 0
-325 -6448 6449 0
-6449 6458 0
-326 -6449 6450 0
-6450 6459 0
-327 -6450 0
-319 6451 0
-320 -6451 6452 0
-321 -6452 6453 0
-322 -6453 6454 0
-323 -6454 6455 0
-324 -6455 6456 0
-325 -6456 6457 0
-326 -6457 6458 0
-327 -6458 6459 0
-328 -6459 0
1 83 0
