p cnf 7577 15517
-191 -1 0
-191 2 95 96 0
-2 1 191 0
-95 1 191 0
-96 1 191 0
-192 -2 0
-192 1 3 97 0
-1 2 192 0
-3 2 192 0
-97 2 192 0
-193 -3 0
-193 2 4 98 0
-2 3 193 0
-4 3 193 0
-98 3 193 0
-194 -4 0
-194 3 5 99 0
-3 4 194 0
-5 4 194 0
-99 4 194 0
-195 -5 0
-195 4 6 100 0
-4 5 195 0
-6 5 195 0
-100 5 195 0
-196 -6 0
-196 5 7 101 0
-5 6 196 0
-7 6 196 0
-101 6 196 0
-197 -7 0
-197 6 8 102 0
-6 7 197 0
-8 7 197 0
-102 7 197 0
-198 -8 0
-198 7 9 103 0
-7 8 198 0
-9 8 198 0
-103 8 198 0
-199 -9 0
-199 8 10 104 0
-8 9 199 0
-10 9 199 0
-104 9 199 0
-200 -10 0
-200 9 11 105 0
-9 10 200 0
-11 10 200 0
-105 10 200 0
-201 -11 0
-201 10 12 106 0
-10 11 201 0
-12 11 201 0
-106 11 201 0
-202 -12 0
-202 11 13 107 0
-11 12 202 0
-13 12 202 0
-107 12 202 0
-203 -13 0
-203 12 14 108 0
-12 13 203 0
-14 13 203 0
-108 13 203 0
-204 -14 0
-204 13 15 109 0
-13 14 204 0
-15 14 204 0
-109 14 204 0
-205 -15 0
-205 14 16 110 0
-14 15 205 0
-16 15 205 0
-110 15 205 0
-206 -16 0
-206 15 17 111 0
-15 16 206 0
-17 16 206 0
-111 16 206 0
-207 -17 0
-207 16 18 112 0
-16 17 207 0
-18 17 207 0
-112 17 207 0
-208 -18 0
-208 17 19 113 0
-17 18 208 0
-19 18 208 0
-113 18 208 0
-209 -19 0
-209 18 20 114 0
-18 19 209 0
-20 19 209 0
-114 19 209 0
-210 -20 0
-210 19 21 115 0
-19 20 210 0
-21 20 210 0
-115 20 210 0
-211 -21 0
-211 20 22 116 0
-20 21 211 0
-22 21 211 0
-116 21 211 0
-212 -22 0
-212 21 23 117 0
-21 22 212 0
-23 22 212 0
-117 22 212 0
-213 -23 0
-213 22 24 118 0
-22 23 213 0
-24 23 213 0
-118 23 213 0
-214 -24 0
-214 23 25 119 0
-23 24 214 0
-25 24 214 0
-119 24 214 0
-215 -25 0
-215 24 26 120 0
-24 25 215 0
-26 25 215 0
-120 25 215 0
-216 -26 0
-216 25 27 121 0
-25 26 216 0
-27 26 216 0
-121 26 216 0
-217 -27 0
-217 26 28 122 0
-26 27 217 0
-28 27 217 0
-122 27 217 0
-218 -28 0
-218 27 29 123 0
-27 28 218 0
-29 28 218 0
-123 28 218 0
-219 -29 0
-219 28 30 124 0
-28 29 219 0
-30 29 219 0
-124 29 219 0
-220 -30 0
-220 29 31 125 0
-29 30 220 0
-31 30 220 0
-125 30 220 0
-221 -31 0
-221 30 32 126 0
-30 31 221 0
-32 31 221 0
-126 31 221 0
-222 -32 0
-222 31 33 127 0
-31 32 222 0
-33 32 222 0
-127 32 222 0
-223 -33 0
-223 32 34 128 0
-32 33 223 0
-34 33 223 0
-128 33 223 0
-224 -34 0
-224 33 35 129 0
-33 34 224 0
-35 34 224 0
-129 34 224 0
-225 -35 0
-225 34 36 130 0
-34 35 225 0
-36 35 225 0
-130 35 225 0
-226 -36 0
-226 35 37 131 0
-35 36 226 0
-37 36 226 0
-131 36 226 0
-227 -37 0
-227 36 38 132 0
-36 37 227 0
-38 37 227 0
-132 37 227 0
-228 -38 0
-228 37 39 133 0
-37 38 228 0
-39 38 228 0
-133 38 228 0
-229 -39 0
-229 38 40 134 0
-38 39 229 0
-40 39 229 0
-134 39 229 0
-230 -40 0
-230 39 41 135 0
-39 40 230 0
-41 40 230 0
-135 40 230 0
-231 -41 0
-231 40 42 136 0
-40 41 231 0
-42 41 231 0
-136 41 231 0
-232 -42 0
-232 41 43 137 0
-41 42 232 0
-43 42 232 0
-137 42 232 0
-233 -43 0
-233 42 44 138 0
-42 43 233 0
-44 43 233 0
-138 43 233 0
-234 -44 0
-234 43 45 139 0
-43 44 234 0
-45 44 234 0
-139 44 234 0
-235 -45 0
-235 44 46 140 0
-44 45 235 0
-46 45 235 0
-140 45 235 0
-236 -46 0
-236 45 47 141 0
-45 46 236 0
-47 46 236 0
-141 46 236 0
-237 -47 0
-237 46 48 142 0
-46 47 237 0
-48 47 237 0
-142 47 237 0
-238 -48 0
-238 47 49 143 0
-47 48 238 0
-49 48 238 0
-143 48 238 0
-239 -49 0
-239 48 50 144 0
-48 49 239 0
-50 49 239 0
-144 49 239 0
-240 -50 0
-240 49 51 145 0
-49 50 240 0
-51 50 240 0
-145 50 240 0
-241 -51 0
-241 50 52 146 0
-50 51 241 0
-52 51 241 0
-146 51 241 0
-242 -52 0
-242 51 53 147 0
-51 52 242 0
-53 52 242 0
-147 52 242 0
-243 -53 0
-243 52 54 148 0
-52 53 243 0
-54 53 243 0
-148 53 243 0
-244 -54 0
-244 53 55 149 0
-53 54 244 0
-55 54 244 0
-149 54 244 0
-245 -55 0
-245 54 56 150 0
-54 55 245 0
-56 55 245 0
-150 55 245 0
-246 -56 0
-246 55 57 151 0
-55 56 246 0
-57 56 246 0
-151 56 246 0
-247 -57 0
-247 56 58 152 0
-56 57 247 0
-58 57 247 0
-152 57 247 0
-248 -58 0
-248 57 59 153 0
-57 58 248 0
-59 58 248 0
-153 58 248 0
-249 -59 0
-249 58 60 154 0
-58 59 249 0
-60 59 249 0
-154 59 249 0
-250 -60 0
-250 59 61 155 0
-59 60 250 0
-61 60 250 0
-155 60 250 0
-251 -61 0
-251 60 62 156 0
-60 61 251 0
-62 61 251 0
-156 61 251 0
-252 -62 0
-252 61 63 157 0
-61 62 252 0
-63 62 252 0
-157 62 252 0
-253 -63 0
-253 62 64 158 0
-62 63 253 0
-64 63 253 0
-158 63 253 0
-254 -64 0
-254 63 65 159 0
-63 64 254 0
-65 64 254 0
-159 64 254 0
-255 -65 0
-255 64 66 160 0
-64 65 255 0
-66 65 255 0
-160 65 255 0
-256 -66 0
-256 65 67 161 0
-65 66 256 0
-67 66 256 0
-161 66 256 0
-257 -67 0
-257 66 68 162 0
-66 67 257 0
-68 67 257 0
-162 67 257 0
-258 -68 0
-258 67 69 163 0
-67 68 258 0
-69 68 258 0
-163 68 258 0
-259 -69 0
-259 68 70 164 0
-68 69 259 0
-70 69 259 0
-164 69 259 0
-260 -70 0
-260 69 71 165 0
-69 70 260 0
-71 70 260 0
-165 70 260 0
-261 -71 0
-261 70 72 166 0
-70 71 261 0
-72 71 261 0
-166 71 261 0
-262 -72 0
-262 71 73 167 0
-71 72 262 0
-73 72 262 0
-167 72 262 0
-263 -73 0
-263 72 74 168 0
-72 73 263 0
-74 73 263 0
-168 73 263 0
-264 -74 0
-264 73 75 169 0
-73 74 264 0
-75 74 264 0
-169 74 264 0
-265 -75 0
-265 74 76 170 0
-74 75 265 0
-76 75 265 0
-170 75 265 0
-266 -76 0
-266 75 77 171 0
-75 76 266 0
-77 76 266 0
-171 76 266 0
-267 -77 0
-267 76 78 172 0
-76 77 267 0
-78 77 267 0
-172 77 267 0
-268 -78 0
-268 77 79 173 0
-77 78 268 0
-79 78 268 0
-173 78 268 0
-269 -79 0
-269 78 80 174 0
-78 79 269 0
-80 79 269 0
-174 79 269 0
-270 -80 0
-270 79 81 175 0
-79 80 270 0
-81 80 270 0
-175 80 270 0
-271 -81 0
-271 80 82 176 0
-80 81 271 0
-82 81 271 0
-176 81 271 0
-272 -82 0
-272 81 83 177 0
-81 82 272 0
-83 82 272 0
-177 82 272 0
-273 -83 0
-273 82 84 178 0
-82 83 273 0
-84 83 273 0
-178 83 273 0
-274 -84 0
-274 83 85 179 0
-83 84 274 0
-85 84 274 0
-179 84 274 0
-275 -85 0
-275 84 86 180 0
-84 85 275 0
-86 85 275 0
-180 85 275 0
-276 -86 0
-276 85 87 181 0
-85 86 276 0
-87 86 276 0
-181 86 276 0
-277 -87 0
-277 86 88 182 0
-86 87 277 0
-88 87 277 0
-182 87 277 0
-278 -88 0
-278 87 89 183 0
-87 88 278 0
-89 88 278 0
-183 88 278 0
-279 -89 0
-279 88 90 184 0
-88 89 279 0
-90 89 279 0
-184 89 279 0
-280 -90 0
-280 89 91 185 0
-89 90 280 0
-91 90 280 0
-185 90 280 0
-281 -91 0
-281 90 92 186 0
-90 91 281 0
-92 91 281 0
-186 91 281 0
-282 -92 0
-282 91 93 187 0
-91 92 282 0
-93 92 282 0
-187 92 282 0
-283 -93 0
-283 92 94 188 0
-92 93 283 0
-94 93 283 0
-188 93 283 0
-284 -94 0
-284 93 95 189 0
-93 94 284 0
-95 94 284 0
-189 94 284 0
-285 -95 0
-285 1 94 190 0
-1 95 285 0
-94 95 285 0
-190 95 285 0
-286 -96 0
-286 1 100 187 0
-1 96 286 0
-100 96 286 0
-187 96 286 0
-287 -97 0
-287 2 101 188 0
-2 97 287 0
-101 97 287 0
-188 97 287 0
-288 -98 0
-288 3 102 189 0
-3 98 288 0
-102 98 288 0
-189 98 288 0
-289 -99 0
-289 4 103 190 0
-4 99 289 0
-103 99 289 0
-190 99 289 0
-290 -100 0
-290 5 96 104 0
-5 100 290 0
-96 100 290 0
-104 100 290 0
-291 -101 0
-291 6 97 105 0
-6 101 291 0
-97 101 291 0
-105 101 291 0
-292 -102 0
-292 7 98 106 0
-7 102 292 0
-98 102 292 0
-106 102 292 0
-293 -103 0
-293 8 99 107 0
-8 103 293 0
-99 103 293 0
-107 103 293 0
-294 -104 0
-294 9 100 108 0
-9 104 294 0
-100 104 294 0
-108 104 294 0
-295 -105 0
-295 10 101 109 0
-10 105 295 0
-101 105 295 0
-109 105 295 0
-296 -106 0
-296 11 102 110 0
-11 106 296 0
-102 106 296 0
-110 106 296 0
-297 -107 0
-297 12 103 111 0
-12 107 297 0
-103 107 297 0
-111 107 297 0
-298 -108 0
-298 13 104 112 0
-13 108 298 0
-104 108 298 0
-112 108 298 0
-299 -109 0
-299 14 105 113 0
-14 109 299 0
-105 109 299 0
-113 109 299 0
-300 -110 0
-300 15 106 114 0
-15 110 300 0
-106 110 300 0
-114 110 300 0
-301 -111 0
-301 16 107 115 0
-16 111 301 0
-107 111 301 0
-115 111 301 0
-302 -112 0
-302 17 108 116 0
-17 112 302 0
-108 112 302 0
-116 112 302 0
-303 -113 0
-303 18 109 117 0
-18 113 303 0
-109 113 303 0
-117 113 303 0
-304 -114 0
-304 19 110 118 0
-19 114 304 0
-110 114 304 0
-118 114 304 0
-305 -115 0
-305 20 111 119 0
-20 115 305 0
-111 115 305 0
-119 115 305 0
-306 -116 0
-306 21 112 120 0
-21 116 306 0
-112 116 306 0
-120 116 306 0
-307 -117 0
-307 22 113 121 0
-22 117 307 0
-113 117 307 0
-121 117 307 0
-308 -118 0
-308 23 114 122 0
-23 118 308 0
-114 118 308 0
-122 118 308 0
-309 -119 0
-309 24 115 123 0
-24 119 309 0
-115 119 309 0
-123 119 309 0
-310 -120 0
-310 25 116 124 0
-25 120 310 0
-116 120 310 0
-124 120 310 0
-311 -121 0
-311 26 117 125 0
-26 121 311 0
-117 121 311 0
-125 121 311 0
-312 -122 0
-312 27 118 126 0
-27 122 312 0
-118 122 312 0
-126 122 312 0
-313 -123 0
-313 28 119 127 0
-28 123 313 0
-119 123 313 0
-127 123 313 0
-314 -124 0
-314 29 120 128 0
-29 124 314 0
-120 124 314 0
-128 124 314 0
-315 -125 0
-315 30 121 129 0
-30 125 315 0
-121 125 315 0
-129 125 315 0
-316 -126 0
-316 31 122 130 0
-31 126 316 0
-122 126 316 0
-130 126 316 0
-317 -127 0
-317 32 123 131 0
-32 127 317 0
-123 127 317 0
-131 127 317 0
-318 -128 0
-318 33 124 132 0
-33 128 318 0
-124 128 318 0
-132 128 318 0
-319 -129 0
-319 34 125 133 0
-34 129 319 0
-125 129 319 0
-133 129 319 0
-320 -130 0
-320 35 126 134 0
-35 130 320 0
-126 130 320 0
-134 130 320 0
-321 -131 0
-321 36 127 135 0
-36 131 321 0
-127 131 321 0
-135 131 321 0
-322 -132 0
-322 37 128 136 0
-37 132 322 0
-128 132 322 0
-136 132 322 0
-323 -133 0
-323 38 129 137 0
-38 133 323 0
-129 133 323 0
-137 133 323 0
-324 -134 0
-324 39 130 138 0
-39 134 324 0
-130 134 324 0
-138 134 324 0
-325 -135 0
-325 40 131 139 0
-40 135 325 0
-131 135 325 0
-139 135 325 0
-326 -136 0
-326 41 132 140 0
-41 136 326 0
-132 136 326 0
-140 136 326 0
-327 -137 0
-327 42 133 141 0
-42 137 327 0
-133 137 327 0
-141 137 327 0
-328 -138 0
-328 43 134 142 0
-43 138 328 0
-134 138 328 0
-142 138 328 0
-329 -139 0
-329 44 135 143 0
-44 139 329 0
-135 139 329 0
-143 139 329 0
-330 -140 0
-330 45 136 144 0
-45 140 330 0
-136 140 330 0
-144 140 330 0
-331 -141 0
-331 46 137 145 0
-46 141 331 0
-137 141 331 0
-145 141 331 0
-332 -142 0
-332 47 138 146 0
-47 142 332 0
-138 142 332 0
-146 142 332 0
-333 -143 0
-333 48 139 147 0
-48 143 333 0
-139 143 333 0
-147 143 333 0
-334 -144 0
-334 49 140 148 0
-49 144 334 0
-140 144 334 0
-148 144 334 0
-335 -145 0
-335 50 141 149 0
-50 145 335 0
-141 145 335 0
-149 145 335 0
-336 -146 0
-336 51 142 150 0
-51 146 336 0
-142 146 336 0
-150 146 336 0
-337 -147 0
-337 52 143 151 0
-52 147 337 0
-143 147 337 0
-151 147 337 0
-338 -148 0
-338 53 144 152 0
-53 148 338 0
-144 148 338 0
-152 148 338 0
-339 -149 0
-339 54 145 153 0
-54 149 339 0
-145 149 339 0
-153 149 339 0
-340 -150 0
-340 55 146 154 0
-55 150 340 0
-146 150 340 0
-154 150 340 0
-341 -151 0
-341 56 147 155 0
-56 151 341 0
-147 151 341 0
-155 151 341 0
-342 -152 0
-342 57 148 156 0
-57 152 342 0
-148 152 342 0
-156 152 342 0
-343 -153 0
-343 58 149 157 0
-58 153 343 0
-149 153 343 0
-157 153 343 0
-344 -154 0
-344 59 150 158 0
-59 154 344 0
-150 154 344 0
-158 154 344 0
-345 -155 0
-345 60 151 159 0
-60 155 345 0
-151 155 345 0
-159 155 345 0
-346 -156 0
-346 61 152 160 0
-61 156 346 0
-152 156 346 0
-160 156 346 0
-347 -157 0
-347 62 153 161 0
-62 157 347 0
-153 157 347 0
-161 157 347 0
-348 -158 0
-348 63 154 162 0
-63 158 348 0
-154 158 348 0
-162 158 348 0
-349 -159 0
-349 64 155 163 0
-64 159 349 0
-155 159 349 0
-163 159 349 0
-350 -160 0
-350 65 156 164 0
-65 160 350 0
-156 160 350 0
-164 160 350 0
-351 -161 0
-351 66 157 165 0
-66 161 351 0
-157 161 351 0
-165 161 351 0
-352 -162 0
-352 67 158 166 0
-67 162 352 0
-158 162 352 0
-166 162 352 0
-353 -163 0
-353 68 159 167 0
-68 163 353 0
-159 163 353 0
-167 163 353 0
-354 -164 0
-354 69 160 168 0
-69 164 354 0
-160 164 354 0
-168 164 354 0
-355 -165 0
-355 70 161 169 0
-70 165 355 0
-161 165 355 0
-169 165 355 0
-356 -166 0
-356 71 162 170 0
-71 166 356 0
-162 166 356 0
-170 166 356 0
-357 -167 0
-357 72 163 171 0
-72 167 357 0
-163 167 357 0
-171 167 357 0
-358 -168 0
-358 73 164 172 0
-73 168 358 0
-164 168 358 0
-172 168 358 0
-359 -169 0
-359 74 165 173 0
-74 169 359 0
-165 169 359 0
-173 169 359 0
-360 -170 0
-360 75 166 174 0
-75 170 360 0
-166 170 360 0
-174 170 360 0
-361 -171 0
-361 76 167 175 0
-76 171 361 0
-167 171 361 0
-175 171 361 0
-362 -172 0
-362 77 168 176 0
-77 172 362 0
-168 172 362 0
-176 172 362 0
-363 -173 0
-363 78 169 177 0
-78 173 363 0
-169 173 363 0
-177 173 363 0
-364 -174 0
-364 79 170 178 0
-79 174 364 0
-170 174 364 0
-178 174 364 0
-365 -175 0
-365 80 171 179 0
-80 175 365 0
-171 175 365 0
-179 175 365 0
-366 -176 0
-366 81 172 180 0
-81 176 366 0
-172 176 366 0
-180 176 366 0
-367 -177 0
-367 82 173 181 0
-82 177 367 0
-173 177 367 0
-181 177 367 0
-368 -178 0
-368 83 174 182 0
-83 178 368 0
-174 178 368 0
-182 178 368 0
-369 -179 0
-369 84 175 183 0
-84 179 369 0
-175 179 369 0
-183 179 369 0
-370 -180 0
-370 85 176 184 0
-85 180 370 0
-176 180 370 0
-184 180 370 0
-371 -181 0
-371 86 177 185 0
-86 181 371 0
-177 181 371 0
-185 181 371 0
-372 -182 0
-372 87 178 186 0
-87 182 372 0
-178 182 372 0
-186 182 372 0
-373 -183 0
-373 88 179 187 0
-88 183 373 0
-179 183 373 0
-187 183 373 0
-374 -184 0
-374 89 180 188 0
-89 184 374 0
-180 184 374 0
-188 184 374 0
-375 -185 0
-375 90 181 189 0
-90 185 375 0
-181 185 375 0
-189 185 375 0
-376 -186 0
-376 91 182 190 0
-91 186 376 0
-182 186 376 0
-190 186 376 0
-377 -187 0
-377 92 96 183 0
-92 187 377 0
-96 187 377 0
-183 187 377 0
-378 -188 0
-378 93 97 184 0
-93 188 378 0
-97 188 378 0
-184 188 378 0
-379 -189 0
-379 94 98 185 0
-94 189 379 0
-98 189 379 0
-185 189 379 0
-380 -190 0
-380 95 99 186 0
-95 190 380 0
-99 190 380 0
-186 190 380 0
1 381 0
-381 382 0
2 -381 383 0
-383 384 0
3 -383 385 0
-385 386 0
4 -385 387 0
-387 388 0
5 -387 389 0
-389 390 0
6 -389 391 0
-391 392 0
7 -391 393 0
-393 394 0
8 -393 395 0
-395 396 0
9 -395 397 0
-397 398 0
10 -397 399 0
-399 400 0
11 -399 401 0
-401 402 0
12 -401 403 0
-403 404 0
13 -403 405 0
-405 406 0
14 -405 407 0
-407 408 0
15 -407 409 0
-409 410 0
16 -409 411 0
-411 412 0
17 -411 413 0
-413 414 0
18 -413 415 0
-415 416 0
19 -415 417 0
-417 418 0
20 -417 419 0
-419 420 0
21 -419 421 0
-421 422 0
22 -421 423 0
-423 424 0
23 -423 425 0
-425 426 0
24 -425 427 0
-427 428 0
25 -427 429 0
-429 430 0
26 -429 431 0
-431 432 0
27 -431 433 0
-433 434 0
28 -433 435 0
-435 436 0
29 -435 437 0
-437 438 0
30 -437 439 0
-439 440 0
31 -439 441 0
-441 442 0
32 -441 443 0
-443 444 0
33 -443 445 0
-445 446 0
34 -445 447 0
-447 448 0
35 -447 449 0
-449 450 0
36 -449 451 0
-451 452 0
37 -451 453 0
-453 454 0
38 -453 455 0
-455 456 0
39 -455 457 0
-457 458 0
40 -457 459 0
-459 460 0
41 -459 461 0
-461 462 0
42 -461 463 0
-463 464 0
43 -463 465 0
-465 466 0
44 -465 467 0
-467 468 0
45 -467 469 0
-469 470 0
46 -469 471 0
-471 472 0
47 -471 473 0
-473 474 0
48 -473 475 0
-475 476 0
49 -475 477 0
-477 478 0
50 -477 479 0
-479 480 0
51 -479 481 0
-481 482 0
52 -481 483 0
-483 484 0
53 -483 485 0
-485 486 0
54 -485 487 0
-487 488 0
55 -487 489 0
-489 490 0
56 -489 491 0
-491 492 0
57 -491 493 0
-493 494 0
58 -493 495 0
-495 496 0
59 -495 497 0
-497 498 0
60 -497 499 0
-499 500 0
61 -499 501 0
-501 502 0
62 -501 503 0
-503 504 0
63 -503 505 0
-505 506 0
64 -505 507 0
-507 508 0
65 -507 509 0
-509 510 0
66 -509 511 0
-511 512 0
67 -511 513 0
-513 514 0
68 -513 515 0
-515 516 0
69 -515 517 0
-517 518 0
70 -517 519 0
-519 520 0
71 -519 521 0
-521 522 0
72 -521 523 0
-523 524 0
73 -523 525 0
-525 526 0
74 -525 527 0
-527 528 0
75 -527 529 0
-529 530 0
76 -529 531 0
-531 532 0
77 -531 533 0
-533 534 0
78 -533 535 0
-535 536 0
79 -535 537 0
-537 538 0
80 -537 539 0
-539 540 0
81 -539 541 0
-541 542 0
82 -541 543 0
-543 544 0
83 -543 545 0
-545 546 0
84 -545 547 0
-547 548 0
85 -547 549 0
-549 550 0
86 -549 551 0
-551 552 0
87 -551 553 0
-553 554 0
88 -553 555 0
-555 556 0
89 -555 557 0
-557 558 0
90 -557 559 0
-559 560 0
91 -559 561 0
-561 562 0
92 -561 563 0
-563 564 0
93 -563 565 0
-565 566 0
94 -565 567 0
-567 568 0
95 -567 569 0
-569 570 0
96 -569 571 0
-571 572 0
97 -571 573 0
-573 574 0
98 -573 575 0
-575 576 0
99 -575 577 0
-577 578 0
100 -577 579 0
-579 580 0
101 -579 581 0
-581 582 0
102 -581 583 0
-583 584 0
103 -583 585 0
-585 586 0
104 -585 587 0
-587 588 0
105 -587 589 0
-589 590 0
106 -589 591 0
-591 592 0
107 -591 593 0
-593 594 0
108 -593 595 0
-595 596 0
109 -595 597 0
-597 598 0
110 -597 599 0
-599 600 0
111 -599 601 0
-601 602 0
112 -601 603 0
-603 604 0
113 -603 605 0
-605 606 0
114 -605 607 0
-607 608 0
115 -607 609 0
-609 610 0
116 -609 611 0
-611 612 0
117 -611 613 0
-613 614 0
118 -613 615 0
-615 616 0
119 -615 617 0
-617 618 0
120 -617 619 0
-619 620 0
121 -619 621 0
-621 622 0
122 -621 623 0
-623 624 0
123 -623 625 0
-625 626 0
124 -625 627 0
-627 628 0
125 -627 629 0
-629 630 0
126 -629 631 0
-631 632 0
127 -631 633 0
-633 634 0
128 -633 635 0
-635 636 0
129 -635 637 0
-637 638 0
130 -637 639 0
-639 640 0
131 -639 641 0
-641 642 0
132 -641 643 0
-643 644 0
133 -643 645 0
-645 646 0
134 -645 647 0
-647 648 0
135 -647 649 0
-649 650 0
136 -649 651 0
-651 652 0
137 -651 653 0
-653 654 0
138 -653 655 0
-655 656 0
139 -655 657 0
-657 658 0
140 -657 659 0
-659 660 0
141 -659 661 0
-661 662 0
142 -661 663 0
-663 664 0
143 -663 665 0
-665 666 0
144 -665 667 0
-667 668 0
145 -667 669 0
-669 670 0
146 -669 671 0
-671 672 0
147 -671 673 0
-673 674 0
148 -673 675 0
-675 676 0
149 -675 677 0
-677 678 0
150 -677 679 0
-679 680 0
151 -679 681 0
-681 682 0
152 -681 683 0
-683 684 0
153 -683 685 0
-685 686 0
154 -685 687 0
-687 688 0
155 -687 689 0
-689 690 0
156 -689 691 0
-691 692 0
157 -691 693 0
-693 694 0
158 -693 695 0
-695 696 0
159 -695 697 0
-697 698 0
160 -697 699 0
-699 700 0
161 -699 701 0
-701 702 0
162 -701 703 0
-703 704 0
163 -703 705 0
-705 706 0
164 -705 707 0
-707 708 0
165 -707 709 0
-709 710 0
166 -709 711 0
-711 712 0
167 -711 713 0
-713 714 0
168 -713 715 0
-715 716 0
169 -715 717 0
-717 718 0
170 -717 719 0
-719 720 0
171 -719 721 0
-721 722 0
172 -721 723 0
-723 724 0
173 -723 725 0
-725 726 0
174 -725 727 0
-727 728 0
175 -727 0
2 382 0
-382 729 0
3 -382 384 0
-384 730 0
4 -384 386 0
-386 731 0
5 -386 388 0
-388 732 0
6 -388 390 0
-390 733 0
7 -390 392 0
-392 734 0
8 -392 394 0
-394 735 0
9 -394 396 0
-396 736 0
10 -396 398 0
-398 737 0
11 -398 400 0
-400 738 0
12 -400 402 0
-402 739 0
13 -402 404 0
-404 740 0
14 -404 406 0
-406 741 0
15 -406 408 0
-408 742 0
16 -408 410 0
-410 743 0
17 -410 412 0
-412 744 0
18 -412 414 0
-414 745 0
19 -414 416 0
-416 746 0
20 -416 418 0
-418 747 0
21 -418 420 0
-420 748 0
22 -420 422 0
-422 749 0
23 -422 424 0
-424 750 0
24 -424 426 0
-426 751 0
25 -426 428 0
-428 752 0
26 -428 430 0
-430 753 0
27 -430 432 0
-432 754 0
28 -432 434 0
-434 755 0
29 -434 436 0
-436 756 0
30 -436 438 0
-438 757 0
31 -438 440 0
-440 758 0
32 -440 442 0
-442 759 0
33 -442 444 0
-444 760 0
34 -444 446 0
-446 761 0
35 -446 448 0
-448 762 0
36 -448 450 0
-450 763 0
37 -450 452 0
-452 764 0
38 -452 454 0
-454 765 0
39 -454 456 0
-456 766 0
40 -456 458 0
-458 767 0
41 -458 460 0
-460 768 0
42 -460 462 0
-462 769 0
43 -462 464 0
-464 770 0
44 -464 466 0
-466 771 0
45 -466 468 0
-468 772 0
46 -468 470 0
-470 773 0
47 -470 472 0
-472 774 0
48 -472 474 0
-474 775 0
49 -474 476 0
-476 776 0
50 -476 478 0
-478 777 0
51 -478 480 0
-480 778 0
52 -480 482 0
-482 779 0
53 -482 484 0
-484 780 0
54 -484 486 0
-486 781 0
55 -486 488 0
-488 782 0
56 -488 490 0
-490 783 0
57 -490 492 0
-492 784 0
58 -492 494 0
-494 785 0
59 -494 496 0
-496 786 0
60 -496 498 0
-498 787 0
61 -498 500 0
-500 788 0
62 -500 502 0
-502 789 0
63 -502 504 0
-504 790 0
64 -504 506 0
-506 791 0
65 -506 508 0
-508 792 0
66 -508 510 0
-510 793 0
67 -510 512 0
-512 794 0
68 -512 514 0
-514 795 0
69 -514 516 0
-516 796 0
70 -516 518 0
-518 797 0
71 -518 520 0
-520 798 0
72 -520 522 0
-522 799 0
73 -522 524 0
-524 800 0
74 -524 526 0
-526 801 0
75 -526 528 0
-528 802 0
76 -528 530 0
-530 803 0
77 -530 532 0
-532 804 0
78 -532 534 0
-534 805 0
79 -534 536 0
-536 806 0
80 -536 538 0
-538 807 0
81 -538 540 0
-540 808 0
82 -540 542 0
-542 809 0
83 -542 544 0
-544 810 0
84 -544 546 0
-546 811 0
85 -546 548 0
-548 812 0
86 -548 550 0
-550 813 0
87 -550 552 0
-552 814 0
88 -552 554 0
-554 815 0
89 -554 556 0
-556 816 0
90 -556 558 0
-558 817 0
91 -558 560 0
-560 818 0
92 -560 562 0
-562 819 0
93 -562 564 0
-564 820 0
94 -564 566 0
-566 821 0
95 -566 568 0
-568 822 0
96 -568 570 0
-570 823 0
97 -570 572 0
-572 824 0
98 -572 574 0
-574 825 0
99 -574 576 0
-576 826 0
100 -576 578 0
-578 827 0
101 -578 580 0
-580 828 0
102 -580 582 0
-582 829 0
103 -582 584 0
-584 830 0
104 -584 586 0
-586 831 0
105 -586 588 0
-588 832 0
106 -588 590 0
-590 833 0
107 -590 592 0
-592 834 0
108 -592 594 0
-594 835 0
109 -594 596 0
-596 836 0
110 -596 598 0
-598 837 0
111 -598 600 0
-600 838 0
112 -600 602 0
-602 839 0
113 -602 604 0
-604 840 0
114 -604 606 0
-606 841 0
115 -606 608 0
-608 842 0
116 -608 610 0
-610 843 0
117 -610 612 0
-612 844 0
118 -612 614 0
-614 845 0
119 -614 616 0
-616 846 0
120 -616 618 0
-618 847 0
121 -618 620 0
-620 848 0
122 -620 622 0
-622 849 0
123 -622 624 0
-624 850 0
124 -624 626 0
-626 851 0
125 -626 628 0
-628 852 0
126 -628 630 0
-630 853 0
127 -630 632 0
-632 854 0
128 -632 634 0
-634 855 0
129 -634 636 0
-636 856 0
130 -636 638 0
-638 857 0
131 -638 640 0
-640 858 0
132 -640 642 0
-642 859 0
133 -642 644 0
-644 860 0
134 -644 646 0
-646 861 0
135 -646 648 0
-648 862 0
136 -648 650 0
-650 863 0
137 -650 652 0
-652 864 0
138 -652 654 0
-654 865 0
139 -654 656 0
-656 866 0
140 -656 658 0
-658 867 0
141 -658 660 0
-660 868 0
142 -660 662 0
-662 869 0
143 -662 664 0
-664 870 0
144 -664 666 0
-666 871 0
145 -666 668 0
-668 872 0
146 -668 670 0
-670 873 0
147 -670 672 0
-672 874 0
148 -672 674 0
-674 875 0
149 -674 676 0
-676 876 0
150 -676 678 0
-678 877 0
151 -678 680 0
-680 878 0
152 -680 682 0
-682 879 0
153 -682 684 0
-684 880 0
154 -684 686 0
-686 881 0
155 -686 688 0
-688 882 0
156 -688 690 0
-690 883 0
157 -690 692 0
-692 884 0
158 -692 694 0
-694 885 0
159 -694 696 0
-696 886 0
160 -696 698 0
-698 887 0
161 -698 700 0
-700 888 0
162 -700 702 0
-702 889 0
163 -702 704 0
-704 890 0
164 -704 706 0
-706 891 0
165 -706 708 0
-708 892 0
166 -708 710 0
-710 893 0
167 -710 712 0
-712 894 0
168 -712 714 0
-714 895 0
169 -714 716 0
-716 896 0
170 -716 718 0
-718 897 0
171 -718 720 0
-720 898 0
172 -720 722 0
-722 899 0
173 -722 724 0
-724 900 0
174 -724 726 0
-726 901 0
175 -726 728 0
-728 902 0
176 -728 0
3 729 0
-729 903 0
4 -729 730 0
-730 904 0
5 -730 731 0
-731 905 0
6 -731 732 0
-732 906 0
7 -732 733 0
-733 907 0
8 -733 734 0
-734 908 0
9 -734 735 0
-735 909 0
10 -735 736 0
-736 910 0
11 -736 737 0
-737 911 0
12 -737 738 0
-738 912 0
13 -738 739 0
-739 913 0
14 -739 740 0
-740 914 0
15 -740 741 0
-741 915 0
16 -741 742 0
-742 916 0
17 -742 743 0
-743 917 0
18 -743 744 0
-744 918 0
19 -744 745 0
-745 919 0
20 -745 746 0
-746 920 0
21 -746 747 0
-747 921 0
22 -747 748 0
-748 922 0
23 -748 749 0
-749 923 0
24 -749 750 0
-750 924 0
25 -750 751 0
-751 925 0
26 -751 752 0
-752 926 0
27 -752 753 0
-753 927 0
28 -753 754 0
-754 928 0
29 -754 755 0
-755 929 0
30 -755 756 0
-756 930 0
31 -756 757 0
-757 931 0
32 -757 758 0
-758 932 0
33 -758 759 0
-759 933 0
34 -759 760 0
-760 934 0
35 -760 761 0
-761 935 0
36 -761 762 0
-762 936 0
37 -762 763 0
-763 937 0
38 -763 764 0
-764 938 0
39 -764 765 0
-765 939 0
40 -765 766 0
-766 940 0
41 -766 767 0
-767 941 0
42 -767 768 0
-768 942 0
43 -768 769 0
-769 943 0
44 -769 770 0
-770 944 0
45 -770 771 0
-771 945 0
46 -771 772 0
-772 946 0
47 -772 773 0
-773 947 0
48 -773 774 0
-774 948 0
49 -774 775 0
-775 949 0
50 -775 776 0
-776 950 0
51 -776 777 0
-777 951 0
52 -777 778 0
-778 952 0
53 -778 779 0
-779 953 0
54 -779 780 0
-780 954 0
55 -780 781 0
-781 955 0
56 -781 782 0
-782 956 0
57 -782 783 0
-783 957 0
58 -783 784 0
-784 958 0
59 -784 785 0
-785 959 0
60 -785 786 0
-786 960 0
61 -786 787 0
-787 961 0
62 -787 788 0
-788 962 0
63 -788 789 0
-789 963 0
64 -789 790 0
-790 964 0
65 -790 791 0
-791 965 0
66 -791 792 0
-792 966 0
67 -792 793 0
-793 967 0
68 -793 794 0
-794 968 0
69 -794 795 0
-795 969 0
70 -795 796 0
-796 970 0
71 -796 797 0
-797 971 0
72 -797 798 0
-798 972 0
73 -798 799 0
-799 973 0
74 -799 800 0
-800 974 0
75 -800 801 0
-801 975 0
76 -801 802 0
-802 976 0
77 -802 803 0
-803 977 0
78 -803 804 0
-804 978 0
79 -804 805 0
-805 979 0
80 -805 806 0
-806 980 0
81 -806 807 0
-807 981 0
82 -807 808 0
-808 982 0
83 -808 809 0
-809 983 0
84 -809 810 0
-810 984 0
85 -810 811 0
-811 985 0
86 -811 812 0
-812 986 0
87 -812 813 0
-813 987 0
88 -813 814 0
-814 988 0
89 -814 815 0
-815 989 0
90 -815 816 0
-816 990 0
91 -816 817 0
-817 991 0
92 -817 818 0
-818 992 0
93 -818 819 0
-819 993 0
94 -819 820 0
-820 994 0
95 -820 821 0
-821 995 0
96 -821 822 0
-822 996 0
97 -822 823 0
-823 997 0
98 -823 824 0
-824 998 0
99 -824 825 0
-825 999 0
100 -825 826 0
-826 1000 0
101 -826 827 0
-827 1001 0
102 -827 828 0
-828 1002 0
103 -828 829 0
-829 1003 0
104 -829 830 0
-830 1004 0
105 -830 831 0
-831 1005 0
106 -831 832 0
-832 1006 0
107 -832 833 0
-833 1007 0
108 -833 834 0
-834 1008 0
109 -834 835 0
-835 1009 0
110 -835 836 0
-836 1010 0
111 -836 837 0
-837 1011 0
112 -837 838 0
-838 1012 0
113 -838 839 0
-839 1013 0
114 -839 840 0
-840 1014 0
115 -840 841 0
-841 1015 0
116 -841 842 0
-842 1016 0
117 -842 843 0
-843 1017 0
118 -843 844 0
-844 1018 0
119 -844 845 0
-845 1019 0
120 -845 846 0
-846 1020 0
121 -846 847 0
-847 1021 0
122 -847 848 0
-848 1022 0
123 -848 849 0
-849 1023 0
124 -849 850 0
-850 1024 0
125 -850 851 0
-851 1025 0
126 -851 852 0
-852 1026 0
127 -852 853 0
-853 1027 0
128 -853 854 0
-854 1028 0
129 -854 855 0
-855 1029 0
130 -855 856 0
-856 1030 0
131 -856 857 0
-857 1031 0
132 -857 858 0
-858 1032 0
133 -858 859 0
-859 1033 0
134 -859 860 0
-860 1034 0
135 -860 861 0
-861 1035 0
136 -861 862 0
-862 1036 0
137 -862 863 0
-863 1037 0
138 -863 864 0
-864 1038 0
139 -864 865 0
-865 1039 0
140 -865 866 0
-866 1040 0
141 -866 867 0
-867 1041 0
142 -867 868 0
-868 1042 0
143 -868 869 0
-869 1043 0
144 -869 870 0
-870 1044 0
145 -870 871 0
-871 1045 0
146 -871 872 0
-872 1046 0
147 -872 873 0
-873 1047 0
148 -873 874 0
-874 1048 0
149 -874 875 0
-875 1049 0
150 -875 876 0
-876 1050 0
151 -876 877 0
-877 1051 0
152 -877 878 0
-878 1052 0
153 -878 879 0
-879 1053 0
154 -879 880 0
-880 1054 0
155 -880 881 0
-881 1055 0
156 -881 882 0
-882 1056 0
157 -882 883 0
-883 1057 0
158 -883 884 0
-884 1058 0
159 -884 885 0
-885 1059 0
160 -885 886 0
-886 1060 0
161 -886 887 0
-887 1061 0
162 -887 888 0
-888 1062 0
163 -888 889 0
-889 1063 0
164 -889 890 0
-890 1064 0
165 -890 891 0
-891 1065 0
166 -891 892 0
-892 1066 0
167 -892 893 0
-893 1067 0
168 -893 894 0
-894 1068 0
169 -894 895 0
-895 1069 0
170 -895 896 0
-896 1070 0
171 -896 897 0
-897 1071 0
172 -897 898 0
-898 1072 0
173 -898 899 0
-899 1073 0
174 -899 900 0
-900 1074 0
175 -900 901 0
-901 1075 0
176 -901 902 0
-902 1076 0
177 -902 0
4 903 0
-903 1077 0
5 -903 904 0
-904 1078 0
6 -904 905 0
-905 1079 0
7 -905 906 0
-906 1080 0
8 -906 907 0
-907 1081 0
9 -907 908 0
-908 1082 0
10 -908 909 0
-909 1083 0
11 -909 910 0
-910 1084 0
12 -910 911 0
-911 1085 0
13 -911 912 0
-912 1086 0
14 -912 913 0
-913 1087 0
15 -913 914 0
-914 1088 0
16 -914 915 0
-915 1089 0
17 -915 916 0
-916 1090 0
18 -916 917 0
-917 1091 0
19 -917 918 0
-918 1092 0
20 -918 919 0
-919 1093 0
21 -919 920 0
-920 1094 0
22 -920 921 0
-921 1095 0
23 -921 922 0
-922 1096 0
24 -922 923 0
-923 1097 0
25 -923 924 0
-924 1098 0
26 -924 925 0
-925 1099 0
27 -925 926 0
-926 1100 0
28 -926 927 0
-927 1101 0
29 -927 928 0
-928 1102 0
30 -928 929 0
-929 1103 0
31 -929 930 0
-930 1104 0
32 -930 931 0
-931 1105 0
33 -931 932 0
-932 1106 0
34 -932 933 0
-933 1107 0
35 -933 934 0
-934 1108 0
36 -934 935 0
-935 1109 0
37 -935 936 0
-936 1110 0
38 -936 937 0
-937 1111 0
39 -937 938 0
-938 1112 0
40 -938 939 0
-939 1113 0
41 -939 940 0
-940 1114 0
42 -940 941 0
-941 1115 0
43 -941 942 0
-942 1116 0
44 -942 943 0
-943 1117 0
45 -943 944 0
-944 1118 0
46 -944 945 0
-945 1119 0
47 -945 946 0
-946 1120 0
48 -946 947 0
-947 1121 0
49 -947 948 0
-948 1122 0
50 -948 949 0
-949 1123 0
51 -949 950 0
-950 1124 0
52 -950 951 0
-951 1125 0
53 -951 952 0
-952 1126 0
54 -952 953 0
-953 1127 0
55 -953 954 0
-954 1128 0
56 -954 955 0
-955 1129 0
57 -955 956 0
-956 1130 0
58 -956 957 0
-957 1131 0
59 -957 958 0
-958 1132 0
60 -958 959 0
-959 1133 0
61 -959 960 0
-960 1134 0
62 -960 961 0
-961 1135 0
63 -961 962 0
-962 1136 0
64 -962 963 0
-963 1137 0
65 -963 964 0
-964 1138 0
66 -964 965 0
-965 1139 0
67 -965 966 0
-966 1140 0
68 -966 967 0
-967 1141 0
69 -967 968 0
-968 1142 0
70 -968 969 0
-969 1143 0
71 -969 970 0
-970 1144 0
72 -970 971 0
-971 1145 0
73 -971 972 0
-972 1146 0
74 -972 973 0
-973 1147 0
75 -973 974 0
-974 1148 0
76 -974 975 0
-975 1149 0
77 -975 976 0
-976 1150 0
78 -976 977 0
-977 1151 0
79 -977 978 0
-978 1152 0
80 -978 979 0
-979 1153 0
81 -979 980 0
-980 1154 0
82 -980 981 0
-981 1155 0
83 -981 982 0
-982 1156 0
84 -982 983 0
-983 1157 0
85 -983 984 0
-984 1158 0
86 -984 985 0
-985 1159 0
87 -985 986 0
-986 1160 0
88 -986 987 0
-987 1161 0
89 -987 988 0
-988 1162 0
90 -988 989 0
-989 1163 0
91 -989 990 0
-990 1164 0
92 -990 991 0
-991 1165 0
93 -991 992 0
-992 1166 0
94 -992 993 0
-993 1167 0
95 -993 994 0
-994 1168 0
96 -994 995 0
-995 1169 0
97 -995 996 0
-996 1170 0
98 -996 997 0
-997 1171 0
99 -997 998 0
-998 1172 0
100 -998 999 0
-999 1173 0
101 -999 1000 0
-1000 1174 0
102 -1000 1001 0
-1001 1175 0
103 -1001 1002 0
-1002 1176 0
104 -1002 1003 0
-1003 1177 0
105 -1003 1004 0
-1004 1178 0
106 -1004 1005 0
-1005 1179 0
107 -1005 1006 0
-1006 1180 0
108 -1006 1007 0
-1007 1181 0
109 -1007 1008 0
-1008 1182 0
110 -1008 1009 0
-1009 1183 0
111 -1009 1010 0
-1010 1184 0
112 -1010 1011 0
-1011 1185 0
113 -1011 1012 0
-1012 1186 0
114 -1012 1013 0
-1013 1187 0
115 -1013 1014 0
-1014 1188 0
116 -1014 1015 0
-1015 1189 0
117 -1015 1016 0
-1016 1190 0
118 -1016 1017 0
-1017 1191 0
119 -1017 1018 0
-1018 1192 0
120 -1018 1019 0
-1019 1193 0
121 -1019 1020 0
-1020 1194 0
122 -1020 1021 0
-1021 1195 0
123 -1021 1022 0
-1022 1196 0
124 -1022 1023 0
-1023 1197 0
125 -1023 1024 0
-1024 1198 0
126 -1024 1025 0
-1025 1199 0
127 -1025 1026 0
-1026 1200 0
128 -1026 1027 0
-1027 1201 0
129 -1027 1028 0
-1028 1202 0
130 -1028 1029 0
-1029 1203 0
131 -1029 1030 0
-1030 1204 0
132 -1030 1031 0
-1031 1205 0
133 -1031 1032 0
-1032 1206 0
134 -1032 1033 0
-1033 1207 0
135 -1033 1034 0
-1034 1208 0
136 -1034 1035 0
-1035 1209 0
137 -1035 1036 0
-1036 1210 0
138 -1036 1037 0
-1037 1211 0
139 -1037 1038 0
-1038 1212 0
140 -1038 1039 0
-1039 1213 0
141 -1039 1040 0
-1040 1214 0
142 -1040 1041 0
-1041 1215 0
143 -1041 1042 0
-1042 1216 0
144 -1042 1043 0
-1043 1217 0
145 -1043 1044 0
-1044 1218 0
146 -1044 1045 0
-1045 1219 0
147 -1045 1046 0
-1046 1220 0
148 -1046 1047 0
-1047 1221 0
149 -1047 1048 0
-1048 1222 0
150 -1048 1049 0
-1049 1223 0
151 -1049 1050 0
-1050 1224 0
152 -1050 1051 0
-1051 1225 0
153 -1051 1052 0
-1052 1226 0
154 -1052 1053 0
-1053 1227 0
155 -1053 1054 0
-1054 1228 0
156 -1054 1055 0
-1055 1229 0
157 -1055 1056 0
-1056 1230 0
158 -1056 1057 0
-1057 1231 0
159 -1057 1058 0
-1058 1232 0
160 -1058 1059 0
-1059 1233 0
161 -1059 1060 0
-1060 1234 0
162 -1060 1061 0
-1061 1235 0
163 -1061 1062 0
-1062 1236 0
164 -1062 1063 0
-1063 1237 0
165 -1063 1064 0
-1064 1238 0
166 -1064 1065 0
-1065 1239 0
167 -1065 1066 0
-1066 1240 0
168 -1066 1067 0
-1067 1241 0
169 -1067 1068 0
-1068 1242 0
170 -1068 1069 0
-1069 1243 0
171 -1069 1070 0
-1070 1244 0
172 -1070 1071 0
-1071 1245 0
173 -1071 1072 0
-1072 1246 0
174 -1072 1073 0
-1073 1247 0
175 -1073 1074 0
-1074 1248 0
176 -1074 1075 0
-1075 1249 0
177 -1075 1076 0
-1076 1250 0
178 -1076 0
5 1077 0
-1077 1251 0
6 -1077 1078 0
-1078 1252 0
7 -1078 1079 0
-1079 1253 0
8 -1079 1080 0
-1080 1254 0
9 -1080 1081 0
-1081 1255 0
10 -1081 1082 0
-1082 1256 0
11 -1082 1083 0
-1083 1257 0
12 -1083 1084 0
-1084 1258 0
13 -1084 1085 0
-1085 1259 0
14 -1085 1086 0
-1086 1260 0
15 -1086 1087 0
-1087 1261 0
16 -1087 1088 0
-1088 1262 0
17 -1088 1089 0
-1089 1263 0
18 -1089 1090 0
-1090 1264 0
19 -1090 1091 0
-1091 1265 0
20 -1091 1092 0
-1092 1266 0
21 -1092 1093 0
-1093 1267 0
22 -1093 1094 0
-1094 1268 0
23 -1094 1095 0
-1095 1269 0
24 -1095 1096 0
-1096 1270 0
25 -1096 1097 0
-1097 1271 0
26 -1097 1098 0
-1098 1272 0
27 -1098 1099 0
-1099 1273 0
28 -1099 1100 0
-1100 1274 0
29 -1100 1101 0
-1101 1275 0
30 -1101 1102 0
-1102 1276 0
31 -1102 1103 0
-1103 1277 0
32 -1103 1104 0
-1104 1278 0
33 -1104 1105 0
-1105 1279 0
34 -1105 1106 0
-1106 1280 0
35 -1106 1107 0
-1107 1281 0
36 -1107 1108 0
-1108 1282 0
37 -1108 1109 0
-1109 1283 0
38 -1109 1110 0
-1110 1284 0
39 -1110 1111 0
-1111 1285 0
40 -1111 1112 0
-1112 1286 0
41 -1112 1113 0
-1113 1287 0
42 -1113 1114 0
-1114 1288 0
43 -1114 1115 0
-1115 1289 0
44 -1115 1116 0
-1116 1290 0
45 -1116 1117 0
-1117 1291 0
46 -1117 1118 0
-1118 1292 0
47 -1118 1119 0
-1119 1293 0
48 -1119 1120 0
-1120 1294 0
49 -1120 1121 0
-1121 1295 0
50 -1121 1122 0
-1122 1296 0
51 -1122 1123 0
-1123 1297 0
52 -1123 1124 0
-1124 1298 0
53 -1124 1125 0
-1125 1299 0
54 -1125 1126 0
-1126 1300 0
55 -1126 1127 0
-1127 1301 0
56 -1127 1128 0
-1128 1302 0
57 -1128 1129 0
-1129 1303 0
58 -1129 1130 0
-1130 1304 0
59 -1130 1131 0
-1131 1305 0
60 -1131 1132 0
-1132 1306 0
61 -1132 1133 0
-1133 1307 0
62 -1133 1134 0
-1134 1308 0
63 -1134 1135 0
-1135 1309 0
64 -1135 1136 0
-1136 1310 0
65 -1136 1137 0
-1137 1311 0
66 -1137 1138 0
-1138 1312 0
67 -1138 1139 0
-1139 1313 0
68 -1139 1140 0
-1140 1314 0
69 -1140 1141 0
-1141 1315 0
70 -1141 1142 0
-1142 1316 0
71 -1142 1143 0
-1143 1317 0
72 -1143 1144 0
-1144 1318 0
73 -1144 1145 0
-1145 1319 0
74 -1145 1146 0
-1146 1320 0
75 -1146 1147 0
-1147 1321 0
76 -1147 1148 0
-1148 1322 0
77 -1148 1149 0
-1149 1323 0
78 -1149 1150 0
-1150 1324 0
79 -1150 1151 0
-1151 1325 0
80 -1151 1152 0
-1152 1326 0
81 -1152 1153 0
-1153 1327 0
82 -1153 1154 0
-1154 1328 0
83 -1154 1155 0
-1155 1329 0
84 -1155 1156 0
-1156 1330 0
85 -1156 1157 0
-1157 1331 0
86 -1157 1158 0
-1158 1332 0
87 -1158 1159 0
-1159 1333 0
88 -1159 1160 0
-1160 1334 0
89 -1160 1161 0
-1161 1335 0
90 -1161 1162 0
-1162 1336 0
91 -1162 1163 0
-1163 1337 0
92 -1163 1164 0
-1164 1338 0
93 -1164 1165 0
-1165 1339 0
94 -1165 1166 0
-1166 1340 0
95 -1166 1167 0
-1167 1341 0
96 -1167 1168 0
-1168 1342 0
97 -1168 1169 0
-1169 1343 0
98 -1169 1170 0
-1170 1344 0
99 -1170 1171 0
-1171 1345 0
100 -1171 1172 0
-1172 1346 0
101 -1172 1173 0
-1173 1347 0
102 -1173 1174 0
-1174 1348 0
103 -1174 1175 0
-1175 1349 0
104 -1175 1176 0
-1176 1350 0
105 -1176 1177 0
-1177 1351 0
106 -1177 1178 0
-1178 1352 0
107 -1178 1179 0
-1179 1353 0
108 -1179 1180 0
-1180 1354 0
109 -1180 1181 0
-1181 1355 0
110 -1181 1182 0
-1182 1356 0
111 -1182 1183 0
-1183 1357 0
112 -1183 1184 0
-1184 1358 0
113 -1184 1185 0
-1185 1359 0
114 -1185 1186 0
-1186 1360 0
115 -1186 1187 0
-1187 1361 0
116 -1187 1188 0
-1188 1362 0
117 -1188 1189 0
-1189 1363 0
118 -1189 1190 0
-1190 1364 0
119 -1190 1191 0
-1191 1365 0
120 -1191 1192 0
-1192 1366 0
121 -1192 1193 0
-1193 1367 0
122 -1193 1194 0
-1194 1368 0
123 -1194 1195 0
-1195 1369 0
124 -1195 1196 0
-1196 1370 0
125 -1196 1197 0
-1197 1371 0
126 -1197 1198 0
-1198 1372 0
127 -1198 1199 0
-1199 1373 0
128 -1199 1200 0
-1200 1374 0
129 -1200 1201 0
-1201 1375 0
130 -1201 1202 0
-1202 1376 0
131 -1202 1203 0
-1203 1377 0
132 -1203 1204 0
-1204 1378 0
133 -1204 1205 0
-1205 1379 0
134 -1205 1206 0
-1206 1380 0
135 -1206 1207 0
-1207 1381 0
136 -1207 1208 0
-1208 1382 0
137 -1208 1209 0
-1209 1383 0
138 -1209 1210 0
-1210 1384 0
139 -1210 1211 0
-1211 1385 0
140 -1211 1212 0
-1212 1386 0
141 -1212 1213 0
-1213 1387 0
142 -1213 1214 0
-1214 1388 0
143 -1214 1215 0
-1215 1389 0
144 -1215 1216 0
-1216 1390 0
145 -1216 1217 0
-1217 1391 0
146 -1217 1218 0
-1218 1392 0
147 -1218 1219 0
-1219 1393 0
148 -1219 1220 0
-1220 1394 0
149 -1220 1221 0
-1221 1395 0
150 -1221 1222 0
-1222 1396 0
151 -1222 1223 0
-1223 1397 0
152 -1223 1224 0
-1224 1398 0
153 -1224 1225 0
-1225 1399 0
154 -1225 1226 0
-1226 1400 0
155 -1226 1227 0
-1227 1401 0
156 -1227 1228 0
-1228 1402 0
157 -1228 1229 0
-1229 1403 0
158 -1229 1230 0
-1230 1404 0
159 -1230 1231 0
-1231 1405 0
160 -1231 1232 0
-1232 1406 0
161 -1232 1233 0
-1233 1407 0
162 -1233 1234 0
-1234 1408 0
163 -1234 1235 0
-1235 1409 0
164 -1235 1236 0
-1236 1410 0
165 -1236 1237 0
-1237 1411 0
166 -1237 1238 0
-1238 1412 0
167 -1238 1239 0
-1239 1413 0
168 -1239 1240 0
-1240 1414 0
169 -1240 1241 0
-1241 1415 0
170 -1241 1242 0
-1242 1416 0
171 -1242 1243 0
-1243 1417 0
172 -1243 1244 0
-1244 1418 0
173 -1244 1245 0
-1245 1419 0
174 -1245 1246 0
-1246 1420 0
175 -1246 1247 0
-1247 1421 0
176 -1247 1248 0
-1248 1422 0
177 -1248 1249 0
-1249 1423 0
178 -1249 1250 0
-1250 1424 0
179 -1250 0
6 1251 0
-1251 1425 0
7 -1251 1252 0
-1252 1426 0
8 -1252 1253 0
-1253 1427 0
9 -1253 1254 0
-1254 1428 0
10 -1254 1255 0
-1255 1429 0
11 -1255 1256 0
-1256 1430 0
12 -1256 1257 0
-1257 1431 0
13 -1257 1258 0
-1258 1432 0
14 -1258 1259 0
-1259 1433 0
15 -1259 1260 0
-1260 1434 0
16 -1260 1261 0
-1261 1435 0
17 -1261 1262 0
-1262 1436 0
18 -1262 1263 0
-1263 1437 0
19 -1263 1264 0
-1264 1438 0
20 -1264 1265 0
-1265 1439 0
21 -1265 1266 0
-1266 1440 0
22 -1266 1267 0
-1267 1441 0
23 -1267 1268 0
-1268 1442 0
24 -1268 1269 0
-1269 1443 0
25 -1269 1270 0
-1270 1444 0
26 -1270 1271 0
-1271 1445 0
27 -1271 1272 0
-1272 1446 0
28 -1272 1273 0
-1273 1447 0
29 -1273 1274 0
-1274 1448 0
30 -1274 1275 0
-1275 1449 0
31 -1275 1276 0
-1276 1450 0
32 -1276 1277 0
-1277 1451 0
33 -1277 1278 0
-1278 1452 0
34 -1278 1279 0
-1279 1453 0
35 -1279 1280 0
-1280 1454 0
36 -1280 1281 0
-1281 1455 0
37 -1281 1282 0
-1282 1456 0
38 -1282 1283 0
-1283 1457 0
39 -1283 1284 0
-1284 1458 0
40 -1284 1285 0
-1285 1459 0
41 -1285 1286 0
-1286 1460 0
42 -1286 1287 0
-1287 1461 0
43 -1287 1288 0
-1288 1462 0
44 -1288 1289 0
-1289 1463 0
45 -1289 1290 0
-1290 1464 0
46 -1290 1291 0
-1291 1465 0
47 -1291 1292 0
-1292 1466 0
48 -1292 1293 0
-1293 1467 0
49 -1293 1294 0
-1294 1468 0
50 -1294 1295 0
-1295 1469 0
51 -1295 1296 0
-1296 1470 0
52 -1296 1297 0
-1297 1471 0
53 -1297 1298 0
-1298 1472 0
54 -1298 1299 0
-1299 1473 0
55 -1299 1300 0
-1300 1474 0
56 -1300 1301 0
-1301 1475 0
57 -1301 1302 0
-1302 1476 0
58 -1302 1303 0
-1303 1477 0
59 -1303 1304 0
-1304 1478 0
60 -1304 1305 0
-1305 1479 0
61 -1305 1306 0
-1306 1480 0
62 -1306 1307 0
-1307 1481 0
63 -1307 1308 0
-1308 1482 0
64 -1308 1309 0
-1309 1483 0
65 -1309 1310 0
-1310 1484 0
66 -1310 1311 0
-1311 1485 0
67 -1311 1312 0
-1312 1486 0
68 -1312 1313 0
-1313 1487 0
69 -1313 1314 0
-1314 1488 0
70 -1314 1315 0
-1315 1489 0
71 -1315 1316 0
-1316 1490 0
72 -1316 1317 0
-1317 1491 0
73 -1317 1318 0
-1318 1492 0
74 -1318 1319 0
-1319 1493 0
75 -1319 1320 0
-1320 1494 0
76 -1320 1321 0
-1321 1495 0
77 -1321 1322 0
-1322 1496 0
78 -1322 1323 0
-1323 1497 0
79 -1323 1324 0
-1324 1498 0
80 -1324 1325 0
-1325 1499 0
81 -1325 1326 0
-1326 1500 0
82 -1326 1327 0
-1327 1501 0
83 -1327 1328 0
-1328 1502 0
84 -1328 1329 0
-1329 1503 0
85 -1329 1330 0
-1330 1504 0
86 -1330 1331 0
-1331 1505 0
87 -1331 1332 0
-1332 1506 0
88 -1332 1333 0
-1333 1507 0
89 -1333 1334 0
-1334 1508 0
90 -1334 1335 0
-1335 1509 0
91 -1335 1336 0
-1336 1510 0
92 -1336 1337 0
-1337 1511 0
93 -1337 1338 0
-1338 1512 0
94 -1338 1339 0
-1339 1513 0
95 -1339 1340 0
-1340 1514 0
96 -1340 1341 0
-1341 1515 0
97 -1341 1342 0
-1342 1516 0
98 -1342 1343 0
-1343 1517 0
99 -1343 1344 0
-1344 1518 0
100 -1344 1345 0
-1345 1519 0
101 -1345 1346 0
-1346 1520 0
102 -1346 1347 0
-1347 1521 0
103 -1347 1348 0
-1348 1522 0
104 -1348 1349 0
-1349 1523 0
105 -1349 1350 0
-1350 1524 0
106 -1350 1351 0
-1351 1525 0
107 -1351 1352 0
-1352 1526 0
108 -1352 1353 0
-1353 1527 0
109 -1353 1354 0
-1354 1528 0
110 -1354 1355 0
-1355 1529 0
111 -1355 1356 0
-1356 1530 0
112 -1356 1357 0
-1357 1531 0
113 -1357 1358 0
-1358 1532 0
114 -1358 1359 0
-1359 1533 0
115 -1359 1360 0
-1360 1534 0
116 -1360 1361 0
-1361 1535 0
117 -1361 1362 0
-1362 1536 0
118 -1362 1363 0
-1363 1537 0
119 -1363 1364 0
-1364 1538 0
120 -1364 1365 0
-1365 1539 0
121 -1365 1366 0
-1366 1540 0
122 -1366 1367 0
-1367 1541 0
123 -1367 1368 0
-1368 1542 0
124 -1368 1369 0
-1369 1543 0
125 -1369 1370 0
-1370 1544 0
126 -1370 1371 0
-1371 1545 0
127 -1371 1372 0
-1372 1546 0
128 -1372 1373 0
-1373 1547 0
129 -1373 1374 0
-1374 1548 0
130 -1374 1375 0
-1375 1549 0
131 -1375 1376 0
-1376 1550 0
132 -1376 1377 0
-1377 1551 0
133 -1377 1378 0
-1378 1552 0
134 -1378 1379 0
-1379 1553 0
135 -1379 1380 0
-1380 1554 0
136 -1380 1381 0
-1381 1555 0
137 -1381 1382 0
-1382 1556 0
138 -1382 1383 0
-1383 1557 0
139 -1383 1384 0
-1384 1558 0
140 -1384 1385 0
-1385 1559 0
141 -1385 1386 0
-1386 1560 0
142 -1386 1387 0
-1387 1561 0
143 -1387 1388 0
-1388 1562 0
144 -1388 1389 0
-1389 1563 0
145 -1389 1390 0
-1390 1564 0
146 -1390 1391 0
-1391 1565 0
147 -1391 1392 0
-1392 1566 0
148 -1392 1393 0
-1393 1567 0
149 -1393 1394 0
-1394 1568 0
150 -1394 1395 0
-1395 1569 0
151 -1395 1396 0
-1396 1570 0
152 -1396 1397 0
-1397 1571 0
153 -1397 1398 0
-1398 1572 0
154 -1398 1399 0
-1399 1573 0
155 -1399 1400 0
-1400 1574 0
156 -1400 1401 0
-1401 1575 0
157 -1401 1402 0
-1402 1576 0
158 -1402 1403 0
-1403 1577 0
159 -1403 1404 0
-1404 1578 0
160 -1404 1405 0
-1405 1579 0
161 -1405 1406 0
-1406 1580 0
162 -1406 1407 0
-1407 1581 0
163 -1407 1408 0
-1408 1582 0
164 -1408 1409 0
-1409 1583 0
165 -1409 1410 0
-1410 1584 0
166 -1410 1411 0
-1411 1585 0
167 -1411 1412 0
-1412 1586 0
168 -1412 1413 0
-1413 1587 0
169 -1413 1414 0
-1414 1588 0
170 -1414 1415 0
-1415 1589 0
171 -1415 1416 0
-1416 1590 0
172 -1416 1417 0
-1417 1591 0
173 -1417 1418 0
-1418 1592 0
174 -1418 1419 0
-1419 1593 0
175 -1419 1420 0
-1420 1594 0
176 -1420 1421 0
-1421 1595 0
177 -1421 1422 0
-1422 1596 0
178 -1422 1423 0
-1423 1597 0
179 -1423 1424 0
-1424 1598 0
180 -1424 0
7 1425 0
-1425 1599 0
8 -1425 1426 0
-1426 1600 0
9 -1426 1427 0
-1427 1601 0
10 -1427 1428 0
-1428 1602 0
11 -1428 1429 0
-1429 1603 0
12 -1429 1430 0
-1430 1604 0
13 -1430 1431 0
-1431 1605 0
14 -1431 1432 0
-1432 1606 0
15 -1432 1433 0
-1433 1607 0
16 -1433 1434 0
-1434 1608 0
17 -1434 1435 0
-1435 1609 0
18 -1435 1436 0
-1436 1610 0
19 -1436 1437 0
-1437 1611 0
20 -1437 1438 0
-1438 1612 0
21 -1438 1439 0
-1439 1613 0
22 -1439 1440 0
-1440 1614 0
23 -1440 1441 0
-1441 1615 0
24 -1441 1442 0
-1442 1616 0
25 -1442 1443 0
-1443 1617 0
26 -1443 1444 0
-1444 1618 0
27 -1444 1445 0
-1445 1619 0
28 -1445 1446 0
-1446 1620 0
29 -1446 1447 0
-1447 1621 0
30 -1447 1448 0
-1448 1622 0
31 -1448 1449 0
-1449 1623 0
32 -1449 1450 0
-1450 1624 0
33 -1450 1451 0
-1451 1625 0
34 -1451 1452 0
-1452 1626 0
35 -1452 1453 0
-1453 1627 0
36 -1453 1454 0
-1454 1628 0
37 -1454 1455 0
-1455 1629 0
38 -1455 1456 0
-1456 1630 0
39 -1456 1457 0
-1457 1631 0
40 -1457 1458 0
-1458 1632 0
41 -1458 1459 0
-1459 1633 0
42 -1459 1460 0
-1460 1634 0
43 -1460 1461 0
-1461 1635 0
44 -1461 1462 0
-1462 1636 0
45 -1462 1463 0
-1463 1637 0
46 -1463 1464 0
-1464 1638 0
47 -1464 1465 0
-1465 1639 0
48 -1465 1466 0
-1466 1640 0
49 -1466 1467 0
-1467 1641 0
50 -1467 1468 0
-1468 1642 0
51 -1468 1469 0
-1469 1643 0
52 -1469 1470 0
-1470 1644 0
53 -1470 1471 0
-1471 1645 0
54 -1471 1472 0
-1472 1646 0
55 -1472 1473 0
-1473 1647 0
56 -1473 1474 0
-1474 1648 0
57 -1474 1475 0
-1475 1649 0
58 -1475 1476 0
-1476 1650 0
59 -1476 1477 0
-1477 1651 0
60 -1477 1478 0
-1478 1652 0
61 -1478 1479 0
-1479 1653 0
62 -1479 1480 0
-1480 1654 0
63 -1480 1481 0
-1481 1655 0
64 -1481 1482 0
-1482 1656 0
65 -1482 1483 0
-1483 1657 0
66 -1483 1484 0
-1484 1658 0
67 -1484 1485 0
-1485 1659 0
68 -1485 1486 0
-1486 1660 0
69 -1486 1487 0
-1487 1661 0
70 -1487 1488 0
-1488 1662 0
71 -1488 1489 0
-1489 1663 0
72 -1489 1490 0
-1490 1664 0
73 -1490 1491 0
-1491 1665 0
74 -1491 1492 0
-1492 1666 0
75 -1492 1493 0
-1493 1667 0
76 -1493 1494 0
-1494 1668 0
77 -1494 1495 0
-1495 1669 0
78 -1495 1496 0
-1496 1670 0
79 -1496 1497 0
-1497 1671 0
80 -1497 1498 0
-1498 1672 0
81 -1498 1499 0
-1499 1673 0
82 -1499 1500 0
-1500 1674 0
83 -1500 1501 0
-1501 1675 0
84 -1501 1502 0
-1502 1676 0
85 -1502 1503 0
-1503 1677 0
86 -1503 1504 0
-1504 1678 0
87 -1504 1505 0
-1505 1679 0
88 -1505 1506 0
-1506 1680 0
89 -1506 1507 0
-1507 1681 0
90 -1507 1508 0
-1508 1682 0
91 -1508 1509 0
-1509 1683 0
92 -1509 1510 0
-1510 1684 0
93 -1510 1511 0
-1511 1685 0
94 -1511 1512 0
-1512 1686 0
95 -1512 1513 0
-1513 1687 0
96 -1513 1514 0
-1514 1688 0
97 -1514 1515 0
-1515 1689 0
98 -1515 1516 0
-1516 1690 0
99 -1516 1517 0
-1517 1691 0
100 -1517 1518 0
-1518 1692 0
101 -1518 1519 0
-1519 1693 0
102 -1519 1520 0
-1520 1694 0
103 -1520 1521 0
-1521 1695 0
104 -1521 1522 0
-1522 1696 0
105 -1522 1523 0
-1523 1697 0
106 -1523 1524 0
-1524 1698 0
107 -1524 1525 0
-1525 1699 0
108 -1525 1526 0
-1526 1700 0
109 -1526 1527 0
-1527 1701 0
110 -1527 1528 0
-1528 1702 0
111 -1528 1529 0
-1529 1703 0
112 -1529 1530 0
-1530 1704 0
113 -1530 1531 0
-1531 1705 0
114 -1531 1532 0
-1532 1706 0
115 -1532 1533 0
-1533 1707 0
116 -1533 1534 0
-1534 1708 0
117 -1534 1535 0
-1535 1709 0
118 -1535 1536 0
-1536 1710 0
119 -1536 1537 0
-1537 1711 0
120 -1537 1538 0
-1538 1712 0
121 -1538 1539 0
-1539 1713 0
122 -1539 1540 0
-1540 1714 0
123 -1540 1541 0
-1541 1715 0
124 -1541 1542 0
-1542 1716 0
125 -1542 1543 0
-1543 1717 0
126 -1543 1544 0
-1544 1718 0
127 -1544 1545 0
-1545 1719 0
128 -1545 1546 0
-1546 1720 0
129 -1546 1547 0
-1547 1721 0
130 -1547 1548 0
-1548 1722 0
131 -1548 1549 0
-1549 1723 0
132 -1549 1550 0
-1550 1724 0
133 -1550 1551 0
-1551 1725 0
134 -1551 1552 0
-1552 1726 0
135 -1552 1553 0
-1553 1727 0
136 -1553 1554 0
-1554 1728 0
137 -1554 1555 0
-1555 1729 0
138 -1555 1556 0
-1556 1730 0
139 -1556 1557 0
-1557 1731 0
140 -1557 1558 0
-1558 1732 0
141 -1558 1559 0
-1559 1733 0
142 -1559 1560 0
-1560 1734 0
143 -1560 1561 0
-1561 1735 0
144 -1561 1562 0
-1562 1736 0
145 -1562 1563 0
-1563 1737 0
146 -1563 1564 0
-1564 1738 0
147 -1564 1565 0
-1565 1739 0
148 -1565 1566 0
-1566 1740 0
149 -1566 1567 0
-1567 1741 0
150 -1567 1568 0
-1568 1742 0
151 -1568 1569 0
-1569 1743 0
152 -1569 1570 0
-1570 1744 0
153 -1570 1571 0
-1571 1745 0
154 -1571 1572 0
-1572 1746 0
155 -1572 1573 0
-1573 1747 0
156 -1573 1574 0
-1574 1748 0
157 -1574 1575 0
-1575 1749 0
158 -1575 1576 0
-1576 1750 0
159 -1576 1577 0
-1577 1751 0
160 -1577 1578 0
-1578 1752 0
161 -1578 1579 0
-1579 1753 0
162 -1579 1580 0
-1580 1754 0
163 -1580 1581 0
-1581 1755 0
164 -1581 1582 0
-1582 1756 0
165 -1582 1583 0
-1583 1757 0
166 -1583 1584 0
-1584 1758 0
167 -1584 1585 0
-1585 1759 0
168 -1585 1586 0
-1586 1760 0
169 -1586 1587 0
-1587 1761 0
170 -1587 1588 0
-1588 1762 0
171 -1588 1589 0
-1589 1763 0
172 -1589 1590 0
-1590 1764 0
173 -1590 1591 0
-1591 1765 0
174 -1591 1592 0
-1592 1766 0
175 -1592 1593 0
-1593 1767 0
176 -1593 1594 0
-1594 1768 0
177 -1594 1595 0
-1595 1769 0
178 -1595 1596 0
-1596 1770 0
179 -1596 1597 0
-1597 1771 0
180 -1597 1598 0
-1598 1772 0
181 -1598 0
8 1599 0
-1599 1773 0
9 -1599 1600 0
-1600 1774 0
10 -1600 1601 0
-1601 1775 0
11 -1601 1602 0
-1602 1776 0
12 -1602 1603 0
-1603 1777 0
13 -1603 1604 0
-1604 1778 0
14 -1604 1605 0
-1605 1779 0
15 -1605 1606 0
-1606 1780 0
16 -1606 1607 0
-1607 1781 0
17 -1607 1608 0
-1608 1782 0
18 -1608 1609 0
-1609 1783 0
19 -1609 1610 0
-1610 1784 0
20 -1610 1611 0
-1611 1785 0
21 -1611 1612 0
-1612 1786 0
22 -1612 1613 0
-1613 1787 0
23 -1613 1614 0
-1614 1788 0
24 -1614 1615 0
-1615 1789 0
25 -1615 1616 0
-1616 1790 0
26 -1616 1617 0
-1617 1791 0
27 -1617 1618 0
-1618 1792 0
28 -1618 1619 0
-1619 1793 0
29 -1619 1620 0
-1620 1794 0
30 -1620 1621 0
-1621 1795 0
31 -1621 1622 0
-1622 1796 0
32 -1622 1623 0
-1623 1797 0
33 -1623 1624 0
-1624 1798 0
34 -1624 1625 0
-1625 1799 0
35 -1625 1626 0
-1626 1800 0
36 -1626 1627 0
-1627 1801 0
37 -1627 1628 0
-1628 1802 0
38 -1628 1629 0
-1629 1803 0
39 -1629 1630 0
-1630 1804 0
40 -1630 1631 0
-1631 1805 0
41 -1631 1632 0
-1632 1806 0
42 -1632 1633 0
-1633 1807 0
43 -1633 1634 0
-1634 1808 0
44 -1634 1635 0
-1635 1809 0
45 -1635 1636 0
-1636 1810 0
46 -1636 1637 0
-1637 1811 0
47 -1637 1638 0
-1638 1812 0
48 -1638 1639 0
-1639 1813 0
49 -1639 1640 0
-1640 1814 0
50 -1640 1641 0
-1641 1815 0
51 -1641 1642 0
-1642 1816 0
52 -1642 1643 0
-1643 1817 0
53 -1643 1644 0
-1644 1818 0
54 -1644 1645 0
-1645 1819 0
55 -1645 1646 0
-1646 1820 0
56 -1646 1647 0
-1647 1821 0
57 -1647 1648 0
-1648 1822 0
58 -1648 1649 0
-1649 1823 0
59 -1649 1650 0
-1650 1824 0
60 -1650 1651 0
-1651 1825 0
61 -1651 1652 0
-1652 1826 0
62 -1652 1653 0
-1653 1827 0
63 -1653 1654 0
-1654 1828 0
64 -1654 1655 0
-1655 1829 0
65 -1655 1656 0
-1656 1830 0
66 -1656 1657 0
-1657 1831 0
67 -1657 1658 0
-1658 1832 0
68 -1658 1659 0
-1659 1833 0
69 -1659 1660 0
-1660 1834 0
70 -1660 1661 0
-1661 1835 0
71 -1661 1662 0
-1662 1836 0
72 -1662 1663 0
-1663 1837 0
73 -1663 1664 0
-1664 1838 0
74 -1664 1665 0
-1665 1839 0
75 -1665 1666 0
-1666 1840 0
76 -1666 1667 0
-1667 1841 0
77 -1667 1668 0
-1668 1842 0
78 -1668 1669 0
-1669 1843 0
79 -1669 1670 0
-1670 1844 0
80 -1670 1671 0
-1671 1845 0
81 -1671 1672 0
-1672 1846 0
82 -1672 1673 0
-1673 1847 0
83 -1673 1674 0
-1674 1848 0
84 -1674 1675 0
-1675 1849 0
85 -1675 1676 0
-1676 1850 0
86 -1676 1677 0
-1677 1851 0
87 -1677 1678 0
-1678 1852 0
88 -1678 1679 0
-1679 1853 0
89 -1679 1680 0
-1680 1854 0
90 -1680 1681 0
-1681 1855 0
91 -1681 1682 0
-1682 1856 0
92 -1682 1683 0
-1683 1857 0
93 -1683 1684 0
-1684 1858 0
94 -1684 1685 0
-1685 1859 0
95 -1685 1686 0
-1686 1860 0
96 -1686 1687 0
-1687 1861 0
97 -1687 1688 0
-1688 1862 0
98 -1688 1689 0
-1689 1863 0
99 -1689 1690 0
-1690 1864 0
100 -1690 1691 0
-1691 1865 0
101 -1691 1692 0
-1692 1866 0
102 -1692 1693 0
-1693 1867 0
103 -1693 1694 0
-1694 1868 0
104 -1694 1695 0
-1695 1869 0
105 -1695 1696 0
-1696 1870 0
106 -1696 1697 0
-1697 1871 0
107 -1697 1698 0
-1698 1872 0
108 -1698 1699 0
-1699 1873 0
109 -1699 1700 0
-1700 1874 0
110 -1700 1701 0
-1701 1875 0
111 -1701 1702 0
-1702 1876 0
112 -1702 1703 0
-1703 1877 0
113 -1703 1704 0
-1704 1878 0
114 -1704 1705 0
-1705 1879 0
115 -1705 1706 0
-1706 1880 0
116 -1706 1707 0
-1707 1881 0
117 -1707 1708 0
-1708 1882 0
118 -1708 1709 0
-1709 1883 0
119 -1709 1710 0
-1710 1884 0
120 -1710 1711 0
-1711 1885 0
121 -1711 1712 0
-1712 1886 0
122 -1712 1713 0
-1713 1887 0
123 -1713 1714 0
-1714 1888 0
124 -1714 1715 0
-1715 1889 0
125 -1715 1716 0
-1716 1890 0
126 -1716 1717 0
-1717 1891 0
127 -1717 1718 0
-1718 1892 0
128 -1718 1719 0
-1719 1893 0
129 -1719 1720 0
-1720 1894 0
130 -1720 1721 0
-1721 1895 0
131 -1721 1722 0
-1722 1896 0
132 -1722 1723 0
-1723 1897 0
133 -1723 1724 0
-1724 1898 0
134 -1724 1725 0
-1725 1899 0
135 -1725 1726 0
-1726 1900 0
136 -1726 1727 0
-1727 1901 0
137 -1727 1728 0
-1728 1902 0
138 -1728 1729 0
-1729 1903 0
139 -1729 1730 0
-1730 1904 0
140 -1730 1731 0
-1731 1905 0
141 -1731 1732 0
-1732 1906 0
142 -1732 1733 0
-1733 1907 0
143 -1733 1734 0
-1734 1908 0
144 -1734 1735 0
-1735 1909 0
145 -1735 1736 0
-1736 1910 0
146 -1736 1737 0
-1737 1911 0
147 -1737 1738 0
-1738 1912 0
148 -1738 1739 0
-1739 1913 0
149 -1739 1740 0
-1740 1914 0
150 -1740 1741 0
-1741 1915 0
151 -1741 1742 0
-1742 1916 0
152 -1742 1743 0
-1743 1917 0
153 -1743 1744 0
-1744 1918 0
154 -1744 1745 0
-1745 1919 0
155 -1745 1746 0
-1746 1920 0
156 -1746 1747 0
-1747 1921 0
157 -1747 1748 0
-1748 1922 0
158 -1748 1749 0
-1749 1923 0
159 -1749 1750 0
-1750 1924 0
160 -1750 1751 0
-1751 1925 0
161 -1751 1752 0
-1752 1926 0
162 -1752 1753 0
-1753 1927 0
163 -1753 1754 0
-1754 1928 0
164 -1754 1755 0
-1755 1929 0
165 -1755 1756 0
-1756 1930 0
166 -1756 1757 0
-1757 1931 0
167 -1757 1758 0
-1758 1932 0
168 -1758 1759 0
-1759 1933 0
169 -1759 1760 0
-1760 1934 0
170 -1760 1761 0
-1761 1935 0
171 -1761 1762 0
-1762 1936 0
172 -1762 1763 0
-1763 1937 0
173 -1763 1764 0
-1764 1938 0
174 -1764 1765 0
-1765 1939 0
175 -1765 1766 0
-1766 1940 0
176 -1766 1767 0
-1767 1941 0
177 -1767 1768 0
-1768 1942 0
178 -1768 1769 0
-1769 1943 0
179 -1769 1770 0
-1770 1944 0
180 -1770 1771 0
-1771 1945 0
181 -1771 1772 0
-1772 1946 0
182 -1772 0
9 1773 0
-1773 1947 0
10 -1773 1774 0
-1774 1948 0
11 -1774 1775 0
-1775 1949 0
12 -1775 1776 0
-1776 1950 0
13 -1776 1777 0
-1777 1951 0
14 -1777 1778 0
-1778 1952 0
15 -1778 1779 0
-1779 1953 0
16 -1779 1780 0
-1780 1954 0
17 -1780 1781 0
-1781 1955 0
18 -1781 1782 0
-1782 1956 0
19 -1782 1783 0
-1783 1957 0
20 -1783 1784 0
-1784 1958 0
21 -1784 1785 0
-1785 1959 0
22 -1785 1786 0
-1786 1960 0
23 -1786 1787 0
-1787 1961 0
24 -1787 1788 0
-1788 1962 0
25 -1788 1789 0
-1789 1963 0
26 -1789 1790 0
-1790 1964 0
27 -1790 1791 0
-1791 1965 0
28 -1791 1792 0
-1792 1966 0
29 -1792 1793 0
-1793 1967 0
30 -1793 1794 0
-1794 1968 0
31 -1794 1795 0
-1795 1969 0
32 -1795 1796 0
-1796 1970 0
33 -1796 1797 0
-1797 1971 0
34 -1797 1798 0
-1798 1972 0
35 -1798 1799 0
-1799 1973 0
36 -1799 1800 0
-1800 1974 0
37 -1800 1801 0
-1801 1975 0
38 -1801 1802 0
-1802 1976 0
39 -1802 1803 0
-1803 1977 0
40 -1803 1804 0
-1804 1978 0
41 -1804 1805 0
-1805 1979 0
42 -1805 1806 0
-1806 1980 0
43 -1806 1807 0
-1807 1981 0
44 -1807 1808 0
-1808 1982 0
45 -1808 1809 0
-1809 1983 0
46 -1809 1810 0
-1810 1984 0
47 -1810 1811 0
-1811 1985 0
48 -1811 1812 0
-1812 1986 0
49 -1812 1813 0
-1813 1987 0
50 -1813 1814 0
-1814 1988 0
51 -1814 1815 0
-1815 1989 0
52 -1815 1816 0
-1816 1990 0
53 -1816 1817 0
-1817 1991 0
54 -1817 1818 0
-1818 1992 0
55 -1818 1819 0
-1819 1993 0
56 -1819 1820 0
-1820 1994 0
57 -1820 1821 0
-1821 1995 0
58 -1821 1822 0
-1822 1996 0
59 -1822 1823 0
-1823 1997 0
60 -1823 1824 0
-1824 1998 0
61 -1824 1825 0
-1825 1999 0
62 -1825 1826 0
-1826 2000 0
63 -1826 1827 0
-1827 2001 0
64 -1827 1828 0
-1828 2002 0
65 -1828 1829 0
-1829 2003 0
66 -1829 1830 0
-1830 2004 0
67 -1830 1831 0
-1831 2005 0
68 -1831 1832 0
-1832 2006 0
69 -1832 1833 0
-1833 2007 0
70 -1833 1834 0
-1834 2008 0
71 -1834 1835 0
-1835 2009 0
72 -1835 1836 0
-1836 2010 0
73 -1836 1837 0
-1837 2011 0
74 -1837 1838 0
-1838 2012 0
75 -1838 1839 0
-1839 2013 0
76 -1839 1840 0
-1840 2014 0
77 -1840 1841 0
-1841 2015 0
78 -1841 1842 0
-1842 2016 0
79 -1842 1843 0
-1843 2017 0
80 -1843 1844 0
-1844 2018 0
81 -1844 1845 0
-1845 2019 0
82 -1845 1846 0
-1846 2020 0
83 -1846 1847 0
-1847 2021 0
84 -1847 1848 0
-1848 2022 0
85 -1848 1849 0
-1849 2023 0
86 -1849 1850 0
-1850 2024 0
87 -1850 1851 0
-1851 2025 0
88 -1851 1852 0
-1852 2026 0
89 -1852 1853 0
-1853 2027 0
90 -1853 1854 0
-1854 2028 0
91 -1854 1855 0
-1855 2029 0
92 -1855 1856 0
-1856 2030 0
93 -1856 1857 0
-1857 2031 0
94 -1857 1858 0
-1858 2032 0
95 -1858 1859 0
-1859 2033 0
96 -1859 1860 0
-1860 2034 0
97 -1860 1861 0
-1861 2035 0
98 -1861 1862 0
-1862 2036 0
99 -1862 1863 0
-1863 2037 0
100 -1863 1864 0
-1864 2038 0
101 -1864 1865 0
-1865 2039 0
102 -1865 1866 0
-1866 2040 0
103 -1866 1867 0
-1867 2041 0
104 -1867 1868 0
-1868 2042 0
105 -1868 1869 0
-1869 2043 0
106 -1869 1870 0
-1870 2044 0
107 -1870 1871 0
-1871 2045 0
108 -1871 1872 0
-1872 2046 0
109 -1872 1873 0
-1873 2047 0
110 -1873 1874 0
-1874 2048 0
111 -1874 1875 0
-1875 2049 0
112 -1875 1876 0
-1876 2050 0
113 -1876 1877 0
-1877 2051 0
114 -1877 1878 0
-1878 2052 0
115 -1878 1879 0
-1879 2053 0
116 -1879 1880 0
-1880 2054 0
117 -1880 1881 0
-1881 2055 0
118 -1881 1882 0
-1882 2056 0
119 -1882 1883 0
-1883 2057 0
120 -1883 1884 0
-1884 2058 0
121 -1884 1885 0
-1885 2059 0
122 -1885 1886 0
-1886 2060 0
123 -1886 1887 0
-1887 2061 0
124 -1887 1888 0
-1888 2062 0
125 -1888 1889 0
-1889 2063 0
126 -1889 1890 0
-1890 2064 0
127 -1890 1891 0
-1891 2065 0
128 -1891 1892 0
-1892 2066 0
129 -1892 1893 0
-1893 2067 0
130 -1893 1894 0
-1894 2068 0
131 -1894 1895 0
-1895 2069 0
132 -1895 1896 0
-1896 2070 0
133 -1896 1897 0
-1897 2071 0
134 -1897 1898 0
-1898 2072 0
135 -1898 1899 0
-1899 2073 0
136 -1899 1900 0
-1900 2074 0
137 -1900 1901 0
-1901 2075 0
138 -1901 1902 0
-1902 2076 0
139 -1902 1903 0
-1903 2077 0
140 -1903 1904 0
-1904 2078 0
141 -1904 1905 0
-1905 2079 0
142 -1905 1906 0
-1906 2080 0
143 -1906 1907 0
-1907 2081 0
144 -1907 1908 0
-1908 2082 0
145 -1908 1909 0
-1909 2083 0
146 -1909 1910 0
-1910 2084 0
147 -1910 1911 0
-1911 2085 0
148 -1911 1912 0
-1912 2086 0
149 -1912 1913 0
-1913 2087 0
150 -1913 1914 0
-1914 2088 0
151 -1914 1915 0
-1915 2089 0
152 -1915 1916 0
-1916 2090 0
153 -1916 1917 0
-1917 2091 0
154 -1917 1918 0
-1918 2092 0
155 -1918 1919 0
-1919 2093 0
156 -1919 1920 0
-1920 2094 0
157 -1920 1921 0
-1921 2095 0
158 -1921 1922 0
-1922 2096 0
159 -1922 1923 0
-1923 2097 0
160 -1923 1924 0
-1924 2098 0
161 -1924 1925 0
-1925 2099 0
162 -1925 1926 0
-1926 2100 0
163 -1926 1927 0
-1927 2101 0
164 -1927 1928 0
-1928 2102 0
165 -1928 1929 0
-1929 2103 0
166 -1929 1930 0
-1930 2104 0
167 -1930 1931 0
-1931 2105 0
168 -1931 1932 0
-1932 2106 0
169 -1932 1933 0
-1933 2107 0
170 -1933 1934 0
-1934 2108 0
171 -1934 1935 0
-1935 2109 0
172 -1935 1936 0
-1936 2110 0
173 -1936 1937 0
-1937 2111 0
174 -1937 1938 0
-1938 2112 0
175 -1938 1939 0
-1939 2113 0
176 -1939 1940 0
-1940 2114 0
177 -1940 1941 0
-1941 2115 0
178 -1941 1942 0
-1942 2116 0
179 -1942 1943 0
-1943 2117 0
180 -1943 1944 0
-1944 2118 0
181 -1944 1945 0
-1945 2119 0
182 -1945 1946 0
-1946 2120 0
183 -1946 0
10 1947 0
-1947 2121 0
11 -1947 1948 0
-1948 2122 0
12 -1948 1949 0
-1949 2123 0
13 -1949 1950 0
-1950 2124 0
14 -1950 1951 0
-1951 2125 0
15 -1951 1952 0
-1952 2126 0
16 -1952 1953 0
-1953 2127 0
17 -1953 1954 0
-1954 2128 0
18 -1954 1955 0
-1955 2129 0
19 -1955 1956 0
-1956 2130 0
20 -1956 1957 0
-1957 2131 0
21 -1957 1958 0
-1958 2132 0
22 -1958 1959 0
-1959 2133 0
23 -1959 1960 0
-1960 2134 0
24 -1960 1961 0
-1961 2135 0
25 -1961 1962 0
-1962 2136 0
26 -1962 1963 0
-1963 2137 0
27 -1963 1964 0
-1964 2138 0
28 -1964 1965 0
-1965 2139 0
29 -1965 1966 0
-1966 2140 0
30 -1966 1967 0
-1967 2141 0
31 -1967 1968 0
-1968 2142 0
32 -1968 1969 0
-1969 2143 0
33 -1969 1970 0
-1970 2144 0
34 -1970 1971 0
-1971 2145 0
35 -1971 1972 0
-1972 2146 0
36 -1972 1973 0
-1973 2147 0
37 -1973 1974 0
-1974 2148 0
38 -1974 1975 0
-1975 2149 0
39 -1975 1976 0
-1976 2150 0
40 -1976 1977 0
-1977 2151 0
41 -1977 1978 0
-1978 2152 0
42 -1978 1979 0
-1979 2153 0
43 -1979 1980 0
-1980 2154 0
44 -1980 1981 0
-1981 2155 0
45 -1981 1982 0
-1982 2156 0
46 -1982 1983 0
-1983 2157 0
47 -1983 1984 0
-1984 2158 0
48 -1984 1985 0
-1985 2159 0
49 -1985 1986 0
-1986 2160 0
50 -1986 1987 0
-1987 2161 0
51 -1987 1988 0
-1988 2162 0
52 -1988 1989 0
-1989 2163 0
53 -1989 1990 0
-1990 2164 0
54 -1990 1991 0
-1991 2165 0
55 -1991 1992 0
-1992 2166 0
56 -1992 1993 0
-1993 2167 0
57 -1993 1994 0
-1994 2168 0
58 -1994 1995 0
-1995 2169 0
59 -1995 1996 0
-1996 2170 0
60 -1996 1997 0
-1997 2171 0
61 -1997 1998 0
-1998 2172 0
62 -1998 1999 0
-1999 2173 0
63 -1999 2000 0
-2000 2174 0
64 -2000 2001 0
-2001 2175 0
65 -2001 2002 0
-2002 2176 0
66 -2002 2003 0
-2003 2177 0
67 -2003 2004 0
-2004 2178 0
68 -2004 2005 0
-2005 2179 0
69 -2005 2006 0
-2006 2180 0
70 -2006 2007 0
-2007 2181 0
71 -2007 2008 0
-2008 2182 0
72 -2008 2009 0
-2009 2183 0
73 -2009 2010 0
-2010 2184 0
74 -2010 2011 0
-2011 2185 0
75 -2011 2012 0
-2012 2186 0
76 -2012 2013 0
-2013 2187 0
77 -2013 2014 0
-2014 2188 0
78 -2014 2015 0
-2015 2189 0
79 -2015 2016 0
-2016 2190 0
80 -2016 2017 0
-2017 2191 0
81 -2017 2018 0
-2018 2192 0
82 -2018 2019 0
-2019 2193 0
83 -2019 2020 0
-2020 2194 0
84 -2020 2021 0
-2021 2195 0
85 -2021 2022 0
-2022 2196 0
86 -2022 2023 0
-2023 2197 0
87 -2023 2024 0
-2024 2198 0
88 -2024 2025 0
-2025 2199 0
89 -2025 2026 0
-2026 2200 0
90 -2026 2027 0
-2027 2201 0
91 -2027 2028 0
-2028 2202 0
92 -2028 2029 0
-2029 2203 0
93 -2029 2030 0
-2030 2204 0
94 -2030 2031 0
-2031 2205 0
95 -2031 2032 0
-2032 2206 0
96 -2032 2033 0
-2033 2207 0
97 -2033 2034 0
-2034 2208 0
98 -2034 2035 0
-2035 2209 0
99 -2035 2036 0
-2036 2210 0
100 -2036 2037 0
-2037 2211 0
101 -2037 2038 0
-2038 2212 0
102 -2038 2039 0
-2039 2213 0
103 -2039 2040 0
-2040 2214 0
104 -2040 2041 0
-2041 2215 0
105 -2041 2042 0
-2042 2216 0
106 -2042 2043 0
-2043 2217 0
107 -2043 2044 0
-2044 2218 0
108 -2044 2045 0
-2045 2219 0
109 -2045 2046 0
-2046 2220 0
110 -2046 2047 0
-2047 2221 0
111 -2047 2048 0
-2048 2222 0
112 -2048 2049 0
-2049 2223 0
113 -2049 2050 0
-2050 2224 0
114 -2050 2051 0
-2051 2225 0
115 -2051 2052 0
-2052 2226 0
116 -2052 2053 0
-2053 2227 0
117 -2053 2054 0
-2054 2228 0
118 -2054 2055 0
-2055 2229 0
119 -2055 2056 0
-2056 2230 0
120 -2056 2057 0
-2057 2231 0
121 -2057 2058 0
-2058 2232 0
122 -2058 2059 0
-2059 2233 0
123 -2059 2060 0
-2060 2234 0
124 -2060 2061 0
-2061 2235 0
125 -2061 2062 0
-2062 2236 0
126 -2062 2063 0
-2063 2237 0
127 -2063 2064 0
-2064 2238 0
128 -2064 2065 0
-2065 2239 0
129 -2065 2066 0
-2066 2240 0
130 -2066 2067 0
-2067 2241 0
131 -2067 2068 0
-2068 2242 0
132 -2068 2069 0
-2069 2243 0
133 -2069 2070 0
-2070 2244 0
134 -2070 2071 0
-2071 2245 0
135 -2071 2072 0
-2072 2246 0
136 -2072 2073 0
-2073 2247 0
137 -2073 2074 0
-2074 2248 0
138 -2074 2075 0
-2075 2249 0
139 -2075 2076 0
-2076 2250 0
140 -2076 2077 0
-2077 2251 0
141 -2077 2078 0
-2078 2252 0
142 -2078 2079 0
-2079 2253 0
143 -2079 2080 0
-2080 2254 0
144 -2080 2081 0
-2081 2255 0
145 -2081 2082 0
-2082 2256 0
146 -2082 2083 0
-2083 2257 0
147 -2083 2084 0
-2084 2258 0
148 -2084 2085 0
-2085 2259 0
149 -2085 2086 0
-2086 2260 0
150 -2086 2087 0
-2087 2261 0
151 -2087 2088 0
-2088 2262 0
152 -2088 2089 0
-2089 2263 0
153 -2089 2090 0
-2090 2264 0
154 -2090 2091 0
-2091 2265 0
155 -2091 2092 0
-2092 2266 0
156 -2092 2093 0
-2093 2267 0
157 -2093 2094 0
-2094 2268 0
158 -2094 2095 0
-2095 2269 0
159 -2095 2096 0
-2096 2270 0
160 -2096 2097 0
-2097 2271 0
161 -2097 2098 0
-2098 2272 0
162 -2098 2099 0
-2099 2273 0
163 -2099 2100 0
-2100 2274 0
164 -2100 2101 0
-2101 2275 0
165 -2101 2102 0
-2102 2276 0
166 -2102 2103 0
-2103 2277 0
167 -2103 2104 0
-2104 2278 0
168 -2104 2105 0
-2105 2279 0
169 -2105 2106 0
-2106 2280 0
170 -2106 2107 0
-2107 2281 0
171 -2107 2108 0
-2108 2282 0
172 -2108 2109 0
-2109 2283 0
173 -2109 2110 0
-2110 2284 0
174 -2110 2111 0
-2111 2285 0
175 -2111 2112 0
-2112 2286 0
176 -2112 2113 0
-2113 2287 0
177 -2113 2114 0
-2114 2288 0
178 -2114 2115 0
-2115 2289 0
179 -2115 2116 0
-2116 2290 0
180 -2116 2117 0
-2117 2291 0
181 -2117 2118 0
-2118 2292 0
182 -2118 2119 0
-2119 2293 0
183 -2119 2120 0
-2120 2294 0
184 -2120 0
11 2121 0
-2121 2295 0
12 -2121 2122 0
-2122 2296 0
13 -2122 2123 0
-2123 2297 0
14 -2123 2124 0
-2124 2298 0
15 -2124 2125 0
-2125 2299 0
16 -2125 2126 0
-2126 2300 0
17 -2126 2127 0
-2127 2301 0
18 -2127 2128 0
-2128 2302 0
19 -2128 2129 0
-2129 2303 0
20 -2129 2130 0
-2130 2304 0
21 -2130 2131 0
-2131 2305 0
22 -2131 2132 0
-2132 2306 0
23 -2132 2133 0
-2133 2307 0
24 -2133 2134 0
-2134 2308 0
25 -2134 2135 0
-2135 2309 0
26 -2135 2136 0
-2136 2310 0
27 -2136 2137 0
-2137 2311 0
28 -2137 2138 0
-2138 2312 0
29 -2138 2139 0
-2139 2313 0
30 -2139 2140 0
-2140 2314 0
31 -2140 2141 0
-2141 2315 0
32 -2141 2142 0
-2142 2316 0
33 -2142 2143 0
-2143 2317 0
34 -2143 2144 0
-2144 2318 0
35 -2144 2145 0
-2145 2319 0
36 -2145 2146 0
-2146 2320 0
37 -2146 2147 0
-2147 2321 0
38 -2147 2148 0
-2148 2322 0
39 -2148 2149 0
-2149 2323 0
40 -2149 2150 0
-2150 2324 0
41 -2150 2151 0
-2151 2325 0
42 -2151 2152 0
-2152 2326 0
43 -2152 2153 0
-2153 2327 0
44 -2153 2154 0
-2154 2328 0
45 -2154 2155 0
-2155 2329 0
46 -2155 2156 0
-2156 2330 0
47 -2156 2157 0
-2157 2331 0
48 -2157 2158 0
-2158 2332 0
49 -2158 2159 0
-2159 2333 0
50 -2159 2160 0
-2160 2334 0
51 -2160 2161 0
-2161 2335 0
52 -2161 2162 0
-2162 2336 0
53 -2162 2163 0
-2163 2337 0
54 -2163 2164 0
-2164 2338 0
55 -2164 2165 0
-2165 2339 0
56 -2165 2166 0
-2166 2340 0
57 -2166 2167 0
-2167 2341 0
58 -2167 2168 0
-2168 2342 0
59 -2168 2169 0
-2169 2343 0
60 -2169 2170 0
-2170 2344 0
61 -2170 2171 0
-2171 2345 0
62 -2171 2172 0
-2172 2346 0
63 -2172 2173 0
-2173 2347 0
64 -2173 2174 0
-2174 2348 0
65 -2174 2175 0
-2175 2349 0
66 -2175 2176 0
-2176 2350 0
67 -2176 2177 0
-2177 2351 0
68 -2177 2178 0
-2178 2352 0
69 -2178 2179 0
-2179 2353 0
70 -2179 2180 0
-2180 2354 0
71 -2180 2181 0
-2181 2355 0
72 -2181 2182 0
-2182 2356 0
73 -2182 2183 0
-2183 2357 0
74 -2183 2184 0
-2184 2358 0
75 -2184 2185 0
-2185 2359 0
76 -2185 2186 0
-2186 2360 0
77 -2186 2187 0
-2187 2361 0
78 -2187 2188 0
-2188 2362 0
79 -2188 2189 0
-2189 2363 0
80 -2189 2190 0
-2190 2364 0
81 -2190 2191 0
-2191 2365 0
82 -2191 2192 0
-2192 2366 0
83 -2192 2193 0
-2193 2367 0
84 -2193 2194 0
-2194 2368 0
85 -2194 2195 0
-2195 2369 0
86 -2195 2196 0
-2196 2370 0
87 -2196 2197 0
-2197 2371 0
88 -2197 2198 0
-2198 2372 0
89 -2198 2199 0
-2199 2373 0
90 -2199 2200 0
-2200 2374 0
91 -2200 2201 0
-2201 2375 0
92 -2201 2202 0
-2202 2376 0
93 -2202 2203 0
-2203 2377 0
94 -2203 2204 0
-2204 2378 0
95 -2204 2205 0
-2205 2379 0
96 -2205 2206 0
-2206 2380 0
97 -2206 2207 0
-2207 2381 0
98 -2207 2208 0
-2208 2382 0
99 -2208 2209 0
-2209 2383 0
100 -2209 2210 0
-2210 2384 0
101 -2210 2211 0
-2211 2385 0
102 -2211 2212 0
-2212 2386 0
103 -2212 2213 0
-2213 2387 0
104 -2213 2214 0
-2214 2388 0
105 -2214 2215 0
-2215 2389 0
106 -2215 2216 0
-2216 2390 0
107 -2216 2217 0
-2217 2391 0
108 -2217 2218 0
-2218 2392 0
109 -2218 2219 0
-2219 2393 0
110 -2219 2220 0
-2220 2394 0
111 -2220 2221 0
-2221 2395 0
112 -2221 2222 0
-2222 2396 0
113 -2222 2223 0
-2223 2397 0
114 -2223 2224 0
-2224 2398 0
115 -2224 2225 0
-2225 2399 0
116 -2225 2226 0
-2226 2400 0
117 -2226 2227 0
-2227 2401 0
118 -2227 2228 0
-2228 2402 0
119 -2228 2229 0
-2229 2403 0
120 -2229 2230 0
-2230 2404 0
121 -2230 2231 0
-2231 2405 0
122 -2231 2232 0
-2232 2406 0
123 -2232 2233 0
-2233 2407 0
124 -2233 2234 0
-2234 2408 0
125 -2234 2235 0
-2235 2409 0
126 -2235 2236 0
-2236 2410 0
127 -2236 2237 0
-2237 2411 0
128 -2237 2238 0
-2238 2412 0
129 -2238 2239 0
-2239 2413 0
130 -2239 2240 0
-2240 2414 0
131 -2240 2241 0
-2241 2415 0
132 -2241 2242 0
-2242 2416 0
133 -2242 2243 0
-2243 2417 0
134 -2243 2244 0
-2244 2418 0
135 -2244 2245 0
-2245 2419 0
136 -2245 2246 0
-2246 2420 0
137 -2246 2247 0
-2247 2421 0
138 -2247 2248 0
-2248 2422 0
139 -2248 2249 0
-2249 2423 0
140 -2249 2250 0
-2250 2424 0
141 -2250 2251 0
-2251 2425 0
142 -2251 2252 0
-2252 2426 0
143 -2252 2253 0
-2253 2427 0
144 -2253 2254 0
-2254 2428 0
145 -2254 2255 0
-2255 2429 0
146 -2255 2256 0
-2256 2430 0
147 -2256 2257 0
-2257 2431 0
148 -2257 2258 0
-2258 2432 0
149 -2258 2259 0
-2259 2433 0
150 -2259 2260 0
-2260 2434 0
151 -2260 2261 0
-2261 2435 0
152 -2261 2262 0
-2262 2436 0
153 -2262 2263 0
-2263 2437 0
154 -2263 2264 0
-2264 2438 0
155 -2264 2265 0
-2265 2439 0
156 -2265 2266 0
-2266 2440 0
157 -2266 2267 0
-2267 2441 0
158 -2267 2268 0
-2268 2442 0
159 -2268 2269 0
-2269 2443 0
160 -2269 2270 0
-2270 2444 0
161 -2270 2271 0
-2271 2445 0
162 -2271 2272 0
-2272 2446 0
163 -2272 2273 0
-2273 2447 0
164 -2273 2274 0
-2274 2448 0
165 -2274 2275 0
-2275 2449 0
166 -2275 2276 0
-2276 2450 0
167 -2276 2277 0
-2277 2451 0
168 -2277 2278 0
-2278 2452 0
169 -2278 2279 0
-2279 2453 0
170 -2279 2280 0
-2280 2454 0
171 -2280 2281 0
-2281 2455 0
172 -2281 2282 0
-2282 2456 0
173 -2282 2283 0
-2283 2457 0
174 -2283 2284 0
-2284 2458 0
175 -2284 2285 0
-2285 2459 0
176 -2285 2286 0
-2286 2460 0
177 -2286 2287 0
-2287 2461 0
178 -2287 2288 0
-2288 2462 0
179 -2288 2289 0
-2289 2463 0
180 -2289 2290 0
-2290 2464 0
181 -2290 2291 0
-2291 2465 0
182 -2291 2292 0
-2292 2466 0
183 -2292 2293 0
-2293 2467 0
184 -2293 2294 0
-2294 2468 0
185 -2294 0
12 2295 0
-2295 2469 0
13 -2295 2296 0
-2296 2470 0
14 -2296 2297 0
-2297 2471 0
15 -2297 2298 0
-2298 2472 0
16 -2298 2299 0
-2299 2473 0
17 -2299 2300 0
-2300 2474 0
18 -2300 2301 0
-2301 2475 0
19 -2301 2302 0
-2302 2476 0
20 -2302 2303 0
-2303 2477 0
21 -2303 2304 0
-2304 2478 0
22 -2304 2305 0
-2305 2479 0
23 -2305 2306 0
-2306 2480 0
24 -2306 2307 0
-2307 2481 0
25 -2307 2308 0
-2308 2482 0
26 -2308 2309 0
-2309 2483 0
27 -2309 2310 0
-2310 2484 0
28 -2310 2311 0
-2311 2485 0
29 -2311 2312 0
-2312 2486 0
30 -2312 2313 0
-2313 2487 0
31 -2313 2314 0
-2314 2488 0
32 -2314 2315 0
-2315 2489 0
33 -2315 2316 0
-2316 2490 0
34 -2316 2317 0
-2317 2491 0
35 -2317 2318 0
-2318 2492 0
36 -2318 2319 0
-2319 2493 0
37 -2319 2320 0
-2320 2494 0
38 -2320 2321 0
-2321 2495 0
39 -2321 2322 0
-2322 2496 0
40 -2322 2323 0
-2323 2497 0
41 -2323 2324 0
-2324 2498 0
42 -2324 2325 0
-2325 2499 0
43 -2325 2326 0
-2326 2500 0
44 -2326 2327 0
-2327 2501 0
45 -2327 2328 0
-2328 2502 0
46 -2328 2329 0
-2329 2503 0
47 -2329 2330 0
-2330 2504 0
48 -2330 2331 0
-2331 2505 0
49 -2331 2332 0
-2332 2506 0
50 -2332 2333 0
-2333 2507 0
51 -2333 2334 0
-2334 2508 0
52 -2334 2335 0
-2335 2509 0
53 -2335 2336 0
-2336 2510 0
54 -2336 2337 0
-2337 2511 0
55 -2337 2338 0
-2338 2512 0
56 -2338 2339 0
-2339 2513 0
57 -2339 2340 0
-2340 2514 0
58 -2340 2341 0
-2341 2515 0
59 -2341 2342 0
-2342 2516 0
60 -2342 2343 0
-2343 2517 0
61 -2343 2344 0
-2344 2518 0
62 -2344 2345 0
-2345 2519 0
63 -2345 2346 0
-2346 2520 0
64 -2346 2347 0
-2347 2521 0
65 -2347 2348 0
-2348 2522 0
66 -2348 2349 0
-2349 2523 0
67 -2349 2350 0
-2350 2524 0
68 -2350 2351 0
-2351 2525 0
69 -2351 2352 0
-2352 2526 0
70 -2352 2353 0
-2353 2527 0
71 -2353 2354 0
-2354 2528 0
72 -2354 2355 0
-2355 2529 0
73 -2355 2356 0
-2356 2530 0
74 -2356 2357 0
-2357 2531 0
75 -2357 2358 0
-2358 2532 0
76 -2358 2359 0
-2359 2533 0
77 -2359 2360 0
-2360 2534 0
78 -2360 2361 0
-2361 2535 0
79 -2361 2362 0
-2362 2536 0
80 -2362 2363 0
-2363 2537 0
81 -2363 2364 0
-2364 2538 0
82 -2364 2365 0
-2365 2539 0
83 -2365 2366 0
-2366 2540 0
84 -2366 2367 0
-2367 2541 0
85 -2367 2368 0
-2368 2542 0
86 -2368 2369 0
-2369 2543 0
87 -2369 2370 0
-2370 2544 0
88 -2370 2371 0
-2371 2545 0
89 -2371 2372 0
-2372 2546 0
90 -2372 2373 0
-2373 2547 0
91 -2373 2374 0
-2374 2548 0
92 -2374 2375 0
-2375 2549 0
93 -2375 2376 0
-2376 2550 0
94 -2376 2377 0
-2377 2551 0
95 -2377 2378 0
-2378 2552 0
96 -2378 2379 0
-2379 2553 0
97 -2379 2380 0
-2380 2554 0
98 -2380 2381 0
-2381 2555 0
99 -2381 2382 0
-2382 2556 0
100 -2382 2383 0
-2383 2557 0
101 -2383 2384 0
-2384 2558 0
102 -2384 2385 0
-2385 2559 0
103 -2385 2386 0
-2386 2560 0
104 -2386 2387 0
-2387 2561 0
105 -2387 2388 0
-2388 2562 0
106 -2388 2389 0
-2389 2563 0
107 -2389 2390 0
-2390 2564 0
108 -2390 2391 0
-2391 2565 0
109 -2391 2392 0
-2392 2566 0
110 -2392 2393 0
-2393 2567 0
111 -2393 2394 0
-2394 2568 0
112 -2394 2395 0
-2395 2569 0
113 -2395 2396 0
-2396 2570 0
114 -2396 2397 0
-2397 2571 0
115 -2397 2398 0
-2398 2572 0
116 -2398 2399 0
-2399 2573 0
117 -2399 2400 0
-2400 2574 0
118 -2400 2401 0
-2401 2575 0
119 -2401 2402 0
-2402 2576 0
120 -2402 2403 0
-2403 2577 0
121 -2403 2404 0
-2404 2578 0
122 -2404 2405 0
-2405 2579 0
123 -2405 2406 0
-2406 2580 0
124 -2406 2407 0
-2407 2581 0
125 -2407 2408 0
-2408 2582 0
126 -2408 2409 0
-2409 2583 0
127 -2409 2410 0
-2410 2584 0
128 -2410 2411 0
-2411 2585 0
129 -2411 2412 0
-2412 2586 0
130 -2412 2413 0
-2413 2587 0
131 -2413 2414 0
-2414 2588 0
132 -2414 2415 0
-2415 2589 0
133 -2415 2416 0
-2416 2590 0
134 -2416 2417 0
-2417 2591 0
135 -2417 2418 0
-2418 2592 0
136 -2418 2419 0
-2419 2593 0
137 -2419 2420 0
-2420 2594 0
138 -2420 2421 0
-2421 2595 0
139 -2421 2422 0
-2422 2596 0
140 -2422 2423 0
-2423 2597 0
141 -2423 2424 0
-2424 2598 0
142 -2424 2425 0
-2425 2599 0
143 -2425 2426 0
-2426 2600 0
144 -2426 2427 0
-2427 2601 0
145 -2427 2428 0
-2428 2602 0
146 -2428 2429 0
-2429 2603 0
147 -2429 2430 0
-2430 2604 0
148 -2430 2431 0
-2431 2605 0
149 -2431 2432 0
-2432 2606 0
150 -2432 2433 0
-2433 2607 0
151 -2433 2434 0
-2434 2608 0
152 -2434 2435 0
-2435 2609 0
153 -2435 2436 0
-2436 2610 0
154 -2436 2437 0
-2437 2611 0
155 -2437 2438 0
-2438 2612 0
156 -2438 2439 0
-2439 2613 0
157 -2439 2440 0
-2440 2614 0
158 -2440 2441 0
-2441 2615 0
159 -2441 2442 0
-2442 2616 0
160 -2442 2443 0
-2443 2617 0
161 -2443 2444 0
-2444 2618 0
162 -2444 2445 0
-2445 2619 0
163 -2445 2446 0
-2446 2620 0
164 -2446 2447 0
-2447 2621 0
165 -2447 2448 0
-2448 2622 0
166 -2448 2449 0
-2449 2623 0
167 -2449 2450 0
-2450 2624 0
168 -2450 2451 0
-2451 2625 0
169 -2451 2452 0
-2452 2626 0
170 -2452 2453 0
-2453 2627 0
171 -2453 2454 0
-2454 2628 0
172 -2454 2455 0
-2455 2629 0
173 -2455 2456 0
-2456 2630 0
174 -2456 2457 0
-2457 2631 0
175 -2457 2458 0
-2458 2632 0
176 -2458 2459 0
-2459 2633 0
177 -2459 2460 0
-2460 2634 0
178 -2460 2461 0
-2461 2635 0
179 -2461 2462 0
-2462 2636 0
180 -2462 2463 0
-2463 2637 0
181 -2463 2464 0
-2464 2638 0
182 -2464 2465 0
-2465 2639 0
183 -2465 2466 0
-2466 2640 0
184 -2466 2467 0
-2467 2641 0
185 -2467 2468 0
-2468 2642 0
186 -2468 0
13 2469 0
-2469 2643 0
14 -2469 2470 0
-2470 2644 0
15 -2470 2471 0
-2471 2645 0
16 -2471 2472 0
-2472 2646 0
17 -2472 2473 0
-2473 2647 0
18 -2473 2474 0
-2474 2648 0
19 -2474 2475 0
-2475 2649 0
20 -2475 2476 0
-2476 2650 0
21 -2476 2477 0
-2477 2651 0
22 -2477 2478 0
-2478 2652 0
23 -2478 2479 0
-2479 2653 0
24 -2479 2480 0
-2480 2654 0
25 -2480 2481 0
-2481 2655 0
26 -2481 2482 0
-2482 2656 0
27 -2482 2483 0
-2483 2657 0
28 -2483 2484 0
-2484 2658 0
29 -2484 2485 0
-2485 2659 0
30 -2485 2486 0
-2486 2660 0
31 -2486 2487 0
-2487 2661 0
32 -2487 2488 0
-2488 2662 0
33 -2488 2489 0
-2489 2663 0
34 -2489 2490 0
-2490 2664 0
35 -2490 2491 0
-2491 2665 0
36 -2491 2492 0
-2492 2666 0
37 -2492 2493 0
-2493 2667 0
38 -2493 2494 0
-2494 2668 0
39 -2494 2495 0
-2495 2669 0
40 -2495 2496 0
-2496 2670 0
41 -2496 2497 0
-2497 2671 0
42 -2497 2498 0
-2498 2672 0
43 -2498 2499 0
-2499 2673 0
44 -2499 2500 0
-2500 2674 0
45 -2500 2501 0
-2501 2675 0
46 -2501 2502 0
-2502 2676 0
47 -2502 2503 0
-2503 2677 0
48 -2503 2504 0
-2504 2678 0
49 -2504 2505 0
-2505 2679 0
50 -2505 2506 0
-2506 2680 0
51 -2506 2507 0
-2507 2681 0
52 -2507 2508 0
-2508 2682 0
53 -2508 2509 0
-2509 2683 0
54 -2509 2510 0
-2510 2684 0
55 -2510 2511 0
-2511 2685 0
56 -2511 2512 0
-2512 2686 0
57 -2512 2513 0
-2513 2687 0
58 -2513 2514 0
-2514 2688 0
59 -2514 2515 0
-2515 2689 0
60 -2515 2516 0
-2516 2690 0
61 -2516 2517 0
-2517 2691 0
62 -2517 2518 0
-2518 2692 0
63 -2518 2519 0
-2519 2693 0
64 -2519 2520 0
-2520 2694 0
65 -2520 2521 0
-2521 2695 0
66 -2521 2522 0
-2522 2696 0
67 -2522 2523 0
-2523 2697 0
68 -2523 2524 0
-2524 2698 0
69 -2524 2525 0
-2525 2699 0
70 -2525 2526 0
-2526 2700 0
71 -2526 2527 0
-2527 2701 0
72 -2527 2528 0
-2528 2702 0
73 -2528 2529 0
-2529 2703 0
74 -2529 2530 0
-2530 2704 0
75 -2530 2531 0
-2531 2705 0
76 -2531 2532 0
-2532 2706 0
77 -2532 2533 0
-2533 2707 0
78 -2533 2534 0
-2534 2708 0
79 -2534 2535 0
-2535 2709 0
80 -2535 2536 0
-2536 2710 0
81 -2536 2537 0
-2537 2711 0
82 -2537 2538 0
-2538 2712 0
83 -2538 2539 0
-2539 2713 0
84 -2539 2540 0
-2540 2714 0
85 -2540 2541 0
-2541 2715 0
86 -2541 2542 0
-2542 2716 0
87 -2542 2543 0
-2543 2717 0
88 -2543 2544 0
-2544 2718 0
89 -2544 2545 0
-2545 2719 0
90 -2545 2546 0
-2546 2720 0
91 -2546 2547 0
-2547 2721 0
92 -2547 2548 0
-2548 2722 0
93 -2548 2549 0
-2549 2723 0
94 -2549 2550 0
-2550 2724 0
95 -2550 2551 0
-2551 2725 0
96 -2551 2552 0
-2552 2726 0
97 -2552 2553 0
-2553 2727 0
98 -2553 2554 0
-2554 2728 0
99 -2554 2555 0
-2555 2729 0
100 -2555 2556 0
-2556 2730 0
101 -2556 2557 0
-2557 2731 0
102 -2557 2558 0
-2558 2732 0
103 -2558 2559 0
-2559 2733 0
104 -2559 2560 0
-2560 2734 0
105 -2560 2561 0
-2561 2735 0
106 -2561 2562 0
-2562 2736 0
107 -2562 2563 0
-2563 2737 0
108 -2563 2564 0
-2564 2738 0
109 -2564 2565 0
-2565 2739 0
110 -2565 2566 0
-2566 2740 0
111 -2566 2567 0
-2567 2741 0
112 -2567 2568 0
-2568 2742 0
113 -2568 2569 0
-2569 2743 0
114 -2569 2570 0
-2570 2744 0
115 -2570 2571 0
-2571 2745 0
116 -2571 2572 0
-2572 2746 0
117 -2572 2573 0
-2573 2747 0
118 -2573 2574 0
-2574 2748 0
119 -2574 2575 0
-2575 2749 0
120 -2575 2576 0
-2576 2750 0
121 -2576 2577 0
-2577 2751 0
122 -2577 2578 0
-2578 2752 0
123 -2578 2579 0
-2579 2753 0
124 -2579 2580 0
-2580 2754 0
125 -2580 2581 0
-2581 2755 0
126 -2581 2582 0
-2582 2756 0
127 -2582 2583 0
-2583 2757 0
128 -2583 2584 0
-2584 2758 0
129 -2584 2585 0
-2585 2759 0
130 -2585 2586 0
-2586 2760 0
131 -2586 2587 0
-2587 2761 0
132 -2587 2588 0
-2588 2762 0
133 -2588 2589 0
-2589 2763 0
134 -2589 2590 0
-2590 2764 0
135 -2590 2591 0
-2591 2765 0
136 -2591 2592 0
-2592 2766 0
137 -2592 2593 0
-2593 2767 0
138 -2593 2594 0
-2594 2768 0
139 -2594 2595 0
-2595 2769 0
140 -2595 2596 0
-2596 2770 0
141 -2596 2597 0
-2597 2771 0
142 -2597 2598 0
-2598 2772 0
143 -2598 2599 0
-2599 2773 0
144 -2599 2600 0
-2600 2774 0
145 -2600 2601 0
-2601 2775 0
146 -2601 2602 0
-2602 2776 0
147 -2602 2603 0
-2603 2777 0
148 -2603 2604 0
-2604 2778 0
149 -2604 2605 0
-2605 2779 0
150 -2605 2606 0
-2606 2780 0
151 -2606 2607 0
-2607 2781 0
152 -2607 2608 0
-2608 2782 0
153 -2608 2609 0
-2609 2783 0
154 -2609 2610 0
-2610 2784 0
155 -2610 2611 0
-2611 2785 0
156 -2611 2612 0
-2612 2786 0
157 -2612 2613 0
-2613 2787 0
158 -2613 2614 0
-2614 2788 0
159 -2614 2615 0
-2615 2789 0
160 -2615 2616 0
-2616 2790 0
161 -2616 2617 0
-2617 2791 0
162 -2617 2618 0
-2618 2792 0
163 -2618 2619 0
-2619 2793 0
164 -2619 2620 0
-2620 2794 0
165 -2620 2621 0
-2621 2795 0
166 -2621 2622 0
-2622 2796 0
167 -2622 2623 0
-2623 2797 0
168 -2623 2624 0
-2624 2798 0
169 -2624 2625 0
-2625 2799 0
170 -2625 2626 0
-2626 2800 0
171 -2626 2627 0
-2627 2801 0
172 -2627 2628 0
-2628 2802 0
173 -2628 2629 0
-2629 2803 0
174 -2629 2630 0
-2630 2804 0
175 -2630 2631 0
-2631 2805 0
176 -2631 2632 0
-2632 2806 0
177 -2632 2633 0
-2633 2807 0
178 -2633 2634 0
-2634 2808 0
179 -2634 2635 0
-2635 2809 0
180 -2635 2636 0
-2636 2810 0
181 -2636 2637 0
-2637 2811 0
182 -2637 2638 0
-2638 2812 0
183 -2638 2639 0
-2639 2813 0
184 -2639 2640 0
-2640 2814 0
185 -2640 2641 0
-2641 2815 0
186 -2641 2642 0
-2642 2816 0
187 -2642 0
14 2643 0
-2643 2817 0
15 -2643 2644 0
-2644 2818 0
16 -2644 2645 0
-2645 2819 0
17 -2645 2646 0
-2646 2820 0
18 -2646 2647 0
-2647 2821 0
19 -2647 2648 0
-2648 2822 0
20 -2648 2649 0
-2649 2823 0
21 -2649 2650 0
-2650 2824 0
22 -2650 2651 0
-2651 2825 0
23 -2651 2652 0
-2652 2826 0
24 -2652 2653 0
-2653 2827 0
25 -2653 2654 0
-2654 2828 0
26 -2654 2655 0
-2655 2829 0
27 -2655 2656 0
-2656 2830 0
28 -2656 2657 0
-2657 2831 0
29 -2657 2658 0
-2658 2832 0
30 -2658 2659 0
-2659 2833 0
31 -2659 2660 0
-2660 2834 0
32 -2660 2661 0
-2661 2835 0
33 -2661 2662 0
-2662 2836 0
34 -2662 2663 0
-2663 2837 0
35 -2663 2664 0
-2664 2838 0
36 -2664 2665 0
-2665 2839 0
37 -2665 2666 0
-2666 2840 0
38 -2666 2667 0
-2667 2841 0
39 -2667 2668 0
-2668 2842 0
40 -2668 2669 0
-2669 2843 0
41 -2669 2670 0
-2670 2844 0
42 -2670 2671 0
-2671 2845 0
43 -2671 2672 0
-2672 2846 0
44 -2672 2673 0
-2673 2847 0
45 -2673 2674 0
-2674 2848 0
46 -2674 2675 0
-2675 2849 0
47 -2675 2676 0
-2676 2850 0
48 -2676 2677 0
-2677 2851 0
49 -2677 2678 0
-2678 2852 0
50 -2678 2679 0
-2679 2853 0
51 -2679 2680 0
-2680 2854 0
52 -2680 2681 0
-2681 2855 0
53 -2681 2682 0
-2682 2856 0
54 -2682 2683 0
-2683 2857 0
55 -2683 2684 0
-2684 2858 0
56 -2684 2685 0
-2685 2859 0
57 -2685 2686 0
-2686 2860 0
58 -2686 2687 0
-2687 2861 0
59 -2687 2688 0
-2688 2862 0
60 -2688 2689 0
-2689 2863 0
61 -2689 2690 0
-2690 2864 0
62 -2690 2691 0
-2691 2865 0
63 -2691 2692 0
-2692 2866 0
64 -2692 2693 0
-2693 2867 0
65 -2693 2694 0
-2694 2868 0
66 -2694 2695 0
-2695 2869 0
67 -2695 2696 0
-2696 2870 0
68 -2696 2697 0
-2697 2871 0
69 -2697 2698 0
-2698 2872 0
70 -2698 2699 0
-2699 2873 0
71 -2699 2700 0
-2700 2874 0
72 -2700 2701 0
-2701 2875 0
73 -2701 2702 0
-2702 2876 0
74 -2702 2703 0
-2703 2877 0
75 -2703 2704 0
-2704 2878 0
76 -2704 2705 0
-2705 2879 0
77 -2705 2706 0
-2706 2880 0
78 -2706 2707 0
-2707 2881 0
79 -2707 2708 0
-2708 2882 0
80 -2708 2709 0
-2709 2883 0
81 -2709 2710 0
-2710 2884 0
82 -2710 2711 0
-2711 2885 0
83 -2711 2712 0
-2712 2886 0
84 -2712 2713 0
-2713 2887 0
85 -2713 2714 0
-2714 2888 0
86 -2714 2715 0
-2715 2889 0
87 -2715 2716 0
-2716 2890 0
88 -2716 2717 0
-2717 2891 0
89 -2717 2718 0
-2718 2892 0
90 -2718 2719 0
-2719 2893 0
91 -2719 2720 0
-2720 2894 0
92 -2720 2721 0
-2721 2895 0
93 -2721 2722 0
-2722 2896 0
94 -2722 2723 0
-2723 2897 0
95 -2723 2724 0
-2724 2898 0
96 -2724 2725 0
-2725 2899 0
97 -2725 2726 0
-2726 2900 0
98 -2726 2727 0
-2727 2901 0
99 -2727 2728 0
-2728 2902 0
100 -2728 2729 0
-2729 2903 0
101 -2729 2730 0
-2730 2904 0
102 -2730 2731 0
-2731 2905 0
103 -2731 2732 0
-2732 2906 0
104 -2732 2733 0
-2733 2907 0
105 -2733 2734 0
-2734 2908 0
106 -2734 2735 0
-2735 2909 0
107 -2735 2736 0
-2736 2910 0
108 -2736 2737 0
-2737 2911 0
109 -2737 2738 0
-2738 2912 0
110 -2738 2739 0
-2739 2913 0
111 -2739 2740 0
-2740 2914 0
112 -2740 2741 0
-2741 2915 0
113 -2741 2742 0
-2742 2916 0
114 -2742 2743 0
-2743 2917 0
115 -2743 2744 0
-2744 2918 0
116 -2744 2745 0
-2745 2919 0
117 -2745 2746 0
-2746 2920 0
118 -2746 2747 0
-2747 2921 0
119 -2747 2748 0
-2748 2922 0
120 -2748 2749 0
-2749 2923 0
121 -2749 2750 0
-2750 2924 0
122 -2750 2751 0
-2751 2925 0
123 -2751 2752 0
-2752 2926 0
124 -2752 2753 0
-2753 2927 0
125 -2753 2754 0
-2754 2928 0
126 -2754 2755 0
-2755 2929 0
127 -2755 2756 0
-2756 2930 0
128 -2756 2757 0
-2757 2931 0
129 -2757 2758 0
-2758 2932 0
130 -2758 2759 0
-2759 2933 0
131 -2759 2760 0
-2760 2934 0
132 -2760 2761 0
-2761 2935 0
133 -2761 2762 0
-2762 2936 0
134 -2762 2763 0
-2763 2937 0
135 -2763 2764 0
-2764 2938 0
136 -2764 2765 0
-2765 2939 0
137 -2765 2766 0
-2766 2940 0
138 -2766 2767 0
-2767 2941 0
139 -2767 2768 0
-2768 2942 0
140 -2768 2769 0
-2769 2943 0
141 -2769 2770 0
-2770 2944 0
142 -2770 2771 0
-2771 2945 0
143 -2771 2772 0
-2772 2946 0
144 -2772 2773 0
-2773 2947 0
145 -2773 2774 0
-2774 2948 0
146 -2774 2775 0
-2775 2949 0
147 -2775 2776 0
-2776 2950 0
148 -2776 2777 0
-2777 2951 0
149 -2777 2778 0
-2778 2952 0
150 -2778 2779 0
-2779 2953 0
151 -2779 2780 0
-2780 2954 0
152 -2780 2781 0
-2781 2955 0
153 -2781 2782 0
-2782 2956 0
154 -2782 2783 0
-2783 2957 0
155 -2783 2784 0
-2784 2958 0
156 -2784 2785 0
-2785 2959 0
157 -2785 2786 0
-2786 2960 0
158 -2786 2787 0
-2787 2961 0
159 -2787 2788 0
-2788 2962 0
160 -2788 2789 0
-2789 2963 0
161 -2789 2790 0
-2790 2964 0
162 -2790 2791 0
-2791 2965 0
163 -2791 2792 0
-2792 2966 0
164 -2792 2793 0
-2793 2967 0
165 -2793 2794 0
-2794 2968 0
166 -2794 2795 0
-2795 2969 0
167 -2795 2796 0
-2796 2970 0
168 -2796 2797 0
-2797 2971 0
169 -2797 2798 0
-2798 2972 0
170 -2798 2799 0
-2799 2973 0
171 -2799 2800 0
-2800 2974 0
172 -2800 2801 0
-2801 2975 0
173 -2801 2802 0
-2802 2976 0
174 -2802 2803 0
-2803 2977 0
175 -2803 2804 0
-2804 2978 0
176 -2804 2805 0
-2805 2979 0
177 -2805 2806 0
-2806 2980 0
178 -2806 2807 0
-2807 2981 0
179 -2807 2808 0
-2808 2982 0
180 -2808 2809 0
-2809 2983 0
181 -2809 2810 0
-2810 2984 0
182 -2810 2811 0
-2811 2985 0
183 -2811 2812 0
-2812 2986 0
184 -2812 2813 0
-2813 2987 0
185 -2813 2814 0
-2814 2988 0
186 -2814 2815 0
-2815 2989 0
187 -2815 2816 0
-2816 2990 0
188 -2816 0
15 2817 0
-2817 2991 0
16 -2817 2818 0
-2818 2992 0
17 -2818 2819 0
-2819 2993 0
18 -2819 2820 0
-2820 2994 0
19 -2820 2821 0
-2821 2995 0
20 -2821 2822 0
-2822 2996 0
21 -2822 2823 0
-2823 2997 0
22 -2823 2824 0
-2824 2998 0
23 -2824 2825 0
-2825 2999 0
24 -2825 2826 0
-2826 3000 0
25 -2826 2827 0
-2827 3001 0
26 -2827 2828 0
-2828 3002 0
27 -2828 2829 0
-2829 3003 0
28 -2829 2830 0
-2830 3004 0
29 -2830 2831 0
-2831 3005 0
30 -2831 2832 0
-2832 3006 0
31 -2832 2833 0
-2833 3007 0
32 -2833 2834 0
-2834 3008 0
33 -2834 2835 0
-2835 3009 0
34 -2835 2836 0
-2836 3010 0
35 -2836 2837 0
-2837 3011 0
36 -2837 2838 0
-2838 3012 0
37 -2838 2839 0
-2839 3013 0
38 -2839 2840 0
-2840 3014 0
39 -2840 2841 0
-2841 3015 0
40 -2841 2842 0
-2842 3016 0
41 -2842 2843 0
-2843 3017 0
42 -2843 2844 0
-2844 3018 0
43 -2844 2845 0
-2845 3019 0
44 -2845 2846 0
-2846 3020 0
45 -2846 2847 0
-2847 3021 0
46 -2847 2848 0
-2848 3022 0
47 -2848 2849 0
-2849 3023 0
48 -2849 2850 0
-2850 3024 0
49 -2850 2851 0
-2851 3025 0
50 -2851 2852 0
-2852 3026 0
51 -2852 2853 0
-2853 3027 0
52 -2853 2854 0
-2854 3028 0
53 -2854 2855 0
-2855 3029 0
54 -2855 2856 0
-2856 3030 0
55 -2856 2857 0
-2857 3031 0
56 -2857 2858 0
-2858 3032 0
57 -2858 2859 0
-2859 3033 0
58 -2859 2860 0
-2860 3034 0
59 -2860 2861 0
-2861 3035 0
60 -2861 2862 0
-2862 3036 0
61 -2862 2863 0
-2863 3037 0
62 -2863 2864 0
-2864 3038 0
63 -2864 2865 0
-2865 3039 0
64 -2865 2866 0
-2866 3040 0
65 -2866 2867 0
-2867 3041 0
66 -2867 2868 0
-2868 3042 0
67 -2868 2869 0
-2869 3043 0
68 -2869 2870 0
-2870 3044 0
69 -2870 2871 0
-2871 3045 0
70 -2871 2872 0
-2872 3046 0
71 -2872 2873 0
-2873 3047 0
72 -2873 2874 0
-2874 3048 0
73 -2874 2875 0
-2875 3049 0
74 -2875 2876 0
-2876 3050 0
75 -2876 2877 0
-2877 3051 0
76 -2877 2878 0
-2878 3052 0
77 -2878 2879 0
-2879 3053 0
78 -2879 2880 0
-2880 3054 0
79 -2880 2881 0
-2881 3055 0
80 -2881 2882 0
-2882 3056 0
81 -2882 2883 0
-2883 3057 0
82 -2883 2884 0
-2884 3058 0
83 -2884 2885 0
-2885 3059 0
84 -2885 2886 0
-2886 3060 0
85 -2886 2887 0
-2887 3061 0
86 -2887 2888 0
-2888 3062 0
87 -2888 2889 0
-2889 3063 0
88 -2889 2890 0
-2890 3064 0
89 -2890 2891 0
-2891 3065 0
90 -2891 2892 0
-2892 3066 0
91 -2892 2893 0
-2893 3067 0
92 -2893 2894 0
-2894 3068 0
93 -2894 2895 0
-2895 3069 0
94 -2895 2896 0
-2896 3070 0
95 -2896 2897 0
-2897 3071 0
96 -2897 2898 0
-2898 3072 0
97 -2898 2899 0
-2899 3073 0
98 -2899 2900 0
-2900 3074 0
99 -2900 2901 0
-2901 3075 0
100 -2901 2902 0
-2902 3076 0
101 -2902 2903 0
-2903 3077 0
102 -2903 2904 0
-2904 3078 0
103 -2904 2905 0
-2905 3079 0
104 -2905 2906 0
-2906 3080 0
105 -2906 2907 0
-2907 3081 0
106 -2907 2908 0
-2908 3082 0
107 -2908 2909 0
-2909 3083 0
108 -2909 2910 0
-2910 3084 0
109 -2910 2911 0
-2911 3085 0
110 -2911 2912 0
-2912 3086 0
111 -2912 2913 0
-2913 3087 0
112 -2913 2914 0
-2914 3088 0
113 -2914 2915 0
-2915 3089 0
114 -2915 2916 0
-2916 3090 0
115 -2916 2917 0
-2917 3091 0
116 -2917 2918 0
-2918 3092 0
117 -2918 2919 0
-2919 3093 0
118 -2919 2920 0
-2920 3094 0
119 -2920 2921 0
-2921 3095 0
120 -2921 2922 0
-2922 3096 0
121 -2922 2923 0
-2923 3097 0
122 -2923 2924 0
-2924 3098 0
123 -2924 2925 0
-2925 3099 0
124 -2925 2926 0
-2926 3100 0
125 -2926 2927 0
-2927 3101 0
126 -2927 2928 0
-2928 3102 0
127 -2928 2929 0
-2929 3103 0
128 -2929 2930 0
-2930 3104 0
129 -2930 2931 0
-2931 3105 0
130 -2931 2932 0
-2932 3106 0
131 -2932 2933 0
-2933 3107 0
132 -2933 2934 0
-2934 3108 0
133 -2934 2935 0
-2935 3109 0
134 -2935 2936 0
-2936 3110 0
135 -2936 2937 0
-2937 3111 0
136 -2937 2938 0
-2938 3112 0
137 -2938 2939 0
-2939 3113 0
138 -2939 2940 0
-2940 3114 0
139 -2940 2941 0
-2941 3115 0
140 -2941 2942 0
-2942 3116 0
141 -2942 2943 0
-2943 3117 0
142 -2943 2944 0
-2944 3118 0
143 -2944 2945 0
-2945 3119 0
144 -2945 2946 0
-2946 3120 0
145 -2946 2947 0
-2947 3121 0
146 -2947 2948 0
-2948 3122 0
147 -2948 2949 0
-2949 3123 0
148 -2949 2950 0
-2950 3124 0
149 -2950 2951 0
-2951 3125 0
150 -2951 2952 0
-2952 3126 0
151 -2952 2953 0
-2953 3127 0
152 -2953 2954 0
-2954 3128 0
153 -2954 2955 0
-2955 3129 0
154 -2955 2956 0
-2956 3130 0
155 -2956 2957 0
-2957 3131 0
156 -2957 2958 0
-2958 3132 0
157 -2958 2959 0
-2959 3133 0
158 -2959 2960 0
-2960 3134 0
159 -2960 2961 0
-2961 3135 0
160 -2961 2962 0
-2962 3136 0
161 -2962 2963 0
-2963 3137 0
162 -2963 2964 0
-2964 3138 0
163 -2964 2965 0
-2965 3139 0
164 -2965 2966 0
-2966 3140 0
165 -2966 2967 0
-2967 3141 0
166 -2967 2968 0
-2968 3142 0
167 -2968 2969 0
-2969 3143 0
168 -2969 2970 0
-2970 3144 0
169 -2970 2971 0
-2971 3145 0
170 -2971 2972 0
-2972 3146 0
171 -2972 2973 0
-2973 3147 0
172 -2973 2974 0
-2974 3148 0
173 -2974 2975 0
-2975 3149 0
174 -2975 2976 0
-2976 3150 0
175 -2976 2977 0
-2977 3151 0
176 -2977 2978 0
-2978 3152 0
177 -2978 2979 0
-2979 3153 0
178 -2979 2980 0
-2980 3154 0
179 -2980 2981 0
-2981 3155 0
180 -2981 2982 0
-2982 3156 0
181 -2982 2983 0
-2983 3157 0
182 -2983 2984 0
-2984 3158 0
183 -2984 2985 0
-2985 3159 0
184 -2985 2986 0
-2986 3160 0
185 -2986 2987 0
-2987 3161 0
186 -2987 2988 0
-2988 3162 0
187 -2988 2989 0
-2989 3163 0
188 -2989 2990 0
-2990 3164 0
189 -2990 0
16 2991 0
17 -2991 2992 0
18 -2992 2993 0
19 -2993 2994 0
20 -2994 2995 0
21 -2995 2996 0
22 -2996 2997 0
23 -2997 2998 0
24 -2998 2999 0
25 -2999 3000 0
26 -3000 3001 0
27 -3001 3002 0
28 -3002 3003 0
29 -3003 3004 0
30 -3004 3005 0
31 -3005 3006 0
32 -3006 3007 0
33 -3007 3008 0
34 -3008 3009 0
35 -3009 3010 0
36 -3010 3011 0
37 -3011 3012 0
38 -3012 3013 0
39 -3013 3014 0
40 -3014 3015 0
41 -3015 3016 0
42 -3016 3017 0
43 -3017 3018 0
44 -3018 3019 0
45 -3019 3020 0
46 -3020 3021 0
47 -3021 3022 0
48 -3022 3023 0
49 -3023 3024 0
50 -3024 3025 0
51 -3025 3026 0
52 -3026 3027 0
53 -3027 3028 0
54 -3028 3029 0
55 -3029 3030 0
56 -3030 3031 0
57 -3031 3032 0
58 -3032 3033 0
59 -3033 3034 0
60 -3034 3035 0
61 -3035 3036 0
62 -3036 3037 0
63 -3037 3038 0
64 -3038 3039 0
65 -3039 3040 0
66 -3040 3041 0
67 -3041 3042 0
68 -3042 3043 0
69 -3043 3044 0
70 -3044 3045 0
71 -3045 3046 0
72 -3046 3047 0
73 -3047 3048 0
74 -3048 3049 0
75 -3049 3050 0
76 -3050 3051 0
77 -3051 3052 0
78 -3052 3053 0
79 -3053 3054 0
80 -3054 3055 0
81 -3055 3056 0
82 -3056 3057 0
83 -3057 3058 0
84 -3058 3059 0
85 -3059 3060 0
86 -3060 3061 0
87 -3061 3062 0
88 -3062 3063 0
89 -3063 3064 0
90 -3064 3065 0
91 -3065 3066 0
92 -3066 3067 0
93 -3067 3068 0
94 -3068 3069 0
95 -3069 3070 0
96 -3070 3071 0
97 -3071 3072 0
98 -3072 3073 0
99 -3073 3074 0
100 -3074 3075 0
101 -3075 3076 0
102 -3076 3077 0
103 -3077 3078 0
104 -3078 3079 0
105 -3079 3080 0
106 -3080 3081 0
107 -3081 3082 0
108 -3082 3083 0
109 -3083 3084 0
110 -3084 3085 0
111 -3085 3086 0
112 -3086 3087 0
113 -3087 3088 0
114 -3088 3089 0
115 -3089 3090 0
116 -3090 3091 0
117 -3091 3092 0
118 -3092 3093 0
119 -3093 3094 0
120 -3094 3095 0
121 -3095 3096 0
122 -3096 3097 0
123 -3097 3098 0
124 -3098 3099 0
125 -3099 3100 0
126 -3100 3101 0
127 -3101 3102 0
128 -3102 3103 0
129 -3103 3104 0
130 -3104 3105 0
131 -3105 3106 0
132 -3106 3107 0
133 -3107 3108 0
134 -3108 3109 0
135 -3109 3110 0
136 -3110 3111 0
137 -3111 3112 0
138 -3112 3113 0
139 -3113 3114 0
140 -3114 3115 0
141 -3115 3116 0
142 -3116 3117 0
143 -3117 3118 0
144 -3118 3119 0
145 -3119 3120 0
146 -3120 3121 0
147 -3121 3122 0
148 -3122 3123 0
149 -3123 3124 0
150 -3124 3125 0
151 -3125 3126 0
152 -3126 3127 0
153 -3127 3128 0
154 -3128 3129 0
155 -3129 3130 0
156 -3130 3131 0
157 -3131 3132 0
158 -3132 3133 0
159 -3133 3134 0
160 -3134 3135 0
161 -3135 3136 0
162 -3136 3137 0
163 -3137 3138 0
164 -3138 3139 0
165 -3139 3140 0
166 -3140 3141 0
167 -3141 3142 0
168 -3142 3143 0
169 -3143 3144 0
170 -3144 3145 0
171 -3145 3146 0
172 -3146 3147 0
173 -3147 3148 0
174 -3148 3149 0
175 -3149 3150 0
176 -3150 3151 0
177 -3151 3152 0
178 -3152 3153 0
179 -3153 3154 0
180 -3154 3155 0
181 -3155 3156 0
182 -3156 3157 0
183 -3157 3158 0
184 -3158 3159 0
185 -3159 3160 0
186 -3160 3161 0
187 -3161 3162 0
188 -3162 3163 0
189 -3163 3164 0
190 -3164 0
-1 3165 0
-3165 3166 0
-2 -3165 3167 0
-3167 3168 0
-3 -3167 3169 0
-3169 3170 0
-4 -3169 3171 0
-3171 3172 0
-5 -3171 3173 0
-3173 3174 0
-6 -3173 3175 0
-3175 3176 0
-7 -3175 3177 0
-3177 3178 0
-8 -3177 3179 0
-3179 3180 0
-9 -3179 3181 0
-3181 3182 0
-10 -3181 3183 0
-3183 3184 0
-11 -3183 3185 0
-3185 3186 0
-12 -3185 3187 0
-3187 3188 0
-13 -3187 3189 0
-3189 3190 0
-14 -3189 3191 0
-3191 3192 0
-15 -3191 3193 0
-3193 3194 0
-16 -3193 3195 0
-3195 3196 0
-17 -3195 0
-2 3166 0
-3166 3197 0
-3 -3166 3168 0
-3168 3198 0
-4 -3168 3170 0
-3170 3199 0
-5 -3170 3172 0
-3172 3200 0
-6 -3172 3174 0
-3174 3201 0
-7 -3174 3176 0
-3176 3202 0
-8 -3176 3178 0
-3178 3203 0
-9 -3178 3180 0
-3180 3204 0
-10 -3180 3182 0
-3182 3205 0
-11 -3182 3184 0
-3184 3206 0
-12 -3184 3186 0
-3186 3207 0
-13 -3186 3188 0
-3188 3208 0
-14 -3188 3190 0
-3190 3209 0
-15 -3190 3192 0
-3192 3210 0
-16 -3192 3194 0
-3194 3211 0
-17 -3194 3196 0
-3196 3212 0
-18 -3196 0
-3 3197 0
-3197 3213 0
-4 -3197 3198 0
-3198 3214 0
-5 -3198 3199 0
-3199 3215 0
-6 -3199 3200 0
-3200 3216 0
-7 -3200 3201 0
-3201 3217 0
-8 -3201 3202 0
-3202 3218 0
-9 -3202 3203 0
-3203 3219 0
-10 -3203 3204 0
-3204 3220 0
-11 -3204 3205 0
-3205 3221 0
-12 -3205 3206 0
-3206 3222 0
-13 -3206 3207 0
-3207 3223 0
-14 -3207 3208 0
-3208 3224 0
-15 -3208 3209 0
-3209 3225 0
-16 -3209 3210 0
-3210 3226 0
-17 -3210 3211 0
-3211 3227 0
-18 -3211 3212 0
-3212 3228 0
-19 -3212 0
-4 3213 0
-3213 3229 0
-5 -3213 3214 0
-3214 3230 0
-6 -3214 3215 0
-3215 3231 0
-7 -3215 3216 0
-3216 3232 0
-8 -3216 3217 0
-3217 3233 0
-9 -3217 3218 0
-3218 3234 0
-10 -3218 3219 0
-3219 3235 0
-11 -3219 3220 0
-3220 3236 0
-12 -3220 3221 0
-3221 3237 0
-13 -3221 3222 0
-3222 3238 0
-14 -3222 3223 0
-3223 3239 0
-15 -3223 3224 0
-3224 3240 0
-16 -3224 3225 0
-3225 3241 0
-17 -3225 3226 0
-3226 3242 0
-18 -3226 3227 0
-3227 3243 0
-19 -3227 3228 0
-3228 3244 0
-20 -3228 0
-5 3229 0
-3229 3245 0
-6 -3229 3230 0
-3230 3246 0
-7 -3230 3231 0
-3231 3247 0
-8 -3231 3232 0
-3232 3248 0
-9 -3232 3233 0
-3233 3249 0
-10 -3233 3234 0
-3234 3250 0
-11 -3234 3235 0
-3235 3251 0
-12 -3235 3236 0
-3236 3252 0
-13 -3236 3237 0
-3237 3253 0
-14 -3237 3238 0
-3238 3254 0
-15 -3238 3239 0
-3239 3255 0
-16 -3239 3240 0
-3240 3256 0
-17 -3240 3241 0
-3241 3257 0
-18 -3241 3242 0
-3242 3258 0
-19 -3242 3243 0
-3243 3259 0
-20 -3243 3244 0
-3244 3260 0
-21 -3244 0
-6 3245 0
-3245 3261 0
-7 -3245 3246 0
-3246 3262 0
-8 -3246 3247 0
-3247 3263 0
-9 -3247 3248 0
-3248 3264 0
-10 -3248 3249 0
-3249 3265 0
-11 -3249 3250 0
-3250 3266 0
-12 -3250 3251 0
-3251 3267 0
-13 -3251 3252 0
-3252 3268 0
-14 -3252 3253 0
-3253 3269 0
-15 -3253 3254 0
-3254 3270 0
-16 -3254 3255 0
-3255 3271 0
-17 -3255 3256 0
-3256 3272 0
-18 -3256 3257 0
-3257 3273 0
-19 -3257 3258 0
-3258 3274 0
-20 -3258 3259 0
-3259 3275 0
-21 -3259 3260 0
-3260 3276 0
-22 -3260 0
-7 3261 0
-3261 3277 0
-8 -3261 3262 0
-3262 3278 0
-9 -3262 3263 0
-3263 3279 0
-10 -3263 3264 0
-3264 3280 0
-11 -3264 3265 0
-3265 3281 0
-12 -3265 3266 0
-3266 3282 0
-13 -3266 3267 0
-3267 3283 0
-14 -3267 3268 0
-3268 3284 0
-15 -3268 3269 0
-3269 3285 0
-16 -3269 3270 0
-3270 3286 0
-17 -3270 3271 0
-3271 3287 0
-18 -3271 3272 0
-3272 3288 0
-19 -3272 3273 0
-3273 3289 0
-20 -3273 3274 0
-3274 3290 0
-21 -3274 3275 0
-3275 3291 0
-22 -3275 3276 0
-3276 3292 0
-23 -3276 0
-8 3277 0
-3277 3293 0
-9 -3277 3278 0
-3278 3294 0
-10 -3278 3279 0
-3279 3295 0
-11 -3279 3280 0
-3280 3296 0
-12 -3280 3281 0
-3281 3297 0
-13 -3281 3282 0
-3282 3298 0
-14 -3282 3283 0
-3283 3299 0
-15 -3283 3284 0
-3284 3300 0
-16 -3284 3285 0
-3285 3301 0
-17 -3285 3286 0
-3286 3302 0
-18 -3286 3287 0
-3287 3303 0
-19 -3287 3288 0
-3288 3304 0
-20 -3288 3289 0
-3289 3305 0
-21 -3289 3290 0
-3290 3306 0
-22 -3290 3291 0
-3291 3307 0
-23 -3291 3292 0
-3292 3308 0
-24 -3292 0
-9 3293 0
-3293 3309 0
-10 -3293 3294 0
-3294 3310 0
-11 -3294 3295 0
-3295 3311 0
-12 -3295 3296 0
-3296 3312 0
-13 -3296 3297 0
-3297 3313 0
-14 -3297 3298 0
-3298 3314 0
-15 -3298 3299 0
-3299 3315 0
-16 -3299 3300 0
-3300 3316 0
-17 -3300 3301 0
-3301 3317 0
-18 -3301 3302 0
-3302 3318 0
-19 -3302 3303 0
-3303 3319 0
-20 -3303 3304 0
-3304 3320 0
-21 -3304 3305 0
-3305 3321 0
-22 -3305 3306 0
-3306 3322 0
-23 -3306 3307 0
-3307 3323 0
-24 -3307 3308 0
-3308 3324 0
-25 -3308 0
-10 3309 0
-3309 3325 0
-11 -3309 3310 0
-3310 3326 0
-12 -3310 3311 0
-3311 3327 0
-13 -3311 3312 0
-3312 3328 0
-14 -3312 3313 0
-3313 3329 0
-15 -3313 3314 0
-3314 3330 0
-16 -3314 3315 0
-3315 3331 0
-17 -3315 3316 0
-3316 3332 0
-18 -3316 3317 0
-3317 3333 0
-19 -3317 3318 0
-3318 3334 0
-20 -3318 3319 0
-3319 3335 0
-21 -3319 3320 0
-3320 3336 0
-22 -3320 3321 0
-3321 3337 0
-23 -3321 3322 0
-3322 3338 0
-24 -3322 3323 0
-3323 3339 0
-25 -3323 3324 0
-3324 3340 0
-26 -3324 0
-11 3325 0
-3325 3341 0
-12 -3325 3326 0
-3326 3342 0
-13 -3326 3327 0
-3327 3343 0
-14 -3327 3328 0
-3328 3344 0
-15 -3328 3329 0
-3329 3345 0
-16 -3329 3330 0
-3330 3346 0
-17 -3330 3331 0
-3331 3347 0
-18 -3331 3332 0
-3332 3348 0
-19 -3332 3333 0
-3333 3349 0
-20 -3333 3334 0
-3334 3350 0
-21 -3334 3335 0
-3335 3351 0
-22 -3335 3336 0
-3336 3352 0
-23 -3336 3337 0
-3337 3353 0
-24 -3337 3338 0
-3338 3354 0
-25 -3338 3339 0
-3339 3355 0
-26 -3339 3340 0
-3340 3356 0
-27 -3340 0
-12 3341 0
-3341 3357 0
-13 -3341 3342 0
-3342 3358 0
-14 -3342 3343 0
-3343 3359 0
-15 -3343 3344 0
-3344 3360 0
-16 -3344 3345 0
-3345 3361 0
-17 -3345 3346 0
-3346 3362 0
-18 -3346 3347 0
-3347 3363 0
-19 -3347 3348 0
-3348 3364 0
-20 -3348 3349 0
-3349 3365 0
-21 -3349 3350 0
-3350 3366 0
-22 -3350 3351 0
-3351 3367 0
-23 -3351 3352 0
-3352 3368 0
-24 -3352 3353 0
-3353 3369 0
-25 -3353 3354 0
-3354 3370 0
-26 -3354 3355 0
-3355 3371 0
-27 -3355 3356 0
-3356 3372 0
-28 -3356 0
-13 3357 0
-3357 3373 0
-14 -3357 3358 0
-3358 3374 0
-15 -3358 3359 0
-3359 3375 0
-16 -3359 3360 0
-3360 3376 0
-17 -3360 3361 0
-3361 3377 0
-18 -3361 3362 0
-3362 3378 0
-19 -3362 3363 0
-3363 3379 0
-20 -3363 3364 0
-3364 3380 0
-21 -3364 3365 0
-3365 3381 0
-22 -3365 3366 0
-3366 3382 0
-23 -3366 3367 0
-3367 3383 0
-24 -3367 3368 0
-3368 3384 0
-25 -3368 3369 0
-3369 3385 0
-26 -3369 3370 0
-3370 3386 0
-27 -3370 3371 0
-3371 3387 0
-28 -3371 3372 0
-3372 3388 0
-29 -3372 0
-14 3373 0
-3373 3389 0
-15 -3373 3374 0
-3374 3390 0
-16 -3374 3375 0
-3375 3391 0
-17 -3375 3376 0
-3376 3392 0
-18 -3376 3377 0
-3377 3393 0
-19 -3377 3378 0
-3378 3394 0
-20 -3378 3379 0
-3379 3395 0
-21 -3379 3380 0
-3380 3396 0
-22 -3380 3381 0
-3381 3397 0
-23 -3381 3382 0
-3382 3398 0
-24 -3382 3383 0
-3383 3399 0
-25 -3383 3384 0
-3384 3400 0
-26 -3384 3385 0
-3385 3401 0
-27 -3385 3386 0
-3386 3402 0
-28 -3386 3387 0
-3387 3403 0
-29 -3387 3388 0
-3388 3404 0
-30 -3388 0
-15 3389 0
-3389 3405 0
-16 -3389 3390 0
-3390 3406 0
-17 -3390 3391 0
-3391 3407 0
-18 -3391 3392 0
-3392 3408 0
-19 -3392 3393 0
-3393 3409 0
-20 -3393 3394 0
-3394 3410 0
-21 -3394 3395 0
-3395 3411 0
-22 -3395 3396 0
-3396 3412 0
-23 -3396 3397 0
-3397 3413 0
-24 -3397 3398 0
-3398 3414 0
-25 -3398 3399 0
-3399 3415 0
-26 -3399 3400 0
-3400 3416 0
-27 -3400 3401 0
-3401 3417 0
-28 -3401 3402 0
-3402 3418 0
-29 -3402 3403 0
-3403 3419 0
-30 -3403 3404 0
-3404 3420 0
-31 -3404 0
-16 3405 0
-3405 3421 0
-17 -3405 3406 0
-3406 3422 0
-18 -3406 3407 0
-3407 3423 0
-19 -3407 3408 0
-3408 3424 0
-20 -3408 3409 0
-3409 3425 0
-21 -3409 3410 0
-3410 3426 0
-22 -3410 3411 0
-3411 3427 0
-23 -3411 3412 0
-3412 3428 0
-24 -3412 3413 0
-3413 3429 0
-25 -3413 3414 0
-3414 3430 0
-26 -3414 3415 0
-3415 3431 0
-27 -3415 3416 0
-3416 3432 0
-28 -3416 3417 0
-3417 3433 0
-29 -3417 3418 0
-3418 3434 0
-30 -3418 3419 0
-3419 3435 0
-31 -3419 3420 0
-3420 3436 0
-32 -3420 0
-17 3421 0
-3421 3437 0
-18 -3421 3422 0
-3422 3438 0
-19 -3422 3423 0
-3423 3439 0
-20 -3423 3424 0
-3424 3440 0
-21 -3424 3425 0
-3425 3441 0
-22 -3425 3426 0
-3426 3442 0
-23 -3426 3427 0
-3427 3443 0
-24 -3427 3428 0
-3428 3444 0
-25 -3428 3429 0
-3429 3445 0
-26 -3429 3430 0
-3430 3446 0
-27 -3430 3431 0
-3431 3447 0
-28 -3431 3432 0
-3432 3448 0
-29 -3432 3433 0
-3433 3449 0
-30 -3433 3434 0
-3434 3450 0
-31 -3434 3435 0
-3435 3451 0
-32 -3435 3436 0
-3436 3452 0
-33 -3436 0
-18 3437 0
-3437 3453 0
-19 -3437 3438 0
-3438 3454 0
-20 -3438 3439 0
-3439 3455 0
-21 -3439 3440 0
-3440 3456 0
-22 -3440 3441 0
-3441 3457 0
-23 -3441 3442 0
-3442 3458 0
-24 -3442 3443 0
-3443 3459 0
-25 -3443 3444 0
-3444 3460 0
-26 -3444 3445 0
-3445 3461 0
-27 -3445 3446 0
-3446 3462 0
-28 -3446 3447 0
-3447 3463 0
-29 -3447 3448 0
-3448 3464 0
-30 -3448 3449 0
-3449 3465 0
-31 -3449 3450 0
-3450 3466 0
-32 -3450 3451 0
-3451 3467 0
-33 -3451 3452 0
-3452 3468 0
-34 -3452 0
-19 3453 0
-3453 3469 0
-20 -3453 3454 0
-3454 3470 0
-21 -3454 3455 0
-3455 3471 0
-22 -3455 3456 0
-3456 3472 0
-23 -3456 3457 0
-3457 3473 0
-24 -3457 3458 0
-3458 3474 0
-25 -3458 3459 0
-3459 3475 0
-26 -3459 3460 0
-3460 3476 0
-27 -3460 3461 0
-3461 3477 0
-28 -3461 3462 0
-3462 3478 0
-29 -3462 3463 0
-3463 3479 0
-30 -3463 3464 0
-3464 3480 0
-31 -3464 3465 0
-3465 3481 0
-32 -3465 3466 0
-3466 3482 0
-33 -3466 3467 0
-3467 3483 0
-34 -3467 3468 0
-3468 3484 0
-35 -3468 0
-20 3469 0
-3469 3485 0
-21 -3469 3470 0
-3470 3486 0
-22 -3470 3471 0
-3471 3487 0
-23 -3471 3472 0
-3472 3488 0
-24 -3472 3473 0
-3473 3489 0
-25 -3473 3474 0
-3474 3490 0
-26 -3474 3475 0
-3475 3491 0
-27 -3475 3476 0
-3476 3492 0
-28 -3476 3477 0
-3477 3493 0
-29 -3477 3478 0
-3478 3494 0
-30 -3478 3479 0
-3479 3495 0
-31 -3479 3480 0
-3480 3496 0
-32 -3480 3481 0
-3481 3497 0
-33 -3481 3482 0
-3482 3498 0
-34 -3482 3483 0
-3483 3499 0
-35 -3483 3484 0
-3484 3500 0
-36 -3484 0
-21 3485 0
-3485 3501 0
-22 -3485 3486 0
-3486 3502 0
-23 -3486 3487 0
-3487 3503 0
-24 -3487 3488 0
-3488 3504 0
-25 -3488 3489 0
-3489 3505 0
-26 -3489 3490 0
-3490 3506 0
-27 -3490 3491 0
-3491 3507 0
-28 -3491 3492 0
-3492 3508 0
-29 -3492 3493 0
-3493 3509 0
-30 -3493 3494 0
-3494 3510 0
-31 -3494 3495 0
-3495 3511 0
-32 -3495 3496 0
-3496 3512 0
-33 -3496 3497 0
-3497 3513 0
-34 -3497 3498 0
-3498 3514 0
-35 -3498 3499 0
-3499 3515 0
-36 -3499 3500 0
-3500 3516 0
-37 -3500 0
-22 3501 0
-3501 3517 0
-23 -3501 3502 0
-3502 3518 0
-24 -3502 3503 0
-3503 3519 0
-25 -3503 3504 0
-3504 3520 0
-26 -3504 3505 0
-3505 3521 0
-27 -3505 3506 0
-3506 3522 0
-28 -3506 3507 0
-3507 3523 0
-29 -3507 3508 0
-3508 3524 0
-30 -3508 3509 0
-3509 3525 0
-31 -3509 3510 0
-3510 3526 0
-32 -3510 3511 0
-3511 3527 0
-33 -3511 3512 0
-3512 3528 0
-34 -3512 3513 0
-3513 3529 0
-35 -3513 3514 0
-3514 3530 0
-36 -3514 3515 0
-3515 3531 0
-37 -3515 3516 0
-3516 3532 0
-38 -3516 0
-23 3517 0
-3517 3533 0
-24 -3517 3518 0
-3518 3534 0
-25 -3518 3519 0
-3519 3535 0
-26 -3519 3520 0
-3520 3536 0
-27 -3520 3521 0
-3521 3537 0
-28 -3521 3522 0
-3522 3538 0
-29 -3522 3523 0
-3523 3539 0
-30 -3523 3524 0
-3524 3540 0
-31 -3524 3525 0
-3525 3541 0
-32 -3525 3526 0
-3526 3542 0
-33 -3526 3527 0
-3527 3543 0
-34 -3527 3528 0
-3528 3544 0
-35 -3528 3529 0
-3529 3545 0
-36 -3529 3530 0
-3530 3546 0
-37 -3530 3531 0
-3531 3547 0
-38 -3531 3532 0
-3532 3548 0
-39 -3532 0
-24 3533 0
-3533 3549 0
-25 -3533 3534 0
-3534 3550 0
-26 -3534 3535 0
-3535 3551 0
-27 -3535 3536 0
-3536 3552 0
-28 -3536 3537 0
-3537 3553 0
-29 -3537 3538 0
-3538 3554 0
-30 -3538 3539 0
-3539 3555 0
-31 -3539 3540 0
-3540 3556 0
-32 -3540 3541 0
-3541 3557 0
-33 -3541 3542 0
-3542 3558 0
-34 -3542 3543 0
-3543 3559 0
-35 -3543 3544 0
-3544 3560 0
-36 -3544 3545 0
-3545 3561 0
-37 -3545 3546 0
-3546 3562 0
-38 -3546 3547 0
-3547 3563 0
-39 -3547 3548 0
-3548 3564 0
-40 -3548 0
-25 3549 0
-3549 3565 0
-26 -3549 3550 0
-3550 3566 0
-27 -3550 3551 0
-3551 3567 0
-28 -3551 3552 0
-3552 3568 0
-29 -3552 3553 0
-3553 3569 0
-30 -3553 3554 0
-3554 3570 0
-31 -3554 3555 0
-3555 3571 0
-32 -3555 3556 0
-3556 3572 0
-33 -3556 3557 0
-3557 3573 0
-34 -3557 3558 0
-3558 3574 0
-35 -3558 3559 0
-3559 3575 0
-36 -3559 3560 0
-3560 3576 0
-37 -3560 3561 0
-3561 3577 0
-38 -3561 3562 0
-3562 3578 0
-39 -3562 3563 0
-3563 3579 0
-40 -3563 3564 0
-3564 3580 0
-41 -3564 0
-26 3565 0
-3565 3581 0
-27 -3565 3566 0
-3566 3582 0
-28 -3566 3567 0
-3567 3583 0
-29 -3567 3568 0
-3568 3584 0
-30 -3568 3569 0
-3569 3585 0
-31 -3569 3570 0
-3570 3586 0
-32 -3570 3571 0
-3571 3587 0
-33 -3571 3572 0
-3572 3588 0
-34 -3572 3573 0
-3573 3589 0
-35 -3573 3574 0
-3574 3590 0
-36 -3574 3575 0
-3575 3591 0
-37 -3575 3576 0
-3576 3592 0
-38 -3576 3577 0
-3577 3593 0
-39 -3577 3578 0
-3578 3594 0
-40 -3578 3579 0
-3579 3595 0
-41 -3579 3580 0
-3580 3596 0
-42 -3580 0
-27 3581 0
-3581 3597 0
-28 -3581 3582 0
-3582 3598 0
-29 -3582 3583 0
-3583 3599 0
-30 -3583 3584 0
-3584 3600 0
-31 -3584 3585 0
-3585 3601 0
-32 -3585 3586 0
-3586 3602 0
-33 -3586 3587 0
-3587 3603 0
-34 -3587 3588 0
-3588 3604 0
-35 -3588 3589 0
-3589 3605 0
-36 -3589 3590 0
-3590 3606 0
-37 -3590 3591 0
-3591 3607 0
-38 -3591 3592 0
-3592 3608 0
-39 -3592 3593 0
-3593 3609 0
-40 -3593 3594 0
-3594 3610 0
-41 -3594 3595 0
-3595 3611 0
-42 -3595 3596 0
-3596 3612 0
-43 -3596 0
-28 3597 0
-3597 3613 0
-29 -3597 3598 0
-3598 3614 0
-30 -3598 3599 0
-3599 3615 0
-31 -3599 3600 0
-3600 3616 0
-32 -3600 3601 0
-3601 3617 0
-33 -3601 3602 0
-3602 3618 0
-34 -3602 3603 0
-3603 3619 0
-35 -3603 3604 0
-3604 3620 0
-36 -3604 3605 0
-3605 3621 0
-37 -3605 3606 0
-3606 3622 0
-38 -3606 3607 0
-3607 3623 0
-39 -3607 3608 0
-3608 3624 0
-40 -3608 3609 0
-3609 3625 0
-41 -3609 3610 0
-3610 3626 0
-42 -3610 3611 0
-3611 3627 0
-43 -3611 3612 0
-3612 3628 0
-44 -3612 0
-29 3613 0
-3613 3629 0
-30 -3613 3614 0
-3614 3630 0
-31 -3614 3615 0
-3615 3631 0
-32 -3615 3616 0
-3616 3632 0
-33 -3616 3617 0
-3617 3633 0
-34 -3617 3618 0
-3618 3634 0
-35 -3618 3619 0
-3619 3635 0
-36 -3619 3620 0
-3620 3636 0
-37 -3620 3621 0
-3621 3637 0
-38 -3621 3622 0
-3622 3638 0
-39 -3622 3623 0
-3623 3639 0
-40 -3623 3624 0
-3624 3640 0
-41 -3624 3625 0
-3625 3641 0
-42 -3625 3626 0
-3626 3642 0
-43 -3626 3627 0
-3627 3643 0
-44 -3627 3628 0
-3628 3644 0
-45 -3628 0
-30 3629 0
-3629 3645 0
-31 -3629 3630 0
-3630 3646 0
-32 -3630 3631 0
-3631 3647 0
-33 -3631 3632 0
-3632 3648 0
-34 -3632 3633 0
-3633 3649 0
-35 -3633 3634 0
-3634 3650 0
-36 -3634 3635 0
-3635 3651 0
-37 -3635 3636 0
-3636 3652 0
-38 -3636 3637 0
-3637 3653 0
-39 -3637 3638 0
-3638 3654 0
-40 -3638 3639 0
-3639 3655 0
-41 -3639 3640 0
-3640 3656 0
-42 -3640 3641 0
-3641 3657 0
-43 -3641 3642 0
-3642 3658 0
-44 -3642 3643 0
-3643 3659 0
-45 -3643 3644 0
-3644 3660 0
-46 -3644 0
-31 3645 0
-3645 3661 0
-32 -3645 3646 0
-3646 3662 0
-33 -3646 3647 0
-3647 3663 0
-34 -3647 3648 0
-3648 3664 0
-35 -3648 3649 0
-3649 3665 0
-36 -3649 3650 0
-3650 3666 0
-37 -3650 3651 0
-3651 3667 0
-38 -3651 3652 0
-3652 3668 0
-39 -3652 3653 0
-3653 3669 0
-40 -3653 3654 0
-3654 3670 0
-41 -3654 3655 0
-3655 3671 0
-42 -3655 3656 0
-3656 3672 0
-43 -3656 3657 0
-3657 3673 0
-44 -3657 3658 0
-3658 3674 0
-45 -3658 3659 0
-3659 3675 0
-46 -3659 3660 0
-3660 3676 0
-47 -3660 0
-32 3661 0
-3661 3677 0
-33 -3661 3662 0
-3662 3678 0
-34 -3662 3663 0
-3663 3679 0
-35 -3663 3664 0
-3664 3680 0
-36 -3664 3665 0
-3665 3681 0
-37 -3665 3666 0
-3666 3682 0
-38 -3666 3667 0
-3667 3683 0
-39 -3667 3668 0
-3668 3684 0
-40 -3668 3669 0
-3669 3685 0
-41 -3669 3670 0
-3670 3686 0
-42 -3670 3671 0
-3671 3687 0
-43 -3671 3672 0
-3672 3688 0
-44 -3672 3673 0
-3673 3689 0
-45 -3673 3674 0
-3674 3690 0
-46 -3674 3675 0
-3675 3691 0
-47 -3675 3676 0
-3676 3692 0
-48 -3676 0
-33 3677 0
-3677 3693 0
-34 -3677 3678 0
-3678 3694 0
-35 -3678 3679 0
-3679 3695 0
-36 -3679 3680 0
-3680 3696 0
-37 -3680 3681 0
-3681 3697 0
-38 -3681 3682 0
-3682 3698 0
-39 -3682 3683 0
-3683 3699 0
-40 -3683 3684 0
-3684 3700 0
-41 -3684 3685 0
-3685 3701 0
-42 -3685 3686 0
-3686 3702 0
-43 -3686 3687 0
-3687 3703 0
-44 -3687 3688 0
-3688 3704 0
-45 -3688 3689 0
-3689 3705 0
-46 -3689 3690 0
-3690 3706 0
-47 -3690 3691 0
-3691 3707 0
-48 -3691 3692 0
-3692 3708 0
-49 -3692 0
-34 3693 0
-3693 3709 0
-35 -3693 3694 0
-3694 3710 0
-36 -3694 3695 0
-3695 3711 0
-37 -3695 3696 0
-3696 3712 0
-38 -3696 3697 0
-3697 3713 0
-39 -3697 3698 0
-3698 3714 0
-40 -3698 3699 0
-3699 3715 0
-41 -3699 3700 0
-3700 3716 0
-42 -3700 3701 0
-3701 3717 0
-43 -3701 3702 0
-3702 3718 0
-44 -3702 3703 0
-3703 3719 0
-45 -3703 3704 0
-3704 3720 0
-46 -3704 3705 0
-3705 3721 0
-47 -3705 3706 0
-3706 3722 0
-48 -3706 3707 0
-3707 3723 0
-49 -3707 3708 0
-3708 3724 0
-50 -3708 0
-35 3709 0
-3709 3725 0
-36 -3709 3710 0
-3710 3726 0
-37 -3710 3711 0
-3711 3727 0
-38 -3711 3712 0
-3712 3728 0
-39 -3712 3713 0
-3713 3729 0
-40 -3713 3714 0
-3714 3730 0
-41 -3714 3715 0
-3715 3731 0
-42 -3715 3716 0
-3716 3732 0
-43 -3716 3717 0
-3717 3733 0
-44 -3717 3718 0
-3718 3734 0
-45 -3718 3719 0
-3719 3735 0
-46 -3719 3720 0
-3720 3736 0
-47 -3720 3721 0
-3721 3737 0
-48 -3721 3722 0
-3722 3738 0
-49 -3722 3723 0
-3723 3739 0
-50 -3723 3724 0
-3724 3740 0
-51 -3724 0
-36 3725 0
-3725 3741 0
-37 -3725 3726 0
-3726 3742 0
-38 -3726 3727 0
-3727 3743 0
-39 -3727 3728 0
-3728 3744 0
-40 -3728 3729 0
-3729 3745 0
-41 -3729 3730 0
-3730 3746 0
-42 -3730 3731 0
-3731 3747 0
-43 -3731 3732 0
-3732 3748 0
-44 -3732 3733 0
-3733 3749 0
-45 -3733 3734 0
-3734 3750 0
-46 -3734 3735 0
-3735 3751 0
-47 -3735 3736 0
-3736 3752 0
-48 -3736 3737 0
-3737 3753 0
-49 -3737 3738 0
-3738 3754 0
-50 -3738 3739 0
-3739 3755 0
-51 -3739 3740 0
-3740 3756 0
-52 -3740 0
-37 3741 0
-3741 3757 0
-38 -3741 3742 0
-3742 3758 0
-39 -3742 3743 0
-3743 3759 0
-40 -3743 3744 0
-3744 3760 0
-41 -3744 3745 0
-3745 3761 0
-42 -3745 3746 0
-3746 3762 0
-43 -3746 3747 0
-3747 3763 0
-44 -3747 3748 0
-3748 3764 0
-45 -3748 3749 0
-3749 3765 0
-46 -3749 3750 0
-3750 3766 0
-47 -3750 3751 0
-3751 3767 0
-48 -3751 3752 0
-3752 3768 0
-49 -3752 3753 0
-3753 3769 0
-50 -3753 3754 0
-3754 3770 0
-51 -3754 3755 0
-3755 3771 0
-52 -3755 3756 0
-3756 3772 0
-53 -3756 0
-38 3757 0
-3757 3773 0
-39 -3757 3758 0
-3758 3774 0
-40 -3758 3759 0
-3759 3775 0
-41 -3759 3760 0
-3760 3776 0
-42 -3760 3761 0
-3761 3777 0
-43 -3761 3762 0
-3762 3778 0
-44 -3762 3763 0
-3763 3779 0
-45 -3763 3764 0
-3764 3780 0
-46 -3764 3765 0
-3765 3781 0
-47 -3765 3766 0
-3766 3782 0
-48 -3766 3767 0
-3767 3783 0
-49 -3767 3768 0
-3768 3784 0
-50 -3768 3769 0
-3769 3785 0
-51 -3769 3770 0
-3770 3786 0
-52 -3770 3771 0
-3771 3787 0
-53 -3771 3772 0
-3772 3788 0
-54 -3772 0
-39 3773 0
-3773 3789 0
-40 -3773 3774 0
-3774 3790 0
-41 -3774 3775 0
-3775 3791 0
-42 -3775 3776 0
-3776 3792 0
-43 -3776 3777 0
-3777 3793 0
-44 -3777 3778 0
-3778 3794 0
-45 -3778 3779 0
-3779 3795 0
-46 -3779 3780 0
-3780 3796 0
-47 -3780 3781 0
-3781 3797 0
-48 -3781 3782 0
-3782 3798 0
-49 -3782 3783 0
-3783 3799 0
-50 -3783 3784 0
-3784 3800 0
-51 -3784 3785 0
-3785 3801 0
-52 -3785 3786 0
-3786 3802 0
-53 -3786 3787 0
-3787 3803 0
-54 -3787 3788 0
-3788 3804 0
-55 -3788 0
-40 3789 0
-3789 3805 0
-41 -3789 3790 0
-3790 3806 0
-42 -3790 3791 0
-3791 3807 0
-43 -3791 3792 0
-3792 3808 0
-44 -3792 3793 0
-3793 3809 0
-45 -3793 3794 0
-3794 3810 0
-46 -3794 3795 0
-3795 3811 0
-47 -3795 3796 0
-3796 3812 0
-48 -3796 3797 0
-3797 3813 0
-49 -3797 3798 0
-3798 3814 0
-50 -3798 3799 0
-3799 3815 0
-51 -3799 3800 0
-3800 3816 0
-52 -3800 3801 0
-3801 3817 0
-53 -3801 3802 0
-3802 3818 0
-54 -3802 3803 0
-3803 3819 0
-55 -3803 3804 0
-3804 3820 0
-56 -3804 0
-41 3805 0
-3805 3821 0
-42 -3805 3806 0
-3806 3822 0
-43 -3806 3807 0
-3807 3823 0
-44 -3807 3808 0
-3808 3824 0
-45 -3808 3809 0
-3809 3825 0
-46 -3809 3810 0
-3810 3826 0
-47 -3810 3811 0
-3811 3827 0
-48 -3811 3812 0
-3812 3828 0
-49 -3812 3813 0
-3813 3829 0
-50 -3813 3814 0
-3814 3830 0
-51 -3814 3815 0
-3815 3831 0
-52 -3815 3816 0
-3816 3832 0
-53 -3816 3817 0
-3817 3833 0
-54 -3817 3818 0
-3818 3834 0
-55 -3818 3819 0
-3819 3835 0
-56 -3819 3820 0
-3820 3836 0
-57 -3820 0
-42 3821 0
-3821 3837 0
-43 -3821 3822 0
-3822 3838 0
-44 -3822 3823 0
-3823 3839 0
-45 -3823 3824 0
-3824 3840 0
-46 -3824 3825 0
-3825 3841 0
-47 -3825 3826 0
-3826 3842 0
-48 -3826 3827 0
-3827 3843 0
-49 -3827 3828 0
-3828 3844 0
-50 -3828 3829 0
-3829 3845 0
-51 -3829 3830 0
-3830 3846 0
-52 -3830 3831 0
-3831 3847 0
-53 -3831 3832 0
-3832 3848 0
-54 -3832 3833 0
-3833 3849 0
-55 -3833 3834 0
-3834 3850 0
-56 -3834 3835 0
-3835 3851 0
-57 -3835 3836 0
-3836 3852 0
-58 -3836 0
-43 3837 0
-3837 3853 0
-44 -3837 3838 0
-3838 3854 0
-45 -3838 3839 0
-3839 3855 0
-46 -3839 3840 0
-3840 3856 0
-47 -3840 3841 0
-3841 3857 0
-48 -3841 3842 0
-3842 3858 0
-49 -3842 3843 0
-3843 3859 0
-50 -3843 3844 0
-3844 3860 0
-51 -3844 3845 0
-3845 3861 0
-52 -3845 3846 0
-3846 3862 0
-53 -3846 3847 0
-3847 3863 0
-54 -3847 3848 0
-3848 3864 0
-55 -3848 3849 0
-3849 3865 0
-56 -3849 3850 0
-3850 3866 0
-57 -3850 3851 0
-3851 3867 0
-58 -3851 3852 0
-3852 3868 0
-59 -3852 0
-44 3853 0
-3853 3869 0
-45 -3853 3854 0
-3854 3870 0
-46 -3854 3855 0
-3855 3871 0
-47 -3855 3856 0
-3856 3872 0
-48 -3856 3857 0
-3857 3873 0
-49 -3857 3858 0
-3858 3874 0
-50 -3858 3859 0
-3859 3875 0
-51 -3859 3860 0
-3860 3876 0
-52 -3860 3861 0
-3861 3877 0
-53 -3861 3862 0
-3862 3878 0
-54 -3862 3863 0
-3863 3879 0
-55 -3863 3864 0
-3864 3880 0
-56 -3864 3865 0
-3865 3881 0
-57 -3865 3866 0
-3866 3882 0
-58 -3866 3867 0
-3867 3883 0
-59 -3867 3868 0
-3868 3884 0
-60 -3868 0
-45 3869 0
-3869 3885 0
-46 -3869 3870 0
-3870 3886 0
-47 -3870 3871 0
-3871 3887 0
-48 -3871 3872 0
-3872 3888 0
-49 -3872 3873 0
-3873 3889 0
-50 -3873 3874 0
-3874 3890 0
-51 -3874 3875 0
-3875 3891 0
-52 -3875 3876 0
-3876 3892 0
-53 -3876 3877 0
-3877 3893 0
-54 -3877 3878 0
-3878 3894 0
-55 -3878 3879 0
-3879 3895 0
-56 -3879 3880 0
-3880 3896 0
-57 -3880 3881 0
-3881 3897 0
-58 -3881 3882 0
-3882 3898 0
-59 -3882 3883 0
-3883 3899 0
-60 -3883 3884 0
-3884 3900 0
-61 -3884 0
-46 3885 0
-3885 3901 0
-47 -3885 3886 0
-3886 3902 0
-48 -3886 3887 0
-3887 3903 0
-49 -3887 3888 0
-3888 3904 0
-50 -3888 3889 0
-3889 3905 0
-51 -3889 3890 0
-3890 3906 0
-52 -3890 3891 0
-3891 3907 0
-53 -3891 3892 0
-3892 3908 0
-54 -3892 3893 0
-3893 3909 0
-55 -3893 3894 0
-3894 3910 0
-56 -3894 3895 0
-3895 3911 0
-57 -3895 3896 0
-3896 3912 0
-58 -3896 3897 0
-3897 3913 0
-59 -3897 3898 0
-3898 3914 0
-60 -3898 3899 0
-3899 3915 0
-61 -3899 3900 0
-3900 3916 0
-62 -3900 0
-47 3901 0
-3901 3917 0
-48 -3901 3902 0
-3902 3918 0
-49 -3902 3903 0
-3903 3919 0
-50 -3903 3904 0
-3904 3920 0
-51 -3904 3905 0
-3905 3921 0
-52 -3905 3906 0
-3906 3922 0
-53 -3906 3907 0
-3907 3923 0
-54 -3907 3908 0
-3908 3924 0
-55 -3908 3909 0
-3909 3925 0
-56 -3909 3910 0
-3910 3926 0
-57 -3910 3911 0
-3911 3927 0
-58 -3911 3912 0
-3912 3928 0
-59 -3912 3913 0
-3913 3929 0
-60 -3913 3914 0
-3914 3930 0
-61 -3914 3915 0
-3915 3931 0
-62 -3915 3916 0
-3916 3932 0
-63 -3916 0
-48 3917 0
-3917 3933 0
-49 -3917 3918 0
-3918 3934 0
-50 -3918 3919 0
-3919 3935 0
-51 -3919 3920 0
-3920 3936 0
-52 -3920 3921 0
-3921 3937 0
-53 -3921 3922 0
-3922 3938 0
-54 -3922 3923 0
-3923 3939 0
-55 -3923 3924 0
-3924 3940 0
-56 -3924 3925 0
-3925 3941 0
-57 -3925 3926 0
-3926 3942 0
-58 -3926 3927 0
-3927 3943 0
-59 -3927 3928 0
-3928 3944 0
-60 -3928 3929 0
-3929 3945 0
-61 -3929 3930 0
-3930 3946 0
-62 -3930 3931 0
-3931 3947 0
-63 -3931 3932 0
-3932 3948 0
-64 -3932 0
-49 3933 0
-3933 3949 0
-50 -3933 3934 0
-3934 3950 0
-51 -3934 3935 0
-3935 3951 0
-52 -3935 3936 0
-3936 3952 0
-53 -3936 3937 0
-3937 3953 0
-54 -3937 3938 0
-3938 3954 0
-55 -3938 3939 0
-3939 3955 0
-56 -3939 3940 0
-3940 3956 0
-57 -3940 3941 0
-3941 3957 0
-58 -3941 3942 0
-3942 3958 0
-59 -3942 3943 0
-3943 3959 0
-60 -3943 3944 0
-3944 3960 0
-61 -3944 3945 0
-3945 3961 0
-62 -3945 3946 0
-3946 3962 0
-63 -3946 3947 0
-3947 3963 0
-64 -3947 3948 0
-3948 3964 0
-65 -3948 0
-50 3949 0
-3949 3965 0
-51 -3949 3950 0
-3950 3966 0
-52 -3950 3951 0
-3951 3967 0
-53 -3951 3952 0
-3952 3968 0
-54 -3952 3953 0
-3953 3969 0
-55 -3953 3954 0
-3954 3970 0
-56 -3954 3955 0
-3955 3971 0
-57 -3955 3956 0
-3956 3972 0
-58 -3956 3957 0
-3957 3973 0
-59 -3957 3958 0
-3958 3974 0
-60 -3958 3959 0
-3959 3975 0
-61 -3959 3960 0
-3960 3976 0
-62 -3960 3961 0
-3961 3977 0
-63 -3961 3962 0
-3962 3978 0
-64 -3962 3963 0
-3963 3979 0
-65 -3963 3964 0
-3964 3980 0
-66 -3964 0
-51 3965 0
-3965 3981 0
-52 -3965 3966 0
-3966 3982 0
-53 -3966 3967 0
-3967 3983 0
-54 -3967 3968 0
-3968 3984 0
-55 -3968 3969 0
-3969 3985 0
-56 -3969 3970 0
-3970 3986 0
-57 -3970 3971 0
-3971 3987 0
-58 -3971 3972 0
-3972 3988 0
-59 -3972 3973 0
-3973 3989 0
-60 -3973 3974 0
-3974 3990 0
-61 -3974 3975 0
-3975 3991 0
-62 -3975 3976 0
-3976 3992 0
-63 -3976 3977 0
-3977 3993 0
-64 -3977 3978 0
-3978 3994 0
-65 -3978 3979 0
-3979 3995 0
-66 -3979 3980 0
-3980 3996 0
-67 -3980 0
-52 3981 0
-3981 3997 0
-53 -3981 3982 0
-3982 3998 0
-54 -3982 3983 0
-3983 3999 0
-55 -3983 3984 0
-3984 4000 0
-56 -3984 3985 0
-3985 4001 0
-57 -3985 3986 0
-3986 4002 0
-58 -3986 3987 0
-3987 4003 0
-59 -3987 3988 0
-3988 4004 0
-60 -3988 3989 0
-3989 4005 0
-61 -3989 3990 0
-3990 4006 0
-62 -3990 3991 0
-3991 4007 0
-63 -3991 3992 0
-3992 4008 0
-64 -3992 3993 0
-3993 4009 0
-65 -3993 3994 0
-3994 4010 0
-66 -3994 3995 0
-3995 4011 0
-67 -3995 3996 0
-3996 4012 0
-68 -3996 0
-53 3997 0
-3997 4013 0
-54 -3997 3998 0
-3998 4014 0
-55 -3998 3999 0
-3999 4015 0
-56 -3999 4000 0
-4000 4016 0
-57 -4000 4001 0
-4001 4017 0
-58 -4001 4002 0
-4002 4018 0
-59 -4002 4003 0
-4003 4019 0
-60 -4003 4004 0
-4004 4020 0
-61 -4004 4005 0
-4005 4021 0
-62 -4005 4006 0
-4006 4022 0
-63 -4006 4007 0
-4007 4023 0
-64 -4007 4008 0
-4008 4024 0
-65 -4008 4009 0
-4009 4025 0
-66 -4009 4010 0
-4010 4026 0
-67 -4010 4011 0
-4011 4027 0
-68 -4011 4012 0
-4012 4028 0
-69 -4012 0
-54 4013 0
-4013 4029 0
-55 -4013 4014 0
-4014 4030 0
-56 -4014 4015 0
-4015 4031 0
-57 -4015 4016 0
-4016 4032 0
-58 -4016 4017 0
-4017 4033 0
-59 -4017 4018 0
-4018 4034 0
-60 -4018 4019 0
-4019 4035 0
-61 -4019 4020 0
-4020 4036 0
-62 -4020 4021 0
-4021 4037 0
-63 -4021 4022 0
-4022 4038 0
-64 -4022 4023 0
-4023 4039 0
-65 -4023 4024 0
-4024 4040 0
-66 -4024 4025 0
-4025 4041 0
-67 -4025 4026 0
-4026 4042 0
-68 -4026 4027 0
-4027 4043 0
-69 -4027 4028 0
-4028 4044 0
-70 -4028 0
-55 4029 0
-4029 4045 0
-56 -4029 4030 0
-4030 4046 0
-57 -4030 4031 0
-4031 4047 0
-58 -4031 4032 0
-4032 4048 0
-59 -4032 4033 0
-4033 4049 0
-60 -4033 4034 0
-4034 4050 0
-61 -4034 4035 0
-4035 4051 0
-62 -4035 4036 0
-4036 4052 0
-63 -4036 4037 0
-4037 4053 0
-64 -4037 4038 0
-4038 4054 0
-65 -4038 4039 0
-4039 4055 0
-66 -4039 4040 0
-4040 4056 0
-67 -4040 4041 0
-4041 4057 0
-68 -4041 4042 0
-4042 4058 0
-69 -4042 4043 0
-4043 4059 0
-70 -4043 4044 0
-4044 4060 0
-71 -4044 0
-56 4045 0
-4045 4061 0
-57 -4045 4046 0
-4046 4062 0
-58 -4046 4047 0
-4047 4063 0
-59 -4047 4048 0
-4048 4064 0
-60 -4048 4049 0
-4049 4065 0
-61 -4049 4050 0
-4050 4066 0
-62 -4050 4051 0
-4051 4067 0
-63 -4051 4052 0
-4052 4068 0
-64 -4052 4053 0
-4053 4069 0
-65 -4053 4054 0
-4054 4070 0
-66 -4054 4055 0
-4055 4071 0
-67 -4055 4056 0
-4056 4072 0
-68 -4056 4057 0
-4057 4073 0
-69 -4057 4058 0
-4058 4074 0
-70 -4058 4059 0
-4059 4075 0
-71 -4059 4060 0
-4060 4076 0
-72 -4060 0
-57 4061 0
-4061 4077 0
-58 -4061 4062 0
-4062 4078 0
-59 -4062 4063 0
-4063 4079 0
-60 -4063 4064 0
-4064 4080 0
-61 -4064 4065 0
-4065 4081 0
-62 -4065 4066 0
-4066 4082 0
-63 -4066 4067 0
-4067 4083 0
-64 -4067 4068 0
-4068 4084 0
-65 -4068 4069 0
-4069 4085 0
-66 -4069 4070 0
-4070 4086 0
-67 -4070 4071 0
-4071 4087 0
-68 -4071 4072 0
-4072 4088 0
-69 -4072 4073 0
-4073 4089 0
-70 -4073 4074 0
-4074 4090 0
-71 -4074 4075 0
-4075 4091 0
-72 -4075 4076 0
-4076 4092 0
-73 -4076 0
-58 4077 0
-4077 4093 0
-59 -4077 4078 0
-4078 4094 0
-60 -4078 4079 0
-4079 4095 0
-61 -4079 4080 0
-4080 4096 0
-62 -4080 4081 0
-4081 4097 0
-63 -4081 4082 0
-4082 4098 0
-64 -4082 4083 0
-4083 4099 0
-65 -4083 4084 0
-4084 4100 0
-66 -4084 4085 0
-4085 4101 0
-67 -4085 4086 0
-4086 4102 0
-68 -4086 4087 0
-4087 4103 0
-69 -4087 4088 0
-4088 4104 0
-70 -4088 4089 0
-4089 4105 0
-71 -4089 4090 0
-4090 4106 0
-72 -4090 4091 0
-4091 4107 0
-73 -4091 4092 0
-4092 4108 0
-74 -4092 0
-59 4093 0
-4093 4109 0
-60 -4093 4094 0
-4094 4110 0
-61 -4094 4095 0
-4095 4111 0
-62 -4095 4096 0
-4096 4112 0
-63 -4096 4097 0
-4097 4113 0
-64 -4097 4098 0
-4098 4114 0
-65 -4098 4099 0
-4099 4115 0
-66 -4099 4100 0
-4100 4116 0
-67 -4100 4101 0
-4101 4117 0
-68 -4101 4102 0
-4102 4118 0
-69 -4102 4103 0
-4103 4119 0
-70 -4103 4104 0
-4104 4120 0
-71 -4104 4105 0
-4105 4121 0
-72 -4105 4106 0
-4106 4122 0
-73 -4106 4107 0
-4107 4123 0
-74 -4107 4108 0
-4108 4124 0
-75 -4108 0
-60 4109 0
-4109 4125 0
-61 -4109 4110 0
-4110 4126 0
-62 -4110 4111 0
-4111 4127 0
-63 -4111 4112 0
-4112 4128 0
-64 -4112 4113 0
-4113 4129 0
-65 -4113 4114 0
-4114 4130 0
-66 -4114 4115 0
-4115 4131 0
-67 -4115 4116 0
-4116 4132 0
-68 -4116 4117 0
-4117 4133 0
-69 -4117 4118 0
-4118 4134 0
-70 -4118 4119 0
-4119 4135 0
-71 -4119 4120 0
-4120 4136 0
-72 -4120 4121 0
-4121 4137 0
-73 -4121 4122 0
-4122 4138 0
-74 -4122 4123 0
-4123 4139 0
-75 -4123 4124 0
-4124 4140 0
-76 -4124 0
-61 4125 0
-4125 4141 0
-62 -4125 4126 0
-4126 4142 0
-63 -4126 4127 0
-4127 4143 0
-64 -4127 4128 0
-4128 4144 0
-65 -4128 4129 0
-4129 4145 0
-66 -4129 4130 0
-4130 4146 0
-67 -4130 4131 0
-4131 4147 0
-68 -4131 4132 0
-4132 4148 0
-69 -4132 4133 0
-4133 4149 0
-70 -4133 4134 0
-4134 4150 0
-71 -4134 4135 0
-4135 4151 0
-72 -4135 4136 0
-4136 4152 0
-73 -4136 4137 0
-4137 4153 0
-74 -4137 4138 0
-4138 4154 0
-75 -4138 4139 0
-4139 4155 0
-76 -4139 4140 0
-4140 4156 0
-77 -4140 0
-62 4141 0
-4141 4157 0
-63 -4141 4142 0
-4142 4158 0
-64 -4142 4143 0
-4143 4159 0
-65 -4143 4144 0
-4144 4160 0
-66 -4144 4145 0
-4145 4161 0
-67 -4145 4146 0
-4146 4162 0
-68 -4146 4147 0
-4147 4163 0
-69 -4147 4148 0
-4148 4164 0
-70 -4148 4149 0
-4149 4165 0
-71 -4149 4150 0
-4150 4166 0
-72 -4150 4151 0
-4151 4167 0
-73 -4151 4152 0
-4152 4168 0
-74 -4152 4153 0
-4153 4169 0
-75 -4153 4154 0
-4154 4170 0
-76 -4154 4155 0
-4155 4171 0
-77 -4155 4156 0
-4156 4172 0
-78 -4156 0
-63 4157 0
-4157 4173 0
-64 -4157 4158 0
-4158 4174 0
-65 -4158 4159 0
-4159 4175 0
-66 -4159 4160 0
-4160 4176 0
-67 -4160 4161 0
-4161 4177 0
-68 -4161 4162 0
-4162 4178 0
-69 -4162 4163 0
-4163 4179 0
-70 -4163 4164 0
-4164 4180 0
-71 -4164 4165 0
-4165 4181 0
-72 -4165 4166 0
-4166 4182 0
-73 -4166 4167 0
-4167 4183 0
-74 -4167 4168 0
-4168 4184 0
-75 -4168 4169 0
-4169 4185 0
-76 -4169 4170 0
-4170 4186 0
-77 -4170 4171 0
-4171 4187 0
-78 -4171 4172 0
-4172 4188 0
-79 -4172 0
-64 4173 0
-4173 4189 0
-65 -4173 4174 0
-4174 4190 0
-66 -4174 4175 0
-4175 4191 0
-67 -4175 4176 0
-4176 4192 0
-68 -4176 4177 0
-4177 4193 0
-69 -4177 4178 0
-4178 4194 0
-70 -4178 4179 0
-4179 4195 0
-71 -4179 4180 0
-4180 4196 0
-72 -4180 4181 0
-4181 4197 0
-73 -4181 4182 0
-4182 4198 0
-74 -4182 4183 0
-4183 4199 0
-75 -4183 4184 0
-4184 4200 0
-76 -4184 4185 0
-4185 4201 0
-77 -4185 4186 0
-4186 4202 0
-78 -4186 4187 0
-4187 4203 0
-79 -4187 4188 0
-4188 4204 0
-80 -4188 0
-65 4189 0
-4189 4205 0
-66 -4189 4190 0
-4190 4206 0
-67 -4190 4191 0
-4191 4207 0
-68 -4191 4192 0
-4192 4208 0
-69 -4192 4193 0
-4193 4209 0
-70 -4193 4194 0
-4194 4210 0
-71 -4194 4195 0
-4195 4211 0
-72 -4195 4196 0
-4196 4212 0
-73 -4196 4197 0
-4197 4213 0
-74 -4197 4198 0
-4198 4214 0
-75 -4198 4199 0
-4199 4215 0
-76 -4199 4200 0
-4200 4216 0
-77 -4200 4201 0
-4201 4217 0
-78 -4201 4202 0
-4202 4218 0
-79 -4202 4203 0
-4203 4219 0
-80 -4203 4204 0
-4204 4220 0
-81 -4204 0
-66 4205 0
-4205 4221 0
-67 -4205 4206 0
-4206 4222 0
-68 -4206 4207 0
-4207 4223 0
-69 -4207 4208 0
-4208 4224 0
-70 -4208 4209 0
-4209 4225 0
-71 -4209 4210 0
-4210 4226 0
-72 -4210 4211 0
-4211 4227 0
-73 -4211 4212 0
-4212 4228 0
-74 -4212 4213 0
-4213 4229 0
-75 -4213 4214 0
-4214 4230 0
-76 -4214 4215 0
-4215 4231 0
-77 -4215 4216 0
-4216 4232 0
-78 -4216 4217 0
-4217 4233 0
-79 -4217 4218 0
-4218 4234 0
-80 -4218 4219 0
-4219 4235 0
-81 -4219 4220 0
-4220 4236 0
-82 -4220 0
-67 4221 0
-4221 4237 0
-68 -4221 4222 0
-4222 4238 0
-69 -4222 4223 0
-4223 4239 0
-70 -4223 4224 0
-4224 4240 0
-71 -4224 4225 0
-4225 4241 0
-72 -4225 4226 0
-4226 4242 0
-73 -4226 4227 0
-4227 4243 0
-74 -4227 4228 0
-4228 4244 0
-75 -4228 4229 0
-4229 4245 0
-76 -4229 4230 0
-4230 4246 0
-77 -4230 4231 0
-4231 4247 0
-78 -4231 4232 0
-4232 4248 0
-79 -4232 4233 0
-4233 4249 0
-80 -4233 4234 0
-4234 4250 0
-81 -4234 4235 0
-4235 4251 0
-82 -4235 4236 0
-4236 4252 0
-83 -4236 0
-68 4237 0
-4237 4253 0
-69 -4237 4238 0
-4238 4254 0
-70 -4238 4239 0
-4239 4255 0
-71 -4239 4240 0
-4240 4256 0
-72 -4240 4241 0
-4241 4257 0
-73 -4241 4242 0
-4242 4258 0
-74 -4242 4243 0
-4243 4259 0
-75 -4243 4244 0
-4244 4260 0
-76 -4244 4245 0
-4245 4261 0
-77 -4245 4246 0
-4246 4262 0
-78 -4246 4247 0
-4247 4263 0
-79 -4247 4248 0
-4248 4264 0
-80 -4248 4249 0
-4249 4265 0
-81 -4249 4250 0
-4250 4266 0
-82 -4250 4251 0
-4251 4267 0
-83 -4251 4252 0
-4252 4268 0
-84 -4252 0
-69 4253 0
-4253 4269 0
-70 -4253 4254 0
-4254 4270 0
-71 -4254 4255 0
-4255 4271 0
-72 -4255 4256 0
-4256 4272 0
-73 -4256 4257 0
-4257 4273 0
-74 -4257 4258 0
-4258 4274 0
-75 -4258 4259 0
-4259 4275 0
-76 -4259 4260 0
-4260 4276 0
-77 -4260 4261 0
-4261 4277 0
-78 -4261 4262 0
-4262 4278 0
-79 -4262 4263 0
-4263 4279 0
-80 -4263 4264 0
-4264 4280 0
-81 -4264 4265 0
-4265 4281 0
-82 -4265 4266 0
-4266 4282 0
-83 -4266 4267 0
-4267 4283 0
-84 -4267 4268 0
-4268 4284 0
-85 -4268 0
-70 4269 0
-4269 4285 0
-71 -4269 4270 0
-4270 4286 0
-72 -4270 4271 0
-4271 4287 0
-73 -4271 4272 0
-4272 4288 0
-74 -4272 4273 0
-4273 4289 0
-75 -4273 4274 0
-4274 4290 0
-76 -4274 4275 0
-4275 4291 0
-77 -4275 4276 0
-4276 4292 0
-78 -4276 4277 0
-4277 4293 0
-79 -4277 4278 0
-4278 4294 0
-80 -4278 4279 0
-4279 4295 0
-81 -4279 4280 0
-4280 4296 0
-82 -4280 4281 0
-4281 4297 0
-83 -4281 4282 0
-4282 4298 0
-84 -4282 4283 0
-4283 4299 0
-85 -4283 4284 0
-4284 4300 0
-86 -4284 0
-71 4285 0
-4285 4301 0
-72 -4285 4286 0
-4286 4302 0
-73 -4286 4287 0
-4287 4303 0
-74 -4287 4288 0
-4288 4304 0
-75 -4288 4289 0
-4289 4305 0
-76 -4289 4290 0
-4290 4306 0
-77 -4290 4291 0
-4291 4307 0
-78 -4291 4292 0
-4292 4308 0
-79 -4292 4293 0
-4293 4309 0
-80 -4293 4294 0
-4294 4310 0
-81 -4294 4295 0
-4295 4311 0
-82 -4295 4296 0
-4296 4312 0
-83 -4296 4297 0
-4297 4313 0
-84 -4297 4298 0
-4298 4314 0
-85 -4298 4299 0
-4299 4315 0
-86 -4299 4300 0
-4300 4316 0
-87 -4300 0
-72 4301 0
-4301 4317 0
-73 -4301 4302 0
-4302 4318 0
-74 -4302 4303 0
-4303 4319 0
-75 -4303 4304 0
-4304 4320 0
-76 -4304 4305 0
-4305 4321 0
-77 -4305 4306 0
-4306 4322 0
-78 -4306 4307 0
-4307 4323 0
-79 -4307 4308 0
-4308 4324 0
-80 -4308 4309 0
-4309 4325 0
-81 -4309 4310 0
-4310 4326 0
-82 -4310 4311 0
-4311 4327 0
-83 -4311 4312 0
-4312 4328 0
-84 -4312 4313 0
-4313 4329 0
-85 -4313 4314 0
-4314 4330 0
-86 -4314 4315 0
-4315 4331 0
-87 -4315 4316 0
-4316 4332 0
-88 -4316 0
-73 4317 0
-4317 4333 0
-74 -4317 4318 0
-4318 4334 0
-75 -4318 4319 0
-4319 4335 0
-76 -4319 4320 0
-4320 4336 0
-77 -4320 4321 0
-4321 4337 0
-78 -4321 4322 0
-4322 4338 0
-79 -4322 4323 0
-4323 4339 0
-80 -4323 4324 0
-4324 4340 0
-81 -4324 4325 0
-4325 4341 0
-82 -4325 4326 0
-4326 4342 0
-83 -4326 4327 0
-4327 4343 0
-84 -4327 4328 0
-4328 4344 0
-85 -4328 4329 0
-4329 4345 0
-86 -4329 4330 0
-4330 4346 0
-87 -4330 4331 0
-4331 4347 0
-88 -4331 4332 0
-4332 4348 0
-89 -4332 0
-74 4333 0
-4333 4349 0
-75 -4333 4334 0
-4334 4350 0
-76 -4334 4335 0
-4335 4351 0
-77 -4335 4336 0
-4336 4352 0
-78 -4336 4337 0
-4337 4353 0
-79 -4337 4338 0
-4338 4354 0
-80 -4338 4339 0
-4339 4355 0
-81 -4339 4340 0
-4340 4356 0
-82 -4340 4341 0
-4341 4357 0
-83 -4341 4342 0
-4342 4358 0
-84 -4342 4343 0
-4343 4359 0
-85 -4343 4344 0
-4344 4360 0
-86 -4344 4345 0
-4345 4361 0
-87 -4345 4346 0
-4346 4362 0
-88 -4346 4347 0
-4347 4363 0
-89 -4347 4348 0
-4348 4364 0
-90 -4348 0
-75 4349 0
-4349 4365 0
-76 -4349 4350 0
-4350 4366 0
-77 -4350 4351 0
-4351 4367 0
-78 -4351 4352 0
-4352 4368 0
-79 -4352 4353 0
-4353 4369 0
-80 -4353 4354 0
-4354 4370 0
-81 -4354 4355 0
-4355 4371 0
-82 -4355 4356 0
-4356 4372 0
-83 -4356 4357 0
-4357 4373 0
-84 -4357 4358 0
-4358 4374 0
-85 -4358 4359 0
-4359 4375 0
-86 -4359 4360 0
-4360 4376 0
-87 -4360 4361 0
-4361 4377 0
-88 -4361 4362 0
-4362 4378 0
-89 -4362 4363 0
-4363 4379 0
-90 -4363 4364 0
-4364 4380 0
-91 -4364 0
-76 4365 0
-4365 4381 0
-77 -4365 4366 0
-4366 4382 0
-78 -4366 4367 0
-4367 4383 0
-79 -4367 4368 0
-4368 4384 0
-80 -4368 4369 0
-4369 4385 0
-81 -4369 4370 0
-4370 4386 0
-82 -4370 4371 0
-4371 4387 0
-83 -4371 4372 0
-4372 4388 0
-84 -4372 4373 0
-4373 4389 0
-85 -4373 4374 0
-4374 4390 0
-86 -4374 4375 0
-4375 4391 0
-87 -4375 4376 0
-4376 4392 0
-88 -4376 4377 0
-4377 4393 0
-89 -4377 4378 0
-4378 4394 0
-90 -4378 4379 0
-4379 4395 0
-91 -4379 4380 0
-4380 4396 0
-92 -4380 0
-77 4381 0
-4381 4397 0
-78 -4381 4382 0
-4382 4398 0
-79 -4382 4383 0
-4383 4399 0
-80 -4383 4384 0
-4384 4400 0
-81 -4384 4385 0
-4385 4401 0
-82 -4385 4386 0
-4386 4402 0
-83 -4386 4387 0
-4387 4403 0
-84 -4387 4388 0
-4388 4404 0
-85 -4388 4389 0
-4389 4405 0
-86 -4389 4390 0
-4390 4406 0
-87 -4390 4391 0
-4391 4407 0
-88 -4391 4392 0
-4392 4408 0
-89 -4392 4393 0
-4393 4409 0
-90 -4393 4394 0
-4394 4410 0
-91 -4394 4395 0
-4395 4411 0
-92 -4395 4396 0
-4396 4412 0
-93 -4396 0
-78 4397 0
-4397 4413 0
-79 -4397 4398 0
-4398 4414 0
-80 -4398 4399 0
-4399 4415 0
-81 -4399 4400 0
-4400 4416 0
-82 -4400 4401 0
-4401 4417 0
-83 -4401 4402 0
-4402 4418 0
-84 -4402 4403 0
-4403 4419 0
-85 -4403 4404 0
-4404 4420 0
-86 -4404 4405 0
-4405 4421 0
-87 -4405 4406 0
-4406 4422 0
-88 -4406 4407 0
-4407 4423 0
-89 -4407 4408 0
-4408 4424 0
-90 -4408 4409 0
-4409 4425 0
-91 -4409 4410 0
-4410 4426 0
-92 -4410 4411 0
-4411 4427 0
-93 -4411 4412 0
-4412 4428 0
-94 -4412 0
-79 4413 0
-4413 4429 0
-80 -4413 4414 0
-4414 4430 0
-81 -4414 4415 0
-4415 4431 0
-82 -4415 4416 0
-4416 4432 0
-83 -4416 4417 0
-4417 4433 0
-84 -4417 4418 0
-4418 4434 0
-85 -4418 4419 0
-4419 4435 0
-86 -4419 4420 0
-4420 4436 0
-87 -4420 4421 0
-4421 4437 0
-88 -4421 4422 0
-4422 4438 0
-89 -4422 4423 0
-4423 4439 0
-90 -4423 4424 0
-4424 4440 0
-91 -4424 4425 0
-4425 4441 0
-92 -4425 4426 0
-4426 4442 0
-93 -4426 4427 0
-4427 4443 0
-94 -4427 4428 0
-4428 4444 0
-95 -4428 0
-80 4429 0
-4429 4445 0
-81 -4429 4430 0
-4430 4446 0
-82 -4430 4431 0
-4431 4447 0
-83 -4431 4432 0
-4432 4448 0
-84 -4432 4433 0
-4433 4449 0
-85 -4433 4434 0
-4434 4450 0
-86 -4434 4435 0
-4435 4451 0
-87 -4435 4436 0
-4436 4452 0
-88 -4436 4437 0
-4437 4453 0
-89 -4437 4438 0
-4438 4454 0
-90 -4438 4439 0
-4439 4455 0
-91 -4439 4440 0
-4440 4456 0
-92 -4440 4441 0
-4441 4457 0
-93 -4441 4442 0
-4442 4458 0
-94 -4442 4443 0
-4443 4459 0
-95 -4443 4444 0
-4444 4460 0
-96 -4444 0
-81 4445 0
-4445 4461 0
-82 -4445 4446 0
-4446 4462 0
-83 -4446 4447 0
-4447 4463 0
-84 -4447 4448 0
-4448 4464 0
-85 -4448 4449 0
-4449 4465 0
-86 -4449 4450 0
-4450 4466 0
-87 -4450 4451 0
-4451 4467 0
-88 -4451 4452 0
-4452 4468 0
-89 -4452 4453 0
-4453 4469 0
-90 -4453 4454 0
-4454 4470 0
-91 -4454 4455 0
-4455 4471 0
-92 -4455 4456 0
-4456 4472 0
-93 -4456 4457 0
-4457 4473 0
-94 -4457 4458 0
-4458 4474 0
-95 -4458 4459 0
-4459 4475 0
-96 -4459 4460 0
-4460 4476 0
-97 -4460 0
-82 4461 0
-4461 4477 0
-83 -4461 4462 0
-4462 4478 0
-84 -4462 4463 0
-4463 4479 0
-85 -4463 4464 0
-4464 4480 0
-86 -4464 4465 0
-4465 4481 0
-87 -4465 4466 0
-4466 4482 0
-88 -4466 4467 0
-4467 4483 0
-89 -4467 4468 0
-4468 4484 0
-90 -4468 4469 0
-4469 4485 0
-91 -4469 4470 0
-4470 4486 0
-92 -4470 4471 0
-4471 4487 0
-93 -4471 4472 0
-4472 4488 0
-94 -4472 4473 0
-4473 4489 0
-95 -4473 4474 0
-4474 4490 0
-96 -4474 4475 0
-4475 4491 0
-97 -4475 4476 0
-4476 4492 0
-98 -4476 0
-83 4477 0
-4477 4493 0
-84 -4477 4478 0
-4478 4494 0
-85 -4478 4479 0
-4479 4495 0
-86 -4479 4480 0
-4480 4496 0
-87 -4480 4481 0
-4481 4497 0
-88 -4481 4482 0
-4482 4498 0
-89 -4482 4483 0
-4483 4499 0
-90 -4483 4484 0
-4484 4500 0
-91 -4484 4485 0
-4485 4501 0
-92 -4485 4486 0
-4486 4502 0
-93 -4486 4487 0
-4487 4503 0
-94 -4487 4488 0
-4488 4504 0
-95 -4488 4489 0
-4489 4505 0
-96 -4489 4490 0
-4490 4506 0
-97 -4490 4491 0
-4491 4507 0
-98 -4491 4492 0
-4492 4508 0
-99 -4492 0
-84 4493 0
-4493 4509 0
-85 -4493 4494 0
-4494 4510 0
-86 -4494 4495 0
-4495 4511 0
-87 -4495 4496 0
-4496 4512 0
-88 -4496 4497 0
-4497 4513 0
-89 -4497 4498 0
-4498 4514 0
-90 -4498 4499 0
-4499 4515 0
-91 -4499 4500 0
-4500 4516 0
-92 -4500 4501 0
-4501 4517 0
-93 -4501 4502 0
-4502 4518 0
-94 -4502 4503 0
-4503 4519 0
-95 -4503 4504 0
-4504 4520 0
-96 -4504 4505 0
-4505 4521 0
-97 -4505 4506 0
-4506 4522 0
-98 -4506 4507 0
-4507 4523 0
-99 -4507 4508 0
-4508 4524 0
-100 -4508 0
-85 4509 0
-4509 4525 0
-86 -4509 4510 0
-4510 4526 0
-87 -4510 4511 0
-4511 4527 0
-88 -4511 4512 0
-4512 4528 0
-89 -4512 4513 0
-4513 4529 0
-90 -4513 4514 0
-4514 4530 0
-91 -4514 4515 0
-4515 4531 0
-92 -4515 4516 0
-4516 4532 0
-93 -4516 4517 0
-4517 4533 0
-94 -4517 4518 0
-4518 4534 0
-95 -4518 4519 0
-4519 4535 0
-96 -4519 4520 0
-4520 4536 0
-97 -4520 4521 0
-4521 4537 0
-98 -4521 4522 0
-4522 4538 0
-99 -4522 4523 0
-4523 4539 0
-100 -4523 4524 0
-4524 4540 0
-101 -4524 0
-86 4525 0
-4525 4541 0
-87 -4525 4526 0
-4526 4542 0
-88 -4526 4527 0
-4527 4543 0
-89 -4527 4528 0
-4528 4544 0
-90 -4528 4529 0
-4529 4545 0
-91 -4529 4530 0
-4530 4546 0
-92 -4530 4531 0
-4531 4547 0
-93 -4531 4532 0
-4532 4548 0
-94 -4532 4533 0
-4533 4549 0
-95 -4533 4534 0
-4534 4550 0
-96 -4534 4535 0
-4535 4551 0
-97 -4535 4536 0
-4536 4552 0
-98 -4536 4537 0
-4537 4553 0
-99 -4537 4538 0
-4538 4554 0
-100 -4538 4539 0
-4539 4555 0
-101 -4539 4540 0
-4540 4556 0
-102 -4540 0
-87 4541 0
-4541 4557 0
-88 -4541 4542 0
-4542 4558 0
-89 -4542 4543 0
-4543 4559 0
-90 -4543 4544 0
-4544 4560 0
-91 -4544 4545 0
-4545 4561 0
-92 -4545 4546 0
-4546 4562 0
-93 -4546 4547 0
-4547 4563 0
-94 -4547 4548 0
-4548 4564 0
-95 -4548 4549 0
-4549 4565 0
-96 -4549 4550 0
-4550 4566 0
-97 -4550 4551 0
-4551 4567 0
-98 -4551 4552 0
-4552 4568 0
-99 -4552 4553 0
-4553 4569 0
-100 -4553 4554 0
-4554 4570 0
-101 -4554 4555 0
-4555 4571 0
-102 -4555 4556 0
-4556 4572 0
-103 -4556 0
-88 4557 0
-4557 4573 0
-89 -4557 4558 0
-4558 4574 0
-90 -4558 4559 0
-4559 4575 0
-91 -4559 4560 0
-4560 4576 0
-92 -4560 4561 0
-4561 4577 0
-93 -4561 4562 0
-4562 4578 0
-94 -4562 4563 0
-4563 4579 0
-95 -4563 4564 0
-4564 4580 0
-96 -4564 4565 0
-4565 4581 0
-97 -4565 4566 0
-4566 4582 0
-98 -4566 4567 0
-4567 4583 0
-99 -4567 4568 0
-4568 4584 0
-100 -4568 4569 0
-4569 4585 0
-101 -4569 4570 0
-4570 4586 0
-102 -4570 4571 0
-4571 4587 0
-103 -4571 4572 0
-4572 4588 0
-104 -4572 0
-89 4573 0
-4573 4589 0
-90 -4573 4574 0
-4574 4590 0
-91 -4574 4575 0
-4575 4591 0
-92 -4575 4576 0
-4576 4592 0
-93 -4576 4577 0
-4577 4593 0
-94 -4577 4578 0
-4578 4594 0
-95 -4578 4579 0
-4579 4595 0
-96 -4579 4580 0
-4580 4596 0
-97 -4580 4581 0
-4581 4597 0
-98 -4581 4582 0
-4582 4598 0
-99 -4582 4583 0
-4583 4599 0
-100 -4583 4584 0
-4584 4600 0
-101 -4584 4585 0
-4585 4601 0
-102 -4585 4586 0
-4586 4602 0
-103 -4586 4587 0
-4587 4603 0
-104 -4587 4588 0
-4588 4604 0
-105 -4588 0
-90 4589 0
-4589 4605 0
-91 -4589 4590 0
-4590 4606 0
-92 -4590 4591 0
-4591 4607 0
-93 -4591 4592 0
-4592 4608 0
-94 -4592 4593 0
-4593 4609 0
-95 -4593 4594 0
-4594 4610 0
-96 -4594 4595 0
-4595 4611 0
-97 -4595 4596 0
-4596 4612 0
-98 -4596 4597 0
-4597 4613 0
-99 -4597 4598 0
-4598 4614 0
-100 -4598 4599 0
-4599 4615 0
-101 -4599 4600 0
-4600 4616 0
-102 -4600 4601 0
-4601 4617 0
-103 -4601 4602 0
-4602 4618 0
-104 -4602 4603 0
-4603 4619 0
-105 -4603 4604 0
-4604 4620 0
-106 -4604 0
-91 4605 0
-4605 4621 0
-92 -4605 4606 0
-4606 4622 0
-93 -4606 4607 0
-4607 4623 0
-94 -4607 4608 0
-4608 4624 0
-95 -4608 4609 0
-4609 4625 0
-96 -4609 4610 0
-4610 4626 0
-97 -4610 4611 0
-4611 4627 0
-98 -4611 4612 0
-4612 4628 0
-99 -4612 4613 0
-4613 4629 0
-100 -4613 4614 0
-4614 4630 0
-101 -4614 4615 0
-4615 4631 0
-102 -4615 4616 0
-4616 4632 0
-103 -4616 4617 0
-4617 4633 0
-104 -4617 4618 0
-4618 4634 0
-105 -4618 4619 0
-4619 4635 0
-106 -4619 4620 0
-4620 4636 0
-107 -4620 0
-92 4621 0
-4621 4637 0
-93 -4621 4622 0
-4622 4638 0
-94 -4622 4623 0
-4623 4639 0
-95 -4623 4624 0
-4624 4640 0
-96 -4624 4625 0
-4625 4641 0
-97 -4625 4626 0
-4626 4642 0
-98 -4626 4627 0
-4627 4643 0
-99 -4627 4628 0
-4628 4644 0
-100 -4628 4629 0
-4629 4645 0
-101 -4629 4630 0
-4630 4646 0
-102 -4630 4631 0
-4631 4647 0
-103 -4631 4632 0
-4632 4648 0
-104 -4632 4633 0
-4633 4649 0
-105 -4633 4634 0
-4634 4650 0
-106 -4634 4635 0
-4635 4651 0
-107 -4635 4636 0
-4636 4652 0
-108 -4636 0
-93 4637 0
-4637 4653 0
-94 -4637 4638 0
-4638 4654 0
-95 -4638 4639 0
-4639 4655 0
-96 -4639 4640 0
-4640 4656 0
-97 -4640 4641 0
-4641 4657 0
-98 -4641 4642 0
-4642 4658 0
-99 -4642 4643 0
-4643 4659 0
-100 -4643 4644 0
-4644 4660 0
-101 -4644 4645 0
-4645 4661 0
-102 -4645 4646 0
-4646 4662 0
-103 -4646 4647 0
-4647 4663 0
-104 -4647 4648 0
-4648 4664 0
-105 -4648 4649 0
-4649 4665 0
-106 -4649 4650 0
-4650 4666 0
-107 -4650 4651 0
-4651 4667 0
-108 -4651 4652 0
-4652 4668 0
-109 -4652 0
-94 4653 0
-4653 4669 0
-95 -4653 4654 0
-4654 4670 0
-96 -4654 4655 0
-4655 4671 0
-97 -4655 4656 0
-4656 4672 0
-98 -4656 4657 0
-4657 4673 0
-99 -4657 4658 0
-4658 4674 0
-100 -4658 4659 0
-4659 4675 0
-101 -4659 4660 0
-4660 4676 0
-102 -4660 4661 0
-4661 4677 0
-103 -4661 4662 0
-4662 4678 0
-104 -4662 4663 0
-4663 4679 0
-105 -4663 4664 0
-4664 4680 0
-106 -4664 4665 0
-4665 4681 0
-107 -4665 4666 0
-4666 4682 0
-108 -4666 4667 0
-4667 4683 0
-109 -4667 4668 0
-4668 4684 0
-110 -4668 0
-95 4669 0
-4669 4685 0
-96 -4669 4670 0
-4670 4686 0
-97 -4670 4671 0
-4671 4687 0
-98 -4671 4672 0
-4672 4688 0
-99 -4672 4673 0
-4673 4689 0
-100 -4673 4674 0
-4674 4690 0
-101 -4674 4675 0
-4675 4691 0
-102 -4675 4676 0
-4676 4692 0
-103 -4676 4677 0
-4677 4693 0
-104 -4677 4678 0
-4678 4694 0
-105 -4678 4679 0
-4679 4695 0
-106 -4679 4680 0
-4680 4696 0
-107 -4680 4681 0
-4681 4697 0
-108 -4681 4682 0
-4682 4698 0
-109 -4682 4683 0
-4683 4699 0
-110 -4683 4684 0
-4684 4700 0
-111 -4684 0
-96 4685 0
-4685 4701 0
-97 -4685 4686 0
-4686 4702 0
-98 -4686 4687 0
-4687 4703 0
-99 -4687 4688 0
-4688 4704 0
-100 -4688 4689 0
-4689 4705 0
-101 -4689 4690 0
-4690 4706 0
-102 -4690 4691 0
-4691 4707 0
-103 -4691 4692 0
-4692 4708 0
-104 -4692 4693 0
-4693 4709 0
-105 -4693 4694 0
-4694 4710 0
-106 -4694 4695 0
-4695 4711 0
-107 -4695 4696 0
-4696 4712 0
-108 -4696 4697 0
-4697 4713 0
-109 -4697 4698 0
-4698 4714 0
-110 -4698 4699 0
-4699 4715 0
-111 -4699 4700 0
-4700 4716 0
-112 -4700 0
-97 4701 0
-4701 4717 0
-98 -4701 4702 0
-4702 4718 0
-99 -4702 4703 0
-4703 4719 0
-100 -4703 4704 0
-4704 4720 0
-101 -4704 4705 0
-4705 4721 0
-102 -4705 4706 0
-4706 4722 0
-103 -4706 4707 0
-4707 4723 0
-104 -4707 4708 0
-4708 4724 0
-105 -4708 4709 0
-4709 4725 0
-106 -4709 4710 0
-4710 4726 0
-107 -4710 4711 0
-4711 4727 0
-108 -4711 4712 0
-4712 4728 0
-109 -4712 4713 0
-4713 4729 0
-110 -4713 4714 0
-4714 4730 0
-111 -4714 4715 0
-4715 4731 0
-112 -4715 4716 0
-4716 4732 0
-113 -4716 0
-98 4717 0
-4717 4733 0
-99 -4717 4718 0
-4718 4734 0
-100 -4718 4719 0
-4719 4735 0
-101 -4719 4720 0
-4720 4736 0
-102 -4720 4721 0
-4721 4737 0
-103 -4721 4722 0
-4722 4738 0
-104 -4722 4723 0
-4723 4739 0
-105 -4723 4724 0
-4724 4740 0
-106 -4724 4725 0
-4725 4741 0
-107 -4725 4726 0
-4726 4742 0
-108 -4726 4727 0
-4727 4743 0
-109 -4727 4728 0
-4728 4744 0
-110 -4728 4729 0
-4729 4745 0
-111 -4729 4730 0
-4730 4746 0
-112 -4730 4731 0
-4731 4747 0
-113 -4731 4732 0
-4732 4748 0
-114 -4732 0
-99 4733 0
-4733 4749 0
-100 -4733 4734 0
-4734 4750 0
-101 -4734 4735 0
-4735 4751 0
-102 -4735 4736 0
-4736 4752 0
-103 -4736 4737 0
-4737 4753 0
-104 -4737 4738 0
-4738 4754 0
-105 -4738 4739 0
-4739 4755 0
-106 -4739 4740 0
-4740 4756 0
-107 -4740 4741 0
-4741 4757 0
-108 -4741 4742 0
-4742 4758 0
-109 -4742 4743 0
-4743 4759 0
-110 -4743 4744 0
-4744 4760 0
-111 -4744 4745 0
-4745 4761 0
-112 -4745 4746 0
-4746 4762 0
-113 -4746 4747 0
-4747 4763 0
-114 -4747 4748 0
-4748 4764 0
-115 -4748 0
-100 4749 0
-4749 4765 0
-101 -4749 4750 0
-4750 4766 0
-102 -4750 4751 0
-4751 4767 0
-103 -4751 4752 0
-4752 4768 0
-104 -4752 4753 0
-4753 4769 0
-105 -4753 4754 0
-4754 4770 0
-106 -4754 4755 0
-4755 4771 0
-107 -4755 4756 0
-4756 4772 0
-108 -4756 4757 0
-4757 4773 0
-109 -4757 4758 0
-4758 4774 0
-110 -4758 4759 0
-4759 4775 0
-111 -4759 4760 0
-4760 4776 0
-112 -4760 4761 0
-4761 4777 0
-113 -4761 4762 0
-4762 4778 0
-114 -4762 4763 0
-4763 4779 0
-115 -4763 4764 0
-4764 4780 0
-116 -4764 0
-101 4765 0
-4765 4781 0
-102 -4765 4766 0
-4766 4782 0
-103 -4766 4767 0
-4767 4783 0
-104 -4767 4768 0
-4768 4784 0
-105 -4768 4769 0
-4769 4785 0
-106 -4769 4770 0
-4770 4786 0
-107 -4770 4771 0
-4771 4787 0
-108 -4771 4772 0
-4772 4788 0
-109 -4772 4773 0
-4773 4789 0
-110 -4773 4774 0
-4774 4790 0
-111 -4774 4775 0
-4775 4791 0
-112 -4775 4776 0
-4776 4792 0
-113 -4776 4777 0
-4777 4793 0
-114 -4777 4778 0
-4778 4794 0
-115 -4778 4779 0
-4779 4795 0
-116 -4779 4780 0
-4780 4796 0
-117 -4780 0
-102 4781 0
-4781 4797 0
-103 -4781 4782 0
-4782 4798 0
-104 -4782 4783 0
-4783 4799 0
-105 -4783 4784 0
-4784 4800 0
-106 -4784 4785 0
-4785 4801 0
-107 -4785 4786 0
-4786 4802 0
-108 -4786 4787 0
-4787 4803 0
-109 -4787 4788 0
-4788 4804 0
-110 -4788 4789 0
-4789 4805 0
-111 -4789 4790 0
-4790 4806 0
-112 -4790 4791 0
-4791 4807 0
-113 -4791 4792 0
-4792 4808 0
-114 -4792 4793 0
-4793 4809 0
-115 -4793 4794 0
-4794 4810 0
-116 -4794 4795 0
-4795 4811 0
-117 -4795 4796 0
-4796 4812 0
-118 -4796 0
-103 4797 0
-4797 4813 0
-104 -4797 4798 0
-4798 4814 0
-105 -4798 4799 0
-4799 4815 0
-106 -4799 4800 0
-4800 4816 0
-107 -4800 4801 0
-4801 4817 0
-108 -4801 4802 0
-4802 4818 0
-109 -4802 4803 0
-4803 4819 0
-110 -4803 4804 0
-4804 4820 0
-111 -4804 4805 0
-4805 4821 0
-112 -4805 4806 0
-4806 4822 0
-113 -4806 4807 0
-4807 4823 0
-114 -4807 4808 0
-4808 4824 0
-115 -4808 4809 0
-4809 4825 0
-116 -4809 4810 0
-4810 4826 0
-117 -4810 4811 0
-4811 4827 0
-118 -4811 4812 0
-4812 4828 0
-119 -4812 0
-104 4813 0
-4813 4829 0
-105 -4813 4814 0
-4814 4830 0
-106 -4814 4815 0
-4815 4831 0
-107 -4815 4816 0
-4816 4832 0
-108 -4816 4817 0
-4817 4833 0
-109 -4817 4818 0
-4818 4834 0
-110 -4818 4819 0
-4819 4835 0
-111 -4819 4820 0
-4820 4836 0
-112 -4820 4821 0
-4821 4837 0
-113 -4821 4822 0
-4822 4838 0
-114 -4822 4823 0
-4823 4839 0
-115 -4823 4824 0
-4824 4840 0
-116 -4824 4825 0
-4825 4841 0
-117 -4825 4826 0
-4826 4842 0
-118 -4826 4827 0
-4827 4843 0
-119 -4827 4828 0
-4828 4844 0
-120 -4828 0
-105 4829 0
-4829 4845 0
-106 -4829 4830 0
-4830 4846 0
-107 -4830 4831 0
-4831 4847 0
-108 -4831 4832 0
-4832 4848 0
-109 -4832 4833 0
-4833 4849 0
-110 -4833 4834 0
-4834 4850 0
-111 -4834 4835 0
-4835 4851 0
-112 -4835 4836 0
-4836 4852 0
-113 -4836 4837 0
-4837 4853 0
-114 -4837 4838 0
-4838 4854 0
-115 -4838 4839 0
-4839 4855 0
-116 -4839 4840 0
-4840 4856 0
-117 -4840 4841 0
-4841 4857 0
-118 -4841 4842 0
-4842 4858 0
-119 -4842 4843 0
-4843 4859 0
-120 -4843 4844 0
-4844 4860 0
-121 -4844 0
-106 4845 0
-4845 4861 0
-107 -4845 4846 0
-4846 4862 0
-108 -4846 4847 0
-4847 4863 0
-109 -4847 4848 0
-4848 4864 0
-110 -4848 4849 0
-4849 4865 0
-111 -4849 4850 0
-4850 4866 0
-112 -4850 4851 0
-4851 4867 0
-113 -4851 4852 0
-4852 4868 0
-114 -4852 4853 0
-4853 4869 0
-115 -4853 4854 0
-4854 4870 0
-116 -4854 4855 0
-4855 4871 0
-117 -4855 4856 0
-4856 4872 0
-118 -4856 4857 0
-4857 4873 0
-119 -4857 4858 0
-4858 4874 0
-120 -4858 4859 0
-4859 4875 0
-121 -4859 4860 0
-4860 4876 0
-122 -4860 0
-107 4861 0
-4861 4877 0
-108 -4861 4862 0
-4862 4878 0
-109 -4862 4863 0
-4863 4879 0
-110 -4863 4864 0
-4864 4880 0
-111 -4864 4865 0
-4865 4881 0
-112 -4865 4866 0
-4866 4882 0
-113 -4866 4867 0
-4867 4883 0
-114 -4867 4868 0
-4868 4884 0
-115 -4868 4869 0
-4869 4885 0
-116 -4869 4870 0
-4870 4886 0
-117 -4870 4871 0
-4871 4887 0
-118 -4871 4872 0
-4872 4888 0
-119 -4872 4873 0
-4873 4889 0
-120 -4873 4874 0
-4874 4890 0
-121 -4874 4875 0
-4875 4891 0
-122 -4875 4876 0
-4876 4892 0
-123 -4876 0
-108 4877 0
-4877 4893 0
-109 -4877 4878 0
-4878 4894 0
-110 -4878 4879 0
-4879 4895 0
-111 -4879 4880 0
-4880 4896 0
-112 -4880 4881 0
-4881 4897 0
-113 -4881 4882 0
-4882 4898 0
-114 -4882 4883 0
-4883 4899 0
-115 -4883 4884 0
-4884 4900 0
-116 -4884 4885 0
-4885 4901 0
-117 -4885 4886 0
-4886 4902 0
-118 -4886 4887 0
-4887 4903 0
-119 -4887 4888 0
-4888 4904 0
-120 -4888 4889 0
-4889 4905 0
-121 -4889 4890 0
-4890 4906 0
-122 -4890 4891 0
-4891 4907 0
-123 -4891 4892 0
-4892 4908 0
-124 -4892 0
-109 4893 0
-4893 4909 0
-110 -4893 4894 0
-4894 4910 0
-111 -4894 4895 0
-4895 4911 0
-112 -4895 4896 0
-4896 4912 0
-113 -4896 4897 0
-4897 4913 0
-114 -4897 4898 0
-4898 4914 0
-115 -4898 4899 0
-4899 4915 0
-116 -4899 4900 0
-4900 4916 0
-117 -4900 4901 0
-4901 4917 0
-118 -4901 4902 0
-4902 4918 0
-119 -4902 4903 0
-4903 4919 0
-120 -4903 4904 0
-4904 4920 0
-121 -4904 4905 0
-4905 4921 0
-122 -4905 4906 0
-4906 4922 0
-123 -4906 4907 0
-4907 4923 0
-124 -4907 4908 0
-4908 4924 0
-125 -4908 0
-110 4909 0
-4909 4925 0
-111 -4909 4910 0
-4910 4926 0
-112 -4910 4911 0
-4911 4927 0
-113 -4911 4912 0
-4912 4928 0
-114 -4912 4913 0
-4913 4929 0
-115 -4913 4914 0
-4914 4930 0
-116 -4914 4915 0
-4915 4931 0
-117 -4915 4916 0
-4916 4932 0
-118 -4916 4917 0
-4917 4933 0
-119 -4917 4918 0
-4918 4934 0
-120 -4918 4919 0
-4919 4935 0
-121 -4919 4920 0
-4920 4936 0
-122 -4920 4921 0
-4921 4937 0
-123 -4921 4922 0
-4922 4938 0
-124 -4922 4923 0
-4923 4939 0
-125 -4923 4924 0
-4924 4940 0
-126 -4924 0
-111 4925 0
-4925 4941 0
-112 -4925 4926 0
-4926 4942 0
-113 -4926 4927 0
-4927 4943 0
-114 -4927 4928 0
-4928 4944 0
-115 -4928 4929 0
-4929 4945 0
-116 -4929 4930 0
-4930 4946 0
-117 -4930 4931 0
-4931 4947 0
-118 -4931 4932 0
-4932 4948 0
-119 -4932 4933 0
-4933 4949 0
-120 -4933 4934 0
-4934 4950 0
-121 -4934 4935 0
-4935 4951 0
-122 -4935 4936 0
-4936 4952 0
-123 -4936 4937 0
-4937 4953 0
-124 -4937 4938 0
-4938 4954 0
-125 -4938 4939 0
-4939 4955 0
-126 -4939 4940 0
-4940 4956 0
-127 -4940 0
-112 4941 0
-4941 4957 0
-113 -4941 4942 0
-4942 4958 0
-114 -4942 4943 0
-4943 4959 0
-115 -4943 4944 0
-4944 4960 0
-116 -4944 4945 0
-4945 4961 0
-117 -4945 4946 0
-4946 4962 0
-118 -4946 4947 0
-4947 4963 0
-119 -4947 4948 0
-4948 4964 0
-120 -4948 4949 0
-4949 4965 0
-121 -4949 4950 0
-4950 4966 0
-122 -4950 4951 0
-4951 4967 0
-123 -4951 4952 0
-4952 4968 0
-124 -4952 4953 0
-4953 4969 0
-125 -4953 4954 0
-4954 4970 0
-126 -4954 4955 0
-4955 4971 0
-127 -4955 4956 0
-4956 4972 0
-128 -4956 0
-113 4957 0
-4957 4973 0
-114 -4957 4958 0
-4958 4974 0
-115 -4958 4959 0
-4959 4975 0
-116 -4959 4960 0
-4960 4976 0
-117 -4960 4961 0
-4961 4977 0
-118 -4961 4962 0
-4962 4978 0
-119 -4962 4963 0
-4963 4979 0
-120 -4963 4964 0
-4964 4980 0
-121 -4964 4965 0
-4965 4981 0
-122 -4965 4966 0
-4966 4982 0
-123 -4966 4967 0
-4967 4983 0
-124 -4967 4968 0
-4968 4984 0
-125 -4968 4969 0
-4969 4985 0
-126 -4969 4970 0
-4970 4986 0
-127 -4970 4971 0
-4971 4987 0
-128 -4971 4972 0
-4972 4988 0
-129 -4972 0
-114 4973 0
-4973 4989 0
-115 -4973 4974 0
-4974 4990 0
-116 -4974 4975 0
-4975 4991 0
-117 -4975 4976 0
-4976 4992 0
-118 -4976 4977 0
-4977 4993 0
-119 -4977 4978 0
-4978 4994 0
-120 -4978 4979 0
-4979 4995 0
-121 -4979 4980 0
-4980 4996 0
-122 -4980 4981 0
-4981 4997 0
-123 -4981 4982 0
-4982 4998 0
-124 -4982 4983 0
-4983 4999 0
-125 -4983 4984 0
-4984 5000 0
-126 -4984 4985 0
-4985 5001 0
-127 -4985 4986 0
-4986 5002 0
-128 -4986 4987 0
-4987 5003 0
-129 -4987 4988 0
-4988 5004 0
-130 -4988 0
-115 4989 0
-4989 5005 0
-116 -4989 4990 0
-4990 5006 0
-117 -4990 4991 0
-4991 5007 0
-118 -4991 4992 0
-4992 5008 0
-119 -4992 4993 0
-4993 5009 0
-120 -4993 4994 0
-4994 5010 0
-121 -4994 4995 0
-4995 5011 0
-122 -4995 4996 0
-4996 5012 0
-123 -4996 4997 0
-4997 5013 0
-124 -4997 4998 0
-4998 5014 0
-125 -4998 4999 0
-4999 5015 0
-126 -4999 5000 0
-5000 5016 0
-127 -5000 5001 0
-5001 5017 0
-128 -5001 5002 0
-5002 5018 0
-129 -5002 5003 0
-5003 5019 0
-130 -5003 5004 0
-5004 5020 0
-131 -5004 0
-116 5005 0
-5005 5021 0
-117 -5005 5006 0
-5006 5022 0
-118 -5006 5007 0
-5007 5023 0
-119 -5007 5008 0
-5008 5024 0
-120 -5008 5009 0
-5009 5025 0
-121 -5009 5010 0
-5010 5026 0
-122 -5010 5011 0
-5011 5027 0
-123 -5011 5012 0
-5012 5028 0
-124 -5012 5013 0
-5013 5029 0
-125 -5013 5014 0
-5014 5030 0
-126 -5014 5015 0
-5015 5031 0
-127 -5015 5016 0
-5016 5032 0
-128 -5016 5017 0
-5017 5033 0
-129 -5017 5018 0
-5018 5034 0
-130 -5018 5019 0
-5019 5035 0
-131 -5019 5020 0
-5020 5036 0
-132 -5020 0
-117 5021 0
-5021 5037 0
-118 -5021 5022 0
-5022 5038 0
-119 -5022 5023 0
-5023 5039 0
-120 -5023 5024 0
-5024 5040 0
-121 -5024 5025 0
-5025 5041 0
-122 -5025 5026 0
-5026 5042 0
-123 -5026 5027 0
-5027 5043 0
-124 -5027 5028 0
-5028 5044 0
-125 -5028 5029 0
-5029 5045 0
-126 -5029 5030 0
-5030 5046 0
-127 -5030 5031 0
-5031 5047 0
-128 -5031 5032 0
-5032 5048 0
-129 -5032 5033 0
-5033 5049 0
-130 -5033 5034 0
-5034 5050 0
-131 -5034 5035 0
-5035 5051 0
-132 -5035 5036 0
-5036 5052 0
-133 -5036 0
-118 5037 0
-5037 5053 0
-119 -5037 5038 0
-5038 5054 0
-120 -5038 5039 0
-5039 5055 0
-121 -5039 5040 0
-5040 5056 0
-122 -5040 5041 0
-5041 5057 0
-123 -5041 5042 0
-5042 5058 0
-124 -5042 5043 0
-5043 5059 0
-125 -5043 5044 0
-5044 5060 0
-126 -5044 5045 0
-5045 5061 0
-127 -5045 5046 0
-5046 5062 0
-128 -5046 5047 0
-5047 5063 0
-129 -5047 5048 0
-5048 5064 0
-130 -5048 5049 0
-5049 5065 0
-131 -5049 5050 0
-5050 5066 0
-132 -5050 5051 0
-5051 5067 0
-133 -5051 5052 0
-5052 5068 0
-134 -5052 0
-119 5053 0
-5053 5069 0
-120 -5053 5054 0
-5054 5070 0
-121 -5054 5055 0
-5055 5071 0
-122 -5055 5056 0
-5056 5072 0
-123 -5056 5057 0
-5057 5073 0
-124 -5057 5058 0
-5058 5074 0
-125 -5058 5059 0
-5059 5075 0
-126 -5059 5060 0
-5060 5076 0
-127 -5060 5061 0
-5061 5077 0
-128 -5061 5062 0
-5062 5078 0
-129 -5062 5063 0
-5063 5079 0
-130 -5063 5064 0
-5064 5080 0
-131 -5064 5065 0
-5065 5081 0
-132 -5065 5066 0
-5066 5082 0
-133 -5066 5067 0
-5067 5083 0
-134 -5067 5068 0
-5068 5084 0
-135 -5068 0
-120 5069 0
-5069 5085 0
-121 -5069 5070 0
-5070 5086 0
-122 -5070 5071 0
-5071 5087 0
-123 -5071 5072 0
-5072 5088 0
-124 -5072 5073 0
-5073 5089 0
-125 -5073 5074 0
-5074 5090 0
-126 -5074 5075 0
-5075 5091 0
-127 -5075 5076 0
-5076 5092 0
-128 -5076 5077 0
-5077 5093 0
-129 -5077 5078 0
-5078 5094 0
-130 -5078 5079 0
-5079 5095 0
-131 -5079 5080 0
-5080 5096 0
-132 -5080 5081 0
-5081 5097 0
-133 -5081 5082 0
-5082 5098 0
-134 -5082 5083 0
-5083 5099 0
-135 -5083 5084 0
-5084 5100 0
-136 -5084 0
-121 5085 0
-5085 5101 0
-122 -5085 5086 0
-5086 5102 0
-123 -5086 5087 0
-5087 5103 0
-124 -5087 5088 0
-5088 5104 0
-125 -5088 5089 0
-5089 5105 0
-126 -5089 5090 0
-5090 5106 0
-127 -5090 5091 0
-5091 5107 0
-128 -5091 5092 0
-5092 5108 0
-129 -5092 5093 0
-5093 5109 0
-130 -5093 5094 0
-5094 5110 0
-131 -5094 5095 0
-5095 5111 0
-132 -5095 5096 0
-5096 5112 0
-133 -5096 5097 0
-5097 5113 0
-134 -5097 5098 0
-5098 5114 0
-135 -5098 5099 0
-5099 5115 0
-136 -5099 5100 0
-5100 5116 0
-137 -5100 0
-122 5101 0
-5101 5117 0
-123 -5101 5102 0
-5102 5118 0
-124 -5102 5103 0
-5103 5119 0
-125 -5103 5104 0
-5104 5120 0
-126 -5104 5105 0
-5105 5121 0
-127 -5105 5106 0
-5106 5122 0
-128 -5106 5107 0
-5107 5123 0
-129 -5107 5108 0
-5108 5124 0
-130 -5108 5109 0
-5109 5125 0
-131 -5109 5110 0
-5110 5126 0
-132 -5110 5111 0
-5111 5127 0
-133 -5111 5112 0
-5112 5128 0
-134 -5112 5113 0
-5113 5129 0
-135 -5113 5114 0
-5114 5130 0
-136 -5114 5115 0
-5115 5131 0
-137 -5115 5116 0
-5116 5132 0
-138 -5116 0
-123 5117 0
-5117 5133 0
-124 -5117 5118 0
-5118 5134 0
-125 -5118 5119 0
-5119 5135 0
-126 -5119 5120 0
-5120 5136 0
-127 -5120 5121 0
-5121 5137 0
-128 -5121 5122 0
-5122 5138 0
-129 -5122 5123 0
-5123 5139 0
-130 -5123 5124 0
-5124 5140 0
-131 -5124 5125 0
-5125 5141 0
-132 -5125 5126 0
-5126 5142 0
-133 -5126 5127 0
-5127 5143 0
-134 -5127 5128 0
-5128 5144 0
-135 -5128 5129 0
-5129 5145 0
-136 -5129 5130 0
-5130 5146 0
-137 -5130 5131 0
-5131 5147 0
-138 -5131 5132 0
-5132 5148 0
-139 -5132 0
-124 5133 0
-5133 5149 0
-125 -5133 5134 0
-5134 5150 0
-126 -5134 5135 0
-5135 5151 0
-127 -5135 5136 0
-5136 5152 0
-128 -5136 5137 0
-5137 5153 0
-129 -5137 5138 0
-5138 5154 0
-130 -5138 5139 0
-5139 5155 0
-131 -5139 5140 0
-5140 5156 0
-132 -5140 5141 0
-5141 5157 0
-133 -5141 5142 0
-5142 5158 0
-134 -5142 5143 0
-5143 5159 0
-135 -5143 5144 0
-5144 5160 0
-136 -5144 5145 0
-5145 5161 0
-137 -5145 5146 0
-5146 5162 0
-138 -5146 5147 0
-5147 5163 0
-139 -5147 5148 0
-5148 5164 0
-140 -5148 0
-125 5149 0
-5149 5165 0
-126 -5149 5150 0
-5150 5166 0
-127 -5150 5151 0
-5151 5167 0
-128 -5151 5152 0
-5152 5168 0
-129 -5152 5153 0
-5153 5169 0
-130 -5153 5154 0
-5154 5170 0
-131 -5154 5155 0
-5155 5171 0
-132 -5155 5156 0
-5156 5172 0
-133 -5156 5157 0
-5157 5173 0
-134 -5157 5158 0
-5158 5174 0
-135 -5158 5159 0
-5159 5175 0
-136 -5159 5160 0
-5160 5176 0
-137 -5160 5161 0
-5161 5177 0
-138 -5161 5162 0
-5162 5178 0
-139 -5162 5163 0
-5163 5179 0
-140 -5163 5164 0
-5164 5180 0
-141 -5164 0
-126 5165 0
-5165 5181 0
-127 -5165 5166 0
-5166 5182 0
-128 -5166 5167 0
-5167 5183 0
-129 -5167 5168 0
-5168 5184 0
-130 -5168 5169 0
-5169 5185 0
-131 -5169 5170 0
-5170 5186 0
-132 -5170 5171 0
-5171 5187 0
-133 -5171 5172 0
-5172 5188 0
-134 -5172 5173 0
-5173 5189 0
-135 -5173 5174 0
-5174 5190 0
-136 -5174 5175 0
-5175 5191 0
-137 -5175 5176 0
-5176 5192 0
-138 -5176 5177 0
-5177 5193 0
-139 -5177 5178 0
-5178 5194 0
-140 -5178 5179 0
-5179 5195 0
-141 -5179 5180 0
-5180 5196 0
-142 -5180 0
-127 5181 0
-5181 5197 0
-128 -5181 5182 0
-5182 5198 0
-129 -5182 5183 0
-5183 5199 0
-130 -5183 5184 0
-5184 5200 0
-131 -5184 5185 0
-5185 5201 0
-132 -5185 5186 0
-5186 5202 0
-133 -5186 5187 0
-5187 5203 0
-134 -5187 5188 0
-5188 5204 0
-135 -5188 5189 0
-5189 5205 0
-136 -5189 5190 0
-5190 5206 0
-137 -5190 5191 0
-5191 5207 0
-138 -5191 5192 0
-5192 5208 0
-139 -5192 5193 0
-5193 5209 0
-140 -5193 5194 0
-5194 5210 0
-141 -5194 5195 0
-5195 5211 0
-142 -5195 5196 0
-5196 5212 0
-143 -5196 0
-128 5197 0
-5197 5213 0
-129 -5197 5198 0
-5198 5214 0
-130 -5198 5199 0
-5199 5215 0
-131 -5199 5200 0
-5200 5216 0
-132 -5200 5201 0
-5201 5217 0
-133 -5201 5202 0
-5202 5218 0
-134 -5202 5203 0
-5203 5219 0
-135 -5203 5204 0
-5204 5220 0
-136 -5204 5205 0
-5205 5221 0
-137 -5205 5206 0
-5206 5222 0
-138 -5206 5207 0
-5207 5223 0
-139 -5207 5208 0
-5208 5224 0
-140 -5208 5209 0
-5209 5225 0
-141 -5209 5210 0
-5210 5226 0
-142 -5210 5211 0
-5211 5227 0
-143 -5211 5212 0
-5212 5228 0
-144 -5212 0
-129 5213 0
-5213 5229 0
-130 -5213 5214 0
-5214 5230 0
-131 -5214 5215 0
-5215 5231 0
-132 -5215 5216 0
-5216 5232 0
-133 -5216 5217 0
-5217 5233 0
-134 -5217 5218 0
-5218 5234 0
-135 -5218 5219 0
-5219 5235 0
-136 -5219 5220 0
-5220 5236 0
-137 -5220 5221 0
-5221 5237 0
-138 -5221 5222 0
-5222 5238 0
-139 -5222 5223 0
-5223 5239 0
-140 -5223 5224 0
-5224 5240 0
-141 -5224 5225 0
-5225 5241 0
-142 -5225 5226 0
-5226 5242 0
-143 -5226 5227 0
-5227 5243 0
-144 -5227 5228 0
-5228 5244 0
-145 -5228 0
-130 5229 0
-5229 5245 0
-131 -5229 5230 0
-5230 5246 0
-132 -5230 5231 0
-5231 5247 0
-133 -5231 5232 0
-5232 5248 0
-134 -5232 5233 0
-5233 5249 0
-135 -5233 5234 0
-5234 5250 0
-136 -5234 5235 0
-5235 5251 0
-137 -5235 5236 0
-5236 5252 0
-138 -5236 5237 0
-5237 5253 0
-139 -5237 5238 0
-5238 5254 0
-140 -5238 5239 0
-5239 5255 0
-141 -5239 5240 0
-5240 5256 0
-142 -5240 5241 0
-5241 5257 0
-143 -5241 5242 0
-5242 5258 0
-144 -5242 5243 0
-5243 5259 0
-145 -5243 5244 0
-5244 5260 0
-146 -5244 0
-131 5245 0
-5245 5261 0
-132 -5245 5246 0
-5246 5262 0
-133 -5246 5247 0
-5247 5263 0
-134 -5247 5248 0
-5248 5264 0
-135 -5248 5249 0
-5249 5265 0
-136 -5249 5250 0
-5250 5266 0
-137 -5250 5251 0
-5251 5267 0
-138 -5251 5252 0
-5252 5268 0
-139 -5252 5253 0
-5253 5269 0
-140 -5253 5254 0
-5254 5270 0
-141 -5254 5255 0
-5255 5271 0
-142 -5255 5256 0
-5256 5272 0
-143 -5256 5257 0
-5257 5273 0
-144 -5257 5258 0
-5258 5274 0
-145 -5258 5259 0
-5259 5275 0
-146 -5259 5260 0
-5260 5276 0
-147 -5260 0
-132 5261 0
-5261 5277 0
-133 -5261 5262 0
-5262 5278 0
-134 -5262 5263 0
-5263 5279 0
-135 -5263 5264 0
-5264 5280 0
-136 -5264 5265 0
-5265 5281 0
-137 -5265 5266 0
-5266 5282 0
-138 -5266 5267 0
-5267 5283 0
-139 -5267 5268 0
-5268 5284 0
-140 -5268 5269 0
-5269 5285 0
-141 -5269 5270 0
-5270 5286 0
-142 -5270 5271 0
-5271 5287 0
-143 -5271 5272 0
-5272 5288 0
-144 -5272 5273 0
-5273 5289 0
-145 -5273 5274 0
-5274 5290 0
-146 -5274 5275 0
-5275 5291 0
-147 -5275 5276 0
-5276 5292 0
-148 -5276 0
-133 5277 0
-5277 5293 0
-134 -5277 5278 0
-5278 5294 0
-135 -5278 5279 0
-5279 5295 0
-136 -5279 5280 0
-5280 5296 0
-137 -5280 5281 0
-5281 5297 0
-138 -5281 5282 0
-5282 5298 0
-139 -5282 5283 0
-5283 5299 0
-140 -5283 5284 0
-5284 5300 0
-141 -5284 5285 0
-5285 5301 0
-142 -5285 5286 0
-5286 5302 0
-143 -5286 5287 0
-5287 5303 0
-144 -5287 5288 0
-5288 5304 0
-145 -5288 5289 0
-5289 5305 0
-146 -5289 5290 0
-5290 5306 0
-147 -5290 5291 0
-5291 5307 0
-148 -5291 5292 0
-5292 5308 0
-149 -5292 0
-134 5293 0
-5293 5309 0
-135 -5293 5294 0
-5294 5310 0
-136 -5294 5295 0
-5295 5311 0
-137 -5295 5296 0
-5296 5312 0
-138 -5296 5297 0
-5297 5313 0
-139 -5297 5298 0
-5298 5314 0
-140 -5298 5299 0
-5299 5315 0
-141 -5299 5300 0
-5300 5316 0
-142 -5300 5301 0
-5301 5317 0
-143 -5301 5302 0
-5302 5318 0
-144 -5302 5303 0
-5303 5319 0
-145 -5303 5304 0
-5304 5320 0
-146 -5304 5305 0
-5305 5321 0
-147 -5305 5306 0
-5306 5322 0
-148 -5306 5307 0
-5307 5323 0
-149 -5307 5308 0
-5308 5324 0
-150 -5308 0
-135 5309 0
-5309 5325 0
-136 -5309 5310 0
-5310 5326 0
-137 -5310 5311 0
-5311 5327 0
-138 -5311 5312 0
-5312 5328 0
-139 -5312 5313 0
-5313 5329 0
-140 -5313 5314 0
-5314 5330 0
-141 -5314 5315 0
-5315 5331 0
-142 -5315 5316 0
-5316 5332 0
-143 -5316 5317 0
-5317 5333 0
-144 -5317 5318 0
-5318 5334 0
-145 -5318 5319 0
-5319 5335 0
-146 -5319 5320 0
-5320 5336 0
-147 -5320 5321 0
-5321 5337 0
-148 -5321 5322 0
-5322 5338 0
-149 -5322 5323 0
-5323 5339 0
-150 -5323 5324 0
-5324 5340 0
-151 -5324 0
-136 5325 0
-5325 5341 0
-137 -5325 5326 0
-5326 5342 0
-138 -5326 5327 0
-5327 5343 0
-139 -5327 5328 0
-5328 5344 0
-140 -5328 5329 0
-5329 5345 0
-141 -5329 5330 0
-5330 5346 0
-142 -5330 5331 0
-5331 5347 0
-143 -5331 5332 0
-5332 5348 0
-144 -5332 5333 0
-5333 5349 0
-145 -5333 5334 0
-5334 5350 0
-146 -5334 5335 0
-5335 5351 0
-147 -5335 5336 0
-5336 5352 0
-148 -5336 5337 0
-5337 5353 0
-149 -5337 5338 0
-5338 5354 0
-150 -5338 5339 0
-5339 5355 0
-151 -5339 5340 0
-5340 5356 0
-152 -5340 0
-137 5341 0
-5341 5357 0
-138 -5341 5342 0
-5342 5358 0
-139 -5342 5343 0
-5343 5359 0
-140 -5343 5344 0
-5344 5360 0
-141 -5344 5345 0
-5345 5361 0
-142 -5345 5346 0
-5346 5362 0
-143 -5346 5347 0
-5347 5363 0
-144 -5347 5348 0
-5348 5364 0
-145 -5348 5349 0
-5349 5365 0
-146 -5349 5350 0
-5350 5366 0
-147 -5350 5351 0
-5351 5367 0
-148 -5351 5352 0
-5352 5368 0
-149 -5352 5353 0
-5353 5369 0
-150 -5353 5354 0
-5354 5370 0
-151 -5354 5355 0
-5355 5371 0
-152 -5355 5356 0
-5356 5372 0
-153 -5356 0
-138 5357 0
-5357 5373 0
-139 -5357 5358 0
-5358 5374 0
-140 -5358 5359 0
-5359 5375 0
-141 -5359 5360 0
-5360 5376 0
-142 -5360 5361 0
-5361 5377 0
-143 -5361 5362 0
-5362 5378 0
-144 -5362 5363 0
-5363 5379 0
-145 -5363 5364 0
-5364 5380 0
-146 -5364 5365 0
-5365 5381 0
-147 -5365 5366 0
-5366 5382 0
-148 -5366 5367 0
-5367 5383 0
-149 -5367 5368 0
-5368 5384 0
-150 -5368 5369 0
-5369 5385 0
-151 -5369 5370 0
-5370 5386 0
-152 -5370 5371 0
-5371 5387 0
-153 -5371 5372 0
-5372 5388 0
-154 -5372 0
-139 5373 0
-5373 5389 0
-140 -5373 5374 0
-5374 5390 0
-141 -5374 5375 0
-5375 5391 0
-142 -5375 5376 0
-5376 5392 0
-143 -5376 5377 0
-5377 5393 0
-144 -5377 5378 0
-5378 5394 0
-145 -5378 5379 0
-5379 5395 0
-146 -5379 5380 0
-5380 5396 0
-147 -5380 5381 0
-5381 5397 0
-148 -5381 5382 0
-5382 5398 0
-149 -5382 5383 0
-5383 5399 0
-150 -5383 5384 0
-5384 5400 0
-151 -5384 5385 0
-5385 5401 0
-152 -5385 5386 0
-5386 5402 0
-153 -5386 5387 0
-5387 5403 0
-154 -5387 5388 0
-5388 5404 0
-155 -5388 0
-140 5389 0
-5389 5405 0
-141 -5389 5390 0
-5390 5406 0
-142 -5390 5391 0
-5391 5407 0
-143 -5391 5392 0
-5392 5408 0
-144 -5392 5393 0
-5393 5409 0
-145 -5393 5394 0
-5394 5410 0
-146 -5394 5395 0
-5395 5411 0
-147 -5395 5396 0
-5396 5412 0
-148 -5396 5397 0
-5397 5413 0
-149 -5397 5398 0
-5398 5414 0
-150 -5398 5399 0
-5399 5415 0
-151 -5399 5400 0
-5400 5416 0
-152 -5400 5401 0
-5401 5417 0
-153 -5401 5402 0
-5402 5418 0
-154 -5402 5403 0
-5403 5419 0
-155 -5403 5404 0
-5404 5420 0
-156 -5404 0
-141 5405 0
-5405 5421 0
-142 -5405 5406 0
-5406 5422 0
-143 -5406 5407 0
-5407 5423 0
-144 -5407 5408 0
-5408 5424 0
-145 -5408 5409 0
-5409 5425 0
-146 -5409 5410 0
-5410 5426 0
-147 -5410 5411 0
-5411 5427 0
-148 -5411 5412 0
-5412 5428 0
-149 -5412 5413 0
-5413 5429 0
-150 -5413 5414 0
-5414 5430 0
-151 -5414 5415 0
-5415 5431 0
-152 -5415 5416 0
-5416 5432 0
-153 -5416 5417 0
-5417 5433 0
-154 -5417 5418 0
-5418 5434 0
-155 -5418 5419 0
-5419 5435 0
-156 -5419 5420 0
-5420 5436 0
-157 -5420 0
-142 5421 0
-5421 5437 0
-143 -5421 5422 0
-5422 5438 0
-144 -5422 5423 0
-5423 5439 0
-145 -5423 5424 0
-5424 5440 0
-146 -5424 5425 0
-5425 5441 0
-147 -5425 5426 0
-5426 5442 0
-148 -5426 5427 0
-5427 5443 0
-149 -5427 5428 0
-5428 5444 0
-150 -5428 5429 0
-5429 5445 0
-151 -5429 5430 0
-5430 5446 0
-152 -5430 5431 0
-5431 5447 0
-153 -5431 5432 0
-5432 5448 0
-154 -5432 5433 0
-5433 5449 0
-155 -5433 5434 0
-5434 5450 0
-156 -5434 5435 0
-5435 5451 0
-157 -5435 5436 0
-5436 5452 0
-158 -5436 0
-143 5437 0
-5437 5453 0
-144 -5437 5438 0
-5438 5454 0
-145 -5438 5439 0
-5439 5455 0
-146 -5439 5440 0
-5440 5456 0
-147 -5440 5441 0
-5441 5457 0
-148 -5441 5442 0
-5442 5458 0
-149 -5442 5443 0
-5443 5459 0
-150 -5443 5444 0
-5444 5460 0
-151 -5444 5445 0
-5445 5461 0
-152 -5445 5446 0
-5446 5462 0
-153 -5446 5447 0
-5447 5463 0
-154 -5447 5448 0
-5448 5464 0
-155 -5448 5449 0
-5449 5465 0
-156 -5449 5450 0
-5450 5466 0
-157 -5450 5451 0
-5451 5467 0
-158 -5451 5452 0
-5452 5468 0
-159 -5452 0
-144 5453 0
-5453 5469 0
-145 -5453 5454 0
-5454 5470 0
-146 -5454 5455 0
-5455 5471 0
-147 -5455 5456 0
-5456 5472 0
-148 -5456 5457 0
-5457 5473 0
-149 -5457 5458 0
-5458 5474 0
-150 -5458 5459 0
-5459 5475 0
-151 -5459 5460 0
-5460 5476 0
-152 -5460 5461 0
-5461 5477 0
-153 -5461 5462 0
-5462 5478 0
-154 -5462 5463 0
-5463 5479 0
-155 -5463 5464 0
-5464 5480 0
-156 -5464 5465 0
-5465 5481 0
-157 -5465 5466 0
-5466 5482 0
-158 -5466 5467 0
-5467 5483 0
-159 -5467 5468 0
-5468 5484 0
-160 -5468 0
-145 5469 0
-5469 5485 0
-146 -5469 5470 0
-5470 5486 0
-147 -5470 5471 0
-5471 5487 0
-148 -5471 5472 0
-5472 5488 0
-149 -5472 5473 0
-5473 5489 0
-150 -5473 5474 0
-5474 5490 0
-151 -5474 5475 0
-5475 5491 0
-152 -5475 5476 0
-5476 5492 0
-153 -5476 5477 0
-5477 5493 0
-154 -5477 5478 0
-5478 5494 0
-155 -5478 5479 0
-5479 5495 0
-156 -5479 5480 0
-5480 5496 0
-157 -5480 5481 0
-5481 5497 0
-158 -5481 5482 0
-5482 5498 0
-159 -5482 5483 0
-5483 5499 0
-160 -5483 5484 0
-5484 5500 0
-161 -5484 0
-146 5485 0
-5485 5501 0
-147 -5485 5486 0
-5486 5502 0
-148 -5486 5487 0
-5487 5503 0
-149 -5487 5488 0
-5488 5504 0
-150 -5488 5489 0
-5489 5505 0
-151 -5489 5490 0
-5490 5506 0
-152 -5490 5491 0
-5491 5507 0
-153 -5491 5492 0
-5492 5508 0
-154 -5492 5493 0
-5493 5509 0
-155 -5493 5494 0
-5494 5510 0
-156 -5494 5495 0
-5495 5511 0
-157 -5495 5496 0
-5496 5512 0
-158 -5496 5497 0
-5497 5513 0
-159 -5497 5498 0
-5498 5514 0
-160 -5498 5499 0
-5499 5515 0
-161 -5499 5500 0
-5500 5516 0
-162 -5500 0
-147 5501 0
-5501 5517 0
-148 -5501 5502 0
-5502 5518 0
-149 -5502 5503 0
-5503 5519 0
-150 -5503 5504 0
-5504 5520 0
-151 -5504 5505 0
-5505 5521 0
-152 -5505 5506 0
-5506 5522 0
-153 -5506 5507 0
-5507 5523 0
-154 -5507 5508 0
-5508 5524 0
-155 -5508 5509 0
-5509 5525 0
-156 -5509 5510 0
-5510 5526 0
-157 -5510 5511 0
-5511 5527 0
-158 -5511 5512 0
-5512 5528 0
-159 -5512 5513 0
-5513 5529 0
-160 -5513 5514 0
-5514 5530 0
-161 -5514 5515 0
-5515 5531 0
-162 -5515 5516 0
-5516 5532 0
-163 -5516 0
-148 5517 0
-5517 5533 0
-149 -5517 5518 0
-5518 5534 0
-150 -5518 5519 0
-5519 5535 0
-151 -5519 5520 0
-5520 5536 0
-152 -5520 5521 0
-5521 5537 0
-153 -5521 5522 0
-5522 5538 0
-154 -5522 5523 0
-5523 5539 0
-155 -5523 5524 0
-5524 5540 0
-156 -5524 5525 0
-5525 5541 0
-157 -5525 5526 0
-5526 5542 0
-158 -5526 5527 0
-5527 5543 0
-159 -5527 5528 0
-5528 5544 0
-160 -5528 5529 0
-5529 5545 0
-161 -5529 5530 0
-5530 5546 0
-162 -5530 5531 0
-5531 5547 0
-163 -5531 5532 0
-5532 5548 0
-164 -5532 0
-149 5533 0
-5533 5549 0
-150 -5533 5534 0
-5534 5550 0
-151 -5534 5535 0
-5535 5551 0
-152 -5535 5536 0
-5536 5552 0
-153 -5536 5537 0
-5537 5553 0
-154 -5537 5538 0
-5538 5554 0
-155 -5538 5539 0
-5539 5555 0
-156 -5539 5540 0
-5540 5556 0
-157 -5540 5541 0
-5541 5557 0
-158 -5541 5542 0
-5542 5558 0
-159 -5542 5543 0
-5543 5559 0
-160 -5543 5544 0
-5544 5560 0
-161 -5544 5545 0
-5545 5561 0
-162 -5545 5546 0
-5546 5562 0
-163 -5546 5547 0
-5547 5563 0
-164 -5547 5548 0
-5548 5564 0
-165 -5548 0
-150 5549 0
-5549 5565 0
-151 -5549 5550 0
-5550 5566 0
-152 -5550 5551 0
-5551 5567 0
-153 -5551 5552 0
-5552 5568 0
-154 -5552 5553 0
-5553 5569 0
-155 -5553 5554 0
-5554 5570 0
-156 -5554 5555 0
-5555 5571 0
-157 -5555 5556 0
-5556 5572 0
-158 -5556 5557 0
-5557 5573 0
-159 -5557 5558 0
-5558 5574 0
-160 -5558 5559 0
-5559 5575 0
-161 -5559 5560 0
-5560 5576 0
-162 -5560 5561 0
-5561 5577 0
-163 -5561 5562 0
-5562 5578 0
-164 -5562 5563 0
-5563 5579 0
-165 -5563 5564 0
-5564 5580 0
-166 -5564 0
-151 5565 0
-5565 5581 0
-152 -5565 5566 0
-5566 5582 0
-153 -5566 5567 0
-5567 5583 0
-154 -5567 5568 0
-5568 5584 0
-155 -5568 5569 0
-5569 5585 0
-156 -5569 5570 0
-5570 5586 0
-157 -5570 5571 0
-5571 5587 0
-158 -5571 5572 0
-5572 5588 0
-159 -5572 5573 0
-5573 5589 0
-160 -5573 5574 0
-5574 5590 0
-161 -5574 5575 0
-5575 5591 0
-162 -5575 5576 0
-5576 5592 0
-163 -5576 5577 0
-5577 5593 0
-164 -5577 5578 0
-5578 5594 0
-165 -5578 5579 0
-5579 5595 0
-166 -5579 5580 0
-5580 5596 0
-167 -5580 0
-152 5581 0
-5581 5597 0
-153 -5581 5582 0
-5582 5598 0
-154 -5582 5583 0
-5583 5599 0
-155 -5583 5584 0
-5584 5600 0
-156 -5584 5585 0
-5585 5601 0
-157 -5585 5586 0
-5586 5602 0
-158 -5586 5587 0
-5587 5603 0
-159 -5587 5588 0
-5588 5604 0
-160 -5588 5589 0
-5589 5605 0
-161 -5589 5590 0
-5590 5606 0
-162 -5590 5591 0
-5591 5607 0
-163 -5591 5592 0
-5592 5608 0
-164 -5592 5593 0
-5593 5609 0
-165 -5593 5594 0
-5594 5610 0
-166 -5594 5595 0
-5595 5611 0
-167 -5595 5596 0
-5596 5612 0
-168 -5596 0
-153 5597 0
-5597 5613 0
-154 -5597 5598 0
-5598 5614 0
-155 -5598 5599 0
-5599 5615 0
-156 -5599 5600 0
-5600 5616 0
-157 -5600 5601 0
-5601 5617 0
-158 -5601 5602 0
-5602 5618 0
-159 -5602 5603 0
-5603 5619 0
-160 -5603 5604 0
-5604 5620 0
-161 -5604 5605 0
-5605 5621 0
-162 -5605 5606 0
-5606 5622 0
-163 -5606 5607 0
-5607 5623 0
-164 -5607 5608 0
-5608 5624 0
-165 -5608 5609 0
-5609 5625 0
-166 -5609 5610 0
-5610 5626 0
-167 -5610 5611 0
-5611 5627 0
-168 -5611 5612 0
-5612 5628 0
-169 -5612 0
-154 5613 0
-5613 5629 0
-155 -5613 5614 0
-5614 5630 0
-156 -5614 5615 0
-5615 5631 0
-157 -5615 5616 0
-5616 5632 0
-158 -5616 5617 0
-5617 5633 0
-159 -5617 5618 0
-5618 5634 0
-160 -5618 5619 0
-5619 5635 0
-161 -5619 5620 0
-5620 5636 0
-162 -5620 5621 0
-5621 5637 0
-163 -5621 5622 0
-5622 5638 0
-164 -5622 5623 0
-5623 5639 0
-165 -5623 5624 0
-5624 5640 0
-166 -5624 5625 0
-5625 5641 0
-167 -5625 5626 0
-5626 5642 0
-168 -5626 5627 0
-5627 5643 0
-169 -5627 5628 0
-5628 5644 0
-170 -5628 0
-155 5629 0
-5629 5645 0
-156 -5629 5630 0
-5630 5646 0
-157 -5630 5631 0
-5631 5647 0
-158 -5631 5632 0
-5632 5648 0
-159 -5632 5633 0
-5633 5649 0
-160 -5633 5634 0
-5634 5650 0
-161 -5634 5635 0
-5635 5651 0
-162 -5635 5636 0
-5636 5652 0
-163 -5636 5637 0
-5637 5653 0
-164 -5637 5638 0
-5638 5654 0
-165 -5638 5639 0
-5639 5655 0
-166 -5639 5640 0
-5640 5656 0
-167 -5640 5641 0
-5641 5657 0
-168 -5641 5642 0
-5642 5658 0
-169 -5642 5643 0
-5643 5659 0
-170 -5643 5644 0
-5644 5660 0
-171 -5644 0
-156 5645 0
-5645 5661 0
-157 -5645 5646 0
-5646 5662 0
-158 -5646 5647 0
-5647 5663 0
-159 -5647 5648 0
-5648 5664 0
-160 -5648 5649 0
-5649 5665 0
-161 -5649 5650 0
-5650 5666 0
-162 -5650 5651 0
-5651 5667 0
-163 -5651 5652 0
-5652 5668 0
-164 -5652 5653 0
-5653 5669 0
-165 -5653 5654 0
-5654 5670 0
-166 -5654 5655 0
-5655 5671 0
-167 -5655 5656 0
-5656 5672 0
-168 -5656 5657 0
-5657 5673 0
-169 -5657 5658 0
-5658 5674 0
-170 -5658 5659 0
-5659 5675 0
-171 -5659 5660 0
-5660 5676 0
-172 -5660 0
-157 5661 0
-5661 5677 0
-158 -5661 5662 0
-5662 5678 0
-159 -5662 5663 0
-5663 5679 0
-160 -5663 5664 0
-5664 5680 0
-161 -5664 5665 0
-5665 5681 0
-162 -5665 5666 0
-5666 5682 0
-163 -5666 5667 0
-5667 5683 0
-164 -5667 5668 0
-5668 5684 0
-165 -5668 5669 0
-5669 5685 0
-166 -5669 5670 0
-5670 5686 0
-167 -5670 5671 0
-5671 5687 0
-168 -5671 5672 0
-5672 5688 0
-169 -5672 5673 0
-5673 5689 0
-170 -5673 5674 0
-5674 5690 0
-171 -5674 5675 0
-5675 5691 0
-172 -5675 5676 0
-5676 5692 0
-173 -5676 0
-158 5677 0
-5677 5693 0
-159 -5677 5678 0
-5678 5694 0
-160 -5678 5679 0
-5679 5695 0
-161 -5679 5680 0
-5680 5696 0
-162 -5680 5681 0
-5681 5697 0
-163 -5681 5682 0
-5682 5698 0
-164 -5682 5683 0
-5683 5699 0
-165 -5683 5684 0
-5684 5700 0
-166 -5684 5685 0
-5685 5701 0
-167 -5685 5686 0
-5686 5702 0
-168 -5686 5687 0
-5687 5703 0
-169 -5687 5688 0
-5688 5704 0
-170 -5688 5689 0
-5689 5705 0
-171 -5689 5690 0
-5690 5706 0
-172 -5690 5691 0
-5691 5707 0
-173 -5691 5692 0
-5692 5708 0
-174 -5692 0
-159 5693 0
-5693 5709 0
-160 -5693 5694 0
-5694 5710 0
-161 -5694 5695 0
-5695 5711 0
-162 -5695 5696 0
-5696 5712 0
-163 -5696 5697 0
-5697 5713 0
-164 -5697 5698 0
-5698 5714 0
-165 -5698 5699 0
-5699 5715 0
-166 -5699 5700 0
-5700 5716 0
-167 -5700 5701 0
-5701 5717 0
-168 -5701 5702 0
-5702 5718 0
-169 -5702 5703 0
-5703 5719 0
-170 -5703 5704 0
-5704 5720 0
-171 -5704 5705 0
-5705 5721 0
-172 -5705 5706 0
-5706 5722 0
-173 -5706 5707 0
-5707 5723 0
-174 -5707 5708 0
-5708 5724 0
-175 -5708 0
-160 5709 0
-5709 5725 0
-161 -5709 5710 0
-5710 5726 0
-162 -5710 5711 0
-5711 5727 0
-163 -5711 5712 0
-5712 5728 0
-164 -5712 5713 0
-5713 5729 0
-165 -5713 5714 0
-5714 5730 0
-166 -5714 5715 0
-5715 5731 0
-167 -5715 5716 0
-5716 5732 0
-168 -5716 5717 0
-5717 5733 0
-169 -5717 5718 0
-5718 5734 0
-170 -5718 5719 0
-5719 5735 0
-171 -5719 5720 0
-5720 5736 0
-172 -5720 5721 0
-5721 5737 0
-173 -5721 5722 0
-5722 5738 0
-174 -5722 5723 0
-5723 5739 0
-175 -5723 5724 0
-5724 5740 0
-176 -5724 0
-161 5725 0
-5725 5741 0
-162 -5725 5726 0
-5726 5742 0
-163 -5726 5727 0
-5727 5743 0
-164 -5727 5728 0
-5728 5744 0
-165 -5728 5729 0
-5729 5745 0
-166 -5729 5730 0
-5730 5746 0
-167 -5730 5731 0
-5731 5747 0
-168 -5731 5732 0
-5732 5748 0
-169 -5732 5733 0
-5733 5749 0
-170 -5733 5734 0
-5734 5750 0
-171 -5734 5735 0
-5735 5751 0
-172 -5735 5736 0
-5736 5752 0
-173 -5736 5737 0
-5737 5753 0
-174 -5737 5738 0
-5738 5754 0
-175 -5738 5739 0
-5739 5755 0
-176 -5739 5740 0
-5740 5756 0
-177 -5740 0
-162 5741 0
-5741 5757 0
-163 -5741 5742 0
-5742 5758 0
-164 -5742 5743 0
-5743 5759 0
-165 -5743 5744 0
-5744 5760 0
-166 -5744 5745 0
-5745 5761 0
-167 -5745 5746 0
-5746 5762 0
-168 -5746 5747 0
-5747 5763 0
-169 -5747 5748 0
-5748 5764 0
-170 -5748 5749 0
-5749 5765 0
-171 -5749 5750 0
-5750 5766 0
-172 -5750 5751 0
-5751 5767 0
-173 -5751 5752 0
-5752 5768 0
-174 -5752 5753 0
-5753 5769 0
-175 -5753 5754 0
-5754 5770 0
-176 -5754 5755 0
-5755 5771 0
-177 -5755 5756 0
-5756 5772 0
-178 -5756 0
-163 5757 0
-5757 5773 0
-164 -5757 5758 0
-5758 5774 0
-165 -5758 5759 0
-5759 5775 0
-166 -5759 5760 0
-5760 5776 0
-167 -5760 5761 0
-5761 5777 0
-168 -5761 5762 0
-5762 5778 0
-169 -5762 5763 0
-5763 5779 0
-170 -5763 5764 0
-5764 5780 0
-171 -5764 5765 0
-5765 5781 0
-172 -5765 5766 0
-5766 5782 0
-173 -5766 5767 0
-5767 5783 0
-174 -5767 5768 0
-5768 5784 0
-175 -5768 5769 0
-5769 5785 0
-176 -5769 5770 0
-5770 5786 0
-177 -5770 5771 0
-5771 5787 0
-178 -5771 5772 0
-5772 5788 0
-179 -5772 0
-164 5773 0
-5773 5789 0
-165 -5773 5774 0
-5774 5790 0
-166 -5774 5775 0
-5775 5791 0
-167 -5775 5776 0
-5776 5792 0
-168 -5776 5777 0
-5777 5793 0
-169 -5777 5778 0
-5778 5794 0
-170 -5778 5779 0
-5779 5795 0
-171 -5779 5780 0
-5780 5796 0
-172 -5780 5781 0
-5781 5797 0
-173 -5781 5782 0
-5782 5798 0
-174 -5782 5783 0
-5783 5799 0
-175 -5783 5784 0
-5784 5800 0
-176 -5784 5785 0
-5785 5801 0
-177 -5785 5786 0
-5786 5802 0
-178 -5786 5787 0
-5787 5803 0
-179 -5787 5788 0
-5788 5804 0
-180 -5788 0
-165 5789 0
-5789 5805 0
-166 -5789 5790 0
-5790 5806 0
-167 -5790 5791 0
-5791 5807 0
-168 -5791 5792 0
-5792 5808 0
-169 -5792 5793 0
-5793 5809 0
-170 -5793 5794 0
-5794 5810 0
-171 -5794 5795 0
-5795 5811 0
-172 -5795 5796 0
-5796 5812 0
-173 -5796 5797 0
-5797 5813 0
-174 -5797 5798 0
-5798 5814 0
-175 -5798 5799 0
-5799 5815 0
-176 -5799 5800 0
-5800 5816 0
-177 -5800 5801 0
-5801 5817 0
-178 -5801 5802 0
-5802 5818 0
-179 -5802 5803 0
-5803 5819 0
-180 -5803 5804 0
-5804 5820 0
-181 -5804 0
-166 5805 0
-5805 5821 0
-167 -5805 5806 0
-5806 5822 0
-168 -5806 5807 0
-5807 5823 0
-169 -5807 5808 0
-5808 5824 0
-170 -5808 5809 0
-5809 5825 0
-171 -5809 5810 0
-5810 5826 0
-172 -5810 5811 0
-5811 5827 0
-173 -5811 5812 0
-5812 5828 0
-174 -5812 5813 0
-5813 5829 0
-175 -5813 5814 0
-5814 5830 0
-176 -5814 5815 0
-5815 5831 0
-177 -5815 5816 0
-5816 5832 0
-178 -5816 5817 0
-5817 5833 0
-179 -5817 5818 0
-5818 5834 0
-180 -5818 5819 0
-5819 5835 0
-181 -5819 5820 0
-5820 5836 0
-182 -5820 0
-167 5821 0
-5821 5837 0
-168 -5821 5822 0
-5822 5838 0
-169 -5822 5823 0
-5823 5839 0
-170 -5823 5824 0
-5824 5840 0
-171 -5824 5825 0
-5825 5841 0
-172 -5825 5826 0
-5826 5842 0
-173 -5826 5827 0
-5827 5843 0
-174 -5827 5828 0
-5828 5844 0
-175 -5828 5829 0
-5829 5845 0
-176 -5829 5830 0
-5830 5846 0
-177 -5830 5831 0
-5831 5847 0
-178 -5831 5832 0
-5832 5848 0
-179 -5832 5833 0
-5833 5849 0
-180 -5833 5834 0
-5834 5850 0
-181 -5834 5835 0
-5835 5851 0
-182 -5835 5836 0
-5836 5852 0
-183 -5836 0
-168 5837 0
-5837 5853 0
-169 -5837 5838 0
-5838 5854 0
-170 -5838 5839 0
-5839 5855 0
-171 -5839 5840 0
-5840 5856 0
-172 -5840 5841 0
-5841 5857 0
-173 -5841 5842 0
-5842 5858 0
-174 -5842 5843 0
-5843 5859 0
-175 -5843 5844 0
-5844 5860 0
-176 -5844 5845 0
-5845 5861 0
-177 -5845 5846 0
-5846 5862 0
-178 -5846 5847 0
-5847 5863 0
-179 -5847 5848 0
-5848 5864 0
-180 -5848 5849 0
-5849 5865 0
-181 -5849 5850 0
-5850 5866 0
-182 -5850 5851 0
-5851 5867 0
-183 -5851 5852 0
-5852 5868 0
-184 -5852 0
-169 5853 0
-5853 5869 0
-170 -5853 5854 0
-5854 5870 0
-171 -5854 5855 0
-5855 5871 0
-172 -5855 5856 0
-5856 5872 0
-173 -5856 5857 0
-5857 5873 0
-174 -5857 5858 0
-5858 5874 0
-175 -5858 5859 0
-5859 5875 0
-176 -5859 5860 0
-5860 5876 0
-177 -5860 5861 0
-5861 5877 0
-178 -5861 5862 0
-5862 5878 0
-179 -5862 5863 0
-5863 5879 0
-180 -5863 5864 0
-5864 5880 0
-181 -5864 5865 0
-5865 5881 0
-182 -5865 5866 0
-5866 5882 0
-183 -5866 5867 0
-5867 5883 0
-184 -5867 5868 0
-5868 5884 0
-185 -5868 0
-170 5869 0
-5869 5885 0
-171 -5869 5870 0
-5870 5886 0
-172 -5870 5871 0
-5871 5887 0
-173 -5871 5872 0
-5872 5888 0
-174 -5872 5873 0
-5873 5889 0
-175 -5873 5874 0
-5874 5890 0
-176 -5874 5875 0
-5875 5891 0
-177 -5875 5876 0
-5876 5892 0
-178 -5876 5877 0
-5877 5893 0
-179 -5877 5878 0
-5878 5894 0
-180 -5878 5879 0
-5879 5895 0
-181 -5879 5880 0
-5880 5896 0
-182 -5880 5881 0
-5881 5897 0
-183 -5881 5882 0
-5882 5898 0
-184 -5882 5883 0
-5883 5899 0
-185 -5883 5884 0
-5884 5900 0
-186 -5884 0
-171 5885 0
-5885 5901 0
-172 -5885 5886 0
-5886 5902 0
-173 -5886 5887 0
-5887 5903 0
-174 -5887 5888 0
-5888 5904 0
-175 -5888 5889 0
-5889 5905 0
-176 -5889 5890 0
-5890 5906 0
-177 -5890 5891 0
-5891 5907 0
-178 -5891 5892 0
-5892 5908 0
-179 -5892 5893 0
-5893 5909 0
-180 -5893 5894 0
-5894 5910 0
-181 -5894 5895 0
-5895 5911 0
-182 -5895 5896 0
-5896 5912 0
-183 -5896 5897 0
-5897 5913 0
-184 -5897 5898 0
-5898 5914 0
-185 -5898 5899 0
-5899 5915 0
-186 -5899 5900 0
-5900 5916 0
-187 -5900 0
-172 5901 0
-5901 5917 0
-173 -5901 5902 0
-5902 5918 0
-174 -5902 5903 0
-5903 5919 0
-175 -5903 5904 0
-5904 5920 0
-176 -5904 5905 0
-5905 5921 0
-177 -5905 5906 0
-5906 5922 0
-178 -5906 5907 0
-5907 5923 0
-179 -5907 5908 0
-5908 5924 0
-180 -5908 5909 0
-5909 5925 0
-181 -5909 5910 0
-5910 5926 0
-182 -5910 5911 0
-5911 5927 0
-183 -5911 5912 0
-5912 5928 0
-184 -5912 5913 0
-5913 5929 0
-185 -5913 5914 0
-5914 5930 0
-186 -5914 5915 0
-5915 5931 0
-187 -5915 5916 0
-5916 5932 0
-188 -5916 0
-173 5917 0
-5917 5933 0
-174 -5917 5918 0
-5918 5934 0
-175 -5918 5919 0
-5919 5935 0
-176 -5919 5920 0
-5920 5936 0
-177 -5920 5921 0
-5921 5937 0
-178 -5921 5922 0
-5922 5938 0
-179 -5922 5923 0
-5923 5939 0
-180 -5923 5924 0
-5924 5940 0
-181 -5924 5925 0
-5925 5941 0
-182 -5925 5926 0
-5926 5942 0
-183 -5926 5927 0
-5927 5943 0
-184 -5927 5928 0
-5928 5944 0
-185 -5928 5929 0
-5929 5945 0
-186 -5929 5930 0
-5930 5946 0
-187 -5930 5931 0
-5931 5947 0
-188 -5931 5932 0
-5932 5948 0
-189 -5932 0
-174 5933 0
-175 -5933 5934 0
-176 -5934 5935 0
-177 -5935 5936 0
-178 -5936 5937 0
-179 -5937 5938 0
-180 -5938 5939 0
-181 -5939 5940 0
-182 -5940 5941 0
-183 -5941 5942 0
-184 -5942 5943 0
-185 -5943 5944 0
-186 -5944 5945 0
-187 -5945 5946 0
-188 -5946 5947 0
-189 -5947 5948 0
-190 -5948 0
-191 5949 0
-5949 5950 0
-192 -5949 5951 0
-5951 5952 0
-193 -5951 5953 0
-5953 5954 0
-194 -5953 5955 0
-5955 5956 0
-195 -5955 5957 0
-5957 5958 0
-196 -5957 5959 0
-5959 5960 0
-197 -5959 5961 0
-5961 5962 0
-198 -5961 5963 0
-5963 5964 0
-199 -5963 5965 0
-5965 5966 0
-200 -5965 0
-192 5950 0
-5950 5967 0
-193 -5950 5952 0
-5952 5968 0
-194 -5952 5954 0
-5954 5969 0
-195 -5954 5956 0
-5956 5970 0
-196 -5956 5958 0
-5958 5971 0
-197 -5958 5960 0
-5960 5972 0
-198 -5960 5962 0
-5962 5973 0
-199 -5962 5964 0
-5964 5974 0
-200 -5964 5966 0
-5966 5975 0
-201 -5966 0
-193 5967 0
-5967 5976 0
-194 -5967 5968 0
-5968 5977 0
-195 -5968 5969 0
-5969 5978 0
-196 -5969 5970 0
-5970 5979 0
-197 -5970 5971 0
-5971 5980 0
-198 -5971 5972 0
-5972 5981 0
-199 -5972 5973 0
-5973 5982 0
-200 -5973 5974 0
-5974 5983 0
-201 -5974 5975 0
-5975 5984 0
-202 -5975 0
-194 5976 0
-5976 5985 0
-195 -5976 5977 0
-5977 5986 0
-196 -5977 5978 0
-5978 5987 0
-197 -5978 5979 0
-5979 5988 0
-198 -5979 5980 0
-5980 5989 0
-199 -5980 5981 0
-5981 5990 0
-200 -5981 5982 0
-5982 5991 0
-201 -5982 5983 0
-5983 5992 0
-202 -5983 5984 0
-5984 5993 0
-203 -5984 0
-195 5985 0
-5985 5994 0
-196 -5985 5986 0
-5986 5995 0
-197 -5986 5987 0
-5987 5996 0
-198 -5987 5988 0
-5988 5997 0
-199 -5988 5989 0
-5989 5998 0
-200 -5989 5990 0
-5990 5999 0
-201 -5990 5991 0
-5991 6000 0
-202 -5991 5992 0
-5992 6001 0
-203 -5992 5993 0
-5993 6002 0
-204 -5993 0
-196 5994 0
-5994 6003 0
-197 -5994 5995 0
-5995 6004 0
-198 -5995 5996 0
-5996 6005 0
-199 -5996 5997 0
-5997 6006 0
-200 -5997 5998 0
-5998 6007 0
-201 -5998 5999 0
-5999 6008 0
-202 -5999 6000 0
-6000 6009 0
-203 -6000 6001 0
-6001 6010 0
-204 -6001 6002 0
-6002 6011 0
-205 -6002 0
-197 6003 0
-6003 6012 0
-198 -6003 6004 0
-6004 6013 0
-199 -6004 6005 0
-6005 6014 0
-200 -6005 6006 0
-6006 6015 0
-201 -6006 6007 0
-6007 6016 0
-202 -6007 6008 0
-6008 6017 0
-203 -6008 6009 0
-6009 6018 0
-204 -6009 6010 0
-6010 6019 0
-205 -6010 6011 0
-6011 6020 0
-206 -6011 0
-198 6012 0
-6012 6021 0
-199 -6012 6013 0
-6013 6022 0
-200 -6013 6014 0
-6014 6023 0
-201 -6014 6015 0
-6015 6024 0
-202 -6015 6016 0
-6016 6025 0
-203 -6016 6017 0
-6017 6026 0
-204 -6017 6018 0
-6018 6027 0
-205 -6018 6019 0
-6019 6028 0
-206 -6019 6020 0
-6020 6029 0
-207 -6020 0
-199 6021 0
-6021 6030 0
-200 -6021 6022 0
-6022 6031 0
-201 -6022 6023 0
-6023 6032 0
-202 -6023 6024 0
-6024 6033 0
-203 -6024 6025 0
-6025 6034 0
-204 -6025 6026 0
-6026 6035 0
-205 -6026 6027 0
-6027 6036 0
-206 -6027 6028 0
-6028 6037 0
-207 -6028 6029 0
-6029 6038 0
-208 -6029 0
-200 6030 0
-6030 6039 0
-201 -6030 6031 0
-6031 6040 0
-202 -6031 6032 0
-6032 6041 0
-203 -6032 6033 0
-6033 6042 0
-204 -6033 6034 0
-6034 6043 0
-205 -6034 6035 0
-6035 6044 0
-206 -6035 6036 0
-6036 6045 0
-207 -6036 6037 0
-6037 6046 0
-208 -6037 6038 0
-6038 6047 0
-209 -6038 0
-201 6039 0
-6039 6048 0
-202 -6039 6040 0
-6040 6049 0
-203 -6040 6041 0
-6041 6050 0
-204 -6041 6042 0
-6042 6051 0
-205 -6042 6043 0
-6043 6052 0
-206 -6043 6044 0
-6044 6053 0
-207 -6044 6045 0
-6045 6054 0
-208 -6045 6046 0
-6046 6055 0
-209 -6046 6047 0
-6047 6056 0
-210 -6047 0
-202 6048 0
-6048 6057 0
-203 -6048 6049 0
-6049 6058 0
-204 -6049 6050 0
-6050 6059 0
-205 -6050 6051 0
-6051 6060 0
-206 -6051 6052 0
-6052 6061 0
-207 -6052 6053 0
-6053 6062 0
-208 -6053 6054 0
-6054 6063 0
-209 -6054 6055 0
-6055 6064 0
-210 -6055 6056 0
-6056 6065 0
-211 -6056 0
-203 6057 0
-6057 6066 0
-204 -6057 6058 0
-6058 6067 0
-205 -6058 6059 0
-6059 6068 0
-206 -6059 6060 0
-6060 6069 0
-207 -6060 6061 0
-6061 6070 0
-208 -6061 6062 0
-6062 6071 0
-209 -6062 6063 0
-6063 6072 0
-210 -6063 6064 0
-6064 6073 0
-211 -6064 6065 0
-6065 6074 0
-212 -6065 0
-204 6066 0
-6066 6075 0
-205 -6066 6067 0
-6067 6076 0
-206 -6067 6068 0
-6068 6077 0
-207 -6068 6069 0
-6069 6078 0
-208 -6069 6070 0
-6070 6079 0
-209 -6070 6071 0
-6071 6080 0
-210 -6071 6072 0
-6072 6081 0
-211 -6072 6073 0
-6073 6082 0
-212 -6073 6074 0
-6074 6083 0
-213 -6074 0
-205 6075 0
-6075 6084 0
-206 -6075 6076 0
-6076 6085 0
-207 -6076 6077 0
-6077 6086 0
-208 -6077 6078 0
-6078 6087 0
-209 -6078 6079 0
-6079 6088 0
-210 -6079 6080 0
-6080 6089 0
-211 -6080 6081 0
-6081 6090 0
-212 -6081 6082 0
-6082 6091 0
-213 -6082 6083 0
-6083 6092 0
-214 -6083 0
-206 6084 0
-6084 6093 0
-207 -6084 6085 0
-6085 6094 0
-208 -6085 6086 0
-6086 6095 0
-209 -6086 6087 0
-6087 6096 0
-210 -6087 6088 0
-6088 6097 0
-211 -6088 6089 0
-6089 6098 0
-212 -6089 6090 0
-6090 6099 0
-213 -6090 6091 0
-6091 6100 0
-214 -6091 6092 0
-6092 6101 0
-215 -6092 0
-207 6093 0
-6093 6102 0
-208 -6093 6094 0
-6094 6103 0
-209 -6094 6095 0
-6095 6104 0
-210 -6095 6096 0
-6096 6105 0
-211 -6096 6097 0
-6097 6106 0
-212 -6097 6098 0
-6098 6107 0
-213 -6098 6099 0
-6099 6108 0
-214 -6099 6100 0
-6100 6109 0
-215 -6100 6101 0
-6101 6110 0
-216 -6101 0
-208 6102 0
-6102 6111 0
-209 -6102 6103 0
-6103 6112 0
-210 -6103 6104 0
-6104 6113 0
-211 -6104 6105 0
-6105 6114 0
-212 -6105 6106 0
-6106 6115 0
-213 -6106 6107 0
-6107 6116 0
-214 -6107 6108 0
-6108 6117 0
-215 -6108 6109 0
-6109 6118 0
-216 -6109 6110 0
-6110 6119 0
-217 -6110 0
-209 6111 0
-6111 6120 0
-210 -6111 6112 0
-6112 6121 0
-211 -6112 6113 0
-6113 6122 0
-212 -6113 6114 0
-6114 6123 0
-213 -6114 6115 0
-6115 6124 0
-214 -6115 6116 0
-6116 6125 0
-215 -6116 6117 0
-6117 6126 0
-216 -6117 6118 0
-6118 6127 0
-217 -6118 6119 0
-6119 6128 0
-218 -6119 0
-210 6120 0
-6120 6129 0
-211 -6120 6121 0
-6121 6130 0
-212 -6121 6122 0
-6122 6131 0
-213 -6122 6123 0
-6123 6132 0
-214 -6123 6124 0
-6124 6133 0
-215 -6124 6125 0
-6125 6134 0
-216 -6125 6126 0
-6126 6135 0
-217 -6126 6127 0
-6127 6136 0
-218 -6127 6128 0
-6128 6137 0
-219 -6128 0
-211 6129 0
-6129 6138 0
-212 -6129 6130 0
-6130 6139 0
-213 -6130 6131 0
-6131 6140 0
-214 -6131 6132 0
-6132 6141 0
-215 -6132 6133 0
-6133 6142 0
-216 -6133 6134 0
-6134 6143 0
-217 -6134 6135 0
-6135 6144 0
-218 -6135 6136 0
-6136 6145 0
-219 -6136 6137 0
-6137 6146 0
-220 -6137 0
-212 6138 0
-6138 6147 0
-213 -6138 6139 0
-6139 6148 0
-214 -6139 6140 0
-6140 6149 0
-215 -6140 6141 0
-6141 6150 0
-216 -6141 6142 0
-6142 6151 0
-217 -6142 6143 0
-6143 6152 0
-218 -6143 6144 0
-6144 6153 0
-219 -6144 6145 0
-6145 6154 0
-220 -6145 6146 0
-6146 6155 0
-221 -6146 0
-213 6147 0
-6147 6156 0
-214 -6147 6148 0
-6148 6157 0
-215 -6148 6149 0
-6149 6158 0
-216 -6149 6150 0
-6150 6159 0
-217 -6150 6151 0
-6151 6160 0
-218 -6151 6152 0
-6152 6161 0
-219 -6152 6153 0
-6153 6162 0
-220 -6153 6154 0
-6154 6163 0
-221 -6154 6155 0
-6155 6164 0
-222 -6155 0
-214 6156 0
-6156 6165 0
-215 -6156 6157 0
-6157 6166 0
-216 -6157 6158 0
-6158 6167 0
-217 -6158 6159 0
-6159 6168 0
-218 -6159 6160 0
-6160 6169 0
-219 -6160 6161 0
-6161 6170 0
-220 -6161 6162 0
-6162 6171 0
-221 -6162 6163 0
-6163 6172 0
-222 -6163 6164 0
-6164 6173 0
-223 -6164 0
-215 6165 0
-6165 6174 0
-216 -6165 6166 0
-6166 6175 0
-217 -6166 6167 0
-6167 6176 0
-218 -6167 6168 0
-6168 6177 0
-219 -6168 6169 0
-6169 6178 0
-220 -6169 6170 0
-6170 6179 0
-221 -6170 6171 0
-6171 6180 0
-222 -6171 6172 0
-6172 6181 0
-223 -6172 6173 0
-6173 6182 0
-224 -6173 0
-216 6174 0
-6174 6183 0
-217 -6174 6175 0
-6175 6184 0
-218 -6175 6176 0
-6176 6185 0
-219 -6176 6177 0
-6177 6186 0
-220 -6177 6178 0
-6178 6187 0
-221 -6178 6179 0
-6179 6188 0
-222 -6179 6180 0
-6180 6189 0
-223 -6180 6181 0
-6181 6190 0
-224 -6181 6182 0
-6182 6191 0
-225 -6182 0
-217 6183 0
-6183 6192 0
-218 -6183 6184 0
-6184 6193 0
-219 -6184 6185 0
-6185 6194 0
-220 -6185 6186 0
-6186 6195 0
-221 -6186 6187 0
-6187 6196 0
-222 -6187 6188 0
-6188 6197 0
-223 -6188 6189 0
-6189 6198 0
-224 -6189 6190 0
-6190 6199 0
-225 -6190 6191 0
-6191 6200 0
-226 -6191 0
-218 6192 0
-6192 6201 0
-219 -6192 6193 0
-6193 6202 0
-220 -6193 6194 0
-6194 6203 0
-221 -6194 6195 0
-6195 6204 0
-222 -6195 6196 0
-6196 6205 0
-223 -6196 6197 0
-6197 6206 0
-224 -6197 6198 0
-6198 6207 0
-225 -6198 6199 0
-6199 6208 0
-226 -6199 6200 0
-6200 6209 0
-227 -6200 0
-219 6201 0
-6201 6210 0
-220 -6201 6202 0
-6202 6211 0
-221 -6202 6203 0
-6203 6212 0
-222 -6203 6204 0
-6204 6213 0
-223 -6204 6205 0
-6205 6214 0
-224 -6205 6206 0
-6206 6215 0
-225 -6206 6207 0
-6207 6216 0
-226 -6207 6208 0
-6208 6217 0
-227 -6208 6209 0
-6209 6218 0
-228 -6209 0
-220 6210 0
-6210 6219 0
-221 -6210 6211 0
-6211 6220 0
-222 -6211 6212 0
-6212 6221 0
-223 -6212 6213 0
-6213 6222 0
-224 -6213 6214 0
-6214 6223 0
-225 -6214 6215 0
-6215 6224 0
-226 -6215 6216 0
-6216 6225 0
-227 -6216 6217 0
-6217 6226 0
-228 -6217 6218 0
-6218 6227 0
-229 -6218 0
-221 6219 0
-6219 6228 0
-222 -6219 6220 0
-6220 6229 0
-223 -6220 6221 0
-6221 6230 0
-224 -6221 6222 0
-6222 6231 0
-225 -6222 6223 0
-6223 6232 0
-226 -6223 6224 0
-6224 6233 0
-227 -6224 6225 0
-6225 6234 0
-228 -6225 6226 0
-6226 6235 0
-229 -6226 6227 0
-6227 6236 0
-230 -6227 0
-222 6228 0
-6228 6237 0
-223 -6228 6229 0
-6229 6238 0
-224 -6229 6230 0
-6230 6239 0
-225 -6230 6231 0
-6231 6240 0
-226 -6231 6232 0
-6232 6241 0
-227 -6232 6233 0
-6233 6242 0
-228 -6233 6234 0
-6234 6243 0
-229 -6234 6235 0
-6235 6244 0
-230 -6235 6236 0
-6236 6245 0
-231 -6236 0
-223 6237 0
-6237 6246 0
-224 -6237 6238 0
-6238 6247 0
-225 -6238 6239 0
-6239 6248 0
-226 -6239 6240 0
-6240 6249 0
-227 -6240 6241 0
-6241 6250 0
-228 -6241 6242 0
-6242 6251 0
-229 -6242 6243 0
-6243 6252 0
-230 -6243 6244 0
-6244 6253 0
-231 -6244 6245 0
-6245 6254 0
-232 -6245 0
-224 6246 0
-6246 6255 0
-225 -6246 6247 0
-6247 6256 0
-226 -6247 6248 0
-6248 6257 0
-227 -6248 6249 0
-6249 6258 0
-228 -6249 6250 0
-6250 6259 0
-229 -6250 6251 0
-6251 6260 0
-230 -6251 6252 0
-6252 6261 0
-231 -6252 6253 0
-6253 6262 0
-232 -6253 6254 0
-6254 6263 0
-233 -6254 0
-225 6255 0
-6255 6264 0
-226 -6255 6256 0
-6256 6265 0
-227 -6256 6257 0
-6257 6266 0
-228 -6257 6258 0
-6258 6267 0
-229 -6258 6259 0
-6259 6268 0
-230 -6259 6260 0
-6260 6269 0
-231 -6260 6261 0
-6261 6270 0
-232 -6261 6262 0
-6262 6271 0
-233 -6262 6263 0
-6263 6272 0
-234 -6263 0
-226 6264 0
-6264 6273 0
-227 -6264 6265 0
-6265 6274 0
-228 -6265 6266 0
-6266 6275 0
-229 -6266 6267 0
-6267 6276 0
-230 -6267 6268 0
-6268 6277 0
-231 -6268 6269 0
-6269 6278 0
-232 -6269 6270 0
-6270 6279 0
-233 -6270 6271 0
-6271 6280 0
-234 -6271 6272 0
-6272 6281 0
-235 -6272 0
-227 6273 0
-6273 6282 0
-228 -6273 6274 0
-6274 6283 0
-229 -6274 6275 0
-6275 6284 0
-230 -6275 6276 0
-6276 6285 0
-231 -6276 6277 0
-6277 6286 0
-232 -6277 6278 0
-6278 6287 0
-233 -6278 6279 0
-6279 6288 0
-234 -6279 6280 0
-6280 6289 0
-235 -6280 6281 0
-6281 6290 0
-236 -6281 0
-228 6282 0
-6282 6291 0
-229 -6282 6283 0
-6283 6292 0
-230 -6283 6284 0
-6284 6293 0
-231 -6284 6285 0
-6285 6294 0
-232 -6285 6286 0
-6286 6295 0
-233 -6286 6287 0
-6287 6296 0
-234 -6287 6288 0
-6288 6297 0
-235 -6288 6289 0
-6289 6298 0
-236 -6289 6290 0
-6290 6299 0
-237 -6290 0
-229 6291 0
-6291 6300 0
-230 -6291 6292 0
-6292 6301 0
-231 -6292 6293 0
-6293 6302 0
-232 -6293 6294 0
-6294 6303 0
-233 -6294 6295 0
-6295 6304 0
-234 -6295 6296 0
-6296 6305 0
-235 -6296 6297 0
-6297 6306 0
-236 -6297 6298 0
-6298 6307 0
-237 -6298 6299 0
-6299 6308 0
-238 -6299 0
-230 6300 0
-6300 6309 0
-231 -6300 6301 0
-6301 6310 0
-232 -6301 6302 0
-6302 6311 0
-233 -6302 6303 0
-6303 6312 0
-234 -6303 6304 0
-6304 6313 0
-235 -6304 6305 0
-6305 6314 0
-236 -6305 6306 0
-6306 6315 0
-237 -6306 6307 0
-6307 6316 0
-238 -6307 6308 0
-6308 6317 0
-239 -6308 0
-231 6309 0
-6309 6318 0
-232 -6309 6310 0
-6310 6319 0
-233 -6310 6311 0
-6311 6320 0
-234 -6311 6312 0
-6312 6321 0
-235 -6312 6313 0
-6313 6322 0
-236 -6313 6314 0
-6314 6323 0
-237 -6314 6315 0
-6315 6324 0
-238 -6315 6316 0
-6316 6325 0
-239 -6316 6317 0
-6317 6326 0
-240 -6317 0
-232 6318 0
-6318 6327 0
-233 -6318 6319 0
-6319 6328 0
-234 -6319 6320 0
-6320 6329 0
-235 -6320 6321 0
-6321 6330 0
-236 -6321 6322 0
-6322 6331 0
-237 -6322 6323 0
-6323 6332 0
-238 -6323 6324 0
-6324 6333 0
-239 -6324 6325 0
-6325 6334 0
-240 -6325 6326 0
-6326 6335 0
-241 -6326 0
-233 6327 0
-6327 6336 0
-234 -6327 6328 0
-6328 6337 0
-235 -6328 6329 0
-6329 6338 0
-236 -6329 6330 0
-6330 6339 0
-237 -6330 6331 0
-6331 6340 0
-238 -6331 6332 0
-6332 6341 0
-239 -6332 6333 0
-6333 6342 0
-240 -6333 6334 0
-6334 6343 0
-241 -6334 6335 0
-6335 6344 0
-242 -6335 0
-234 6336 0
-6336 6345 0
-235 -6336 6337 0
-6337 6346 0
-236 -6337 6338 0
-6338 6347 0
-237 -6338 6339 0
-6339 6348 0
-238 -6339 6340 0
-6340 6349 0
-239 -6340 6341 0
-6341 6350 0
-240 -6341 6342 0
-6342 6351 0
-241 -6342 6343 0
-6343 6352 0
-242 -6343 6344 0
-6344 6353 0
-243 -6344 0
-235 6345 0
-6345 6354 0
-236 -6345 6346 0
-6346 6355 0
-237 -6346 6347 0
-6347 6356 0
-238 -6347 6348 0
-6348 6357 0
-239 -6348 6349 0
-6349 6358 0
-240 -6349 6350 0
-6350 6359 0
-241 -6350 6351 0
-6351 6360 0
-242 -6351 6352 0
-6352 6361 0
-243 -6352 6353 0
-6353 6362 0
-244 -6353 0
-236 6354 0
-6354 6363 0
-237 -6354 6355 0
-6355 6364 0
-238 -6355 6356 0
-6356 6365 0
-239 -6356 6357 0
-6357 6366 0
-240 -6357 6358 0
-6358 6367 0
-241 -6358 6359 0
-6359 6368 0
-242 -6359 6360 0
-6360 6369 0
-243 -6360 6361 0
-6361 6370 0
-244 -6361 6362 0
-6362 6371 0
-245 -6362 0
-237 6363 0
-6363 6372 0
-238 -6363 6364 0
-6364 6373 0
-239 -6364 6365 0
-6365 6374 0
-240 -6365 6366 0
-6366 6375 0
-241 -6366 6367 0
-6367 6376 0
-242 -6367 6368 0
-6368 6377 0
-243 -6368 6369 0
-6369 6378 0
-244 -6369 6370 0
-6370 6379 0
-245 -6370 6371 0
-6371 6380 0
-246 -6371 0
-238 6372 0
-6372 6381 0
-239 -6372 6373 0
-6373 6382 0
-240 -6373 6374 0
-6374 6383 0
-241 -6374 6375 0
-6375 6384 0
-242 -6375 6376 0
-6376 6385 0
-243 -6376 6377 0
-6377 6386 0
-244 -6377 6378 0
-6378 6387 0
-245 -6378 6379 0
-6379 6388 0
-246 -6379 6380 0
-6380 6389 0
-247 -6380 0
-239 6381 0
-6381 6390 0
-240 -6381 6382 0
-6382 6391 0
-241 -6382 6383 0
-6383 6392 0
-242 -6383 6384 0
-6384 6393 0
-243 -6384 6385 0
-6385 6394 0
-244 -6385 6386 0
-6386 6395 0
-245 -6386 6387 0
-6387 6396 0
-246 -6387 6388 0
-6388 6397 0
-247 -6388 6389 0
-6389 6398 0
-248 -6389 0
-240 6390 0
-6390 6399 0
-241 -6390 6391 0
-6391 6400 0
-242 -6391 6392 0
-6392 6401 0
-243 -6392 6393 0
-6393 6402 0
-244 -6393 6394 0
-6394 6403 0
-245 -6394 6395 0
-6395 6404 0
-246 -6395 6396 0
-6396 6405 0
-247 -6396 6397 0
-6397 6406 0
-248 -6397 6398 0
-6398 6407 0
-249 -6398 0
-241 6399 0
-6399 6408 0
-242 -6399 6400 0
-6400 6409 0
-243 -6400 6401 0
-6401 6410 0
-244 -6401 6402 0
-6402 6411 0
-245 -6402 6403 0
-6403 6412 0
-246 -6403 6404 0
-6404 6413 0
-247 -6404 6405 0
-6405 6414 0
-248 -6405 6406 0
-6406 6415 0
-249 -6406 6407 0
-6407 6416 0
-250 -6407 0
-242 6408 0
-6408 6417 0
-243 -6408 6409 0
-6409 6418 0
-244 -6409 6410 0
-6410 6419 0
-245 -6410 6411 0
-6411 6420 0
-246 -6411 6412 0
-6412 6421 0
-247 -6412 6413 0
-6413 6422 0
-248 -6413 6414 0
-6414 6423 0
-249 -6414 6415 0
-6415 6424 0
-250 -6415 6416 0
-6416 6425 0
-251 -6416 0
-243 6417 0
-6417 6426 0
-244 -6417 6418 0
-6418 6427 0
-245 -6418 6419 0
-6419 6428 0
-246 -6419 6420 0
-6420 6429 0
-247 -6420 6421 0
-6421 6430 0
-248 -6421 6422 0
-6422 6431 0
-249 -6422 6423 0
-6423 6432 0
-250 -6423 6424 0
-6424 6433 0
-251 -6424 6425 0
-6425 6434 0
-252 -6425 0
-244 6426 0
-6426 6435 0
-245 -6426 6427 0
-6427 6436 0
-246 -6427 6428 0
-6428 6437 0
-247 -6428 6429 0
-6429 6438 0
-248 -6429 6430 0
-6430 6439 0
-249 -6430 6431 0
-6431 6440 0
-250 -6431 6432 0
-6432 6441 0
-251 -6432 6433 0
-6433 6442 0
-252 -6433 6434 0
-6434 6443 0
-253 -6434 0
-245 6435 0
-6435 6444 0
-246 -6435 6436 0
-6436 6445 0
-247 -6436 6437 0
-6437 6446 0
-248 -6437 6438 0
-6438 6447 0
-249 -6438 6439 0
-6439 6448 0
-250 -6439 6440 0
-6440 6449 0
-251 -6440 6441 0
-6441 6450 0
-252 -6441 6442 0
-6442 6451 0
-253 -6442 6443 0
-6443 6452 0
-254 -6443 0
-246 6444 0
-6444 6453 0
-247 -6444 6445 0
-6445 6454 0
-248 -6445 6446 0
-6446 6455 0
-249 -6446 6447 0
-6447 6456 0
-250 -6447 6448 0
-6448 6457 0
-251 -6448 6449 0
-6449 6458 0
-252 -6449 6450 0
-6450 6459 0
-253 -6450 6451 0
-6451 6460 0
-254 -6451 6452 0
-6452 6461 0
-255 -6452 0
-247 6453 0
-6453 6462 0
-248 -6453 6454 0
-6454 6463 0
-249 -6454 6455 0
-6455 6464 0
-250 -6455 6456 0
-6456 6465 0
-251 -6456 6457 0
-6457 6466 0
-252 -6457 6458 0
-6458 6467 0
-253 -6458 6459 0
-6459 6468 0
-254 -6459 6460 0
-6460 6469 0
-255 -6460 6461 0
-6461 6470 0
-256 -6461 0
-248 6462 0
-6462 6471 0
-249 -6462 6463 0
-6463 6472 0
-250 -6463 6464 0
-6464 6473 0
-251 -6464 6465 0
-6465 6474 0
-252 -6465 6466 0
-6466 6475 0
-253 -6466 6467 0
-6467 6476 0
-254 -6467 6468 0
-6468 6477 0
-255 -6468 6469 0
-6469 6478 0
-256 -6469 6470 0
-6470 6479 0
-257 -6470 0
-249 6471 0
-6471 6480 0
-250 -6471 6472 0
-6472 6481 0
-251 -6472 6473 0
-6473 6482 0
-252 -6473 6474 0
-6474 6483 0
-253 -6474 6475 0
-6475 6484 0
-254 -6475 6476 0
-6476 6485 0
-255 -6476 6477 0
-6477 6486 0
-256 -6477 6478 0
-6478 6487 0
-257 -6478 6479 0
-6479 6488 0
-258 -6479 0
-250 6480 0
-6480 6489 0
-251 -6480 6481 0
-6481 6490 0
-252 -6481 6482 0
-6482 6491 0
-253 -6482 6483 0
-6483 6492 0
-254 -6483 6484 0
-6484 6493 0
-255 -6484 6485 0
-6485 6494 0
-256 -6485 6486 0
-6486 6495 0
-257 -6486 6487 0
-6487 6496 0
-258 -6487 6488 0
-6488 6497 0
-259 -6488 0
-251 6489 0
-6489 6498 0
-252 -6489 6490 0
-6490 6499 0
-253 -6490 6491 0
-6491 6500 0
-254 -6491 6492 0
-6492 6501 0
-255 -6492 6493 0
-6493 6502 0
-256 -6493 6494 0
-6494 6503 0
-257 -6494 6495 0
-6495 6504 0
-258 -6495 6496 0
-6496 6505 0
-259 -6496 6497 0
-6497 6506 0
-260 -6497 0
-252 6498 0
-6498 6507 0
-253 -6498 6499 0
-6499 6508 0
-254 -6499 6500 0
-6500 6509 0
-255 -6500 6501 0
-6501 6510 0
-256 -6501 6502 0
-6502 6511 0
-257 -6502 6503 0
-6503 6512 0
-258 -6503 6504 0
-6504 6513 0
-259 -6504 6505 0
-6505 6514 0
-260 -6505 6506 0
-6506 6515 0
-261 -6506 0
-253 6507 0
-6507 6516 0
-254 -6507 6508 0
-6508 6517 0
-255 -6508 6509 0
-6509 6518 0
-256 -6509 6510 0
-6510 6519 0
-257 -6510 6511 0
-6511 6520 0
-258 -6511 6512 0
-6512 6521 0
-259 -6512 6513 0
-6513 6522 0
-260 -6513 6514 0
-6514 6523 0
-261 -6514 6515 0
-6515 6524 0
-262 -6515 0
-254 6516 0
-6516 6525 0
-255 -6516 6517 0
-6517 6526 0
-256 -6517 6518 0
-6518 6527 0
-257 -6518 6519 0
-6519 6528 0
-258 -6519 6520 0
-6520 6529 0
-259 -6520 6521 0
-6521 6530 0
-260 -6521 6522 0
-6522 6531 0
-261 -6522 6523 0
-6523 6532 0
-262 -6523 6524 0
-6524 6533 0
-263 -6524 0
-255 6525 0
-6525 6534 0
-256 -6525 6526 0
-6526 6535 0
-257 -6526 6527 0
-6527 6536 0
-258 -6527 6528 0
-6528 6537 0
-259 -6528 6529 0
-6529 6538 0
-260 -6529 6530 0
-6530 6539 0
-261 -6530 6531 0
-6531 6540 0
-262 -6531 6532 0
-6532 6541 0
-263 -6532 6533 0
-6533 6542 0
-264 -6533 0
-256 6534 0
-6534 6543 0
-257 -6534 6535 0
-6535 6544 0
-258 -6535 6536 0
-6536 6545 0
-259 -6536 6537 0
-6537 6546 0
-260 -6537 6538 0
-6538 6547 0
-261 -6538 6539 0
-6539 6548 0
-262 -6539 6540 0
-6540 6549 0
-263 -6540 6541 0
-6541 6550 0
-264 -6541 6542 0
-6542 6551 0
-265 -6542 0
-257 6543 0
-6543 6552 0
-258 -6543 6544 0
-6544 6553 0
-259 -6544 6545 0
-6545 6554 0
-260 -6545 6546 0
-6546 6555 0
-261 -6546 6547 0
-6547 6556 0
-262 -6547 6548 0
-6548 6557 0
-263 -6548 6549 0
-6549 6558 0
-264 -6549 6550 0
-6550 6559 0
-265 -6550 6551 0
-6551 6560 0
-266 -6551 0
-258 6552 0
-6552 6561 0
-259 -6552 6553 0
-6553 6562 0
-260 -6553 6554 0
-6554 6563 0
-261 -6554 6555 0
-6555 6564 0
-262 -6555 6556 0
-6556 6565 0
-263 -6556 6557 0
-6557 6566 0
-264 -6557 6558 0
-6558 6567 0
-265 -6558 6559 0
-6559 6568 0
-266 -6559 6560 0
-6560 6569 0
-267 -6560 0
-259 6561 0
-6561 6570 0
-260 -6561 6562 0
-6562 6571 0
-261 -6562 6563 0
-6563 6572 0
-262 -6563 6564 0
-6564 6573 0
-263 -6564 6565 0
-6565 6574 0
-264 -6565 6566 0
-6566 6575 0
-265 -6566 6567 0
-6567 6576 0
-266 -6567 6568 0
-6568 6577 0
-267 -6568 6569 0
-6569 6578 0
-268 -6569 0
-260 6570 0
-6570 6579 0
-261 -6570 6571 0
-6571 6580 0
-262 -6571 6572 0
-6572 6581 0
-263 -6572 6573 0
-6573 6582 0
-264 -6573 6574 0
-6574 6583 0
-265 -6574 6575 0
-6575 6584 0
-266 -6575 6576 0
-6576 6585 0
-267 -6576 6577 0
-6577 6586 0
-268 -6577 6578 0
-6578 6587 0
-269 -6578 0
-261 6579 0
-6579 6588 0
-262 -6579 6580 0
-6580 6589 0
-263 -6580 6581 0
-6581 6590 0
-264 -6581 6582 0
-6582 6591 0
-265 -6582 6583 0
-6583 6592 0
-266 -6583 6584 0
-6584 6593 0
-267 -6584 6585 0
-6585 6594 0
-268 -6585 6586 0
-6586 6595 0
-269 -6586 6587 0
-6587 6596 0
-270 -6587 0
-262 6588 0
-6588 6597 0
-263 -6588 6589 0
-6589 6598 0
-264 -6589 6590 0
-6590 6599 0
-265 -6590 6591 0
-6591 6600 0
-266 -6591 6592 0
-6592 6601 0
-267 -6592 6593 0
-6593 6602 0
-268 -6593 6594 0
-6594 6603 0
-269 -6594 6595 0
-6595 6604 0
-270 -6595 6596 0
-6596 6605 0
-271 -6596 0
-263 6597 0
-6597 6606 0
-264 -6597 6598 0
-6598 6607 0
-265 -6598 6599 0
-6599 6608 0
-266 -6599 6600 0
-6600 6609 0
-267 -6600 6601 0
-6601 6610 0
-268 -6601 6602 0
-6602 6611 0
-269 -6602 6603 0
-6603 6612 0
-270 -6603 6604 0
-6604 6613 0
-271 -6604 6605 0
-6605 6614 0
-272 -6605 0
-264 6606 0
-6606 6615 0
-265 -6606 6607 0
-6607 6616 0
-266 -6607 6608 0
-6608 6617 0
-267 -6608 6609 0
-6609 6618 0
-268 -6609 6610 0
-6610 6619 0
-269 -6610 6611 0
-6611 6620 0
-270 -6611 6612 0
-6612 6621 0
-271 -6612 6613 0
-6613 6622 0
-272 -6613 6614 0
-6614 6623 0
-273 -6614 0
-265 6615 0
-6615 6624 0
-266 -6615 6616 0
-6616 6625 0
-267 -6616 6617 0
-6617 6626 0
-268 -6617 6618 0
-6618 6627 0
-269 -6618 6619 0
-6619 6628 0
-270 -6619 6620 0
-6620 6629 0
-271 -6620 6621 0
-6621 6630 0
-272 -6621 6622 0
-6622 6631 0
-273 -6622 6623 0
-6623 6632 0
-274 -6623 0
-266 6624 0
-6624 6633 0
-267 -6624 6625 0
-6625 6634 0
-268 -6625 6626 0
-6626 6635 0
-269 -6626 6627 0
-6627 6636 0
-270 -6627 6628 0
-6628 6637 0
-271 -6628 6629 0
-6629 6638 0
-272 -6629 6630 0
-6630 6639 0
-273 -6630 6631 0
-6631 6640 0
-274 -6631 6632 0
-6632 6641 0
-275 -6632 0
-267 6633 0
-6633 6642 0
-268 -6633 6634 0
-6634 6643 0
-269 -6634 6635 0
-6635 6644 0
-270 -6635 6636 0
-6636 6645 0
-271 -6636 6637 0
-6637 6646 0
-272 -6637 6638 0
-6638 6647 0
-273 -6638 6639 0
-6639 6648 0
-274 -6639 6640 0
-6640 6649 0
-275 -6640 6641 0
-6641 6650 0
-276 -6641 0
-268 6642 0
-6642 6651 0
-269 -6642 6643 0
-6643 6652 0
-270 -6643 6644 0
-6644 6653 0
-271 -6644 6645 0
-6645 6654 0
-272 -6645 6646 0
-6646 6655 0
-273 -6646 6647 0
-6647 6656 0
-274 -6647 6648 0
-6648 6657 0
-275 -6648 6649 0
-6649 6658 0
-276 -6649 6650 0
-6650 6659 0
-277 -6650 0
-269 6651 0
-6651 6660 0
-270 -6651 6652 0
-6652 6661 0
-271 -6652 6653 0
-6653 6662 0
-272 -6653 6654 0
-6654 6663 0
-273 -6654 6655 0
-6655 6664 0
-274 -6655 6656 0
-6656 6665 0
-275 -6656 6657 0
-6657 6666 0
-276 -6657 6658 0
-6658 6667 0
-277 -6658 6659 0
-6659 6668 0
-278 -6659 0
-270 6660 0
-6660 6669 0
-271 -6660 6661 0
-6661 6670 0
-272 -6661 6662 0
-6662 6671 0
-273 -6662 6663 0
-6663 6672 0
-274 -6663 6664 0
-6664 6673 0
-275 -6664 6665 0
-6665 6674 0
-276 -6665 6666 0
-6666 6675 0
-277 -6666 6667 0
-6667 6676 0
-278 -6667 6668 0
-6668 6677 0
-279 -6668 0
-271 6669 0
-6669 6678 0
-272 -6669 6670 0
-6670 6679 0
-273 -6670 6671 0
-6671 6680 0
-274 -6671 6672 0
-6672 6681 0
-275 -6672 6673 0
-6673 6682 0
-276 -6673 6674 0
-6674 6683 0
-277 -6674 6675 0
-6675 6684 0
-278 -6675 6676 0
-6676 6685 0
-279 -6676 6677 0
-6677 6686 0
-280 -6677 0
-272 6678 0
-6678 6687 0
-273 -6678 6679 0
-6679 6688 0
-274 -6679 6680 0
-6680 6689 0
-275 -6680 6681 0
-6681 6690 0
-276 -6681 6682 0
-6682 6691 0
-277 -6682 6683 0
-6683 6692 0
-278 -6683 6684 0
-6684 6693 0
-279 -6684 6685 0
-6685 6694 0
-280 -6685 6686 0
-6686 6695 0
-281 -6686 0
-273 6687 0
-6687 6696 0
-274 -6687 6688 0
-6688 6697 0
-275 -6688 6689 0
-6689 6698 0
-276 -6689 6690 0
-6690 6699 0
-277 -6690 6691 0
-6691 6700 0
-278 -6691 6692 0
-6692 6701 0
-279 -6692 6693 0
-6693 6702 0
-280 -6693 6694 0
-6694 6703 0
-281 -6694 6695 0
-6695 6704 0
-282 -6695 0
-274 6696 0
-6696 6705 0
-275 -6696 6697 0
-6697 6706 0
-276 -6697 6698 0
-6698 6707 0
-277 -6698 6699 0
-6699 6708 0
-278 -6699 6700 0
-6700 6709 0
-279 -6700 6701 0
-6701 6710 0
-280 -6701 6702 0
-6702 6711 0
-281 -6702 6703 0
-6703 6712 0
-282 -6703 6704 0
-6704 6713 0
-283 -6704 0
-275 6705 0
-6705 6714 0
-276 -6705 6706 0
-6706 6715 0
-277 -6706 6707 0
-6707 6716 0
-278 -6707 6708 0
-6708 6717 0
-279 -6708 6709 0
-6709 6718 0
-280 -6709 6710 0
-6710 6719 0
-281 -6710 6711 0
-6711 6720 0
-282 -6711 6712 0
-6712 6721 0
-283 -6712 6713 0
-6713 6722 0
-284 -6713 0
-276 6714 0
-6714 6723 0
-277 -6714 6715 0
-6715 6724 0
-278 -6715 6716 0
-6716 6725 0
-279 -6716 6717 0
-6717 6726 0
-280 -6717 6718 0
-6718 6727 0
-281 -6718 6719 0
-6719 6728 0
-282 -6719 6720 0
-6720 6729 0
-283 -6720 6721 0
-6721 6730 0
-284 -6721 6722 0
-6722 6731 0
-285 -6722 0
-277 6723 0
-6723 6732 0
-278 -6723 6724 0
-6724 6733 0
-279 -6724 6725 0
-6725 6734 0
-280 -6725 6726 0
-6726 6735 0
-281 -6726 6727 0
-6727 6736 0
-282 -6727 6728 0
-6728 6737 0
-283 -6728 6729 0
-6729 6738 0
-284 -6729 6730 0
-6730 6739 0
-285 -6730 6731 0
-6731 6740 0
-286 -6731 0
-278 6732 0
-6732 6741 0
-279 -6732 6733 0
-6733 6742 0
-280 -6733 6734 0
-6734 6743 0
-281 -6734 6735 0
-6735 6744 0
-282 -6735 6736 0
-6736 6745 0
-283 -6736 6737 0
-6737 6746 0
-284 -6737 6738 0
-6738 6747 0
-285 -6738 6739 0
-6739 6748 0
-286 -6739 6740 0
-6740 6749 0
-287 -6740 0
-279 6741 0
-6741 6750 0
-280 -6741 6742 0
-6742 6751 0
-281 -6742 6743 0
-6743 6752 0
-282 -6743 6744 0
-6744 6753 0
-283 -6744 6745 0
-6745 6754 0
-284 -6745 6746 0
-6746 6755 0
-285 -6746 6747 0
-6747 6756 0
-286 -6747 6748 0
-6748 6757 0
-287 -6748 6749 0
-6749 6758 0
-288 -6749 0
-280 6750 0
-6750 6759 0
-281 -6750 6751 0
-6751 6760 0
-282 -6751 6752 0
-6752 6761 0
-283 -6752 6753 0
-6753 6762 0
-284 -6753 6754 0
-6754 6763 0
-285 -6754 6755 0
-6755 6764 0
-286 -6755 6756 0
-6756 6765 0
-287 -6756 6757 0
-6757 6766 0
-288 -6757 6758 0
-6758 6767 0
-289 -6758 0
-281 6759 0
-6759 6768 0
-282 -6759 6760 0
-6760 6769 0
-283 -6760 6761 0
-6761 6770 0
-284 -6761 6762 0
-6762 6771 0
-285 -6762 6763 0
-6763 6772 0
-286 -6763 6764 0
-6764 6773 0
-287 -6764 6765 0
-6765 6774 0
-288 -6765 6766 0
-6766 6775 0
-289 -6766 6767 0
-6767 6776 0
-290 -6767 0
-282 6768 0
-6768 6777 0
-283 -6768 6769 0
-6769 6778 0
-284 -6769 6770 0
-6770 6779 0
-285 -6770 6771 0
-6771 6780 0
-286 -6771 6772 0
-6772 6781 0
-287 -6772 6773 0
-6773 6782 0
-288 -6773 6774 0
-6774 6783 0
-289 -6774 6775 0
-6775 6784 0
-290 -6775 6776 0
-6776 6785 0
-291 -6776 0
-283 6777 0
-6777 6786 0
-284 -6777 6778 0
-6778 6787 0
-285 -6778 6779 0
-6779 6788 0
-286 -6779 6780 0
-6780 6789 0
-287 -6780 6781 0
-6781 6790 0
-288 -6781 6782 0
-6782 6791 0
-289 -6782 6783 0
-6783 6792 0
-290 -6783 6784 0
-6784 6793 0
-291 -6784 6785 0
-6785 6794 0
-292 -6785 0
-284 6786 0
-6786 6795 0
-285 -6786 6787 0
-6787 6796 0
-286 -6787 6788 0
-6788 6797 0
-287 -6788 6789 0
-6789 6798 0
-288 -6789 6790 0
-6790 6799 0
-289 -6790 6791 0
-6791 6800 0
-290 -6791 6792 0
-6792 6801 0
-291 -6792 6793 0
-6793 6802 0
-292 -6793 6794 0
-6794 6803 0
-293 -6794 0
-285 6795 0
-6795 6804 0
-286 -6795 6796 0
-6796 6805 0
-287 -6796 6797 0
-6797 6806 0
-288 -6797 6798 0
-6798 6807 0
-289 -6798 6799 0
-6799 6808 0
-290 -6799 6800 0
-6800 6809 0
-291 -6800 6801 0
-6801 6810 0
-292 -6801 6802 0
-6802 6811 0
-293 -6802 6803 0
-6803 6812 0
-294 -6803 0
-286 6804 0
-6804 6813 0
-287 -6804 6805 0
-6805 6814 0
-288 -6805 6806 0
-6806 6815 0
-289 -6806 6807 0
-6807 6816 0
-290 -6807 6808 0
-6808 6817 0
-291 -6808 6809 0
-6809 6818 0
-292 -6809 6810 0
-6810 6819 0
-293 -6810 6811 0
-6811 6820 0
-294 -6811 6812 0
-6812 6821 0
-295 -6812 0
-287 6813 0
-6813 6822 0
-288 -6813 6814 0
-6814 6823 0
-289 -6814 6815 0
-6815 6824 0
-290 -6815 6816 0
-6816 6825 0
-291 -6816 6817 0
-6817 6826 0
-292 -6817 6818 0
-6818 6827 0
-293 -6818 6819 0
-6819 6828 0
-294 -6819 6820 0
-6820 6829 0
-295 -6820 6821 0
-6821 6830 0
-296 -6821 0
-288 6822 0
-6822 6831 0
-289 -6822 6823 0
-6823 6832 0
-290 -6823 6824 0
-6824 6833 0
-291 -6824 6825 0
-6825 6834 0
-292 -6825 6826 0
-6826 6835 0
-293 -6826 6827 0
-6827 6836 0
-294 -6827 6828 0
-6828 6837 0
-295 -6828 6829 0
-6829 6838 0
-296 -6829 6830 0
-6830 6839 0
-297 -6830 0
-289 6831 0
-6831 6840 0
-290 -6831 6832 0
-6832 6841 0
-291 -6832 6833 0
-6833 6842 0
-292 -6833 6834 0
-6834 6843 0
-293 -6834 6835 0
-6835 6844 0
-294 -6835 6836 0
-6836 6845 0
-295 -6836 6837 0
-6837 6846 0
-296 -6837 6838 0
-6838 6847 0
-297 -6838 6839 0
-6839 6848 0
-298 -6839 0
-290 6840 0
-6840 6849 0
-291 -6840 6841 0
-6841 6850 0
-292 -6841 6842 0
-6842 6851 0
-293 -6842 6843 0
-6843 6852 0
-294 -6843 6844 0
-6844 6853 0
-295 -6844 6845 0
-6845 6854 0
-296 -6845 6846 0
-6846 6855 0
-297 -6846 6847 0
-6847 6856 0
-298 -6847 6848 0
-6848 6857 0
-299 -6848 0
-291 6849 0
-6849 6858 0
-292 -6849 6850 0
-6850 6859 0
-293 -6850 6851 0
-6851 6860 0
-294 -6851 6852 0
-6852 6861 0
-295 -6852 6853 0
-6853 6862 0
-296 -6853 6854 0
-6854 6863 0
-297 -6854 6855 0
-6855 6864 0
-298 -6855 6856 0
-6856 6865 0
-299 -6856 6857 0
-6857 6866 0
-300 -6857 0
-292 6858 0
-6858 6867 0
-293 -6858 6859 0
-6859 6868 0
-294 -6859 6860 0
-6860 6869 0
-295 -6860 6861 0
-6861 6870 0
-296 -6861 6862 0
-6862 6871 0
-297 -6862 6863 0
-6863 6872 0
-298 -6863 6864 0
-6864 6873 0
-299 -6864 6865 0
-6865 6874 0
-300 -6865 6866 0
-6866 6875 0
-301 -6866 0
-293 6867 0
-6867 6876 0
-294 -6867 6868 0
-6868 6877 0
-295 -6868 6869 0
-6869 6878 0
-296 -6869 6870 0
-6870 6879 0
-297 -6870 6871 0
-6871 6880 0
-298 -6871 6872 0
-6872 6881 0
-299 -6872 6873 0
-6873 6882 0
-300 -6873 6874 0
-6874 6883 0
-301 -6874 6875 0
-6875 6884 0
-302 -6875 0
-294 6876 0
-6876 6885 0
-295 -6876 6877 0
-6877 6886 0
-296 -6877 6878 0
-6878 6887 0
-297 -6878 6879 0
-6879 6888 0
-298 -6879 6880 0
-6880 6889 0
-299 -6880 6881 0
-6881 6890 0
-300 -6881 6882 0
-6882 6891 0
-301 -6882 6883 0
-6883 6892 0
-302 -6883 6884 0
-6884 6893 0
-303 -6884 0
-295 6885 0
-6885 6894 0
-296 -6885 6886 0
-6886 6895 0
-297 -6886 6887 0
-6887 6896 0
-298 -6887 6888 0
-6888 6897 0
-299 -6888 6889 0
-6889 6898 0
-300 -6889 6890 0
-6890 6899 0
-301 -6890 6891 0
-6891 6900 0
-302 -6891 6892 0
-6892 6901 0
-303 -6892 6893 0
-6893 6902 0
-304 -6893 0
-296 6894 0
-6894 6903 0
-297 -6894 6895 0
-6895 6904 0
-298 -6895 6896 0
-6896 6905 0
-299 -6896 6897 0
-6897 6906 0
-300 -6897 6898 0
-6898 6907 0
-301 -6898 6899 0
-6899 6908 0
-302 -6899 6900 0
-6900 6909 0
-303 -6900 6901 0
-6901 6910 0
-304 -6901 6902 0
-6902 6911 0
-305 -6902 0
-297 6903 0
-6903 6912 0
-298 -6903 6904 0
-6904 6913 0
-299 -6904 6905 0
-6905 6914 0
-300 -6905 6906 0
-6906 6915 0
-301 -6906 6907 0
-6907 6916 0
-302 -6907 6908 0
-6908 6917 0
-303 -6908 6909 0
-6909 6918 0
-304 -6909 6910 0
-6910 6919 0
-305 -6910 6911 0
-6911 6920 0
-306 -6911 0
-298 6912 0
-6912 6921 0
-299 -6912 6913 0
-6913 6922 0
-300 -6913 6914 0
-6914 6923 0
-301 -6914 6915 0
-6915 6924 0
-302 -6915 6916 0
-6916 6925 0
-303 -6916 6917 0
-6917 6926 0
-304 -6917 6918 0
-6918 6927 0
-305 -6918 6919 0
-6919 6928 0
-306 -6919 6920 0
-6920 6929 0
-307 -6920 0
-299 6921 0
-6921 6930 0
-300 -6921 6922 0
-6922 6931 0
-301 -6922 6923 0
-6923 6932 0
-302 -6923 6924 0
-6924 6933 0
-303 -6924 6925 0
-6925 6934 0
-304 -6925 6926 0
-6926 6935 0
-305 -6926 6927 0
-6927 6936 0
-306 -6927 6928 0
-6928 6937 0
-307 -6928 6929 0
-6929 6938 0
-308 -6929 0
-300 6930 0
-6930 6939 0
-301 -6930 6931 0
-6931 6940 0
-302 -6931 6932 0
-6932 6941 0
-303 -6932 6933 0
-6933 6942 0
-304 -6933 6934 0
-6934 6943 0
-305 -6934 6935 0
-6935 6944 0
-306 -6935 6936 0
-6936 6945 0
-307 -6936 6937 0
-6937 6946 0
-308 -6937 6938 0
-6938 6947 0
-309 -6938 0
-301 6939 0
-6939 6948 0
-302 -6939 6940 0
-6940 6949 0
-303 -6940 6941 0
-6941 6950 0
-304 -6941 6942 0
-6942 6951 0
-305 -6942 6943 0
-6943 6952 0
-306 -6943 6944 0
-6944 6953 0
-307 -6944 6945 0
-6945 6954 0
-308 -6945 6946 0
-6946 6955 0
-309 -6946 6947 0
-6947 6956 0
-310 -6947 0
-302 6948 0
-6948 6957 0
-303 -6948 6949 0
-6949 6958 0
-304 -6949 6950 0
-6950 6959 0
-305 -6950 6951 0
-6951 6960 0
-306 -6951 6952 0
-6952 6961 0
-307 -6952 6953 0
-6953 6962 0
-308 -6953 6954 0
-6954 6963 0
-309 -6954 6955 0
-6955 6964 0
-310 -6955 6956 0
-6956 6965 0
-311 -6956 0
-303 6957 0
-6957 6966 0
-304 -6957 6958 0
-6958 6967 0
-305 -6958 6959 0
-6959 6968 0
-306 -6959 6960 0
-6960 6969 0
-307 -6960 6961 0
-6961 6970 0
-308 -6961 6962 0
-6962 6971 0
-309 -6962 6963 0
-6963 6972 0
-310 -6963 6964 0
-6964 6973 0
-311 -6964 6965 0
-6965 6974 0
-312 -6965 0
-304 6966 0
-6966 6975 0
-305 -6966 6967 0
-6967 6976 0
-306 -6967 6968 0
-6968 6977 0
-307 -6968 6969 0
-6969 6978 0
-308 -6969 6970 0
-6970 6979 0
-309 -6970 6971 0
-6971 6980 0
-310 -6971 6972 0
-6972 6981 0
-311 -6972 6973 0
-6973 6982 0
-312 -6973 6974 0
-6974 6983 0
-313 -6974 0
-305 6975 0
-6975 6984 0
-306 -6975 6976 0
-6976 6985 0
-307 -6976 6977 0
-6977 6986 0
-308 -6977 6978 0
-6978 6987 0
-309 -6978 6979 0
-6979 6988 0
-310 -6979 6980 0
-6980 6989 0
-311 -6980 6981 0
-6981 6990 0
-312 -6981 6982 0
-6982 6991 0
-313 -6982 6983 0
-6983 6992 0
-314 -6983 0
-306 6984 0
-6984 6993 0
-307 -6984 6985 0
-6985 6994 0
-308 -6985 6986 0
-6986 6995 0
-309 -6986 6987 0
-6987 6996 0
-310 -6987 6988 0
-6988 6997 0
-311 -6988 6989 0
-6989 6998 0
-312 -6989 6990 0
-6990 6999 0
-313 -6990 6991 0
-6991 7000 0
-314 -6991 6992 0
-6992 7001 0
-315 -6992 0
-307 6993 0
-6993 7002 0
-308 -6993 6994 0
-6994 7003 0
-309 -6994 6995 0
-6995 7004 0
-310 -6995 6996 0
-6996 7005 0
-311 -6996 6997 0
-6997 7006 0
-312 -6997 6998 0
-6998 7007 0
-313 -6998 6999 0
-6999 7008 0
-314 -6999 7000 0
-7000 7009 0
-315 -7000 7001 0
-7001 7010 0
-316 -7001 0
-308 7002 0
-7002 7011 0
-309 -7002 7003 0
-7003 7012 0
-310 -7003 7004 0
-7004 7013 0
-311 -7004 7005 0
-7005 7014 0
-312 -7005 7006 0
-7006 7015 0
-313 -7006 7007 0
-7007 7016 0
-314 -7007 7008 0
-7008 7017 0
-315 -7008 7009 0
-7009 7018 0
-316 -7009 7010 0
-7010 7019 0
-317 -7010 0
-309 7011 0
-7011 7020 0
-310 -7011 7012 0
-7012 7021 0
-311 -7012 7013 0
-7013 7022 0
-312 -7013 7014 0
-7014 7023 0
-313 -7014 7015 0
-7015 7024 0
-314 -7015 7016 0
-7016 7025 0
-315 -7016 7017 0
-7017 7026 0
-316 -7017 7018 0
-7018 7027 0
-317 -7018 7019 0
-7019 7028 0
-318 -7019 0
-310 7020 0
-7020 7029 0
-311 -7020 7021 0
-7021 7030 0
-312 -7021 7022 0
-7022 7031 0
-313 -7022 7023 0
-7023 7032 0
-314 -7023 7024 0
-7024 7033 0
-315 -7024 7025 0
-7025 7034 0
-316 -7025 7026 0
-7026 7035 0
-317 -7026 7027 0
-7027 7036 0
-318 -7027 7028 0
-7028 7037 0
-319 -7028 0
-311 7029 0
-7029 7038 0
-312 -7029 7030 0
-7030 7039 0
-313 -7030 7031 0
-7031 7040 0
-314 -7031 7032 0
-7032 7041 0
-315 -7032 7033 0
-7033 7042 0
-316 -7033 7034 0
-7034 7043 0
-317 -7034 7035 0
-7035 7044 0
-318 -7035 7036 0
-7036 7045 0
-319 -7036 7037 0
-7037 7046 0
-320 -7037 0
-312 7038 0
-7038 7047 0
-313 -7038 7039 0
-7039 7048 0
-314 -7039 7040 0
-7040 7049 0
-315 -7040 7041 0
-7041 7050 0
-316 -7041 7042 0
-7042 7051 0
-317 -7042 7043 0
-7043 7052 0
-318 -7043 7044 0
-7044 7053 0
-319 -7044 7045 0
-7045 7054 0
-320 -7045 7046 0
-7046 7055 0
-321 -7046 0
-313 7047 0
-7047 7056 0
-314 -7047 7048 0
-7048 7057 0
-315 -7048 7049 0
-7049 7058 0
-316 -7049 7050 0
-7050 7059 0
-317 -7050 7051 0
-7051 7060 0
-318 -7051 7052 0
-7052 7061 0
-319 -7052 7053 0
-7053 7062 0
-320 -7053 7054 0
-7054 7063 0
-321 -7054 7055 0
-7055 7064 0
-322 -7055 0
-314 7056 0
-7056 7065 0
-315 -7056 7057 0
-7057 7066 0
-316 -7057 7058 0
-7058 7067 0
-317 -7058 7059 0
-7059 7068 0
-318 -7059 7060 0
-7060 7069 0
-319 -7060 7061 0
-7061 7070 0
-320 -7061 7062 0
-7062 7071 0
-321 -7062 7063 0
-7063 7072 0
-322 -7063 7064 0
-7064 7073 0
-323 -7064 0
-315 7065 0
-7065 7074 0
-316 -7065 7066 0
-7066 7075 0
-317 -7066 7067 0
-7067 7076 0
-318 -7067 7068 0
-7068 7077 0
-319 -7068 7069 0
-7069 7078 0
-320 -7069 7070 0
-7070 7079 0
-321 -7070 7071 0
-7071 7080 0
-322 -7071 7072 0
-7072 7081 0
-323 -7072 7073 0
-7073 7082 0
-324 -7073 0
-316 7074 0
-7074 7083 0
-317 -7074 7075 0
-7075 7084 0
-318 -7075 7076 0
-7076 7085 0
-319 -7076 7077 0
-7077 7086 0
-320 -7077 7078 0
-7078 7087 0
-321 -7078 7079 0
-7079 7088 0
-322 -7079 7080 0
-7080 7089 0
-323 -7080 7081 0
-7081 7090 0
-324 -7081 7082 0
-7082 7091 0
-325 -7082 0
-317 7083 0
-7083 7092 0
-318 -7083 7084 0
-7084 7093 0
-319 -7084 7085 0
-7085 7094 0
-320 -7085 7086 0
-7086 7095 0
-321 -7086 7087 0
-7087 7096 0
-322 -7087 7088 0
-7088 7097 0
-323 -7088 7089 0
-7089 7098 0
-324 -7089 7090 0
-7090 7099 0
-325 -7090 7091 0
-7091 7100 0
-326 -7091 0
-318 7092 0
-7092 7101 0
-319 -7092 7093 0
-7093 7102 0
-320 -7093 7094 0
-7094 7103 0
-321 -7094 7095 0
-7095 7104 0
-322 -7095 7096 0
-7096 7105 0
-323 -7096 7097 0
-7097 7106 0
-324 -7097 7098 0
-7098 7107 0
-325 -7098 7099 0
-7099 7108 0
-326 -7099 7100 0
-7100 7109 0
-327 -7100 0
-319 7101 0
-7101 7110 0
-320 -7101 7102 0
-7102 7111 0
-321 -7102 7103 0
-7103 7112 0
-322 -7103 7104 0
-7104 7113 0
-323 -7104 7105 0
-7105 7114 0
-324 -7105 7106 0
-7106 7115 0
-325 -7106 7107 0
-7107 7116 0
-326 -7107 7108 0
-7108 7117 0
-327 -7108 7109 0
-7109 7118 0
-328 -7109 0
-320 7110 0
-7110 7119 0
-321 -7110 7111 0
-7111 7120 0
-322 -7111 7112 0
-7112 7121 0
-323 -7112 7113 0
-7113 7122 0
-324 -7113 7114 0
-7114 7123 0
-325 -7114 7115 0
-7115 7124 0
-326 -7115 7116 0
-7116 7125 0
-327 -7116 7117 0
-7117 7126 0
-328 -7117 7118 0
-7118 7127 0
-329 -7118 0
-321 7119 0
-7119 7128 0
-322 -7119 7120 0
-7120 7129 0
-323 -7120 7121 0
-7121 7130 0
-324 -7121 7122 0
-7122 7131 0
-325 -7122 7123 0
-7123 7132 0
-326 -7123 7124 0
-7124 7133 0
-327 -7124 7125 0
-7125 7134 0
-328 -7125 7126 0
-7126 7135 0
-329 -7126 7127 0
-7127 7136 0
-330 -7127 0
-322 7128 0
-7128 7137 0
-323 -7128 7129 0
-7129 7138 0
-324 -7129 7130 0
-7130 7139 0
-325 -7130 7131 0
-7131 7140 0
-326 -7131 7132 0
-7132 7141 0
-327 -7132 7133 0
-7133 7142 0
-328 -7133 7134 0
-7134 7143 0
-329 -7134 7135 0
-7135 7144 0
-330 -7135 7136 0
-7136 7145 0
-331 -7136 0
-323 7137 0
-7137 7146 0
-324 -7137 7138 0
-7138 7147 0
-325 -7138 7139 0
-7139 7148 0
-326 -7139 7140 0
-7140 7149 0
-327 -7140 7141 0
-7141 7150 0
-328 -7141 7142 0
-7142 7151 0
-329 -7142 7143 0
-7143 7152 0
-330 -7143 7144 0
-7144 7153 0
-331 -7144 7145 0
-7145 7154 0
-332 -7145 0
-324 7146 0
-7146 7155 0
-325 -7146 7147 0
-7147 7156 0
-326 -7147 7148 0
-7148 7157 0
-327 -7148 7149 0
-7149 7158 0
-328 -7149 7150 0
-7150 7159 0
-329 -7150 7151 0
-7151 7160 0
-330 -7151 7152 0
-7152 7161 0
-331 -7152 7153 0
-7153 7162 0
-332 -7153 7154 0
-7154 7163 0
-333 -7154 0
-325 7155 0
-7155 7164 0
-326 -7155 7156 0
-7156 7165 0
-327 -7156 7157 0
-7157 7166 0
-328 -7157 7158 0
-7158 7167 0
-329 -7158 7159 0
-7159 7168 0
-330 -7159 7160 0
-7160 7169 0
-331 -7160 7161 0
-7161 7170 0
-332 -7161 7162 0
-7162 7171 0
-333 -7162 7163 0
-7163 7172 0
-334 -7163 0
-326 7164 0
-7164 7173 0
-327 -7164 7165 0
-7165 7174 0
-328 -7165 7166 0
-7166 7175 0
-329 -7166 7167 0
-7167 7176 0
-330 -7167 7168 0
-7168 7177 0
-331 -7168 7169 0
-7169 7178 0
-332 -7169 7170 0
-7170 7179 0
-333 -7170 7171 0
-7171 7180 0
-334 -7171 7172 0
-7172 7181 0
-335 -7172 0
-327 7173 0
-7173 7182 0
-328 -7173 7174 0
-7174 7183 0
-329 -7174 7175 0
-7175 7184 0
-330 -7175 7176 0
-7176 7185 0
-331 -7176 7177 0
-7177 7186 0
-332 -7177 7178 0
-7178 7187 0
-333 -7178 7179 0
-7179 7188 0
-334 -7179 7180 0
-7180 7189 0
-335 -7180 7181 0
-7181 7190 0
-336 -7181 0
-328 7182 0
-7182 7191 0
-329 -7182 7183 0
-7183 7192 0
-330 -7183 7184 0
-7184 7193 0
-331 -7184 7185 0
-7185 7194 0
-332 -7185 7186 0
-7186 7195 0
-333 -7186 7187 0
-7187 7196 0
-334 -7187 7188 0
-7188 7197 0
-335 -7188 7189 0
-7189 7198 0
-336 -7189 7190 0
-7190 7199 0
-337 -7190 0
-329 7191 0
-7191 7200 0
-330 -7191 7192 0
-7192 7201 0
-331 -7192 7193 0
-7193 7202 0
-332 -7193 7194 0
-7194 7203 0
-333 -7194 7195 0
-7195 7204 0
-334 -7195 7196 0
-7196 7205 0
-335 -7196 7197 0
-7197 7206 0
-336 -7197 7198 0
-7198 7207 0
-337 -7198 7199 0
-7199 7208 0
-338 -7199 0
-330 7200 0
-7200 7209 0
-331 -7200 7201 0
-7201 7210 0
-332 -7201 7202 0
-7202 7211 0
-333 -7202 7203 0
-7203 7212 0
-334 -7203 7204 0
-7204 7213 0
-335 -7204 7205 0
-7205 7214 0
-336 -7205 7206 0
-7206 7215 0
-337 -7206 7207 0
-7207 7216 0
-338 -7207 7208 0
-7208 7217 0
-339 -7208 0
-331 7209 0
-7209 7218 0
-332 -7209 7210 0
-7210 7219 0
-333 -7210 7211 0
-7211 7220 0
-334 -7211 7212 0
-7212 7221 0
-335 -7212 7213 0
-7213 7222 0
-336 -7213 7214 0
-7214 7223 0
-337 -7214 7215 0
-7215 7224 0
-338 -7215 7216 0
-7216 7225 0
-339 -7216 7217 0
-7217 7226 0
-340 -7217 0
-332 7218 0
-7218 7227 0
-333 -7218 7219 0
-7219 7228 0
-334 -7219 7220 0
-7220 7229 0
-335 -7220 7221 0
-7221 7230 0
-336 -7221 7222 0
-7222 7231 0
-337 -7222 7223 0
-7223 7232 0
-338 -7223 7224 0
-7224 7233 0
-339 -7224 7225 0
-7225 7234 0
-340 -7225 7226 0
-7226 7235 0
-341 -7226 0
-333 7227 0
-7227 7236 0
-334 -7227 7228 0
-7228 7237 0
-335 -7228 7229 0
-7229 7238 0
-336 -7229 7230 0
-7230 7239 0
-337 -7230 7231 0
-7231 7240 0
-338 -7231 7232 0
-7232 7241 0
-339 -7232 7233 0
-7233 7242 0
-340 -7233 7234 0
-7234 7243 0
-341 -7234 7235 0
-7235 7244 0
-342 -7235 0
-334 7236 0
-7236 7245 0
-335 -7236 7237 0
-7237 7246 0
-336 -7237 7238 0
-7238 7247 0
-337 -7238 7239 0
-7239 7248 0
-338 -7239 7240 0
-7240 7249 0
-339 -7240 7241 0
-7241 7250 0
-340 -7241 7242 0
-7242 7251 0
-341 -7242 7243 0
-7243 7252 0
-342 -7243 7244 0
-7244 7253 0
-343 -7244 0
-335 7245 0
-7245 7254 0
-336 -7245 7246 0
-7246 7255 0
-337 -7246 7247 0
-7247 7256 0
-338 -7247 7248 0
-7248 7257 0
-339 -7248 7249 0
-7249 7258 0
-340 -7249 7250 0
-7250 7259 0
-341 -7250 7251 0
-7251 7260 0
-342 -7251 7252 0
-7252 7261 0
-343 -7252 7253 0
-7253 7262 0
-344 -7253 0
-336 7254 0
-7254 7263 0
-337 -7254 7255 0
-7255 7264 0
-338 -7255 7256 0
-7256 7265 0
-339 -7256 7257 0
-7257 7266 0
-340 -7257 7258 0
-7258 7267 0
-341 -7258 7259 0
-7259 7268 0
-342 -7259 7260 0
-7260 7269 0
-343 -7260 7261 0
-7261 7270 0
-344 -7261 7262 0
-7262 7271 0
-345 -7262 0
-337 7263 0
-7263 7272 0
-338 -7263 7264 0
-7264 7273 0
-339 -7264 7265 0
-7265 7274 0
-340 -7265 7266 0
-7266 7275 0
-341 -7266 7267 0
-7267 7276 0
-342 -7267 7268 0
-7268 7277 0
-343 -7268 7269 0
-7269 7278 0
-344 -7269 7270 0
-7270 7279 0
-345 -7270 7271 0
-7271 7280 0
-346 -7271 0
-338 7272 0
-7272 7281 0
-339 -7272 7273 0
-7273 7282 0
-340 -7273 7274 0
-7274 7283 0
-341 -7274 7275 0
-7275 7284 0
-342 -7275 7276 0
-7276 7285 0
-343 -7276 7277 0
-7277 7286 0
-344 -7277 7278 0
-7278 7287 0
-345 -7278 7279 0
-7279 7288 0
-346 -7279 7280 0
-7280 7289 0
-347 -7280 0
-339 7281 0
-7281 7290 0
-340 -7281 7282 0
-7282 7291 0
-341 -7282 7283 0
-7283 7292 0
-342 -7283 7284 0
-7284 7293 0
-343 -7284 7285 0
-7285 7294 0
-344 -7285 7286 0
-7286 7295 0
-345 -7286 7287 0
-7287 7296 0
-346 -7287 7288 0
-7288 7297 0
-347 -7288 7289 0
-7289 7298 0
-348 -7289 0
-340 7290 0
-7290 7299 0
-341 -7290 7291 0
-7291 7300 0
-342 -7291 7292 0
-7292 7301 0
-343 -7292 7293 0
-7293 7302 0
-344 -7293 7294 0
-7294 7303 0
-345 -7294 7295 0
-7295 7304 0
-346 -7295 7296 0
-7296 7305 0
-347 -7296 7297 0
-7297 7306 0
-348 -7297 7298 0
-7298 7307 0
-349 -7298 0
-341 7299 0
-7299 7308 0
-342 -7299 7300 0
-7300 7309 0
-343 -7300 7301 0
-7301 7310 0
-344 -7301 7302 0
-7302 7311 0
-345 -7302 7303 0
-7303 7312 0
-346 -7303 7304 0
-7304 7313 0
-347 -7304 7305 0
-7305 7314 0
-348 -7305 7306 0
-7306 7315 0
-349 -7306 7307 0
-7307 7316 0
-350 -7307 0
-342 7308 0
-7308 7317 0
-343 -7308 7309 0
-7309 7318 0
-344 -7309 7310 0
-7310 7319 0
-345 -7310 7311 0
-7311 7320 0
-346 -7311 7312 0
-7312 7321 0
-347 -7312 7313 0
-7313 7322 0
-348 -7313 7314 0
-7314 7323 0
-349 -7314 7315 0
-7315 7324 0
-350 -7315 7316 0
-7316 7325 0
-351 -7316 0
-343 7317 0
-7317 7326 0
-344 -7317 7318 0
-7318 7327 0
-345 -7318 7319 0
-7319 7328 0
-346 -7319 7320 0
-7320 7329 0
-347 -7320 7321 0
-7321 7330 0
-348 -7321 7322 0
-7322 7331 0
-349 -7322 7323 0
-7323 7332 0
-350 -7323 7324 0
-7324 7333 0
-351 -7324 7325 0
-7325 7334 0
-352 -7325 0
-344 7326 0
-7326 7335 0
-345 -7326 7327 0
-7327 7336 0
-346 -7327 7328 0
-7328 7337 0
-347 -7328 7329 0
-7329 7338 0
-348 -7329 7330 0
-7330 7339 0
-349 -7330 7331 0
-7331 7340 0
-350 -7331 7332 0
-7332 7341 0
-351 -7332 7333 0
-7333 7342 0
-352 -7333 7334 0
-7334 7343 0
-353 -7334 0
-345 7335 0
-7335 7344 0
-346 -7335 7336 0
-7336 7345 0
-347 -7336 7337 0
-7337 7346 0
-348 -7337 7338 0
-7338 7347 0
-349 -7338 7339 0
-7339 7348 0
-350 -7339 7340 0
-7340 7349 0
-351 -7340 7341 0
-7341 7350 0
-352 -7341 7342 0
-7342 7351 0
-353 -7342 7343 0
-7343 7352 0
-354 -7343 0
-346 7344 0
-7344 7353 0
-347 -7344 7345 0
-7345 7354 0
-348 -7345 7346 0
-7346 7355 0
-349 -7346 7347 0
-7347 7356 0
-350 -7347 7348 0
-7348 7357 0
-351 -7348 7349 0
-7349 7358 0
-352 -7349 7350 0
-7350 7359 0
-353 -7350 7351 0
-7351 7360 0
-354 -7351 7352 0
-7352 7361 0
-355 -7352 0
-347 7353 0
-7353 7362 0
-348 -7353 7354 0
-7354 7363 0
-349 -7354 7355 0
-7355 7364 0
-350 -7355 7356 0
-7356 7365 0
-351 -7356 7357 0
-7357 7366 0
-352 -7357 7358 0
-7358 7367 0
-353 -7358 7359 0
-7359 7368 0
-354 -7359 7360 0
-7360 7369 0
-355 -7360 7361 0
-7361 7370 0
-356 -7361 0
-348 7362 0
-7362 7371 0
-349 -7362 7363 0
-7363 7372 0
-350 -7363 7364 0
-7364 7373 0
-351 -7364 7365 0
-7365 7374 0
-352 -7365 7366 0
-7366 7375 0
-353 -7366 7367 0
-7367 7376 0
-354 -7367 7368 0
-7368 7377 0
-355 -7368 7369 0
-7369 7378 0
-356 -7369 7370 0
-7370 7379 0
-357 -7370 0
-349 7371 0
-7371 7380 0
-350 -7371 7372 0
-7372 7381 0
-351 -7372 7373 0
-7373 7382 0
-352 -7373 7374 0
-7374 7383 0
-353 -7374 7375 0
-7375 7384 0
-354 -7375 7376 0
-7376 7385 0
-355 -7376 7377 0
-7377 7386 0
-356 -7377 7378 0
-7378 7387 0
-357 -7378 7379 0
-7379 7388 0
-358 -7379 0
-350 7380 0
-7380 7389 0
-351 -7380 7381 0
-7381 7390 0
-352 -7381 7382 0
-7382 7391 0
-353 -7382 7383 0
-7383 7392 0
-354 -7383 7384 0
-7384 7393 0
-355 -7384 7385 0
-7385 7394 0
-356 -7385 7386 0
-7386 7395 0
-357 -7386 7387 0
-7387 7396 0
-358 -7387 7388 0
-7388 7397 0
-359 -7388 0
-351 7389 0
-7389 7398 0
-352 -7389 7390 0
-7390 7399 0
-353 -7390 7391 0
-7391 7400 0
-354 -7391 7392 0
-7392 7401 0
-355 -7392 7393 0
-7393 7402 0
-356 -7393 7394 0
-7394 7403 0
-357 -7394 7395 0
-7395 7404 0
-358 -7395 7396 0
-7396 7405 0
-359 -7396 7397 0
-7397 7406 0
-360 -7397 0
-352 7398 0
-7398 7407 0
-353 -7398 7399 0
-7399 7408 0
-354 -7399 7400 0
-7400 7409 0
-355 -7400 7401 0
-7401 7410 0
-356 -7401 7402 0
-7402 7411 0
-357 -7402 7403 0
-7403 7412 0
-358 -7403 7404 0
-7404 7413 0
-359 -7404 7405 0
-7405 7414 0
-360 -7405 7406 0
-7406 7415 0
-361 -7406 0
-353 7407 0
-7407 7416 0
-354 -7407 7408 0
-7408 7417 0
-355 -7408 7409 0
-7409 7418 0
-356 -7409 7410 0
-7410 7419 0
-357 -7410 7411 0
-7411 7420 0
-358 -7411 7412 0
-7412 7421 0
-359 -7412 7413 0
-7413 7422 0
-360 -7413 7414 0
-7414 7423 0
-361 -7414 7415 0
-7415 7424 0
-362 -7415 0
-354 7416 0
-7416 7425 0
-355 -7416 7417 0
-7417 7426 0
-356 -7417 7418 0
-7418 7427 0
-357 -7418 7419 0
-7419 7428 0
-358 -7419 7420 0
-7420 7429 0
-359 -7420 7421 0
-7421 7430 0
-360 -7421 7422 0
-7422 7431 0
-361 -7422 7423 0
-7423 7432 0
-362 -7423 7424 0
-7424 7433 0
-363 -7424 0
-355 7425 0
-7425 7434 0
-356 -7425 7426 0
-7426 7435 0
-357 -7426 7427 0
-7427 7436 0
-358 -7427 7428 0
-7428 7437 0
-359 -7428 7429 0
-7429 7438 0
-360 -7429 7430 0
-7430 7439 0
-361 -7430 7431 0
-7431 7440 0
-362 -7431 7432 0
-7432 7441 0
-363 -7432 7433 0
-7433 7442 0
-364 -7433 0
-356 7434 0
-7434 7443 0
-357 -7434 7435 0
-7435 7444 0
-358 -7435 7436 0
-7436 7445 0
-359 -7436 7437 0
-7437 7446 0
-360 -7437 7438 0
-7438 7447 0
-361 -7438 7439 0
-7439 7448 0
-362 -7439 7440 0
-7440 7449 0
-363 -7440 7441 0
-7441 7450 0
-364 -7441 7442 0
-7442 7451 0
-365 -7442 0
-357 7443 0
-7443 7452 0
-358 -7443 7444 0
-7444 7453 0
-359 -7444 7445 0
-7445 7454 0
-360 -7445 7446 0
-7446 7455 0
-361 -7446 7447 0
-7447 7456 0
-362 -7447 7448 0
-7448 7457 0
-363 -7448 7449 0
-7449 7458 0
-364 -7449 7450 0
-7450 7459 0
-365 -7450 7451 0
-7451 7460 0
-366 -7451 0
-358 7452 0
-7452 7461 0
-359 -7452 7453 0
-7453 7462 0
-360 -7453 7454 0
-7454 7463 0
-361 -7454 7455 0
-7455 7464 0
-362 -7455 7456 0
-7456 7465 0
-363 -7456 7457 0
-7457 7466 0
-364 -7457 7458 0
-7458 7467 0
-365 -7458 7459 0
-7459 7468 0
-366 -7459 7460 0
-7460 7469 0
-367 -7460 0
-359 7461 0
-7461 7470 0
-360 -7461 7462 0
-7462 7471 0
-361 -7462 7463 0
-7463 7472 0
-362 -7463 7464 0
-7464 7473 0
-363 -7464 7465 0
-7465 7474 0
-364 -7465 7466 0
-7466 7475 0
-365 -7466 7467 0
-7467 7476 0
-366 -7467 7468 0
-7468 7477 0
-367 -7468 7469 0
-7469 7478 0
-368 -7469 0
-360 7470 0
-7470 7479 0
-361 -7470 7471 0
-7471 7480 0
-362 -7471 7472 0
-7472 7481 0
-363 -7472 7473 0
-7473 7482 0
-364 -7473 7474 0
-7474 7483 0
-365 -7474 7475 0
-7475 7484 0
-366 -7475 7476 0
-7476 7485 0
-367 -7476 7477 0
-7477 7486 0
-368 -7477 7478 0
-7478 7487 0
-369 -7478 0
-361 7479 0
-7479 7488 0
-362 -7479 7480 0
-7480 7489 0
-363 -7480 7481 0
-7481 7490 0
-364 -7481 7482 0
-7482 7491 0
-365 -7482 7483 0
-7483 7492 0
-366 -7483 7484 0
-7484 7493 0
-367 -7484 7485 0
-7485 7494 0
-368 -7485 7486 0
-7486 7495 0
-369 -7486 7487 0
-7487 7496 0
-370 -7487 0
-362 7488 0
-7488 7497 0
-363 -7488 7489 0
-7489 7498 0
-364 -7489 7490 0
-7490 7499 0
-365 -7490 7491 0
-7491 7500 0
-366 -7491 7492 0
-7492 7501 0
-367 -7492 7493 0
-7493 7502 0
-368 -7493 7494 0
-7494 7503 0
-369 -7494 7495 0
-7495 7504 0
-370 -7495 7496 0
-7496 7505 0
-371 -7496 0
-363 7497 0
-7497 7506 0
-364 -7497 7498 0
-7498 7507 0
-365 -7498 7499 0
-7499 7508 0
-366 -7499 7500 0
-7500 7509 0
-367 -7500 7501 0
-7501 7510 0
-368 -7501 7502 0
-7502 7511 0
-369 -7502 7503 0
-7503 7512 0
-370 -7503 7504 0
-7504 7513 0
-371 -7504 7505 0
-7505 7514 0
-372 -7505 0
-364 7506 0
-7506 7515 0
-365 -7506 7507 0
-7507 7516 0
-366 -7507 7508 0
-7508 7517 0
-367 -7508 7509 0
-7509 7518 0
-368 -7509 7510 0
-7510 7519 0
-369 -7510 7511 0
-7511 7520 0
-370 -7511 7512 0
-7512 7521 0
-371 -7512 7513 0
-7513 7522 0
-372 -7513 7514 0
-7514 7523 0
-373 -7514 0
-365 7515 0
-7515 7524 0
-366 -7515 7516 0
-7516 7525 0
-367 -7516 7517 0
-7517 7526 0
-368 -7517 7518 0
-7518 7527 0
-369 -7518 7519 0
-7519 7528 0
-370 -7519 7520 0
-7520 7529 0
-371 -7520 7521 0
-7521 7530 0
-372 -7521 7522 0
-7522 7531 0
-373 -7522 7523 0
-7523 7532 0
-374 -7523 0
-366 7524 0
-7524 7533 0
-367 -7524 7525 0
-7525 7534 0
-368 -7525 7526 0
-7526 7535 0
-369 -7526 7527 0
-7527 7536 0
-370 -7527 7528 0
-7528 7537 0
-371 -7528 7529 0
-7529 7538 0
-372 -7529 7530 0
-7530 7539 0
-373 -7530 7531 0
-7531 7540 0
-374 -7531 7532 0
-7532 7541 0
-375 -7532 0
-367 7533 0
-7533 7542 0
-368 -7533 7534 0
-7534 7543 0
-369 -7534 7535 0
-7535 7544 0
-370 -7535 7536 0
-7536 7545 0
-371 -7536 7537 0
-7537 7546 0
-372 -7537 7538 0
-7538 7547 0
-373 -7538 7539 0
-7539 7548 0
-374 -7539 7540 0
-7540 7549 0
-375 -7540 7541 0
-7541 7550 0
-376 -7541 0
-368 7542 0
-7542 7551 0
-369 -7542 7543 0
-7543 7552 0
-370 -7543 7544 0
-7544 7553 0
-371 -7544 7545 0
-7545 7554 0
-372 -7545 7546 0
-7546 7555 0
-373 -7546 7547 0
-7547 7556 0
-374 -7547 7548 0
-7548 7557 0
-375 -7548 7549 0
-7549 7558 0
-376 -7549 7550 0
-7550 7559 0
-377 -7550 0
-369 7551 0
-7551 7560 0
-370 -7551 7552 0
-7552 7561 0
-371 -7552 7553 0
-7553 7562 0
-372 -7553 7554 0
-7554 7563 0
-373 -7554 7555 0
-7555 7564 0
-374 -7555 7556 0
-7556 7565 0
-375 -7556 7557 0
-7557 7566 0
-376 -7557 7558 0
-7558 7567 0
-377 -7558 7559 0
-7559 7568 0
-378 -7559 0
-370 7560 0
-7560 7569 0
-371 -7560 7561 0
-7561 7570 0
-372 -7561 7562 0
-7562 7571 0
-373 -7562 7563 0
-7563 7572 0
-374 -7563 7564 0
-7564 7573 0
-375 -7564 7565 0
-7565 7574 0
-376 -7565 7566 0
-7566 7575 0
-377 -7566 7567 0
-7567 7576 0
-378 -7567 7568 0
-7568 7577 0
-379 -7568 0
-371 7569 0
-372 -7569 7570 0
-373 -7570 7571 0
-374 -7571 7572 0
-375 -7572 7573 0
-376 -7573 7574 0
-377 -7574 7575 0
-378 -7575 7576 0
-379 -7576 7577 0
-380 -7577 0
1 96 0
