p cnf 2245 4605
-67 -1 0
-67 2 33 34 0
-2 1 67 0
-33 1 67 0
-34 1 67 0
-68 -2 0
-68 1 3 35 0
-1 2 68 0
-3 2 68 0
-35 2 68 0
-69 -3 0
-69 2 4 36 0
-2 3 69 0
-4 3 69 0
-36 3 69 0
-70 -4 0
-70 3 5 37 0
-3 4 70 0
-5 4 70 0
-37 4 70 0
-71 -5 0
-71 4 6 38 0
-4 5 71 0
-6 5 71 0
-38 5 71 0
-72 -6 0
-72 5 7 39 0
-5 6 72 0
-7 6 72 0
-39 6 72 0
-73 -7 0
-73 6 8 40 0
-6 7 73 0
-8 7 73 0
-40 7 73 0
-74 -8 0
-74 7 9 41 0
-7 8 74 0
-9 8 74 0
-41 8 74 0
-75 -9 0
-75 8 10 42 0
-8 9 75 0
-10 9 75 0
-42 9 75 0
-76 -10 0
-76 9 11 43 0
-9 10 76 0
-11 10 76 0
-43 10 76 0
-77 -11 0
-77 10 12 44 0
-10 11 77 0
-12 11 77 0
-44 11 77 0
-78 -12 0
-78 11 13 45 0
-11 12 78 0
-13 12 78 0
-45 12 78 0
-79 -13 0
-79 12 14 46 0
-12 13 79 0
-14 13 79 0
-46 13 79 0
-80 -14 0
-80 13 15 47 0
-13 14 80 0
-15 14 80 0
-47 14 80 0
-81 -15 0
-81 14 16 48 0
-14 15 81 0
-16 15 81 0
-48 15 81 0
-82 -16 0
-82 15 17 49 0
-15 16 82 0
-17 16 82 0
-49 16 82 0
-83 -17 0
-83 16 18 50 0
-16 17 83 0
-18 17 83 0
-50 17 83 0
-84 -18 0
-84 17 19 51 0
-17 18 84 0
-19 18 84 0
-51 18 84 0
-85 -19 0
-85 18 20 52 0
-18 19 85 0
-20 19 85 0
-52 19 85 0
-86 -20 0
-86 19 21 53 0
-19 20 86 0
-21 20 86 0
-53 20 86 0
-87 -21 0
-87 20 22 54 0
-20 21 87 0
-22 21 87 0
-54 21 87 0
-88 -22 0
-88 21 23 55 0
-21 22 88 0
-23 22 88 0
-55 22 88 0
-89 -23 0
-89 22 24 56 0
-22 23 89 0
-24 23 89 0
-56 23 89 0
-90 -24 0
-90 23 25 57 0
-23 24 90 0
-25 24 90 0
-57 24 90 0
-91 -25 0
-91 24 26 58 0
-24 25 91 0
-26 25 91 0
-58 25 91 0
-92 -26 0
-92 25 27 59 0
-25 26 92 0
-27 26 92 0
-59 26 92 0
-93 -27 0
-93 26 28 60 0
-26 27 93 0
-28 27 93 0
-60 27 93 0
-94 -28 0
-94 27 29 61 0
-27 28 94 0
-29 28 94 0
-61 28 94 0
-95 -29 0
-95 28 30 62 0
-28 29 95 0
-30 29 95 0
-62 29 95 0
-96 -30 0
-96 29 31 63 0
-29 30 96 0
-31 30 96 0
-63 30 96 0
-97 -31 0
-97 30 32 64 0
-30 31 97 0
-32 31 97 0
-64 31 97 0
-98 -32 0
-98 31 33 65 0
-31 32 98 0
-33 32 98 0
-65 32 98 0
-99 -33 0
-99 1 32 66 0
-1 33 99 0
-32 33 99 0
-66 33 99 0
-100 -34 0
-100 1 38 63 0
-1 34 100 0
-38 34 100 0
-63 34 100 0
-101 -35 0
-101 2 39 64 0
-2 35 101 0
-39 35 101 0
-64 35 101 0
-102 -36 0
-102 3 40 65 0
-3 36 102 0
-40 36 102 0
-65 36 102 0
-103 -37 0
-103 4 41 66 0
-4 37 103 0
-41 37 103 0
-66 37 103 0
-104 -38 0
-104 5 34 42 0
-5 38 104 0
-34 38 104 0
-42 38 104 0
-105 -39 0
-105 6 35 43 0
-6 39 105 0
-35 39 105 0
-43 39 105 0
-106 -40 0
-106 7 36 44 0
-7 40 106 0
-36 40 106 0
-44 40 106 0
-107 -41 0
-107 8 37 45 0
-8 41 107 0
-37 41 107 0
-45 41 107 0
-108 -42 0
-108 9 38 46 0
-9 42 108 0
-38 42 108 0
-46 42 108 0
-109 -43 0
-109 10 39 47 0
-10 43 109 0
-39 43 109 0
-47 43 109 0
-110 -44 0
-110 11 40 48 0
-11 44 110 0
-40 44 110 0
-48 44 110 0
-111 -45 0
-111 12 41 49 0
-12 45 111 0
-41 45 111 0
-49 45 111 0
-112 -46 0
-112 13 42 50 0
-13 46 112 0
-42 46 112 0
-50 46 112 0
-113 -47 0
-113 14 43 51 0
-14 47 113 0
-43 47 113 0
-51 47 113 0
-114 -48 0
-114 15 44 52 0
-15 48 114 0
-44 48 114 0
-52 48 114 0
-115 -49 0
-115 16 45 53 0
-16 49 115 0
-45 49 115 0
-53 49 115 0
-116 -50 0
-116 17 46 54 0
-17 50 116 0
-46 50 116 0
-54 50 116 0
-117 -51 0
-117 18 47 55 0
-18 51 117 0
-47 51 117 0
-55 51 117 0
-118 -52 0
-118 19 48 56 0
-19 52 118 0
-48 52 118 0
-56 52 118 0
-119 -53 0
-119 20 49 57 0
-20 53 119 0
-49 53 119 0
-57 53 119 0
-120 -54 0
-120 21 50 58 0
-21 54 120 0
-50 54 120 0
-58 54 120 0
-121 -55 0
-121 22 51 59 0
-22 55 121 0
-51 55 121 0
-59 55 121 0
-122 -56 0
-122 23 52 60 0
-23 56 122 0
-52 56 122 0
-60 56 122 0
-123 -57 0
-123 24 53 61 0
-24 57 123 0
-53 57 123 0
-61 57 123 0
-124 -58 0
-124 25 54 62 0
-25 58 124 0
-54 58 124 0
-62 58 124 0
-125 -59 0
-125 26 55 63 0
-26 59 125 0
-55 59 125 0
-63 59 125 0
-126 -60 0
-126 27 56 64 0
-27 60 126 0
-56 60 126 0
-64 60 126 0
-127 -61 0
-127 28 57 65 0
-28 61 127 0
-57 61 127 0
-65 61 127 0
-128 -62 0
-128 29 58 66 0
-29 62 128 0
-58 62 128 0
-66 62 128 0
-129 -63 0
-129 30 34 59 0
-30 63 129 0
-34 63 129 0
-59 63 129 0
-130 -64 0
-130 31 35 60 0
-31 64 130 0
-35 64 130 0
-60 64 130 0
-131 -65 0
-131 32 36 61 0
-32 65 131 0
-36 65 131 0
-61 65 131 0
-132 -66 0
-132 33 37 62 0
-33 66 132 0
-37 66 132 0
-62 66 132 0
1 133 0
-133 134 0
2 -133 135 0
-135 136 0
3 -135 137 0
-137 138 0
4 -137 139 0
-139 140 0
5 -139 141 0
-141 142 0
6 -141 143 0
-143 144 0
7 -143 145 0
-145 146 0
8 -145 147 0
-147 148 0
9 -147 149 0
-149 150 0
10 -149 151 0
-151 152 0
11 -151 153 0
-153 154 0
12 -153 155 0
-155 156 0
13 -155 157 0
-157 158 0
14 -157 159 0
-159 160 0
15 -159 161 0
-161 162 0
16 -161 163 0
-163 164 0
17 -163 165 0
-165 166 0
18 -165 167 0
-167 168 0
19 -167 169 0
-169 170 0
20 -169 171 0
-171 172 0
21 -171 173 0
-173 174 0
22 -173 175 0
-175 176 0
23 -175 177 0
-177 178 0
24 -177 179 0
-179 180 0
25 -179 181 0
-181 182 0
26 -181 183 0
-183 184 0
27 -183 185 0
-185 186 0
28 -185 187 0
-187 188 0
29 -187 189 0
-189 190 0
30 -189 191 0
-191 192 0
31 -191 193 0
-193 194 0
32 -193 195 0
-195 196 0
33 -195 197 0
-197 198 0
34 -197 199 0
-199 200 0
35 -199 201 0
-201 202 0
36 -201 203 0
-203 204 0
37 -203 205 0
-205 206 0
38 -205 207 0
-207 208 0
39 -207 209 0
-209 210 0
40 -209 211 0
-211 212 0
41 -211 213 0
-213 214 0
42 -213 215 0
-215 216 0
43 -215 217 0
-217 218 0
44 -217 219 0
-219 220 0
45 -219 221 0
-221 222 0
46 -221 223 0
-223 224 0
47 -223 225 0
-225 226 0
48 -225 227 0
-227 228 0
49 -227 229 0
-229 230 0
50 -229 231 0
-231 232 0
51 -231 0
2 134 0
-134 233 0
3 -134 136 0
-136 234 0
4 -136 138 0
-138 235 0
5 -138 140 0
-140 236 0
6 -140 142 0
-142 237 0
7 -142 144 0
-144 238 0
8 -144 146 0
-146 239 0
9 -146 148 0
-148 240 0
10 -148 150 0
-150 241 0
11 -150 152 0
-152 242 0
12 -152 154 0
-154 243 0
13 -154 156 0
-156 244 0
14 -156 158 0
-158 245 0
15 -158 160 0
-160 246 0
16 -160 162 0
-162 247 0
17 -162 164 0
-164 248 0
18 -164 166 0
-166 249 0
19 -166 168 0
-168 250 0
20 -168 170 0
-170 251 0
21 -170 172 0
-172 252 0
22 -172 174 0
-174 253 0
23 -174 176 0
-176 254 0
24 -176 178 0
-178 255 0
25 -178 180 0
-180 256 0
26 -180 182 0
-182 257 0
27 -182 184 0
-184 258 0
28 -184 186 0
-186 259 0
29 -186 188 0
-188 260 0
30 -188 190 0
-190 261 0
31 -190 192 0
-192 262 0
32 -192 194 0
-194 263 0
33 -194 196 0
-196 264 0
34 -196 198 0
-198 265 0
35 -198 200 0
-200 266 0
36 -200 202 0
-202 267 0
37 -202 204 0
-204 268 0
38 -204 206 0
-206 269 0
39 -206 208 0
-208 270 0
40 -208 210 0
-210 271 0
41 -210 212 0
-212 272 0
42 -212 214 0
-214 273 0
43 -214 216 0
-216 274 0
44 -216 218 0
-218 275 0
45 -218 220 0
-220 276 0
46 -220 222 0
-222 277 0
47 -222 224 0
-224 278 0
48 -224 226 0
-226 279 0
49 -226 228 0
-228 280 0
50 -228 230 0
-230 281 0
51 -230 232 0
-232 282 0
52 -232 0
3 233 0
-233 283 0
4 -233 234 0
-234 284 0
5 -234 235 0
-235 285 0
6 -235 236 0
-236 286 0
7 -236 237 0
-237 287 0
8 -237 238 0
-238 288 0
9 -238 239 0
-239 289 0
10 -239 240 0
-240 290 0
11 -240 241 0
-241 291 0
12 -241 242 0
-242 292 0
13 -242 243 0
-243 293 0
14 -243 244 0
-244 294 0
15 -244 245 0
-245 295 0
16 -245 246 0
-246 296 0
17 -246 247 0
-247 297 0
18 -247 248 0
-248 298 0
19 -248 249 0
-249 299 0
20 -249 250 0
-250 300 0
21 -250 251 0
-251 301 0
22 -251 252 0
-252 302 0
23 -252 253 0
-253 303 0
24 -253 254 0
-254 304 0
25 -254 255 0
-255 305 0
26 -255 256 0
-256 306 0
27 -256 257 0
-257 307 0
28 -257 258 0
-258 308 0
29 -258 259 0
-259 309 0
30 -259 260 0
-260 310 0
31 -260 261 0
-261 311 0
32 -261 262 0
-262 312 0
33 -262 263 0
-263 313 0
34 -263 264 0
-264 314 0
35 -264 265 0
-265 315 0
36 -265 266 0
-266 316 0
37 -266 267 0
-267 317 0
38 -267 268 0
-268 318 0
39 -268 269 0
-269 319 0
40 -269 270 0
-270 320 0
41 -270 271 0
-271 321 0
42 -271 272 0
-272 322 0
43 -272 273 0
-273 323 0
44 -273 274 0
-274 324 0
45 -274 275 0
-275 325 0
46 -275 276 0
-276 326 0
47 -276 277 0
-277 327 0
48 -277 278 0
-278 328 0
49 -278 279 0
-279 329 0
50 -279 280 0
-280 330 0
51 -280 281 0
-281 331 0
52 -281 282 0
-282 332 0
53 -282 0
4 283 0
-283 333 0
5 -283 284 0
-284 334 0
6 -284 285 0
-285 335 0
7 -285 286 0
-286 336 0
8 -286 287 0
-287 337 0
9 -287 288 0
-288 338 0
10 -288 289 0
-289 339 0
11 -289 290 0
-290 340 0
12 -290 291 0
-291 341 0
13 -291 292 0
-292 342 0
14 -292 293 0
-293 343 0
15 -293 294 0
-294 344 0
16 -294 295 0
-295 345 0
17 -295 296 0
-296 346 0
18 -296 297 0
-297 347 0
19 -297 298 0
-298 348 0
20 -298 299 0
-299 349 0
21 -299 300 0
-300 350 0
22 -300 301 0
-301 351 0
23 -301 302 0
-302 352 0
24 -302 303 0
-303 353 0
25 -303 304 0
-304 354 0
26 -304 305 0
-305 355 0
27 -305 306 0
-306 356 0
28 -306 307 0
-307 357 0
29 -307 308 0
-308 358 0
30 -308 309 0
-309 359 0
31 -309 310 0
-310 360 0
32 -310 311 0
-311 361 0
33 -311 312 0
-312 362 0
34 -312 313 0
-313 363 0
35 -313 314 0
-314 364 0
36 -314 315 0
-315 365 0
37 -315 316 0
-316 366 0
38 -316 317 0
-317 367 0
39 -317 318 0
-318 368 0
40 -318 319 0
-319 369 0
41 -319 320 0
-320 370 0
42 -320 321 0
-321 371 0
43 -321 322 0
-322 372 0
44 -322 323 0
-323 373 0
45 -323 324 0
-324 374 0
46 -324 325 0
-325 375 0
47 -325 326 0
-326 376 0
48 -326 327 0
-327 377 0
49 -327 328 0
-328 378 0
50 -328 329 0
-329 379 0
51 -329 330 0
-330 380 0
52 -330 331 0
-331 381 0
53 -331 332 0
-332 382 0
54 -332 0
5 333 0
-333 383 0
6 -333 334 0
-334 384 0
7 -334 335 0
-335 385 0
8 -335 336 0
-336 386 0
9 -336 337 0
-337 387 0
10 -337 338 0
-338 388 0
11 -338 339 0
-339 389 0
12 -339 340 0
-340 390 0
13 -340 341 0
-341 391 0
14 -341 342 0
-342 392 0
15 -342 343 0
-343 393 0
16 -343 344 0
-344 394 0
17 -344 345 0
-345 395 0
18 -345 346 0
-346 396 0
19 -346 347 0
-347 397 0
20 -347 348 0
-348 398 0
21 -348 349 0
-349 399 0
22 -349 350 0
-350 400 0
23 -350 351 0
-351 401 0
24 -351 352 0
-352 402 0
25 -352 353 0
-353 403 0
26 -353 354 0
-354 404 0
27 -354 355 0
-355 405 0
28 -355 356 0
-356 406 0
29 -356 357 0
-357 407 0
30 -357 358 0
-358 408 0
31 -358 359 0
-359 409 0
32 -359 360 0
-360 410 0
33 -360 361 0
-361 411 0
34 -361 362 0
-362 412 0
35 -362 363 0
-363 413 0
36 -363 364 0
-364 414 0
37 -364 365 0
-365 415 0
38 -365 366 0
-366 416 0
39 -366 367 0
-367 417 0
40 -367 368 0
-368 418 0
41 -368 369 0
-369 419 0
42 -369 370 0
-370 420 0
43 -370 371 0
-371 421 0
44 -371 372 0
-372 422 0
45 -372 373 0
-373 423 0
46 -373 374 0
-374 424 0
47 -374 375 0
-375 425 0
48 -375 376 0
-376 426 0
49 -376 377 0
-377 427 0
50 -377 378 0
-378 428 0
51 -378 379 0
-379 429 0
52 -379 380 0
-380 430 0
53 -380 381 0
-381 431 0
54 -381 382 0
-382 432 0
55 -382 0
6 383 0
-383 433 0
7 -383 384 0
-384 434 0
8 -384 385 0
-385 435 0
9 -385 386 0
-386 436 0
10 -386 387 0
-387 437 0
11 -387 388 0
-388 438 0
12 -388 389 0
-389 439 0
13 -389 390 0
-390 440 0
14 -390 391 0
-391 441 0
15 -391 392 0
-392 442 0
16 -392 393 0
-393 443 0
17 -393 394 0
-394 444 0
18 -394 395 0
-395 445 0
19 -395 396 0
-396 446 0
20 -396 397 0
-397 447 0
21 -397 398 0
-398 448 0
22 -398 399 0
-399 449 0
23 -399 400 0
-400 450 0
24 -400 401 0
-401 451 0
25 -401 402 0
-402 452 0
26 -402 403 0
-403 453 0
27 -403 404 0
-404 454 0
28 -404 405 0
-405 455 0
29 -405 406 0
-406 456 0
30 -406 407 0
-407 457 0
31 -407 408 0
-408 458 0
32 -408 409 0
-409 459 0
33 -409 410 0
-410 460 0
34 -410 411 0
-411 461 0
35 -411 412 0
-412 462 0
36 -412 413 0
-413 463 0
37 -413 414 0
-414 464 0
38 -414 415 0
-415 465 0
39 -415 416 0
-416 466 0
40 -416 417 0
-417 467 0
41 -417 418 0
-418 468 0
42 -418 419 0
-419 469 0
43 -419 420 0
-420 470 0
44 -420 421 0
-421 471 0
45 -421 422 0
-422 472 0
46 -422 423 0
-423 473 0
47 -423 424 0
-424 474 0
48 -424 425 0
-425 475 0
49 -425 426 0
-426 476 0
50 -426 427 0
-427 477 0
51 -427 428 0
-428 478 0
52 -428 429 0
-429 479 0
53 -429 430 0
-430 480 0
54 -430 431 0
-431 481 0
55 -431 432 0
-432 482 0
56 -432 0
7 433 0
-433 483 0
8 -433 434 0
-434 484 0
9 -434 435 0
-435 485 0
10 -435 436 0
-436 486 0
11 -436 437 0
-437 487 0
12 -437 438 0
-438 488 0
13 -438 439 0
-439 489 0
14 -439 440 0
-440 490 0
15 -440 441 0
-441 491 0
16 -441 442 0
-442 492 0
17 -442 443 0
-443 493 0
18 -443 444 0
-444 494 0
19 -444 445 0
-445 495 0
20 -445 446 0
-446 496 0
21 -446 447 0
-447 497 0
22 -447 448 0
-448 498 0
23 -448 449 0
-449 499 0
24 -449 450 0
-450 500 0
25 -450 451 0
-451 501 0
26 -451 452 0
-452 502 0
27 -452 453 0
-453 503 0
28 -453 454 0
-454 504 0
29 -454 455 0
-455 505 0
30 -455 456 0
-456 506 0
31 -456 457 0
-457 507 0
32 -457 458 0
-458 508 0
33 -458 459 0
-459 509 0
34 -459 460 0
-460 510 0
35 -460 461 0
-461 511 0
36 -461 462 0
-462 512 0
37 -462 463 0
-463 513 0
38 -463 464 0
-464 514 0
39 -464 465 0
-465 515 0
40 -465 466 0
-466 516 0
41 -466 467 0
-467 517 0
42 -467 468 0
-468 518 0
43 -468 469 0
-469 519 0
44 -469 470 0
-470 520 0
45 -470 471 0
-471 521 0
46 -471 472 0
-472 522 0
47 -472 473 0
-473 523 0
48 -473 474 0
-474 524 0
49 -474 475 0
-475 525 0
50 -475 476 0
-476 526 0
51 -476 477 0
-477 527 0
52 -477 478 0
-478 528 0
53 -478 479 0
-479 529 0
54 -479 480 0
-480 530 0
55 -480 481 0
-481 531 0
56 -481 482 0
-482 532 0
57 -482 0
8 483 0
-483 533 0
9 -483 484 0
-484 534 0
10 -484 485 0
-485 535 0
11 -485 486 0
-486 536 0
12 -486 487 0
-487 537 0
13 -487 488 0
-488 538 0
14 -488 489 0
-489 539 0
15 -489 490 0
-490 540 0
16 -490 491 0
-491 541 0
17 -491 492 0
-492 542 0
18 -492 493 0
-493 543 0
19 -493 494 0
-494 544 0
20 -494 495 0
-495 545 0
21 -495 496 0
-496 546 0
22 -496 497 0
-497 547 0
23 -497 498 0
-498 548 0
24 -498 499 0
-499 549 0
25 -499 500 0
-500 550 0
26 -500 501 0
-501 551 0
27 -501 502 0
-502 552 0
28 -502 503 0
-503 553 0
29 -503 504 0
-504 554 0
30 -504 505 0
-505 555 0
31 -505 506 0
-506 556 0
32 -506 507 0
-507 557 0
33 -507 508 0
-508 558 0
34 -508 509 0
-509 559 0
35 -509 510 0
-510 560 0
36 -510 511 0
-511 561 0
37 -511 512 0
-512 562 0
38 -512 513 0
-513 563 0
39 -513 514 0
-514 564 0
40 -514 515 0
-515 565 0
41 -515 516 0
-516 566 0
42 -516 517 0
-517 567 0
43 -517 518 0
-518 568 0
44 -518 519 0
-519 569 0
45 -519 520 0
-520 570 0
46 -520 521 0
-521 571 0
47 -521 522 0
-522 572 0
48 -522 523 0
-523 573 0
49 -523 524 0
-524 574 0
50 -524 525 0
-525 575 0
51 -525 526 0
-526 576 0
52 -526 527 0
-527 577 0
53 -527 528 0
-528 578 0
54 -528 529 0
-529 579 0
55 -529 530 0
-530 580 0
56 -530 531 0
-531 581 0
57 -531 532 0
-532 582 0
58 -532 0
9 533 0
-533 583 0
10 -533 534 0
-534 584 0
11 -534 535 0
-535 585 0
12 -535 536 0
-536 586 0
13 -536 537 0
-537 587 0
14 -537 538 0
-538 588 0
15 -538 539 0
-539 589 0
16 -539 540 0
-540 590 0
17 -540 541 0
-541 591 0
18 -541 542 0
-542 592 0
19 -542 543 0
-543 593 0
20 -543 544 0
-544 594 0
21 -544 545 0
-545 595 0
22 -545 546 0
-546 596 0
23 -546 547 0
-547 597 0
24 -547 548 0
-548 598 0
25 -548 549 0
-549 599 0
26 -549 550 0
-550 600 0
27 -550 551 0
-551 601 0
28 -551 552 0
-552 602 0
29 -552 553 0
-553 603 0
30 -553 554 0
-554 604 0
31 -554 555 0
-555 605 0
32 -555 556 0
-556 606 0
33 -556 557 0
-557 607 0
34 -557 558 0
-558 608 0
35 -558 559 0
-559 609 0
36 -559 560 0
-560 610 0
37 -560 561 0
-561 611 0
38 -561 562 0
-562 612 0
39 -562 563 0
-563 613 0
40 -563 564 0
-564 614 0
41 -564 565 0
-565 615 0
42 -565 566 0
-566 616 0
43 -566 567 0
-567 617 0
44 -567 568 0
-568 618 0
45 -568 569 0
-569 619 0
46 -569 570 0
-570 620 0
47 -570 571 0
-571 621 0
48 -571 572 0
-572 622 0
49 -572 573 0
-573 623 0
50 -573 574 0
-574 624 0
51 -574 575 0
-575 625 0
52 -575 576 0
-576 626 0
53 -576 577 0
-577 627 0
54 -577 578 0
-578 628 0
55 -578 579 0
-579 629 0
56 -579 580 0
-580 630 0
57 -580 581 0
-581 631 0
58 -581 582 0
-582 632 0
59 -582 0
10 583 0
-583 633 0
11 -583 584 0
-584 634 0
12 -584 585 0
-585 635 0
13 -585 586 0
-586 636 0
14 -586 587 0
-587 637 0
15 -587 588 0
-588 638 0
16 -588 589 0
-589 639 0
17 -589 590 0
-590 640 0
18 -590 591 0
-591 641 0
19 -591 592 0
-592 642 0
20 -592 593 0
-593 643 0
21 -593 594 0
-594 644 0
22 -594 595 0
-595 645 0
23 -595 596 0
-596 646 0
24 -596 597 0
-597 647 0
25 -597 598 0
-598 648 0
26 -598 599 0
-599 649 0
27 -599 600 0
-600 650 0
28 -600 601 0
-601 651 0
29 -601 602 0
-602 652 0
30 -602 603 0
-603 653 0
31 -603 604 0
-604 654 0
32 -604 605 0
-605 655 0
33 -605 606 0
-606 656 0
34 -606 607 0
-607 657 0
35 -607 608 0
-608 658 0
36 -608 609 0
-609 659 0
37 -609 610 0
-610 660 0
38 -610 611 0
-611 661 0
39 -611 612 0
-612 662 0
40 -612 613 0
-613 663 0
41 -613 614 0
-614 664 0
42 -614 615 0
-615 665 0
43 -615 616 0
-616 666 0
44 -616 617 0
-617 667 0
45 -617 618 0
-618 668 0
46 -618 619 0
-619 669 0
47 -619 620 0
-620 670 0
48 -620 621 0
-621 671 0
49 -621 622 0
-622 672 0
50 -622 623 0
-623 673 0
51 -623 624 0
-624 674 0
52 -624 625 0
-625 675 0
53 -625 626 0
-626 676 0
54 -626 627 0
-627 677 0
55 -627 628 0
-628 678 0
56 -628 629 0
-629 679 0
57 -629 630 0
-630 680 0
58 -630 631 0
-631 681 0
59 -631 632 0
-632 682 0
60 -632 0
11 633 0
-633 683 0
12 -633 634 0
-634 684 0
13 -634 635 0
-635 685 0
14 -635 636 0
-636 686 0
15 -636 637 0
-637 687 0
16 -637 638 0
-638 688 0
17 -638 639 0
-639 689 0
18 -639 640 0
-640 690 0
19 -640 641 0
-641 691 0
20 -641 642 0
-642 692 0
21 -642 643 0
-643 693 0
22 -643 644 0
-644 694 0
23 -644 645 0
-645 695 0
24 -645 646 0
-646 696 0
25 -646 647 0
-647 697 0
26 -647 648 0
-648 698 0
27 -648 649 0
-649 699 0
28 -649 650 0
-650 700 0
29 -650 651 0
-651 701 0
30 -651 652 0
-652 702 0
31 -652 653 0
-653 703 0
32 -653 654 0
-654 704 0
33 -654 655 0
-655 705 0
34 -655 656 0
-656 706 0
35 -656 657 0
-657 707 0
36 -657 658 0
-658 708 0
37 -658 659 0
-659 709 0
38 -659 660 0
-660 710 0
39 -660 661 0
-661 711 0
40 -661 662 0
-662 712 0
41 -662 663 0
-663 713 0
42 -663 664 0
-664 714 0
43 -664 665 0
-665 715 0
44 -665 666 0
-666 716 0
45 -666 667 0
-667 717 0
46 -667 668 0
-668 718 0
47 -668 669 0
-669 719 0
48 -669 670 0
-670 720 0
49 -670 671 0
-671 721 0
50 -671 672 0
-672 722 0
51 -672 673 0
-673 723 0
52 -673 674 0
-674 724 0
53 -674 675 0
-675 725 0
54 -675 676 0
-676 726 0
55 -676 677 0
-677 727 0
56 -677 678 0
-678 728 0
57 -678 679 0
-679 729 0
58 -679 680 0
-680 730 0
59 -680 681 0
-681 731 0
60 -681 682 0
-682 732 0
61 -682 0
12 683 0
-683 733 0
13 -683 684 0
-684 734 0
14 -684 685 0
-685 735 0
15 -685 686 0
-686 736 0
16 -686 687 0
-687 737 0
17 -687 688 0
-688 738 0
18 -688 689 0
-689 739 0
19 -689 690 0
-690 740 0
20 -690 691 0
-691 741 0
21 -691 692 0
-692 742 0
22 -692 693 0
-693 743 0
23 -693 694 0
-694 744 0
24 -694 695 0
-695 745 0
25 -695 696 0
-696 746 0
26 -696 697 0
-697 747 0
27 -697 698 0
-698 748 0
28 -698 699 0
-699 749 0
29 -699 700 0
-700 750 0
30 -700 701 0
-701 751 0
31 -701 702 0
-702 752 0
32 -702 703 0
-703 753 0
33 -703 704 0
-704 754 0
34 -704 705 0
-705 755 0
35 -705 706 0
-706 756 0
36 -706 707 0
-707 757 0
37 -707 708 0
-708 758 0
38 -708 709 0
-709 759 0
39 -709 710 0
-710 760 0
40 -710 711 0
-711 761 0
41 -711 712 0
-712 762 0
42 -712 713 0
-713 763 0
43 -713 714 0
-714 764 0
44 -714 715 0
-715 765 0
45 -715 716 0
-716 766 0
46 -716 717 0
-717 767 0
47 -717 718 0
-718 768 0
48 -718 719 0
-719 769 0
49 -719 720 0
-720 770 0
50 -720 721 0
-721 771 0
51 -721 722 0
-722 772 0
52 -722 723 0
-723 773 0
53 -723 724 0
-724 774 0
54 -724 725 0
-725 775 0
55 -725 726 0
-726 776 0
56 -726 727 0
-727 777 0
57 -727 728 0
-728 778 0
58 -728 729 0
-729 779 0
59 -729 730 0
-730 780 0
60 -730 731 0
-731 781 0
61 -731 732 0
-732 782 0
62 -732 0
13 733 0
-733 783 0
14 -733 734 0
-734 784 0
15 -734 735 0
-735 785 0
16 -735 736 0
-736 786 0
17 -736 737 0
-737 787 0
18 -737 738 0
-738 788 0
19 -738 739 0
-739 789 0
20 -739 740 0
-740 790 0
21 -740 741 0
-741 791 0
22 -741 742 0
-742 792 0
23 -742 743 0
-743 793 0
24 -743 744 0
-744 794 0
25 -744 745 0
-745 795 0
26 -745 746 0
-746 796 0
27 -746 747 0
-747 797 0
28 -747 748 0
-748 798 0
29 -748 749 0
-749 799 0
30 -749 750 0
-750 800 0
31 -750 751 0
-751 801 0
32 -751 752 0
-752 802 0
33 -752 753 0
-753 803 0
34 -753 754 0
-754 804 0
35 -754 755 0
-755 805 0
36 -755 756 0
-756 806 0
37 -756 757 0
-757 807 0
38 -757 758 0
-758 808 0
39 -758 759 0
-759 809 0
40 -759 760 0
-760 810 0
41 -760 761 0
-761 811 0
42 -761 762 0
-762 812 0
43 -762 763 0
-763 813 0
44 -763 764 0
-764 814 0
45 -764 765 0
-765 815 0
46 -765 766 0
-766 816 0
47 -766 767 0
-767 817 0
48 -767 768 0
-768 818 0
49 -768 769 0
-769 819 0
50 -769 770 0
-770 820 0
51 -770 771 0
-771 821 0
52 -771 772 0
-772 822 0
53 -772 773 0
-773 823 0
54 -773 774 0
-774 824 0
55 -774 775 0
-775 825 0
56 -775 776 0
-776 826 0
57 -776 777 0
-777 827 0
58 -777 778 0
-778 828 0
59 -778 779 0
-779 829 0
60 -779 780 0
-780 830 0
61 -780 781 0
-781 831 0
62 -781 782 0
-782 832 0
63 -782 0
14 783 0
-783 833 0
15 -783 784 0
-784 834 0
16 -784 785 0
-785 835 0
17 -785 786 0
-786 836 0
18 -786 787 0
-787 837 0
19 -787 788 0
-788 838 0
20 -788 789 0
-789 839 0
21 -789 790 0
-790 840 0
22 -790 791 0
-791 841 0
23 -791 792 0
-792 842 0
24 -792 793 0
-793 843 0
25 -793 794 0
-794 844 0
26 -794 795 0
-795 845 0
27 -795 796 0
-796 846 0
28 -796 797 0
-797 847 0
29 -797 798 0
-798 848 0
30 -798 799 0
-799 849 0
31 -799 800 0
-800 850 0
32 -800 801 0
-801 851 0
33 -801 802 0
-802 852 0
34 -802 803 0
-803 853 0
35 -803 804 0
-804 854 0
36 -804 805 0
-805 855 0
37 -805 806 0
-806 856 0
38 -806 807 0
-807 857 0
39 -807 808 0
-808 858 0
40 -808 809 0
-809 859 0
41 -809 810 0
-810 860 0
42 -810 811 0
-811 861 0
43 -811 812 0
-812 862 0
44 -812 813 0
-813 863 0
45 -813 814 0
-814 864 0
46 -814 815 0
-815 865 0
47 -815 816 0
-816 866 0
48 -816 817 0
-817 867 0
49 -817 818 0
-818 868 0
50 -818 819 0
-819 869 0
51 -819 820 0
-820 870 0
52 -820 821 0
-821 871 0
53 -821 822 0
-822 872 0
54 -822 823 0
-823 873 0
55 -823 824 0
-824 874 0
56 -824 825 0
-825 875 0
57 -825 826 0
-826 876 0
58 -826 827 0
-827 877 0
59 -827 828 0
-828 878 0
60 -828 829 0
-829 879 0
61 -829 830 0
-830 880 0
62 -830 831 0
-831 881 0
63 -831 832 0
-832 882 0
64 -832 0
15 833 0
-833 883 0
16 -833 834 0
-834 884 0
17 -834 835 0
-835 885 0
18 -835 836 0
-836 886 0
19 -836 837 0
-837 887 0
20 -837 838 0
-838 888 0
21 -838 839 0
-839 889 0
22 -839 840 0
-840 890 0
23 -840 841 0
-841 891 0
24 -841 842 0
-842 892 0
25 -842 843 0
-843 893 0
26 -843 844 0
-844 894 0
27 -844 845 0
-845 895 0
28 -845 846 0
-846 896 0
29 -846 847 0
-847 897 0
30 -847 848 0
-848 898 0
31 -848 849 0
-849 899 0
32 -849 850 0
-850 900 0
33 -850 851 0
-851 901 0
34 -851 852 0
-852 902 0
35 -852 853 0
-853 903 0
36 -853 854 0
-854 904 0
37 -854 855 0
-855 905 0
38 -855 856 0
-856 906 0
39 -856 857 0
-857 907 0
40 -857 858 0
-858 908 0
41 -858 859 0
-859 909 0
42 -859 860 0
-860 910 0
43 -860 861 0
-861 911 0
44 -861 862 0
-862 912 0
45 -862 863 0
-863 913 0
46 -863 864 0
-864 914 0
47 -864 865 0
-865 915 0
48 -865 866 0
-866 916 0
49 -866 867 0
-867 917 0
50 -867 868 0
-868 918 0
51 -868 869 0
-869 919 0
52 -869 870 0
-870 920 0
53 -870 871 0
-871 921 0
54 -871 872 0
-872 922 0
55 -872 873 0
-873 923 0
56 -873 874 0
-874 924 0
57 -874 875 0
-875 925 0
58 -875 876 0
-876 926 0
59 -876 877 0
-877 927 0
60 -877 878 0
-878 928 0
61 -878 879 0
-879 929 0
62 -879 880 0
-880 930 0
63 -880 881 0
-881 931 0
64 -881 882 0
-882 932 0
65 -882 0
16 883 0
17 -883 884 0
18 -884 885 0
19 -885 886 0
20 -886 887 0
21 -887 888 0
22 -888 889 0
23 -889 890 0
24 -890 891 0
25 -891 892 0
26 -892 893 0
27 -893 894 0
28 -894 895 0
29 -895 896 0
30 -896 897 0
31 -897 898 0
32 -898 899 0
33 -899 900 0
34 -900 901 0
35 -901 902 0
36 -902 903 0
37 -903 904 0
38 -904 905 0
39 -905 906 0
40 -906 907 0
41 -907 908 0
42 -908 909 0
43 -909 910 0
44 -910 911 0
45 -911 912 0
46 -912 913 0
47 -913 914 0
48 -914 915 0
49 -915 916 0
50 -916 917 0
51 -917 918 0
52 -918 919 0
53 -919 920 0
54 -920 921 0
55 -921 922 0
56 -922 923 0
57 -923 924 0
58 -924 925 0
59 -925 926 0
60 -926 927 0
61 -927 928 0
62 -928 929 0
63 -929 930 0
64 -930 931 0
65 -931 932 0
66 -932 0
-1 933 0
-933 934 0
-2 -933 935 0
-935 936 0
-3 -935 937 0
-937 938 0
-4 -937 939 0
-939 940 0
-5 -939 941 0
-941 942 0
-6 -941 943 0
-943 944 0
-7 -943 945 0
-945 946 0
-8 -945 947 0
-947 948 0
-9 -947 949 0
-949 950 0
-10 -949 951 0
-951 952 0
-11 -951 953 0
-953 954 0
-12 -953 955 0
-955 956 0
-13 -955 957 0
-957 958 0
-14 -957 959 0
-959 960 0
-15 -959 961 0
-961 962 0
-16 -961 963 0
-963 964 0
-17 -963 0
-2 934 0
-934 965 0
-3 -934 936 0
-936 966 0
-4 -936 938 0
-938 967 0
-5 -938 940 0
-940 968 0
-6 -940 942 0
-942 969 0
-7 -942 944 0
-944 970 0
-8 -944 946 0
-946 971 0
-9 -946 948 0
-948 972 0
-10 -948 950 0
-950 973 0
-11 -950 952 0
-952 974 0
-12 -952 954 0
-954 975 0
-13 -954 956 0
-956 976 0
-14 -956 958 0
-958 977 0
-15 -958 960 0
-960 978 0
-16 -960 962 0
-962 979 0
-17 -962 964 0
-964 980 0
-18 -964 0
-3 965 0
-965 981 0
-4 -965 966 0
-966 982 0
-5 -966 967 0
-967 983 0
-6 -967 968 0
-968 984 0
-7 -968 969 0
-969 985 0
-8 -969 970 0
-970 986 0
-9 -970 971 0
-971 987 0
-10 -971 972 0
-972 988 0
-11 -972 973 0
-973 989 0
-12 -973 974 0
-974 990 0
-13 -974 975 0
-975 991 0
-14 -975 976 0
-976 992 0
-15 -976 977 0
-977 993 0
-16 -977 978 0
-978 994 0
-17 -978 979 0
-979 995 0
-18 -979 980 0
-980 996 0
-19 -980 0
-4 981 0
-981 997 0
-5 -981 982 0
-982 998 0
-6 -982 983 0
-983 999 0
-7 -983 984 0
-984 1000 0
-8 -984 985 0
-985 1001 0
-9 -985 986 0
-986 1002 0
-10 -986 987 0
-987 1003 0
-11 -987 988 0
-988 1004 0
-12 -988 989 0
-989 1005 0
-13 -989 990 0
-990 1006 0
-14 -990 991 0
-991 1007 0
-15 -991 992 0
-992 1008 0
-16 -992 993 0
-993 1009 0
-17 -993 994 0
-994 1010 0
-18 -994 995 0
-995 1011 0
-19 -995 996 0
-996 1012 0
-20 -996 0
-5 997 0
-997 1013 0
-6 -997 998 0
-998 1014 0
-7 -998 999 0
-999 1015 0
-8 -999 1000 0
-1000 1016 0
-9 -1000 1001 0
-1001 1017 0
-10 -1001 1002 0
-1002 1018 0
-11 -1002 1003 0
-1003 1019 0
-12 -1003 1004 0
-1004 1020 0
-13 -1004 1005 0
-1005 1021 0
-14 -1005 1006 0
-1006 1022 0
-15 -1006 1007 0
-1007 1023 0
-16 -1007 1008 0
-1008 1024 0
-17 -1008 1009 0
-1009 1025 0
-18 -1009 1010 0
-1010 1026 0
-19 -1010 1011 0
-1011 1027 0
-20 -1011 1012 0
-1012 1028 0
-21 -1012 0
-6 1013 0
-1013 1029 0
-7 -1013 1014 0
-1014 1030 0
-8 -1014 1015 0
-1015 1031 0
-9 -1015 1016 0
-1016 1032 0
-10 -1016 1017 0
-1017 1033 0
-11 -1017 1018 0
-1018 1034 0
-12 -1018 1019 0
-1019 1035 0
-13 -1019 1020 0
-1020 1036 0
-14 -1020 1021 0
-1021 1037 0
-15 -1021 1022 0
-1022 1038 0
-16 -1022 1023 0
-1023 1039 0
-17 -1023 1024 0
-1024 1040 0
-18 -1024 1025 0
-1025 1041 0
-19 -1025 1026 0
-1026 1042 0
-20 -1026 1027 0
-1027 1043 0
-21 -1027 1028 0
-1028 1044 0
-22 -1028 0
-7 1029 0
-1029 1045 0
-8 -1029 1030 0
-1030 1046 0
-9 -1030 1031 0
-1031 1047 0
-10 -1031 1032 0
-1032 1048 0
-11 -1032 1033 0
-1033 1049 0
-12 -1033 1034 0
-1034 1050 0
-13 -1034 1035 0
-1035 1051 0
-14 -1035 1036 0
-1036 1052 0
-15 -1036 1037 0
-1037 1053 0
-16 -1037 1038 0
-1038 1054 0
-17 -1038 1039 0
-1039 1055 0
-18 -1039 1040 0
-1040 1056 0
-19 -1040 1041 0
-1041 1057 0
-20 -1041 1042 0
-1042 1058 0
-21 -1042 1043 0
-1043 1059 0
-22 -1043 1044 0
-1044 1060 0
-23 -1044 0
-8 1045 0
-1045 1061 0
-9 -1045 1046 0
-1046 1062 0
-10 -1046 1047 0
-1047 1063 0
-11 -1047 1048 0
-1048 1064 0
-12 -1048 1049 0
-1049 1065 0
-13 -1049 1050 0
-1050 1066 0
-14 -1050 1051 0
-1051 1067 0
-15 -1051 1052 0
-1052 1068 0
-16 -1052 1053 0
-1053 1069 0
-17 -1053 1054 0
-1054 1070 0
-18 -1054 1055 0
-1055 1071 0
-19 -1055 1056 0
-1056 1072 0
-20 -1056 1057 0
-1057 1073 0
-21 -1057 1058 0
-1058 1074 0
-22 -1058 1059 0
-1059 1075 0
-23 -1059 1060 0
-1060 1076 0
-24 -1060 0
-9 1061 0
-1061 1077 0
-10 -1061 1062 0
-1062 1078 0
-11 -1062 1063 0
-1063 1079 0
-12 -1063 1064 0
-1064 1080 0
-13 -1064 1065 0
-1065 1081 0
-14 -1065 1066 0
-1066 1082 0
-15 -1066 1067 0
-1067 1083 0
-16 -1067 1068 0
-1068 1084 0
-17 -1068 1069 0
-1069 1085 0
-18 -1069 1070 0
-1070 1086 0
-19 -1070 1071 0
-1071 1087 0
-20 -1071 1072 0
-1072 1088 0
-21 -1072 1073 0
-1073 1089 0
-22 -1073 1074 0
-1074 1090 0
-23 -1074 1075 0
-1075 1091 0
-24 -1075 1076 0
-1076 1092 0
-25 -1076 0
-10 1077 0
-1077 1093 0
-11 -1077 1078 0
-1078 1094 0
-12 -1078 1079 0
-1079 1095 0
-13 -1079 1080 0
-1080 1096 0
-14 -1080 1081 0
-1081 1097 0
-15 -1081 1082 0
-1082 1098 0
-16 -1082 1083 0
-1083 1099 0
-17 -1083 1084 0
-1084 1100 0
-18 -1084 1085 0
-1085 1101 0
-19 -1085 1086 0
-1086 1102 0
-20 -1086 1087 0
-1087 1103 0
-21 -1087 1088 0
-1088 1104 0
-22 -1088 1089 0
-1089 1105 0
-23 -1089 1090 0
-1090 1106 0
-24 -1090 1091 0
-1091 1107 0
-25 -1091 1092 0
-1092 1108 0
-26 -1092 0
-11 1093 0
-1093 1109 0
-12 -1093 1094 0
-1094 1110 0
-13 -1094 1095 0
-1095 1111 0
-14 -1095 1096 0
-1096 1112 0
-15 -1096 1097 0
-1097 1113 0
-16 -1097 1098 0
-1098 1114 0
-17 -1098 1099 0
-1099 1115 0
-18 -1099 1100 0
-1100 1116 0
-19 -1100 1101 0
-1101 1117 0
-20 -1101 1102 0
-1102 1118 0
-21 -1102 1103 0
-1103 1119 0
-22 -1103 1104 0
-1104 1120 0
-23 -1104 1105 0
-1105 1121 0
-24 -1105 1106 0
-1106 1122 0
-25 -1106 1107 0
-1107 1123 0
-26 -1107 1108 0
-1108 1124 0
-27 -1108 0
-12 1109 0
-1109 1125 0
-13 -1109 1110 0
-1110 1126 0
-14 -1110 1111 0
-1111 1127 0
-15 -1111 1112 0
-1112 1128 0
-16 -1112 1113 0
-1113 1129 0
-17 -1113 1114 0
-1114 1130 0
-18 -1114 1115 0
-1115 1131 0
-19 -1115 1116 0
-1116 1132 0
-20 -1116 1117 0
-1117 1133 0
-21 -1117 1118 0
-1118 1134 0
-22 -1118 1119 0
-1119 1135 0
-23 -1119 1120 0
-1120 1136 0
-24 -1120 1121 0
-1121 1137 0
-25 -1121 1122 0
-1122 1138 0
-26 -1122 1123 0
-1123 1139 0
-27 -1123 1124 0
-1124 1140 0
-28 -1124 0
-13 1125 0
-1125 1141 0
-14 -1125 1126 0
-1126 1142 0
-15 -1126 1127 0
-1127 1143 0
-16 -1127 1128 0
-1128 1144 0
-17 -1128 1129 0
-1129 1145 0
-18 -1129 1130 0
-1130 1146 0
-19 -1130 1131 0
-1131 1147 0
-20 -1131 1132 0
-1132 1148 0
-21 -1132 1133 0
-1133 1149 0
-22 -1133 1134 0
-1134 1150 0
-23 -1134 1135 0
-1135 1151 0
-24 -1135 1136 0
-1136 1152 0
-25 -1136 1137 0
-1137 1153 0
-26 -1137 1138 0
-1138 1154 0
-27 -1138 1139 0
-1139 1155 0
-28 -1139 1140 0
-1140 1156 0
-29 -1140 0
-14 1141 0
-1141 1157 0
-15 -1141 1142 0
-1142 1158 0
-16 -1142 1143 0
-1143 1159 0
-17 -1143 1144 0
-1144 1160 0
-18 -1144 1145 0
-1145 1161 0
-19 -1145 1146 0
-1146 1162 0
-20 -1146 1147 0
-1147 1163 0
-21 -1147 1148 0
-1148 1164 0
-22 -1148 1149 0
-1149 1165 0
-23 -1149 1150 0
-1150 1166 0
-24 -1150 1151 0
-1151 1167 0
-25 -1151 1152 0
-1152 1168 0
-26 -1152 1153 0
-1153 1169 0
-27 -1153 1154 0
-1154 1170 0
-28 -1154 1155 0
-1155 1171 0
-29 -1155 1156 0
-1156 1172 0
-30 -1156 0
-15 1157 0
-1157 1173 0
-16 -1157 1158 0
-1158 1174 0
-17 -1158 1159 0
-1159 1175 0
-18 -1159 1160 0
-1160 1176 0
-19 -1160 1161 0
-1161 1177 0
-20 -1161 1162 0
-1162 1178 0
-21 -1162 1163 0
-1163 1179 0
-22 -1163 1164 0
-1164 1180 0
-23 -1164 1165 0
-1165 1181 0
-24 -1165 1166 0
-1166 1182 0
-25 -1166 1167 0
-1167 1183 0
-26 -1167 1168 0
-1168 1184 0
-27 -1168 1169 0
-1169 1185 0
-28 -1169 1170 0
-1170 1186 0
-29 -1170 1171 0
-1171 1187 0
-30 -1171 1172 0
-1172 1188 0
-31 -1172 0
-16 1173 0
-1173 1189 0
-17 -1173 1174 0
-1174 1190 0
-18 -1174 1175 0
-1175 1191 0
-19 -1175 1176 0
-1176 1192 0
-20 -1176 1177 0
-1177 1193 0
-21 -1177 1178 0
-1178 1194 0
-22 -1178 1179 0
-1179 1195 0
-23 -1179 1180 0
-1180 1196 0
-24 -1180 1181 0
-1181 1197 0
-25 -1181 1182 0
-1182 1198 0
-26 -1182 1183 0
-1183 1199 0
-27 -1183 1184 0
-1184 1200 0
-28 -1184 1185 0
-1185 1201 0
-29 -1185 1186 0
-1186 1202 0
-30 -1186 1187 0
-1187 1203 0
-31 -1187 1188 0
-1188 1204 0
-32 -1188 0
-17 1189 0
-1189 1205 0
-18 -1189 1190 0
-1190 1206 0
-19 -1190 1191 0
-1191 1207 0
-20 -1191 1192 0
-1192 1208 0
-21 -1192 1193 0
-1193 1209 0
-22 -1193 1194 0
-1194 1210 0
-23 -1194 1195 0
-1195 1211 0
-24 -1195 1196 0
-1196 1212 0
-25 -1196 1197 0
-1197 1213 0
-26 -1197 1198 0
-1198 1214 0
-27 -1198 1199 0
-1199 1215 0
-28 -1199 1200 0
-1200 1216 0
-29 -1200 1201 0
-1201 1217 0
-30 -1201 1202 0
-1202 1218 0
-31 -1202 1203 0
-1203 1219 0
-32 -1203 1204 0
-1204 1220 0
-33 -1204 0
-18 1205 0
-1205 1221 0
-19 -1205 1206 0
-1206 1222 0
-20 -1206 1207 0
-1207 1223 0
-21 -1207 1208 0
-1208 1224 0
-22 -1208 1209 0
-1209 1225 0
-23 -1209 1210 0
-1210 1226 0
-24 -1210 1211 0
-1211 1227 0
-25 -1211 1212 0
-1212 1228 0
-26 -1212 1213 0
-1213 1229 0
-27 -1213 1214 0
-1214 1230 0
-28 -1214 1215 0
-1215 1231 0
-29 -1215 1216 0
-1216 1232 0
-30 -1216 1217 0
-1217 1233 0
-31 -1217 1218 0
-1218 1234 0
-32 -1218 1219 0
-1219 1235 0
-33 -1219 1220 0
-1220 1236 0
-34 -1220 0
-19 1221 0
-1221 1237 0
-20 -1221 1222 0
-1222 1238 0
-21 -1222 1223 0
-1223 1239 0
-22 -1223 1224 0
-1224 1240 0
-23 -1224 1225 0
-1225 1241 0
-24 -1225 1226 0
-1226 1242 0
-25 -1226 1227 0
-1227 1243 0
-26 -1227 1228 0
-1228 1244 0
-27 -1228 1229 0
-1229 1245 0
-28 -1229 1230 0
-1230 1246 0
-29 -1230 1231 0
-1231 1247 0
-30 -1231 1232 0
-1232 1248 0
-31 -1232 1233 0
-1233 1249 0
-32 -1233 1234 0
-1234 1250 0
-33 -1234 1235 0
-1235 1251 0
-34 -1235 1236 0
-1236 1252 0
-35 -1236 0
-20 1237 0
-1237 1253 0
-21 -1237 1238 0
-1238 1254 0
-22 -1238 1239 0
-1239 1255 0
-23 -1239 1240 0
-1240 1256 0
-24 -1240 1241 0
-1241 1257 0
-25 -1241 1242 0
-1242 1258 0
-26 -1242 1243 0
-1243 1259 0
-27 -1243 1244 0
-1244 1260 0
-28 -1244 1245 0
-1245 1261 0
-29 -1245 1246 0
-1246 1262 0
-30 -1246 1247 0
-1247 1263 0
-31 -1247 1248 0
-1248 1264 0
-32 -1248 1249 0
-1249 1265 0
-33 -1249 1250 0
-1250 1266 0
-34 -1250 1251 0
-1251 1267 0
-35 -1251 1252 0
-1252 1268 0
-36 -1252 0
-21 1253 0
-1253 1269 0
-22 -1253 1254 0
-1254 1270 0
-23 -1254 1255 0
-1255 1271 0
-24 -1255 1256 0
-1256 1272 0
-25 -1256 1257 0
-1257 1273 0
-26 -1257 1258 0
-1258 1274 0
-27 -1258 1259 0
-1259 1275 0
-28 -1259 1260 0
-1260 1276 0
-29 -1260 1261 0
-1261 1277 0
-30 -1261 1262 0
-1262 1278 0
-31 -1262 1263 0
-1263 1279 0
-32 -1263 1264 0
-1264 1280 0
-33 -1264 1265 0
-1265 1281 0
-34 -1265 1266 0
-1266 1282 0
-35 -1266 1267 0
-1267 1283 0
-36 -1267 1268 0
-1268 1284 0
-37 -1268 0
-22 1269 0
-1269 1285 0
-23 -1269 1270 0
-1270 1286 0
-24 -1270 1271 0
-1271 1287 0
-25 -1271 1272 0
-1272 1288 0
-26 -1272 1273 0
-1273 1289 0
-27 -1273 1274 0
-1274 1290 0
-28 -1274 1275 0
-1275 1291 0
-29 -1275 1276 0
-1276 1292 0
-30 -1276 1277 0
-1277 1293 0
-31 -1277 1278 0
-1278 1294 0
-32 -1278 1279 0
-1279 1295 0
-33 -1279 1280 0
-1280 1296 0
-34 -1280 1281 0
-1281 1297 0
-35 -1281 1282 0
-1282 1298 0
-36 -1282 1283 0
-1283 1299 0
-37 -1283 1284 0
-1284 1300 0
-38 -1284 0
-23 1285 0
-1285 1301 0
-24 -1285 1286 0
-1286 1302 0
-25 -1286 1287 0
-1287 1303 0
-26 -1287 1288 0
-1288 1304 0
-27 -1288 1289 0
-1289 1305 0
-28 -1289 1290 0
-1290 1306 0
-29 -1290 1291 0
-1291 1307 0
-30 -1291 1292 0
-1292 1308 0
-31 -1292 1293 0
-1293 1309 0
-32 -1293 1294 0
-1294 1310 0
-33 -1294 1295 0
-1295 1311 0
-34 -1295 1296 0
-1296 1312 0
-35 -1296 1297 0
-1297 1313 0
-36 -1297 1298 0
-1298 1314 0
-37 -1298 1299 0
-1299 1315 0
-38 -1299 1300 0
-1300 1316 0
-39 -1300 0
-24 1301 0
-1301 1317 0
-25 -1301 1302 0
-1302 1318 0
-26 -1302 1303 0
-1303 1319 0
-27 -1303 1304 0
-1304 1320 0
-28 -1304 1305 0
-1305 1321 0
-29 -1305 1306 0
-1306 1322 0
-30 -1306 1307 0
-1307 1323 0
-31 -1307 1308 0
-1308 1324 0
-32 -1308 1309 0
-1309 1325 0
-33 -1309 1310 0
-1310 1326 0
-34 -1310 1311 0
-1311 1327 0
-35 -1311 1312 0
-1312 1328 0
-36 -1312 1313 0
-1313 1329 0
-37 -1313 1314 0
-1314 1330 0
-38 -1314 1315 0
-1315 1331 0
-39 -1315 1316 0
-1316 1332 0
-40 -1316 0
-25 1317 0
-1317 1333 0
-26 -1317 1318 0
-1318 1334 0
-27 -1318 1319 0
-1319 1335 0
-28 -1319 1320 0
-1320 1336 0
-29 -1320 1321 0
-1321 1337 0
-30 -1321 1322 0
-1322 1338 0
-31 -1322 1323 0
-1323 1339 0
-32 -1323 1324 0
-1324 1340 0
-33 -1324 1325 0
-1325 1341 0
-34 -1325 1326 0
-1326 1342 0
-35 -1326 1327 0
-1327 1343 0
-36 -1327 1328 0
-1328 1344 0
-37 -1328 1329 0
-1329 1345 0
-38 -1329 1330 0
-1330 1346 0
-39 -1330 1331 0
-1331 1347 0
-40 -1331 1332 0
-1332 1348 0
-41 -1332 0
-26 1333 0
-1333 1349 0
-27 -1333 1334 0
-1334 1350 0
-28 -1334 1335 0
-1335 1351 0
-29 -1335 1336 0
-1336 1352 0
-30 -1336 1337 0
-1337 1353 0
-31 -1337 1338 0
-1338 1354 0
-32 -1338 1339 0
-1339 1355 0
-33 -1339 1340 0
-1340 1356 0
-34 -1340 1341 0
-1341 1357 0
-35 -1341 1342 0
-1342 1358 0
-36 -1342 1343 0
-1343 1359 0
-37 -1343 1344 0
-1344 1360 0
-38 -1344 1345 0
-1345 1361 0
-39 -1345 1346 0
-1346 1362 0
-40 -1346 1347 0
-1347 1363 0
-41 -1347 1348 0
-1348 1364 0
-42 -1348 0
-27 1349 0
-1349 1365 0
-28 -1349 1350 0
-1350 1366 0
-29 -1350 1351 0
-1351 1367 0
-30 -1351 1352 0
-1352 1368 0
-31 -1352 1353 0
-1353 1369 0
-32 -1353 1354 0
-1354 1370 0
-33 -1354 1355 0
-1355 1371 0
-34 -1355 1356 0
-1356 1372 0
-35 -1356 1357 0
-1357 1373 0
-36 -1357 1358 0
-1358 1374 0
-37 -1358 1359 0
-1359 1375 0
-38 -1359 1360 0
-1360 1376 0
-39 -1360 1361 0
-1361 1377 0
-40 -1361 1362 0
-1362 1378 0
-41 -1362 1363 0
-1363 1379 0
-42 -1363 1364 0
-1364 1380 0
-43 -1364 0
-28 1365 0
-1365 1381 0
-29 -1365 1366 0
-1366 1382 0
-30 -1366 1367 0
-1367 1383 0
-31 -1367 1368 0
-1368 1384 0
-32 -1368 1369 0
-1369 1385 0
-33 -1369 1370 0
-1370 1386 0
-34 -1370 1371 0
-1371 1387 0
-35 -1371 1372 0
-1372 1388 0
-36 -1372 1373 0
-1373 1389 0
-37 -1373 1374 0
-1374 1390 0
-38 -1374 1375 0
-1375 1391 0
-39 -1375 1376 0
-1376 1392 0
-40 -1376 1377 0
-1377 1393 0
-41 -1377 1378 0
-1378 1394 0
-42 -1378 1379 0
-1379 1395 0
-43 -1379 1380 0
-1380 1396 0
-44 -1380 0
-29 1381 0
-1381 1397 0
-30 -1381 1382 0
-1382 1398 0
-31 -1382 1383 0
-1383 1399 0
-32 -1383 1384 0
-1384 1400 0
-33 -1384 1385 0
-1385 1401 0
-34 -1385 1386 0
-1386 1402 0
-35 -1386 1387 0
-1387 1403 0
-36 -1387 1388 0
-1388 1404 0
-37 -1388 1389 0
-1389 1405 0
-38 -1389 1390 0
-1390 1406 0
-39 -1390 1391 0
-1391 1407 0
-40 -1391 1392 0
-1392 1408 0
-41 -1392 1393 0
-1393 1409 0
-42 -1393 1394 0
-1394 1410 0
-43 -1394 1395 0
-1395 1411 0
-44 -1395 1396 0
-1396 1412 0
-45 -1396 0
-30 1397 0
-1397 1413 0
-31 -1397 1398 0
-1398 1414 0
-32 -1398 1399 0
-1399 1415 0
-33 -1399 1400 0
-1400 1416 0
-34 -1400 1401 0
-1401 1417 0
-35 -1401 1402 0
-1402 1418 0
-36 -1402 1403 0
-1403 1419 0
-37 -1403 1404 0
-1404 1420 0
-38 -1404 1405 0
-1405 1421 0
-39 -1405 1406 0
-1406 1422 0
-40 -1406 1407 0
-1407 1423 0
-41 -1407 1408 0
-1408 1424 0
-42 -1408 1409 0
-1409 1425 0
-43 -1409 1410 0
-1410 1426 0
-44 -1410 1411 0
-1411 1427 0
-45 -1411 1412 0
-1412 1428 0
-46 -1412 0
-31 1413 0
-1413 1429 0
-32 -1413 1414 0
-1414 1430 0
-33 -1414 1415 0
-1415 1431 0
-34 -1415 1416 0
-1416 1432 0
-35 -1416 1417 0
-1417 1433 0
-36 -1417 1418 0
-1418 1434 0
-37 -1418 1419 0
-1419 1435 0
-38 -1419 1420 0
-1420 1436 0
-39 -1420 1421 0
-1421 1437 0
-40 -1421 1422 0
-1422 1438 0
-41 -1422 1423 0
-1423 1439 0
-42 -1423 1424 0
-1424 1440 0
-43 -1424 1425 0
-1425 1441 0
-44 -1425 1426 0
-1426 1442 0
-45 -1426 1427 0
-1427 1443 0
-46 -1427 1428 0
-1428 1444 0
-47 -1428 0
-32 1429 0
-1429 1445 0
-33 -1429 1430 0
-1430 1446 0
-34 -1430 1431 0
-1431 1447 0
-35 -1431 1432 0
-1432 1448 0
-36 -1432 1433 0
-1433 1449 0
-37 -1433 1434 0
-1434 1450 0
-38 -1434 1435 0
-1435 1451 0
-39 -1435 1436 0
-1436 1452 0
-40 -1436 1437 0
-1437 1453 0
-41 -1437 1438 0
-1438 1454 0
-42 -1438 1439 0
-1439 1455 0
-43 -1439 1440 0
-1440 1456 0
-44 -1440 1441 0
-1441 1457 0
-45 -1441 1442 0
-1442 1458 0
-46 -1442 1443 0
-1443 1459 0
-47 -1443 1444 0
-1444 1460 0
-48 -1444 0
-33 1445 0
-1445 1461 0
-34 -1445 1446 0
-1446 1462 0
-35 -1446 1447 0
-1447 1463 0
-36 -1447 1448 0
-1448 1464 0
-37 -1448 1449 0
-1449 1465 0
-38 -1449 1450 0
-1450 1466 0
-39 -1450 1451 0
-1451 1467 0
-40 -1451 1452 0
-1452 1468 0
-41 -1452 1453 0
-1453 1469 0
-42 -1453 1454 0
-1454 1470 0
-43 -1454 1455 0
-1455 1471 0
-44 -1455 1456 0
-1456 1472 0
-45 -1456 1457 0
-1457 1473 0
-46 -1457 1458 0
-1458 1474 0
-47 -1458 1459 0
-1459 1475 0
-48 -1459 1460 0
-1460 1476 0
-49 -1460 0
-34 1461 0
-1461 1477 0
-35 -1461 1462 0
-1462 1478 0
-36 -1462 1463 0
-1463 1479 0
-37 -1463 1464 0
-1464 1480 0
-38 -1464 1465 0
-1465 1481 0
-39 -1465 1466 0
-1466 1482 0
-40 -1466 1467 0
-1467 1483 0
-41 -1467 1468 0
-1468 1484 0
-42 -1468 1469 0
-1469 1485 0
-43 -1469 1470 0
-1470 1486 0
-44 -1470 1471 0
-1471 1487 0
-45 -1471 1472 0
-1472 1488 0
-46 -1472 1473 0
-1473 1489 0
-47 -1473 1474 0
-1474 1490 0
-48 -1474 1475 0
-1475 1491 0
-49 -1475 1476 0
-1476 1492 0
-50 -1476 0
-35 1477 0
-1477 1493 0
-36 -1477 1478 0
-1478 1494 0
-37 -1478 1479 0
-1479 1495 0
-38 -1479 1480 0
-1480 1496 0
-39 -1480 1481 0
-1481 1497 0
-40 -1481 1482 0
-1482 1498 0
-41 -1482 1483 0
-1483 1499 0
-42 -1483 1484 0
-1484 1500 0
-43 -1484 1485 0
-1485 1501 0
-44 -1485 1486 0
-1486 1502 0
-45 -1486 1487 0
-1487 1503 0
-46 -1487 1488 0
-1488 1504 0
-47 -1488 1489 0
-1489 1505 0
-48 -1489 1490 0
-1490 1506 0
-49 -1490 1491 0
-1491 1507 0
-50 -1491 1492 0
-1492 1508 0
-51 -1492 0
-36 1493 0
-1493 1509 0
-37 -1493 1494 0
-1494 1510 0
-38 -1494 1495 0
-1495 1511 0
-39 -1495 1496 0
-1496 1512 0
-40 -1496 1497 0
-1497 1513 0
-41 -1497 1498 0
-1498 1514 0
-42 -1498 1499 0
-1499 1515 0
-43 -1499 1500 0
-1500 1516 0
-44 -1500 1501 0
-1501 1517 0
-45 -1501 1502 0
-1502 1518 0
-46 -1502 1503 0
-1503 1519 0
-47 -1503 1504 0
-1504 1520 0
-48 -1504 1505 0
-1505 1521 0
-49 -1505 1506 0
-1506 1522 0
-50 -1506 1507 0
-1507 1523 0
-51 -1507 1508 0
-1508 1524 0
-52 -1508 0
-37 1509 0
-1509 1525 0
-38 -1509 1510 0
-1510 1526 0
-39 -1510 1511 0
-1511 1527 0
-40 -1511 1512 0
-1512 1528 0
-41 -1512 1513 0
-1513 1529 0
-42 -1513 1514 0
-1514 1530 0
-43 -1514 1515 0
-1515 1531 0
-44 -1515 1516 0
-1516 1532 0
-45 -1516 1517 0
-1517 1533 0
-46 -1517 1518 0
-1518 1534 0
-47 -1518 1519 0
-1519 1535 0
-48 -1519 1520 0
-1520 1536 0
-49 -1520 1521 0
-1521 1537 0
-50 -1521 1522 0
-1522 1538 0
-51 -1522 1523 0
-1523 1539 0
-52 -1523 1524 0
-1524 1540 0
-53 -1524 0
-38 1525 0
-1525 1541 0
-39 -1525 1526 0
-1526 1542 0
-40 -1526 1527 0
-1527 1543 0
-41 -1527 1528 0
-1528 1544 0
-42 -1528 1529 0
-1529 1545 0
-43 -1529 1530 0
-1530 1546 0
-44 -1530 1531 0
-1531 1547 0
-45 -1531 1532 0
-1532 1548 0
-46 -1532 1533 0
-1533 1549 0
-47 -1533 1534 0
-1534 1550 0
-48 -1534 1535 0
-1535 1551 0
-49 -1535 1536 0
-1536 1552 0
-50 -1536 1537 0
-1537 1553 0
-51 -1537 1538 0
-1538 1554 0
-52 -1538 1539 0
-1539 1555 0
-53 -1539 1540 0
-1540 1556 0
-54 -1540 0
-39 1541 0
-1541 1557 0
-40 -1541 1542 0
-1542 1558 0
-41 -1542 1543 0
-1543 1559 0
-42 -1543 1544 0
-1544 1560 0
-43 -1544 1545 0
-1545 1561 0
-44 -1545 1546 0
-1546 1562 0
-45 -1546 1547 0
-1547 1563 0
-46 -1547 1548 0
-1548 1564 0
-47 -1548 1549 0
-1549 1565 0
-48 -1549 1550 0
-1550 1566 0
-49 -1550 1551 0
-1551 1567 0
-50 -1551 1552 0
-1552 1568 0
-51 -1552 1553 0
-1553 1569 0
-52 -1553 1554 0
-1554 1570 0
-53 -1554 1555 0
-1555 1571 0
-54 -1555 1556 0
-1556 1572 0
-55 -1556 0
-40 1557 0
-1557 1573 0
-41 -1557 1558 0
-1558 1574 0
-42 -1558 1559 0
-1559 1575 0
-43 -1559 1560 0
-1560 1576 0
-44 -1560 1561 0
-1561 1577 0
-45 -1561 1562 0
-1562 1578 0
-46 -1562 1563 0
-1563 1579 0
-47 -1563 1564 0
-1564 1580 0
-48 -1564 1565 0
-1565 1581 0
-49 -1565 1566 0
-1566 1582 0
-50 -1566 1567 0
-1567 1583 0
-51 -1567 1568 0
-1568 1584 0
-52 -1568 1569 0
-1569 1585 0
-53 -1569 1570 0
-1570 1586 0
-54 -1570 1571 0
-1571 1587 0
-55 -1571 1572 0
-1572 1588 0
-56 -1572 0
-41 1573 0
-1573 1589 0
-42 -1573 1574 0
-1574 1590 0
-43 -1574 1575 0
-1575 1591 0
-44 -1575 1576 0
-1576 1592 0
-45 -1576 1577 0
-1577 1593 0
-46 -1577 1578 0
-1578 1594 0
-47 -1578 1579 0
-1579 1595 0
-48 -1579 1580 0
-1580 1596 0
-49 -1580 1581 0
-1581 1597 0
-50 -1581 1582 0
-1582 1598 0
-51 -1582 1583 0
-1583 1599 0
-52 -1583 1584 0
-1584 1600 0
-53 -1584 1585 0
-1585 1601 0
-54 -1585 1586 0
-1586 1602 0
-55 -1586 1587 0
-1587 1603 0
-56 -1587 1588 0
-1588 1604 0
-57 -1588 0
-42 1589 0
-1589 1605 0
-43 -1589 1590 0
-1590 1606 0
-44 -1590 1591 0
-1591 1607 0
-45 -1591 1592 0
-1592 1608 0
-46 -1592 1593 0
-1593 1609 0
-47 -1593 1594 0
-1594 1610 0
-48 -1594 1595 0
-1595 1611 0
-49 -1595 1596 0
-1596 1612 0
-50 -1596 1597 0
-1597 1613 0
-51 -1597 1598 0
-1598 1614 0
-52 -1598 1599 0
-1599 1615 0
-53 -1599 1600 0
-1600 1616 0
-54 -1600 1601 0
-1601 1617 0
-55 -1601 1602 0
-1602 1618 0
-56 -1602 1603 0
-1603 1619 0
-57 -1603 1604 0
-1604 1620 0
-58 -1604 0
-43 1605 0
-1605 1621 0
-44 -1605 1606 0
-1606 1622 0
-45 -1606 1607 0
-1607 1623 0
-46 -1607 1608 0
-1608 1624 0
-47 -1608 1609 0
-1609 1625 0
-48 -1609 1610 0
-1610 1626 0
-49 -1610 1611 0
-1611 1627 0
-50 -1611 1612 0
-1612 1628 0
-51 -1612 1613 0
-1613 1629 0
-52 -1613 1614 0
-1614 1630 0
-53 -1614 1615 0
-1615 1631 0
-54 -1615 1616 0
-1616 1632 0
-55 -1616 1617 0
-1617 1633 0
-56 -1617 1618 0
-1618 1634 0
-57 -1618 1619 0
-1619 1635 0
-58 -1619 1620 0
-1620 1636 0
-59 -1620 0
-44 1621 0
-1621 1637 0
-45 -1621 1622 0
-1622 1638 0
-46 -1622 1623 0
-1623 1639 0
-47 -1623 1624 0
-1624 1640 0
-48 -1624 1625 0
-1625 1641 0
-49 -1625 1626 0
-1626 1642 0
-50 -1626 1627 0
-1627 1643 0
-51 -1627 1628 0
-1628 1644 0
-52 -1628 1629 0
-1629 1645 0
-53 -1629 1630 0
-1630 1646 0
-54 -1630 1631 0
-1631 1647 0
-55 -1631 1632 0
-1632 1648 0
-56 -1632 1633 0
-1633 1649 0
-57 -1633 1634 0
-1634 1650 0
-58 -1634 1635 0
-1635 1651 0
-59 -1635 1636 0
-1636 1652 0
-60 -1636 0
-45 1637 0
-1637 1653 0
-46 -1637 1638 0
-1638 1654 0
-47 -1638 1639 0
-1639 1655 0
-48 -1639 1640 0
-1640 1656 0
-49 -1640 1641 0
-1641 1657 0
-50 -1641 1642 0
-1642 1658 0
-51 -1642 1643 0
-1643 1659 0
-52 -1643 1644 0
-1644 1660 0
-53 -1644 1645 0
-1645 1661 0
-54 -1645 1646 0
-1646 1662 0
-55 -1646 1647 0
-1647 1663 0
-56 -1647 1648 0
-1648 1664 0
-57 -1648 1649 0
-1649 1665 0
-58 -1649 1650 0
-1650 1666 0
-59 -1650 1651 0
-1651 1667 0
-60 -1651 1652 0
-1652 1668 0
-61 -1652 0
-46 1653 0
-1653 1669 0
-47 -1653 1654 0
-1654 1670 0
-48 -1654 1655 0
-1655 1671 0
-49 -1655 1656 0
-1656 1672 0
-50 -1656 1657 0
-1657 1673 0
-51 -1657 1658 0
-1658 1674 0
-52 -1658 1659 0
-1659 1675 0
-53 -1659 1660 0
-1660 1676 0
-54 -1660 1661 0
-1661 1677 0
-55 -1661 1662 0
-1662 1678 0
-56 -1662 1663 0
-1663 1679 0
-57 -1663 1664 0
-1664 1680 0
-58 -1664 1665 0
-1665 1681 0
-59 -1665 1666 0
-1666 1682 0
-60 -1666 1667 0
-1667 1683 0
-61 -1667 1668 0
-1668 1684 0
-62 -1668 0
-47 1669 0
-1669 1685 0
-48 -1669 1670 0
-1670 1686 0
-49 -1670 1671 0
-1671 1687 0
-50 -1671 1672 0
-1672 1688 0
-51 -1672 1673 0
-1673 1689 0
-52 -1673 1674 0
-1674 1690 0
-53 -1674 1675 0
-1675 1691 0
-54 -1675 1676 0
-1676 1692 0
-55 -1676 1677 0
-1677 1693 0
-56 -1677 1678 0
-1678 1694 0
-57 -1678 1679 0
-1679 1695 0
-58 -1679 1680 0
-1680 1696 0
-59 -1680 1681 0
-1681 1697 0
-60 -1681 1682 0
-1682 1698 0
-61 -1682 1683 0
-1683 1699 0
-62 -1683 1684 0
-1684 1700 0
-63 -1684 0
-48 1685 0
-1685 1701 0
-49 -1685 1686 0
-1686 1702 0
-50 -1686 1687 0
-1687 1703 0
-51 -1687 1688 0
-1688 1704 0
-52 -1688 1689 0
-1689 1705 0
-53 -1689 1690 0
-1690 1706 0
-54 -1690 1691 0
-1691 1707 0
-55 -1691 1692 0
-1692 1708 0
-56 -1692 1693 0
-1693 1709 0
-57 -1693 1694 0
-1694 1710 0
-58 -1694 1695 0
-1695 1711 0
-59 -1695 1696 0
-1696 1712 0
-60 -1696 1697 0
-1697 1713 0
-61 -1697 1698 0
-1698 1714 0
-62 -1698 1699 0
-1699 1715 0
-63 -1699 1700 0
-1700 1716 0
-64 -1700 0
-49 1701 0
-1701 1717 0
-50 -1701 1702 0
-1702 1718 0
-51 -1702 1703 0
-1703 1719 0
-52 -1703 1704 0
-1704 1720 0
-53 -1704 1705 0
-1705 1721 0
-54 -1705 1706 0
-1706 1722 0
-55 -1706 1707 0
-1707 1723 0
-56 -1707 1708 0
-1708 1724 0
-57 -1708 1709 0
-1709 1725 0
-58 -1709 1710 0
-1710 1726 0
-59 -1710 1711 0
-1711 1727 0
-60 -1711 1712 0
-1712 1728 0
-61 -1712 1713 0
-1713 1729 0
-62 -1713 1714 0
-1714 1730 0
-63 -1714 1715 0
-1715 1731 0
-64 -1715 1716 0
-1716 1732 0
-65 -1716 0
-50 1717 0
-51 -1717 1718 0
-52 -1718 1719 0
-53 -1719 1720 0
-54 -1720 1721 0
-55 -1721 1722 0
-56 -1722 1723 0
-57 -1723 1724 0
-58 -1724 1725 0
-59 -1725 1726 0
-60 -1726 1727 0
-61 -1727 1728 0
-62 -1728 1729 0
-63 -1729 1730 0
-64 -1730 1731 0
-65 -1731 1732 0
-66 -1732 0
-67 1733 0
-1733 1734 0
-68 -1733 1735 0
-1735 1736 0
-69 -1735 1737 0
-1737 1738 0
-70 -1737 1739 0
-1739 1740 0
-71 -1739 1741 0
-1741 1742 0
-72 -1741 1743 0
-1743 1744 0
-73 -1743 1745 0
-1745 1746 0
-74 -1745 1747 0
-1747 1748 0
-75 -1747 1749 0
-1749 1750 0
-76 -1749 0
-68 1734 0
-1734 1751 0
-69 -1734 1736 0
-1736 1752 0
-70 -1736 1738 0
-1738 1753 0
-71 -1738 1740 0
-1740 1754 0
-72 -1740 1742 0
-1742 1755 0
-73 -1742 1744 0
-1744 1756 0
-74 -1744 1746 0
-1746 1757 0
-75 -1746 1748 0
-1748 1758 0
-76 -1748 1750 0
-1750 1759 0
-77 -1750 0
-69 1751 0
-1751 1760 0
-70 -1751 1752 0
-1752 1761 0
-71 -1752 1753 0
-1753 1762 0
-72 -1753 1754 0
-1754 1763 0
-73 -1754 1755 0
-1755 1764 0
-74 -1755 1756 0
-1756 1765 0
-75 -1756 1757 0
-1757 1766 0
-76 -1757 1758 0
-1758 1767 0
-77 -1758 1759 0
-1759 1768 0
-78 -1759 0
-70 1760 0
-1760 1769 0
-71 -1760 1761 0
-1761 1770 0
-72 -1761 1762 0
-1762 1771 0
-73 -1762 1763 0
-1763 1772 0
-74 -1763 1764 0
-1764 1773 0
-75 -1764 1765 0
-1765 1774 0
-76 -1765 1766 0
-1766 1775 0
-77 -1766 1767 0
-1767 1776 0
-78 -1767 1768 0
-1768 1777 0
-79 -1768 0
-71 1769 0
-1769 1778 0
-72 -1769 1770 0
-1770 1779 0
-73 -1770 1771 0
-1771 1780 0
-74 -1771 1772 0
-1772 1781 0
-75 -1772 1773 0
-1773 1782 0
-76 -1773 1774 0
-1774 1783 0
-77 -1774 1775 0
-1775 1784 0
-78 -1775 1776 0
-1776 1785 0
-79 -1776 1777 0
-1777 1786 0
-80 -1777 0
-72 1778 0
-1778 1787 0
-73 -1778 1779 0
-1779 1788 0
-74 -1779 1780 0
-1780 1789 0
-75 -1780 1781 0
-1781 1790 0
-76 -1781 1782 0
-1782 1791 0
-77 -1782 1783 0
-1783 1792 0
-78 -1783 1784 0
-1784 1793 0
-79 -1784 1785 0
-1785 1794 0
-80 -1785 1786 0
-1786 1795 0
-81 -1786 0
-73 1787 0
-1787 1796 0
-74 -1787 1788 0
-1788 1797 0
-75 -1788 1789 0
-1789 1798 0
-76 -1789 1790 0
-1790 1799 0
-77 -1790 1791 0
-1791 1800 0
-78 -1791 1792 0
-1792 1801 0
-79 -1792 1793 0
-1793 1802 0
-80 -1793 1794 0
-1794 1803 0
-81 -1794 1795 0
-1795 1804 0
-82 -1795 0
-74 1796 0
-1796 1805 0
-75 -1796 1797 0
-1797 1806 0
-76 -1797 1798 0
-1798 1807 0
-77 -1798 1799 0
-1799 1808 0
-78 -1799 1800 0
-1800 1809 0
-79 -1800 1801 0
-1801 1810 0
-80 -1801 1802 0
-1802 1811 0
-81 -1802 1803 0
-1803 1812 0
-82 -1803 1804 0
-1804 1813 0
-83 -1804 0
-75 1805 0
-1805 1814 0
-76 -1805 1806 0
-1806 1815 0
-77 -1806 1807 0
-1807 1816 0
-78 -1807 1808 0
-1808 1817 0
-79 -1808 1809 0
-1809 1818 0
-80 -1809 1810 0
-1810 1819 0
-81 -1810 1811 0
-1811 1820 0
-82 -1811 1812 0
-1812 1821 0
-83 -1812 1813 0
-1813 1822 0
-84 -1813 0
-76 1814 0
-1814 1823 0
-77 -1814 1815 0
-1815 1824 0
-78 -1815 1816 0
-1816 1825 0
-79 -1816 1817 0
-1817 1826 0
-80 -1817 1818 0
-1818 1827 0
-81 -1818 1819 0
-1819 1828 0
-82 -1819 1820 0
-1820 1829 0
-83 -1820 1821 0
-1821 1830 0
-84 -1821 1822 0
-1822 1831 0
-85 -1822 0
-77 1823 0
-1823 1832 0
-78 -1823 1824 0
-1824 1833 0
-79 -1824 1825 0
-1825 1834 0
-80 -1825 1826 0
-1826 1835 0
-81 -1826 1827 0
-1827 1836 0
-82 -1827 1828 0
-1828 1837 0
-83 -1828 1829 0
-1829 1838 0
-84 -1829 1830 0
-1830 1839 0
-85 -1830 1831 0
-1831 1840 0
-86 -1831 0
-78 1832 0
-1832 1841 0
-79 -1832 1833 0
-1833 1842 0
-80 -1833 1834 0
-1834 1843 0
-81 -1834 1835 0
-1835 1844 0
-82 -1835 1836 0
-1836 1845 0
-83 -1836 1837 0
-1837 1846 0
-84 -1837 1838 0
-1838 1847 0
-85 -1838 1839 0
-1839 1848 0
-86 -1839 1840 0
-1840 1849 0
-87 -1840 0
-79 1841 0
-1841 1850 0
-80 -1841 1842 0
-1842 1851 0
-81 -1842 1843 0
-1843 1852 0
-82 -1843 1844 0
-1844 1853 0
-83 -1844 1845 0
-1845 1854 0
-84 -1845 1846 0
-1846 1855 0
-85 -1846 1847 0
-1847 1856 0
-86 -1847 1848 0
-1848 1857 0
-87 -1848 1849 0
-1849 1858 0
-88 -1849 0
-80 1850 0
-1850 1859 0
-81 -1850 1851 0
-1851 1860 0
-82 -1851 1852 0
-1852 1861 0
-83 -1852 1853 0
-1853 1862 0
-84 -1853 1854 0
-1854 1863 0
-85 -1854 1855 0
-1855 1864 0
-86 -1855 1856 0
-1856 1865 0
-87 -1856 1857 0
-1857 1866 0
-88 -1857 1858 0
-1858 1867 0
-89 -1858 0
-81 1859 0
-1859 1868 0
-82 -1859 1860 0
-1860 1869 0
-83 -1860 1861 0
-1861 1870 0
-84 -1861 1862 0
-1862 1871 0
-85 -1862 1863 0
-1863 1872 0
-86 -1863 1864 0
-1864 1873 0
-87 -1864 1865 0
-1865 1874 0
-88 -1865 1866 0
-1866 1875 0
-89 -1866 1867 0
-1867 1876 0
-90 -1867 0
-82 1868 0
-1868 1877 0
-83 -1868 1869 0
-1869 1878 0
-84 -1869 1870 0
-1870 1879 0
-85 -1870 1871 0
-1871 1880 0
-86 -1871 1872 0
-1872 1881 0
-87 -1872 1873 0
-1873 1882 0
-88 -1873 1874 0
-1874 1883 0
-89 -1874 1875 0
-1875 1884 0
-90 -1875 1876 0
-1876 1885 0
-91 -1876 0
-83 1877 0
-1877 1886 0
-84 -1877 1878 0
-1878 1887 0
-85 -1878 1879 0
-1879 1888 0
-86 -1879 1880 0
-1880 1889 0
-87 -1880 1881 0
-1881 1890 0
-88 -1881 1882 0
-1882 1891 0
-89 -1882 1883 0
-1883 1892 0
-90 -1883 1884 0
-1884 1893 0
-91 -1884 1885 0
-1885 1894 0
-92 -1885 0
-84 1886 0
-1886 1895 0
-85 -1886 1887 0
-1887 1896 0
-86 -1887 1888 0
-1888 1897 0
-87 -1888 1889 0
-1889 1898 0
-88 -1889 1890 0
-1890 1899 0
-89 -1890 1891 0
-1891 1900 0
-90 -1891 1892 0
-1892 1901 0
-91 -1892 1893 0
-1893 1902 0
-92 -1893 1894 0
-1894 1903 0
-93 -1894 0
-85 1895 0
-1895 1904 0
-86 -1895 1896 0
-1896 1905 0
-87 -1896 1897 0
-1897 1906 0
-88 -1897 1898 0
-1898 1907 0
-89 -1898 1899 0
-1899 1908 0
-90 -1899 1900 0
-1900 1909 0
-91 -1900 1901 0
-1901 1910 0
-92 -1901 1902 0
-1902 1911 0
-93 -1902 1903 0
-1903 1912 0
-94 -1903 0
-86 1904 0
-1904 1913 0
-87 -1904 1905 0
-1905 1914 0
-88 -1905 1906 0
-1906 1915 0
-89 -1906 1907 0
-1907 1916 0
-90 -1907 1908 0
-1908 1917 0
-91 -1908 1909 0
-1909 1918 0
-92 -1909 1910 0
-1910 1919 0
-93 -1910 1911 0
-1911 1920 0
-94 -1911 1912 0
-1912 1921 0
-95 -1912 0
-87 1913 0
-1913 1922 0
-88 -1913 1914 0
-1914 1923 0
-89 -1914 1915 0
-1915 1924 0
-90 -1915 1916 0
-1916 1925 0
-91 -1916 1917 0
-1917 1926 0
-92 -1917 1918 0
-1918 1927 0
-93 -1918 1919 0
-1919 1928 0
-94 -1919 1920 0
-1920 1929 0
-95 -1920 1921 0
-1921 1930 0
-96 -1921 0
-88 1922 0
-1922 1931 0
-89 -1922 1923 0
-1923 1932 0
-90 -1923 1924 0
-1924 1933 0
-91 -1924 1925 0
-1925 1934 0
-92 -1925 1926 0
-1926 1935 0
-93 -1926 1927 0
-1927 1936 0
-94 -1927 1928 0
-1928 1937 0
-95 -1928 1929 0
-1929 1938 0
-96 -1929 1930 0
-1930 1939 0
-97 -1930 0
-89 1931 0
-1931 1940 0
-90 -1931 1932 0
-1932 1941 0
-91 -1932 1933 0
-1933 1942 0
-92 -1933 1934 0
-1934 1943 0
-93 -1934 1935 0
-1935 1944 0
-94 -1935 1936 0
-1936 1945 0
-95 -1936 1937 0
-1937 1946 0
-96 -1937 1938 0
-1938 1947 0
-97 -1938 1939 0
-1939 1948 0
-98 -1939 0
-90 1940 0
-1940 1949 0
-91 -1940 1941 0
-1941 1950 0
-92 -1941 1942 0
-1942 1951 0
-93 -1942 1943 0
-1943 1952 0
-94 -1943 1944 0
-1944 1953 0
-95 -1944 1945 0
-1945 1954 0
-96 -1945 1946 0
-1946 1955 0
-97 -1946 1947 0
-1947 1956 0
-98 -1947 1948 0
-1948 1957 0
-99 -1948 0
-91 1949 0
-1949 1958 0
-92 -1949 1950 0
-1950 1959 0
-93 -1950 1951 0
-1951 1960 0
-94 -1951 1952 0
-1952 1961 0
-95 -1952 1953 0
-1953 1962 0
-96 -1953 1954 0
-1954 1963 0
-97 -1954 1955 0
-1955 1964 0
-98 -1955 1956 0
-1956 1965 0
-99 -1956 1957 0
-1957 1966 0
-100 -1957 0
-92 1958 0
-1958 1967 0
-93 -1958 1959 0
-1959 1968 0
-94 -1959 1960 0
-1960 1969 0
-95 -1960 1961 0
-1961 1970 0
-96 -1961 1962 0
-1962 1971 0
-97 -1962 1963 0
-1963 1972 0
-98 -1963 1964 0
-1964 1973 0
-99 -1964 1965 0
-1965 1974 0
-100 -1965 1966 0
-1966 1975 0
-101 -1966 0
-93 1967 0
-1967 1976 0
-94 -1967 1968 0
-1968 1977 0
-95 -1968 1969 0
-1969 1978 0
-96 -1969 1970 0
-1970 1979 0
-97 -1970 1971 0
-1971 1980 0
-98 -1971 1972 0
-1972 1981 0
-99 -1972 1973 0
-1973 1982 0
-100 -1973 1974 0
-1974 1983 0
-101 -1974 1975 0
-1975 1984 0
-102 -1975 0
-94 1976 0
-1976 1985 0
-95 -1976 1977 0
-1977 1986 0
-96 -1977 1978 0
-1978 1987 0
-97 -1978 1979 0
-1979 1988 0
-98 -1979 1980 0
-1980 1989 0
-99 -1980 1981 0
-1981 1990 0
-100 -1981 1982 0
-1982 1991 0
-101 -1982 1983 0
-1983 1992 0
-102 -1983 1984 0
-1984 1993 0
-103 -1984 0
-95 1985 0
-1985 1994 0
-96 -1985 1986 0
-1986 1995 0
-97 -1986 1987 0
-1987 1996 0
-98 -1987 1988 0
-1988 1997 0
-99 -1988 1989 0
-1989 1998 0
-100 -1989 1990 0
-1990 1999 0
-101 -1990 1991 0
-1991 2000 0
-102 -1991 1992 0
-1992 2001 0
-103 -1992 1993 0
-1993 2002 0
-104 -1993 0
-96 1994 0
-1994 2003 0
-97 -1994 1995 0
-1995 2004 0
-98 -1995 1996 0
-1996 2005 0
-99 -1996 1997 0
-1997 2006 0
-100 -1997 1998 0
-1998 2007 0
-101 -1998 1999 0
-1999 2008 0
-102 -1999 2000 0
-2000 2009 0
-103 -2000 2001 0
-2001 2010 0
-104 -2001 2002 0
-2002 2011 0
-105 -2002 0
-97 2003 0
-2003 2012 0
-98 -2003 2004 0
-2004 2013 0
-99 -2004 2005 0
-2005 2014 0
-100 -2005 2006 0
-2006 2015 0
-101 -2006 2007 0
-2007 2016 0
-102 -2007 2008 0
-2008 2017 0
-103 -2008 2009 0
-2009 2018 0
-104 -2009 2010 0
-2010 2019 0
-105 -2010 2011 0
-2011 2020 0
-106 -2011 0
-98 2012 0
-2012 2021 0
-99 -2012 2013 0
-2013 2022 0
-100 -2013 2014 0
-2014 2023 0
-101 -2014 2015 0
-2015 2024 0
-102 -2015 2016 0
-2016 2025 0
-103 -2016 2017 0
-2017 2026 0
-104 -2017 2018 0
-2018 2027 0
-105 -2018 2019 0
-2019 2028 0
-106 -2019 2020 0
-2020 2029 0
-107 -2020 0
-99 2021 0
-2021 2030 0
-100 -2021 2022 0
-2022 2031 0
-101 -2022 2023 0
-2023 2032 0
-102 -2023 2024 0
-2024 2033 0
-103 -2024 2025 0
-2025 2034 0
-104 -2025 2026 0
-2026 2035 0
-105 -2026 2027 0
-2027 2036 0
-106 -2027 2028 0
-2028 2037 0
-107 -2028 2029 0
-2029 2038 0
-108 -2029 0
-100 2030 0
-2030 2039 0
-101 -2030 2031 0
-2031 2040 0
-102 -2031 2032 0
-2032 2041 0
-103 -2032 2033 0
-2033 2042 0
-104 -2033 2034 0
-2034 2043 0
-105 -2034 2035 0
-2035 2044 0
-106 -2035 2036 0
-2036 2045 0
-107 -2036 2037 0
-2037 2046 0
-108 -2037 2038 0
-2038 2047 0
-109 -2038 0
-101 2039 0
-2039 2048 0
-102 -2039 2040 0
-2040 2049 0
-103 -2040 2041 0
-2041 2050 0
-104 -2041 2042 0
-2042 2051 0
-105 -2042 2043 0
-2043 2052 0
-106 -2043 2044 0
-2044 2053 0
-107 -2044 2045 0
-2045 2054 0
-108 -2045 2046 0
-2046 2055 0
-109 -2046 2047 0
-2047 2056 0
-110 -2047 0
-102 2048 0
-2048 2057 0
-103 -2048 2049 0
-2049 2058 0
-104 -2049 2050 0
-2050 2059 0
-105 -2050 2051 0
-2051 2060 0
-106 -2051 2052 0
-2052 2061 0
-107 -2052 2053 0
-2053 2062 0
-108 -2053 2054 0
-2054 2063 0
-109 -2054 2055 0
-2055 2064 0
-110 -2055 2056 0
-2056 2065 0
-111 -2056 0
-103 2057 0
-2057 2066 0
-104 -2057 2058 0
-2058 2067 0
-105 -2058 2059 0
-2059 2068 0
-106 -2059 2060 0
-2060 2069 0
-107 -2060 2061 0
-2061 2070 0
-108 -2061 2062 0
-2062 2071 0
-109 -2062 2063 0
-2063 2072 0
-110 -2063 2064 0
-2064 2073 0
-111 -2064 2065 0
-2065 2074 0
-112 -2065 0
-104 2066 0
-2066 2075 0
-105 -2066 2067 0
-2067 2076 0
-106 -2067 2068 0
-2068 2077 0
-107 -2068 2069 0
-2069 2078 0
-108 -2069 2070 0
-2070 2079 0
-109 -2070 2071 0
-2071 2080 0
-110 -2071 2072 0
-2072 2081 0
-111 -2072 2073 0
-2073 2082 0
-112 -2073 2074 0
-2074 2083 0
-113 -2074 0
-105 2075 0
-2075 2084 0
-106 -2075 2076 0
-2076 2085 0
-107 -2076 2077 0
-2077 2086 0
-108 -2077 2078 0
-2078 2087 0
-109 -2078 2079 0
-2079 2088 0
-110 -2079 2080 0
-2080 2089 0
-111 -2080 2081 0
-2081 2090 0
-112 -2081 2082 0
-2082 2091 0
-113 -2082 2083 0
-2083 2092 0
-114 -2083 0
-106 2084 0
-2084 2093 0
-107 -2084 2085 0
-2085 2094 0
-108 -2085 2086 0
-2086 2095 0
-109 -2086 2087 0
-2087 2096 0
-110 -2087 2088 0
-2088 2097 0
-111 -2088 2089 0
-2089 2098 0
-112 -2089 2090 0
-2090 2099 0
-113 -2090 2091 0
-2091 2100 0
-114 -2091 2092 0
-2092 2101 0
-115 -2092 0
-107 2093 0
-2093 2102 0
-108 -2093 2094 0
-2094 2103 0
-109 -2094 2095 0
-2095 2104 0
-110 -2095 2096 0
-2096 2105 0
-111 -2096 2097 0
-2097 2106 0
-112 -2097 2098 0
-2098 2107 0
-113 -2098 2099 0
-2099 2108 0
-114 -2099 2100 0
-2100 2109 0
-115 -2100 2101 0
-2101 2110 0
-116 -2101 0
-108 2102 0
-2102 2111 0
-109 -2102 2103 0
-2103 2112 0
-110 -2103 2104 0
-2104 2113 0
-111 -2104 2105 0
-2105 2114 0
-112 -2105 2106 0
-2106 2115 0
-113 -2106 2107 0
-2107 2116 0
-114 -2107 2108 0
-2108 2117 0
-115 -2108 2109 0
-2109 2118 0
-116 -2109 2110 0
-2110 2119 0
-117 -2110 0
-109 2111 0
-2111 2120 0
-110 -2111 2112 0
-2112 2121 0
-111 -2112 2113 0
-2113 2122 0
-112 -2113 2114 0
-2114 2123 0
-113 -2114 2115 0
-2115 2124 0
-114 -2115 2116 0
-2116 2125 0
-115 -2116 2117 0
-2117 2126 0
-116 -2117 2118 0
-2118 2127 0
-117 -2118 2119 0
-2119 2128 0
-118 -2119 0
-110 2120 0
-2120 2129 0
-111 -2120 2121 0
-2121 2130 0
-112 -2121 2122 0
-2122 2131 0
-113 -2122 2123 0
-2123 2132 0
-114 -2123 2124 0
-2124 2133 0
-115 -2124 2125 0
-2125 2134 0
-116 -2125 2126 0
-2126 2135 0
-117 -2126 2127 0
-2127 2136 0
-118 -2127 2128 0
-2128 2137 0
-119 -2128 0
-111 2129 0
-2129 2138 0
-112 -2129 2130 0
-2130 2139 0
-113 -2130 2131 0
-2131 2140 0
-114 -2131 2132 0
-2132 2141 0
-115 -2132 2133 0
-2133 2142 0
-116 -2133 2134 0
-2134 2143 0
-117 -2134 2135 0
-2135 2144 0
-118 -2135 2136 0
-2136 2145 0
-119 -2136 2137 0
-2137 2146 0
-120 -2137 0
-112 2138 0
-2138 2147 0
-113 -2138 2139 0
-2139 2148 0
-114 -2139 2140 0
-2140 2149 0
-115 -2140 2141 0
-2141 2150 0
-116 -2141 2142 0
-2142 2151 0
-117 -2142 2143 0
-2143 2152 0
-118 -2143 2144 0
-2144 2153 0
-119 -2144 2145 0
-2145 2154 0
-120 -2145 2146 0
-2146 2155 0
-121 -2146 0
-113 2147 0
-2147 2156 0
-114 -2147 2148 0
-2148 2157 0
-115 -2148 2149 0
-2149 2158 0
-116 -2149 2150 0
-2150 2159 0
-117 -2150 2151 0
-2151 2160 0
-118 -2151 2152 0
-2152 2161 0
-119 -2152 2153 0
-2153 2162 0
-120 -2153 2154 0
-2154 2163 0
-121 -2154 2155 0
-2155 2164 0
-122 -2155 0
-114 2156 0
-2156 2165 0
-115 -2156 2157 0
-2157 2166 0
-116 -2157 2158 0
-2158 2167 0
-117 -2158 2159 0
-2159 2168 0
-118 -2159 2160 0
-2160 2169 0
-119 -2160 2161 0
-2161 2170 0
-120 -2161 2162 0
-2162 2171 0
-121 -2162 2163 0
-2163 2172 0
-122 -2163 2164 0
-2164 2173 0
-123 -2164 0
-115 2165 0
-2165 2174 0
-116 -2165 2166 0
-2166 2175 0
-117 -2166 2167 0
-2167 2176 0
-118 -2167 2168 0
-2168 2177 0
-119 -2168 2169 0
-2169 2178 0
-120 -2169 2170 0
-2170 2179 0
-121 -2170 2171 0
-2171 2180 0
-122 -2171 2172 0
-2172 2181 0
-123 -2172 2173 0
-2173 2182 0
-124 -2173 0
-116 2174 0
-2174 2183 0
-117 -2174 2175 0
-2175 2184 0
-118 -2175 2176 0
-2176 2185 0
-119 -2176 2177 0
-2177 2186 0
-120 -2177 2178 0
-2178 2187 0
-121 -2178 2179 0
-2179 2188 0
-122 -2179 2180 0
-2180 2189 0
-123 -2180 2181 0
-2181 2190 0
-124 -2181 2182 0
-2182 2191 0
-125 -2182 0
-117 2183 0
-2183 2192 0
-118 -2183 2184 0
-2184 2193 0
-119 -2184 2185 0
-2185 2194 0
-120 -2185 2186 0
-2186 2195 0
-121 -2186 2187 0
-2187 2196 0
-122 -2187 2188 0
-2188 2197 0
-123 -2188 2189 0
-2189 2198 0
-124 -2189 2190 0
-2190 2199 0
-125 -2190 2191 0
-2191 2200 0
-126 -2191 0
-118 2192 0
-2192 2201 0
-119 -2192 2193 0
-2193 2202 0
-120 -2193 2194 0
-2194 2203 0
-121 -2194 2195 0
-2195 2204 0
-122 -2195 2196 0
-2196 2205 0
-123 -2196 2197 0
-2197 2206 0
-124 -2197 2198 0
-2198 2207 0
-125 -2198 2199 0
-2199 2208 0
-126 -2199 2200 0
-2200 2209 0
-127 -2200 0
-119 2201 0
-2201 2210 0
-120 -2201 2202 0
-2202 2211 0
-121 -2202 2203 0
-2203 2212 0
-122 -2203 2204 0
-2204 2213 0
-123 -2204 2205 0
-2205 2214 0
-124 -2205 2206 0
-2206 2215 0
-125 -2206 2207 0
-2207 2216 0
-126 -2207 2208 0
-2208 2217 0
-127 -2208 2209 0
-2209 2218 0
-128 -2209 0
-120 2210 0
-2210 2219 0
-121 -2210 2211 0
-2211 2220 0
-122 -2211 2212 0
-2212 2221 0
-123 -2212 2213 0
-2213 2222 0
-124 -2213 2214 0
-2214 2223 0
-125 -2214 2215 0
-2215 2224 0
-126 -2215 2216 0
-2216 2225 0
-127 -2216 2217 0
-2217 2226 0
-128 -2217 2218 0
-2218 2227 0
-129 -2218 0
-121 2219 0
-2219 2228 0
-122 -2219 2220 0
-2220 2229 0
-123 -2220 2221 0
-2221 2230 0
-124 -2221 2222 0
-2222 2231 0
-125 -2222 2223 0
-2223 2232 0
-126 -2223 2224 0
-2224 2233 0
-127 -2224 2225 0
-2225 2234 0
-128 -2225 2226 0
-2226 2235 0
-129 -2226 2227 0
-2227 2236 0
-130 -2227 0
-122 2228 0
-2228 2237 0
-123 -2228 2229 0
-2229 2238 0
-124 -2229 2230 0
-2230 2239 0
-125 -2230 2231 0
-2231 2240 0
-126 -2231 2232 0
-2232 2241 0
-127 -2232 2233 0
-2233 2242 0
-128 -2233 2234 0
-2234 2243 0
-129 -2234 2235 0
-2235 2244 0
-130 -2235 2236 0
-2236 2245 0
-131 -2236 0
-123 2237 0
-124 -2237 2238 0
-125 -2238 2239 0
-126 -2239 2240 0
-127 -2240 2241 0
-128 -2241 2242 0
-129 -2242 2243 0
-130 -2243 2244 0
-131 -2244 2245 0
-132 -2245 0
1 34 0
