p cnf 2589 5309
-75 -1 0
-75 2 37 38 0
-2 1 75 0
-37 1 75 0
-38 1 75 0
-76 -2 0
-76 1 3 39 0
-1 2 76 0
-3 2 76 0
-39 2 76 0
-77 -3 0
-77 2 4 40 0
-2 3 77 0
-4 3 77 0
-40 3 77 0
-78 -4 0
-78 3 5 41 0
-3 4 78 0
-5 4 78 0
-41 4 78 0
-79 -5 0
-79 4 6 42 0
-4 5 79 0
-6 5 79 0
-42 5 79 0
-80 -6 0
-80 5 7 43 0
-5 6 80 0
-7 6 80 0
-43 6 80 0
-81 -7 0
-81 6 8 44 0
-6 7 81 0
-8 7 81 0
-44 7 81 0
-82 -8 0
-82 7 9 45 0
-7 8 82 0
-9 8 82 0
-45 8 82 0
-83 -9 0
-83 8 10 46 0
-8 9 83 0
-10 9 83 0
-46 9 83 0
-84 -10 0
-84 9 11 47 0
-9 10 84 0
-11 10 84 0
-47 10 84 0
-85 -11 0
-85 10 12 48 0
-10 11 85 0
-12 11 85 0
-48 11 85 0
-86 -12 0
-86 11 13 49 0
-11 12 86 0
-13 12 86 0
-49 12 86 0
-87 -13 0
-87 12 14 50 0
-12 13 87 0
-14 13 87 0
-50 13 87 0
-88 -14 0
-88 13 15 51 0
-13 14 88 0
-15 14 88 0
-51 14 88 0
-89 -15 0
-89 14 16 52 0
-14 15 89 0
-16 15 89 0
-52 15 89 0
-90 -16 0
-90 15 17 53 0
-15 16 90 0
-17 16 90 0
-53 16 90 0
-91 -17 0
-91 16 18 54 0
-16 17 91 0
-18 17 91 0
-54 17 91 0
-92 -18 0
-92 17 19 55 0
-17 18 92 0
-19 18 92 0
-55 18 92 0
-93 -19 0
-93 18 20 56 0
-18 19 93 0
-20 19 93 0
-56 19 93 0
-94 -20 0
-94 19 21 57 0
-19 20 94 0
-21 20 94 0
-57 20 94 0
-95 -21 0
-95 20 22 58 0
-20 21 95 0
-22 21 95 0
-58 21 95 0
-96 -22 0
-96 21 23 59 0
-21 22 96 0
-23 22 96 0
-59 22 96 0
-97 -23 0
-97 22 24 60 0
-22 23 97 0
-24 23 97 0
-60 23 97 0
-98 -24 0
-98 23 25 61 0
-23 24 98 0
-25 24 98 0
-61 24 98 0
-99 -25 0
-99 24 26 62 0
-24 25 99 0
-26 25 99 0
-62 25 99 0
-100 -26 0
-100 25 27 63 0
-25 26 100 0
-27 26 100 0
-63 26 100 0
-101 -27 0
-101 26 28 64 0
-26 27 101 0
-28 27 101 0
-64 27 101 0
-102 -28 0
-102 27 29 65 0
-27 28 102 0
-29 28 102 0
-65 28 102 0
-103 -29 0
-103 28 30 66 0
-28 29 103 0
-30 29 103 0
-66 29 103 0
-104 -30 0
-104 29 31 67 0
-29 30 104 0
-31 30 104 0
-67 30 104 0
-105 -31 0
-105 30 32 68 0
-30 31 105 0
-32 31 105 0
-68 31 105 0
-106 -32 0
-106 31 33 69 0
-31 32 106 0
-33 32 106 0
-69 32 106 0
-107 -33 0
-107 32 34 70 0
-32 33 107 0
-34 33 107 0
-70 33 107 0
-108 -34 0
-108 33 35 71 0
-33 34 108 0
-35 34 108 0
-71 34 108 0
-109 -35 0
-109 34 36 72 0
-34 35 109 0
-36 35 109 0
-72 35 109 0
-110 -36 0
-110 35 37 73 0
-35 36 110 0
-37 36 110 0
-73 36 110 0
-111 -37 0
-111 1 36 74 0
-1 37 111 0
-36 37 111 0
-74 37 111 0
-112 -38 0
-112 1 42 71 0
-1 38 112 0
-42 38 112 0
-71 38 112 0
-113 -39 0
-113 2 43 72 0
-2 39 113 0
-43 39 113 0
-72 39 113 0
-114 -40 0
-114 3 44 73 0
-3 40 114 0
-44 40 114 0
-73 40 114 0
-115 -41 0
-115 4 45 74 0
-4 41 115 0
-45 41 115 0
-74 41 115 0
-116 -42 0
-116 5 38 46 0
-5 42 116 0
-38 42 116 0
-46 42 116 0
-117 -43 0
-117 6 39 47 0
-6 43 117 0
-39 43 117 0
-47 43 117 0
-118 -44 0
-118 7 40 48 0
-7 44 118 0
-40 44 118 0
-48 44 118 0
-119 -45 0
-119 8 41 49 0
-8 45 119 0
-41 45 119 0
-49 45 119 0
-120 -46 0
-120 9 42 50 0
-9 46 120 0
-42 46 120 0
-50 46 120 0
-121 -47 0
-121 10 43 51 0
-10 47 121 0
-43 47 121 0
-51 47 121 0
-122 -48 0
-122 11 44 52 0
-11 48 122 0
-44 48 122 0
-52 48 122 0
-123 -49 0
-123 12 45 53 0
-12 49 123 0
-45 49 123 0
-53 49 123 0
-124 -50 0
-124 13 46 54 0
-13 50 124 0
-46 50 124 0
-54 50 124 0
-125 -51 0
-125 14 47 55 0
-14 51 125 0
-47 51 125 0
-55 51 125 0
-126 -52 0
-126 15 48 56 0
-15 52 126 0
-48 52 126 0
-56 52 126 0
-127 -53 0
-127 16 49 57 0
-16 53 127 0
-49 53 127 0
-57 53 127 0
-128 -54 0
-128 17 50 58 0
-17 54 128 0
-50 54 128 0
-58 54 128 0
-129 -55 0
-129 18 51 59 0
-18 55 129 0
-51 55 129 0
-59 55 129 0
-130 -56 0
-130 19 52 60 0
-19 56 130 0
-52 56 130 0
-60 56 130 0
-131 -57 0
-131 20 53 61 0
-20 57 131 0
-53 57 131 0
-61 57 131 0
-132 -58 0
-132 21 54 62 0
-21 58 132 0
-54 58 132 0
-62 58 132 0
-133 -59 0
-133 22 55 63 0
-22 59 133 0
-55 59 133 0
-63 59 133 0
-134 -60 0
-134 23 56 64 0
-23 60 134 0
-56 60 134 0
-64 60 134 0
-135 -61 0
-135 24 57 65 0
-24 61 135 0
-57 61 135 0
-65 61 135 0
-136 -62 0
-136 25 58 66 0
-25 62 136 0
-58 62 136 0
-66 62 136 0
-137 -63 0
-137 26 59 67 0
-26 63 137 0
-59 63 137 0
-67 63 137 0
-138 -64 0
-138 27 60 68 0
-27 64 138 0
-60 64 138 0
-68 64 138 0
-139 -65 0
-139 28 61 69 0
-28 65 139 0
-61 65 139 0
-69 65 139 0
-140 -66 0
-140 29 62 70 0
-29 66 140 0
-62 66 140 0
-70 66 140 0
-141 -67 0
-141 30 63 71 0
-30 67 141 0
-63 67 141 0
-71 67 141 0
-142 -68 0
-142 31 64 72 0
-31 68 142 0
-64 68 142 0
-72 68 142 0
-143 -69 0
-143 32 65 73 0
-32 69 143 0
-65 69 143 0
-73 69 143 0
-144 -70 0
-144 33 66 74 0
-33 70 144 0
-66 70 144 0
-74 70 144 0
-145 -71 0
-145 34 38 67 0
-34 71 145 0
-38 71 145 0
-67 71 145 0
-146 -72 0
-146 35 39 68 0
-35 72 146 0
-39 72 146 0
-68 72 146 0
-147 -73 0
-147 36 40 69 0
-36 73 147 0
-40 73 147 0
-69 73 147 0
-148 -74 0
-148 37 41 70 0
-37 74 148 0
-41 74 148 0
-70 74 148 0
1 149 0
-149 150 0
2 -149 151 0
-151 152 0
3 -151 153 0
-153 154 0
4 -153 155 0
-155 156 0
5 -155 157 0
-157 158 0
6 -157 159 0
-159 160 0
7 -159 161 0
-161 162 0
8 -161 163 0
-163 164 0
9 -163 165 0
-165 166 0
10 -165 167 0
-167 168 0
11 -167 169 0
-169 170 0
12 -169 171 0
-171 172 0
13 -171 173 0
-173 174 0
14 -173 175 0
-175 176 0
15 -175 177 0
-177 178 0
16 -177 179 0
-179 180 0
17 -179 181 0
-181 182 0
18 -181 183 0
-183 184 0
19 -183 185 0
-185 186 0
20 -185 187 0
-187 188 0
21 -187 189 0
-189 190 0
22 -189 191 0
-191 192 0
23 -191 193 0
-193 194 0
24 -193 195 0
-195 196 0
25 -195 197 0
-197 198 0
26 -197 199 0
-199 200 0
27 -199 201 0
-201 202 0
28 -201 203 0
-203 204 0
29 -203 205 0
-205 206 0
30 -205 207 0
-207 208 0
31 -207 209 0
-209 210 0
32 -209 211 0
-211 212 0
33 -211 213 0
-213 214 0
34 -213 215 0
-215 216 0
35 -215 217 0
-217 218 0
36 -217 219 0
-219 220 0
37 -219 221 0
-221 222 0
38 -221 223 0
-223 224 0
39 -223 225 0
-225 226 0
40 -225 227 0
-227 228 0
41 -227 229 0
-229 230 0
42 -229 231 0
-231 232 0
43 -231 233 0
-233 234 0
44 -233 235 0
-235 236 0
45 -235 237 0
-237 238 0
46 -237 239 0
-239 240 0
47 -239 241 0
-241 242 0
48 -241 243 0
-243 244 0
49 -243 245 0
-245 246 0
50 -245 247 0
-247 248 0
51 -247 249 0
-249 250 0
52 -249 251 0
-251 252 0
53 -251 253 0
-253 254 0
54 -253 255 0
-255 256 0
55 -255 257 0
-257 258 0
56 -257 259 0
-259 260 0
57 -259 261 0
-261 262 0
58 -261 263 0
-263 264 0
59 -263 0
2 150 0
-150 265 0
3 -150 152 0
-152 266 0
4 -152 154 0
-154 267 0
5 -154 156 0
-156 268 0
6 -156 158 0
-158 269 0
7 -158 160 0
-160 270 0
8 -160 162 0
-162 271 0
9 -162 164 0
-164 272 0
10 -164 166 0
-166 273 0
11 -166 168 0
-168 274 0
12 -168 170 0
-170 275 0
13 -170 172 0
-172 276 0
14 -172 174 0
-174 277 0
15 -174 176 0
-176 278 0
16 -176 178 0
-178 279 0
17 -178 180 0
-180 280 0
18 -180 182 0
-182 281 0
19 -182 184 0
-184 282 0
20 -184 186 0
-186 283 0
21 -186 188 0
-188 284 0
22 -188 190 0
-190 285 0
23 -190 192 0
-192 286 0
24 -192 194 0
-194 287 0
25 -194 196 0
-196 288 0
26 -196 198 0
-198 289 0
27 -198 200 0
-200 290 0
28 -200 202 0
-202 291 0
29 -202 204 0
-204 292 0
30 -204 206 0
-206 293 0
31 -206 208 0
-208 294 0
32 -208 210 0
-210 295 0
33 -210 212 0
-212 296 0
34 -212 214 0
-214 297 0
35 -214 216 0
-216 298 0
36 -216 218 0
-218 299 0
37 -218 220 0
-220 300 0
38 -220 222 0
-222 301 0
39 -222 224 0
-224 302 0
40 -224 226 0
-226 303 0
41 -226 228 0
-228 304 0
42 -228 230 0
-230 305 0
43 -230 232 0
-232 306 0
44 -232 234 0
-234 307 0
45 -234 236 0
-236 308 0
46 -236 238 0
-238 309 0
47 -238 240 0
-240 310 0
48 -240 242 0
-242 311 0
49 -242 244 0
-244 312 0
50 -244 246 0
-246 313 0
51 -246 248 0
-248 314 0
52 -248 250 0
-250 315 0
53 -250 252 0
-252 316 0
54 -252 254 0
-254 317 0
55 -254 256 0
-256 318 0
56 -256 258 0
-258 319 0
57 -258 260 0
-260 320 0
58 -260 262 0
-262 321 0
59 -262 264 0
-264 322 0
60 -264 0
3 265 0
-265 323 0
4 -265 266 0
-266 324 0
5 -266 267 0
-267 325 0
6 -267 268 0
-268 326 0
7 -268 269 0
-269 327 0
8 -269 270 0
-270 328 0
9 -270 271 0
-271 329 0
10 -271 272 0
-272 330 0
11 -272 273 0
-273 331 0
12 -273 274 0
-274 332 0
13 -274 275 0
-275 333 0
14 -275 276 0
-276 334 0
15 -276 277 0
-277 335 0
16 -277 278 0
-278 336 0
17 -278 279 0
-279 337 0
18 -279 280 0
-280 338 0
19 -280 281 0
-281 339 0
20 -281 282 0
-282 340 0
21 -282 283 0
-283 341 0
22 -283 284 0
-284 342 0
23 -284 285 0
-285 343 0
24 -285 286 0
-286 344 0
25 -286 287 0
-287 345 0
26 -287 288 0
-288 346 0
27 -288 289 0
-289 347 0
28 -289 290 0
-290 348 0
29 -290 291 0
-291 349 0
30 -291 292 0
-292 350 0
31 -292 293 0
-293 351 0
32 -293 294 0
-294 352 0
33 -294 295 0
-295 353 0
34 -295 296 0
-296 354 0
35 -296 297 0
-297 355 0
36 -297 298 0
-298 356 0
37 -298 299 0
-299 357 0
38 -299 300 0
-300 358 0
39 -300 301 0
-301 359 0
40 -301 302 0
-302 360 0
41 -302 303 0
-303 361 0
42 -303 304 0
-304 362 0
43 -304 305 0
-305 363 0
44 -305 306 0
-306 364 0
45 -306 307 0
-307 365 0
46 -307 308 0
-308 366 0
47 -308 309 0
-309 367 0
48 -309 310 0
-310 368 0
49 -310 311 0
-311 369 0
50 -311 312 0
-312 370 0
51 -312 313 0
-313 371 0
52 -313 314 0
-314 372 0
53 -314 315 0
-315 373 0
54 -315 316 0
-316 374 0
55 -316 317 0
-317 375 0
56 -317 318 0
-318 376 0
57 -318 319 0
-319 377 0
58 -319 320 0
-320 378 0
59 -320 321 0
-321 379 0
60 -321 322 0
-322 380 0
61 -322 0
4 323 0
-323 381 0
5 -323 324 0
-324 382 0
6 -324 325 0
-325 383 0
7 -325 326 0
-326 384 0
8 -326 327 0
-327 385 0
9 -327 328 0
-328 386 0
10 -328 329 0
-329 387 0
11 -329 330 0
-330 388 0
12 -330 331 0
-331 389 0
13 -331 332 0
-332 390 0
14 -332 333 0
-333 391 0
15 -333 334 0
-334 392 0
16 -334 335 0
-335 393 0
17 -335 336 0
-336 394 0
18 -336 337 0
-337 395 0
19 -337 338 0
-338 396 0
20 -338 339 0
-339 397 0
21 -339 340 0
-340 398 0
22 -340 341 0
-341 399 0
23 -341 342 0
-342 400 0
24 -342 343 0
-343 401 0
25 -343 344 0
-344 402 0
26 -344 345 0
-345 403 0
27 -345 346 0
-346 404 0
28 -346 347 0
-347 405 0
29 -347 348 0
-348 406 0
30 -348 349 0
-349 407 0
31 -349 350 0
-350 408 0
32 -350 351 0
-351 409 0
33 -351 352 0
-352 410 0
34 -352 353 0
-353 411 0
35 -353 354 0
-354 412 0
36 -354 355 0
-355 413 0
37 -355 356 0
-356 414 0
38 -356 357 0
-357 415 0
39 -357 358 0
-358 416 0
40 -358 359 0
-359 417 0
41 -359 360 0
-360 418 0
42 -360 361 0
-361 419 0
43 -361 362 0
-362 420 0
44 -362 363 0
-363 421 0
45 -363 364 0
-364 422 0
46 -364 365 0
-365 423 0
47 -365 366 0
-366 424 0
48 -366 367 0
-367 425 0
49 -367 368 0
-368 426 0
50 -368 369 0
-369 427 0
51 -369 370 0
-370 428 0
52 -370 371 0
-371 429 0
53 -371 372 0
-372 430 0
54 -372 373 0
-373 431 0
55 -373 374 0
-374 432 0
56 -374 375 0
-375 433 0
57 -375 376 0
-376 434 0
58 -376 377 0
-377 435 0
59 -377 378 0
-378 436 0
60 -378 379 0
-379 437 0
61 -379 380 0
-380 438 0
62 -380 0
5 381 0
-381 439 0
6 -381 382 0
-382 440 0
7 -382 383 0
-383 441 0
8 -383 384 0
-384 442 0
9 -384 385 0
-385 443 0
10 -385 386 0
-386 444 0
11 -386 387 0
-387 445 0
12 -387 388 0
-388 446 0
13 -388 389 0
-389 447 0
14 -389 390 0
-390 448 0
15 -390 391 0
-391 449 0
16 -391 392 0
-392 450 0
17 -392 393 0
-393 451 0
18 -393 394 0
-394 452 0
19 -394 395 0
-395 453 0
20 -395 396 0
-396 454 0
21 -396 397 0
-397 455 0
22 -397 398 0
-398 456 0
23 -398 399 0
-399 457 0
24 -399 400 0
-400 458 0
25 -400 401 0
-401 459 0
26 -401 402 0
-402 460 0
27 -402 403 0
-403 461 0
28 -403 404 0
-404 462 0
29 -404 405 0
-405 463 0
30 -405 406 0
-406 464 0
31 -406 407 0
-407 465 0
32 -407 408 0
-408 466 0
33 -408 409 0
-409 467 0
34 -409 410 0
-410 468 0
35 -410 411 0
-411 469 0
36 -411 412 0
-412 470 0
37 -412 413 0
-413 471 0
38 -413 414 0
-414 472 0
39 -414 415 0
-415 473 0
40 -415 416 0
-416 474 0
41 -416 417 0
-417 475 0
42 -417 418 0
-418 476 0
43 -418 419 0
-419 477 0
44 -419 420 0
-420 478 0
45 -420 421 0
-421 479 0
46 -421 422 0
-422 480 0
47 -422 423 0
-423 481 0
48 -423 424 0
-424 482 0
49 -424 425 0
-425 483 0
50 -425 426 0
-426 484 0
51 -426 427 0
-427 485 0
52 -427 428 0
-428 486 0
53 -428 429 0
-429 487 0
54 -429 430 0
-430 488 0
55 -430 431 0
-431 489 0
56 -431 432 0
-432 490 0
57 -432 433 0
-433 491 0
58 -433 434 0
-434 492 0
59 -434 435 0
-435 493 0
60 -435 436 0
-436 494 0
61 -436 437 0
-437 495 0
62 -437 438 0
-438 496 0
63 -438 0
6 439 0
-439 497 0
7 -439 440 0
-440 498 0
8 -440 441 0
-441 499 0
9 -441 442 0
-442 500 0
10 -442 443 0
-443 501 0
11 -443 444 0
-444 502 0
12 -444 445 0
-445 503 0
13 -445 446 0
-446 504 0
14 -446 447 0
-447 505 0
15 -447 448 0
-448 506 0
16 -448 449 0
-449 507 0
17 -449 450 0
-450 508 0
18 -450 451 0
-451 509 0
19 -451 452 0
-452 510 0
20 -452 453 0
-453 511 0
21 -453 454 0
-454 512 0
22 -454 455 0
-455 513 0
23 -455 456 0
-456 514 0
24 -456 457 0
-457 515 0
25 -457 458 0
-458 516 0
26 -458 459 0
-459 517 0
27 -459 460 0
-460 518 0
28 -460 461 0
-461 519 0
29 -461 462 0
-462 520 0
30 -462 463 0
-463 521 0
31 -463 464 0
-464 522 0
32 -464 465 0
-465 523 0
33 -465 466 0
-466 524 0
34 -466 467 0
-467 525 0
35 -467 468 0
-468 526 0
36 -468 469 0
-469 527 0
37 -469 470 0
-470 528 0
38 -470 471 0
-471 529 0
39 -471 472 0
-472 530 0
40 -472 473 0
-473 531 0
41 -473 474 0
-474 532 0
42 -474 475 0
-475 533 0
43 -475 476 0
-476 534 0
44 -476 477 0
-477 535 0
45 -477 478 0
-478 536 0
46 -478 479 0
-479 537 0
47 -479 480 0
-480 538 0
48 -480 481 0
-481 539 0
49 -481 482 0
-482 540 0
50 -482 483 0
-483 541 0
51 -483 484 0
-484 542 0
52 -484 485 0
-485 543 0
53 -485 486 0
-486 544 0
54 -486 487 0
-487 545 0
55 -487 488 0
-488 546 0
56 -488 489 0
-489 547 0
57 -489 490 0
-490 548 0
58 -490 491 0
-491 549 0
59 -491 492 0
-492 550 0
60 -492 493 0
-493 551 0
61 -493 494 0
-494 552 0
62 -494 495 0
-495 553 0
63 -495 496 0
-496 554 0
64 -496 0
7 497 0
-497 555 0
8 -497 498 0
-498 556 0
9 -498 499 0
-499 557 0
10 -499 500 0
-500 558 0
11 -500 501 0
-501 559 0
12 -501 502 0
-502 560 0
13 -502 503 0
-503 561 0
14 -503 504 0
-504 562 0
15 -504 505 0
-505 563 0
16 -505 506 0
-506 564 0
17 -506 507 0
-507 565 0
18 -507 508 0
-508 566 0
19 -508 509 0
-509 567 0
20 -509 510 0
-510 568 0
21 -510 511 0
-511 569 0
22 -511 512 0
-512 570 0
23 -512 513 0
-513 571 0
24 -513 514 0
-514 572 0
25 -514 515 0
-515 573 0
26 -515 516 0
-516 574 0
27 -516 517 0
-517 575 0
28 -517 518 0
-518 576 0
29 -518 519 0
-519 577 0
30 -519 520 0
-520 578 0
31 -520 521 0
-521 579 0
32 -521 522 0
-522 580 0
33 -522 523 0
-523 581 0
34 -523 524 0
-524 582 0
35 -524 525 0
-525 583 0
36 -525 526 0
-526 584 0
37 -526 527 0
-527 585 0
38 -527 528 0
-528 586 0
39 -528 529 0
-529 587 0
40 -529 530 0
-530 588 0
41 -530 531 0
-531 589 0
42 -531 532 0
-532 590 0
43 -532 533 0
-533 591 0
44 -533 534 0
-534 592 0
45 -534 535 0
-535 593 0
46 -535 536 0
-536 594 0
47 -536 537 0
-537 595 0
48 -537 538 0
-538 596 0
49 -538 539 0
-539 597 0
50 -539 540 0
-540 598 0
51 -540 541 0
-541 599 0
52 -541 542 0
-542 600 0
53 -542 543 0
-543 601 0
54 -543 544 0
-544 602 0
55 -544 545 0
-545 603 0
56 -545 546 0
-546 604 0
57 -546 547 0
-547 605 0
58 -547 548 0
-548 606 0
59 -548 549 0
-549 607 0
60 -549 550 0
-550 608 0
61 -550 551 0
-551 609 0
62 -551 552 0
-552 610 0
63 -552 553 0
-553 611 0
64 -553 554 0
-554 612 0
65 -554 0
8 555 0
-555 613 0
9 -555 556 0
-556 614 0
10 -556 557 0
-557 615 0
11 -557 558 0
-558 616 0
12 -558 559 0
-559 617 0
13 -559 560 0
-560 618 0
14 -560 561 0
-561 619 0
15 -561 562 0
-562 620 0
16 -562 563 0
-563 621 0
17 -563 564 0
-564 622 0
18 -564 565 0
-565 623 0
19 -565 566 0
-566 624 0
20 -566 567 0
-567 625 0
21 -567 568 0
-568 626 0
22 -568 569 0
-569 627 0
23 -569 570 0
-570 628 0
24 -570 571 0
-571 629 0
25 -571 572 0
-572 630 0
26 -572 573 0
-573 631 0
27 -573 574 0
-574 632 0
28 -574 575 0
-575 633 0
29 -575 576 0
-576 634 0
30 -576 577 0
-577 635 0
31 -577 578 0
-578 636 0
32 -578 579 0
-579 637 0
33 -579 580 0
-580 638 0
34 -580 581 0
-581 639 0
35 -581 582 0
-582 640 0
36 -582 583 0
-583 641 0
37 -583 584 0
-584 642 0
38 -584 585 0
-585 643 0
39 -585 586 0
-586 644 0
40 -586 587 0
-587 645 0
41 -587 588 0
-588 646 0
42 -588 589 0
-589 647 0
43 -589 590 0
-590 648 0
44 -590 591 0
-591 649 0
45 -591 592 0
-592 650 0
46 -592 593 0
-593 651 0
47 -593 594 0
-594 652 0
48 -594 595 0
-595 653 0
49 -595 596 0
-596 654 0
50 -596 597 0
-597 655 0
51 -597 598 0
-598 656 0
52 -598 599 0
-599 657 0
53 -599 600 0
-600 658 0
54 -600 601 0
-601 659 0
55 -601 602 0
-602 660 0
56 -602 603 0
-603 661 0
57 -603 604 0
-604 662 0
58 -604 605 0
-605 663 0
59 -605 606 0
-606 664 0
60 -606 607 0
-607 665 0
61 -607 608 0
-608 666 0
62 -608 609 0
-609 667 0
63 -609 610 0
-610 668 0
64 -610 611 0
-611 669 0
65 -611 612 0
-612 670 0
66 -612 0
9 613 0
-613 671 0
10 -613 614 0
-614 672 0
11 -614 615 0
-615 673 0
12 -615 616 0
-616 674 0
13 -616 617 0
-617 675 0
14 -617 618 0
-618 676 0
15 -618 619 0
-619 677 0
16 -619 620 0
-620 678 0
17 -620 621 0
-621 679 0
18 -621 622 0
-622 680 0
19 -622 623 0
-623 681 0
20 -623 624 0
-624 682 0
21 -624 625 0
-625 683 0
22 -625 626 0
-626 684 0
23 -626 627 0
-627 685 0
24 -627 628 0
-628 686 0
25 -628 629 0
-629 687 0
26 -629 630 0
-630 688 0
27 -630 631 0
-631 689 0
28 -631 632 0
-632 690 0
29 -632 633 0
-633 691 0
30 -633 634 0
-634 692 0
31 -634 635 0
-635 693 0
32 -635 636 0
-636 694 0
33 -636 637 0
-637 695 0
34 -637 638 0
-638 696 0
35 -638 639 0
-639 697 0
36 -639 640 0
-640 698 0
37 -640 641 0
-641 699 0
38 -641 642 0
-642 700 0
39 -642 643 0
-643 701 0
40 -643 644 0
-644 702 0
41 -644 645 0
-645 703 0
42 -645 646 0
-646 704 0
43 -646 647 0
-647 705 0
44 -647 648 0
-648 706 0
45 -648 649 0
-649 707 0
46 -649 650 0
-650 708 0
47 -650 651 0
-651 709 0
48 -651 652 0
-652 710 0
49 -652 653 0
-653 711 0
50 -653 654 0
-654 712 0
51 -654 655 0
-655 713 0
52 -655 656 0
-656 714 0
53 -656 657 0
-657 715 0
54 -657 658 0
-658 716 0
55 -658 659 0
-659 717 0
56 -659 660 0
-660 718 0
57 -660 661 0
-661 719 0
58 -661 662 0
-662 720 0
59 -662 663 0
-663 721 0
60 -663 664 0
-664 722 0
61 -664 665 0
-665 723 0
62 -665 666 0
-666 724 0
63 -666 667 0
-667 725 0
64 -667 668 0
-668 726 0
65 -668 669 0
-669 727 0
66 -669 670 0
-670 728 0
67 -670 0
10 671 0
-671 729 0
11 -671 672 0
-672 730 0
12 -672 673 0
-673 731 0
13 -673 674 0
-674 732 0
14 -674 675 0
-675 733 0
15 -675 676 0
-676 734 0
16 -676 677 0
-677 735 0
17 -677 678 0
-678 736 0
18 -678 679 0
-679 737 0
19 -679 680 0
-680 738 0
20 -680 681 0
-681 739 0
21 -681 682 0
-682 740 0
22 -682 683 0
-683 741 0
23 -683 684 0
-684 742 0
24 -684 685 0
-685 743 0
25 -685 686 0
-686 744 0
26 -686 687 0
-687 745 0
27 -687 688 0
-688 746 0
28 -688 689 0
-689 747 0
29 -689 690 0
-690 748 0
30 -690 691 0
-691 749 0
31 -691 692 0
-692 750 0
32 -692 693 0
-693 751 0
33 -693 694 0
-694 752 0
34 -694 695 0
-695 753 0
35 -695 696 0
-696 754 0
36 -696 697 0
-697 755 0
37 -697 698 0
-698 756 0
38 -698 699 0
-699 757 0
39 -699 700 0
-700 758 0
40 -700 701 0
-701 759 0
41 -701 702 0
-702 760 0
42 -702 703 0
-703 761 0
43 -703 704 0
-704 762 0
44 -704 705 0
-705 763 0
45 -705 706 0
-706 764 0
46 -706 707 0
-707 765 0
47 -707 708 0
-708 766 0
48 -708 709 0
-709 767 0
49 -709 710 0
-710 768 0
50 -710 711 0
-711 769 0
51 -711 712 0
-712 770 0
52 -712 713 0
-713 771 0
53 -713 714 0
-714 772 0
54 -714 715 0
-715 773 0
55 -715 716 0
-716 774 0
56 -716 717 0
-717 775 0
57 -717 718 0
-718 776 0
58 -718 719 0
-719 777 0
59 -719 720 0
-720 778 0
60 -720 721 0
-721 779 0
61 -721 722 0
-722 780 0
62 -722 723 0
-723 781 0
63 -723 724 0
-724 782 0
64 -724 725 0
-725 783 0
65 -725 726 0
-726 784 0
66 -726 727 0
-727 785 0
67 -727 728 0
-728 786 0
68 -728 0
11 729 0
-729 787 0
12 -729 730 0
-730 788 0
13 -730 731 0
-731 789 0
14 -731 732 0
-732 790 0
15 -732 733 0
-733 791 0
16 -733 734 0
-734 792 0
17 -734 735 0
-735 793 0
18 -735 736 0
-736 794 0
19 -736 737 0
-737 795 0
20 -737 738 0
-738 796 0
21 -738 739 0
-739 797 0
22 -739 740 0
-740 798 0
23 -740 741 0
-741 799 0
24 -741 742 0
-742 800 0
25 -742 743 0
-743 801 0
26 -743 744 0
-744 802 0
27 -744 745 0
-745 803 0
28 -745 746 0
-746 804 0
29 -746 747 0
-747 805 0
30 -747 748 0
-748 806 0
31 -748 749 0
-749 807 0
32 -749 750 0
-750 808 0
33 -750 751 0
-751 809 0
34 -751 752 0
-752 810 0
35 -752 753 0
-753 811 0
36 -753 754 0
-754 812 0
37 -754 755 0
-755 813 0
38 -755 756 0
-756 814 0
39 -756 757 0
-757 815 0
40 -757 758 0
-758 816 0
41 -758 759 0
-759 817 0
42 -759 760 0
-760 818 0
43 -760 761 0
-761 819 0
44 -761 762 0
-762 820 0
45 -762 763 0
-763 821 0
46 -763 764 0
-764 822 0
47 -764 765 0
-765 823 0
48 -765 766 0
-766 824 0
49 -766 767 0
-767 825 0
50 -767 768 0
-768 826 0
51 -768 769 0
-769 827 0
52 -769 770 0
-770 828 0
53 -770 771 0
-771 829 0
54 -771 772 0
-772 830 0
55 -772 773 0
-773 831 0
56 -773 774 0
-774 832 0
57 -774 775 0
-775 833 0
58 -775 776 0
-776 834 0
59 -776 777 0
-777 835 0
60 -777 778 0
-778 836 0
61 -778 779 0
-779 837 0
62 -779 780 0
-780 838 0
63 -780 781 0
-781 839 0
64 -781 782 0
-782 840 0
65 -782 783 0
-783 841 0
66 -783 784 0
-784 842 0
67 -784 785 0
-785 843 0
68 -785 786 0
-786 844 0
69 -786 0
12 787 0
-787 845 0
13 -787 788 0
-788 846 0
14 -788 789 0
-789 847 0
15 -789 790 0
-790 848 0
16 -790 791 0
-791 849 0
17 -791 792 0
-792 850 0
18 -792 793 0
-793 851 0
19 -793 794 0
-794 852 0
20 -794 795 0
-795 853 0
21 -795 796 0
-796 854 0
22 -796 797 0
-797 855 0
23 -797 798 0
-798 856 0
24 -798 799 0
-799 857 0
25 -799 800 0
-800 858 0
26 -800 801 0
-801 859 0
27 -801 802 0
-802 860 0
28 -802 803 0
-803 861 0
29 -803 804 0
-804 862 0
30 -804 805 0
-805 863 0
31 -805 806 0
-806 864 0
32 -806 807 0
-807 865 0
33 -807 808 0
-808 866 0
34 -808 809 0
-809 867 0
35 -809 810 0
-810 868 0
36 -810 811 0
-811 869 0
37 -811 812 0
-812 870 0
38 -812 813 0
-813 871 0
39 -813 814 0
-814 872 0
40 -814 815 0
-815 873 0
41 -815 816 0
-816 874 0
42 -816 817 0
-817 875 0
43 -817 818 0
-818 876 0
44 -818 819 0
-819 877 0
45 -819 820 0
-820 878 0
46 -820 821 0
-821 879 0
47 -821 822 0
-822 880 0
48 -822 823 0
-823 881 0
49 -823 824 0
-824 882 0
50 -824 825 0
-825 883 0
51 -825 826 0
-826 884 0
52 -826 827 0
-827 885 0
53 -827 828 0
-828 886 0
54 -828 829 0
-829 887 0
55 -829 830 0
-830 888 0
56 -830 831 0
-831 889 0
57 -831 832 0
-832 890 0
58 -832 833 0
-833 891 0
59 -833 834 0
-834 892 0
60 -834 835 0
-835 893 0
61 -835 836 0
-836 894 0
62 -836 837 0
-837 895 0
63 -837 838 0
-838 896 0
64 -838 839 0
-839 897 0
65 -839 840 0
-840 898 0
66 -840 841 0
-841 899 0
67 -841 842 0
-842 900 0
68 -842 843 0
-843 901 0
69 -843 844 0
-844 902 0
70 -844 0
13 845 0
-845 903 0
14 -845 846 0
-846 904 0
15 -846 847 0
-847 905 0
16 -847 848 0
-848 906 0
17 -848 849 0
-849 907 0
18 -849 850 0
-850 908 0
19 -850 851 0
-851 909 0
20 -851 852 0
-852 910 0
21 -852 853 0
-853 911 0
22 -853 854 0
-854 912 0
23 -854 855 0
-855 913 0
24 -855 856 0
-856 914 0
25 -856 857 0
-857 915 0
26 -857 858 0
-858 916 0
27 -858 859 0
-859 917 0
28 -859 860 0
-860 918 0
29 -860 861 0
-861 919 0
30 -861 862 0
-862 920 0
31 -862 863 0
-863 921 0
32 -863 864 0
-864 922 0
33 -864 865 0
-865 923 0
34 -865 866 0
-866 924 0
35 -866 867 0
-867 925 0
36 -867 868 0
-868 926 0
37 -868 869 0
-869 927 0
38 -869 870 0
-870 928 0
39 -870 871 0
-871 929 0
40 -871 872 0
-872 930 0
41 -872 873 0
-873 931 0
42 -873 874 0
-874 932 0
43 -874 875 0
-875 933 0
44 -875 876 0
-876 934 0
45 -876 877 0
-877 935 0
46 -877 878 0
-878 936 0
47 -878 879 0
-879 937 0
48 -879 880 0
-880 938 0
49 -880 881 0
-881 939 0
50 -881 882 0
-882 940 0
51 -882 883 0
-883 941 0
52 -883 884 0
-884 942 0
53 -884 885 0
-885 943 0
54 -885 886 0
-886 944 0
55 -886 887 0
-887 945 0
56 -887 888 0
-888 946 0
57 -888 889 0
-889 947 0
58 -889 890 0
-890 948 0
59 -890 891 0
-891 949 0
60 -891 892 0
-892 950 0
61 -892 893 0
-893 951 0
62 -893 894 0
-894 952 0
63 -894 895 0
-895 953 0
64 -895 896 0
-896 954 0
65 -896 897 0
-897 955 0
66 -897 898 0
-898 956 0
67 -898 899 0
-899 957 0
68 -899 900 0
-900 958 0
69 -900 901 0
-901 959 0
70 -901 902 0
-902 960 0
71 -902 0
14 903 0
-903 961 0
15 -903 904 0
-904 962 0
16 -904 905 0
-905 963 0
17 -905 906 0
-906 964 0
18 -906 907 0
-907 965 0
19 -907 908 0
-908 966 0
20 -908 909 0
-909 967 0
21 -909 910 0
-910 968 0
22 -910 911 0
-911 969 0
23 -911 912 0
-912 970 0
24 -912 913 0
-913 971 0
25 -913 914 0
-914 972 0
26 -914 915 0
-915 973 0
27 -915 916 0
-916 974 0
28 -916 917 0
-917 975 0
29 -917 918 0
-918 976 0
30 -918 919 0
-919 977 0
31 -919 920 0
-920 978 0
32 -920 921 0
-921 979 0
33 -921 922 0
-922 980 0
34 -922 923 0
-923 981 0
35 -923 924 0
-924 982 0
36 -924 925 0
-925 983 0
37 -925 926 0
-926 984 0
38 -926 927 0
-927 985 0
39 -927 928 0
-928 986 0
40 -928 929 0
-929 987 0
41 -929 930 0
-930 988 0
42 -930 931 0
-931 989 0
43 -931 932 0
-932 990 0
44 -932 933 0
-933 991 0
45 -933 934 0
-934 992 0
46 -934 935 0
-935 993 0
47 -935 936 0
-936 994 0
48 -936 937 0
-937 995 0
49 -937 938 0
-938 996 0
50 -938 939 0
-939 997 0
51 -939 940 0
-940 998 0
52 -940 941 0
-941 999 0
53 -941 942 0
-942 1000 0
54 -942 943 0
-943 1001 0
55 -943 944 0
-944 1002 0
56 -944 945 0
-945 1003 0
57 -945 946 0
-946 1004 0
58 -946 947 0
-947 1005 0
59 -947 948 0
-948 1006 0
60 -948 949 0
-949 1007 0
61 -949 950 0
-950 1008 0
62 -950 951 0
-951 1009 0
63 -951 952 0
-952 1010 0
64 -952 953 0
-953 1011 0
65 -953 954 0
-954 1012 0
66 -954 955 0
-955 1013 0
67 -955 956 0
-956 1014 0
68 -956 957 0
-957 1015 0
69 -957 958 0
-958 1016 0
70 -958 959 0
-959 1017 0
71 -959 960 0
-960 1018 0
72 -960 0
15 961 0
-961 1019 0
16 -961 962 0
-962 1020 0
17 -962 963 0
-963 1021 0
18 -963 964 0
-964 1022 0
19 -964 965 0
-965 1023 0
20 -965 966 0
-966 1024 0
21 -966 967 0
-967 1025 0
22 -967 968 0
-968 1026 0
23 -968 969 0
-969 1027 0
24 -969 970 0
-970 1028 0
25 -970 971 0
-971 1029 0
26 -971 972 0
-972 1030 0
27 -972 973 0
-973 1031 0
28 -973 974 0
-974 1032 0
29 -974 975 0
-975 1033 0
30 -975 976 0
-976 1034 0
31 -976 977 0
-977 1035 0
32 -977 978 0
-978 1036 0
33 -978 979 0
-979 1037 0
34 -979 980 0
-980 1038 0
35 -980 981 0
-981 1039 0
36 -981 982 0
-982 1040 0
37 -982 983 0
-983 1041 0
38 -983 984 0
-984 1042 0
39 -984 985 0
-985 1043 0
40 -985 986 0
-986 1044 0
41 -986 987 0
-987 1045 0
42 -987 988 0
-988 1046 0
43 -988 989 0
-989 1047 0
44 -989 990 0
-990 1048 0
45 -990 991 0
-991 1049 0
46 -991 992 0
-992 1050 0
47 -992 993 0
-993 1051 0
48 -993 994 0
-994 1052 0
49 -994 995 0
-995 1053 0
50 -995 996 0
-996 1054 0
51 -996 997 0
-997 1055 0
52 -997 998 0
-998 1056 0
53 -998 999 0
-999 1057 0
54 -999 1000 0
-1000 1058 0
55 -1000 1001 0
-1001 1059 0
56 -1001 1002 0
-1002 1060 0
57 -1002 1003 0
-1003 1061 0
58 -1003 1004 0
-1004 1062 0
59 -1004 1005 0
-1005 1063 0
60 -1005 1006 0
-1006 1064 0
61 -1006 1007 0
-1007 1065 0
62 -1007 1008 0
-1008 1066 0
63 -1008 1009 0
-1009 1067 0
64 -1009 1010 0
-1010 1068 0
65 -1010 1011 0
-1011 1069 0
66 -1011 1012 0
-1012 1070 0
67 -1012 1013 0
-1013 1071 0
68 -1013 1014 0
-1014 1072 0
69 -1014 1015 0
-1015 1073 0
70 -1015 1016 0
-1016 1074 0
71 -1016 1017 0
-1017 1075 0
72 -1017 1018 0
-1018 1076 0
73 -1018 0
16 1019 0
17 -1019 1020 0
18 -1020 1021 0
19 -1021 1022 0
20 -1022 1023 0
21 -1023 1024 0
22 -1024 1025 0
23 -1025 1026 0
24 -1026 1027 0
25 -1027 1028 0
26 -1028 1029 0
27 -1029 1030 0
28 -1030 1031 0
29 -1031 1032 0
30 -1032 1033 0
31 -1033 1034 0
32 -1034 1035 0
33 -1035 1036 0
34 -1036 1037 0
35 -1037 1038 0
36 -1038 1039 0
37 -1039 1040 0
38 -1040 1041 0
39 -1041 1042 0
40 -1042 1043 0
41 -1043 1044 0
42 -1044 1045 0
43 -1045 1046 0
44 -1046 1047 0
45 -1047 1048 0
46 -1048 1049 0
47 -1049 1050 0
48 -1050 1051 0
49 -1051 1052 0
50 -1052 1053 0
51 -1053 1054 0
52 -1054 1055 0
53 -1055 1056 0
54 -1056 1057 0
55 -1057 1058 0
56 -1058 1059 0
57 -1059 1060 0
58 -1060 1061 0
59 -1061 1062 0
60 -1062 1063 0
61 -1063 1064 0
62 -1064 1065 0
63 -1065 1066 0
64 -1066 1067 0
65 -1067 1068 0
66 -1068 1069 0
67 -1069 1070 0
68 -1070 1071 0
69 -1071 1072 0
70 -1072 1073 0
71 -1073 1074 0
72 -1074 1075 0
73 -1075 1076 0
74 -1076 0
-1 1077 0
-1077 1078 0
-2 -1077 1079 0
-1079 1080 0
-3 -1079 1081 0
-1081 1082 0
-4 -1081 1083 0
-1083 1084 0
-5 -1083 1085 0
-1085 1086 0
-6 -1085 1087 0
-1087 1088 0
-7 -1087 1089 0
-1089 1090 0
-8 -1089 1091 0
-1091 1092 0
-9 -1091 1093 0
-1093 1094 0
-10 -1093 1095 0
-1095 1096 0
-11 -1095 1097 0
-1097 1098 0
-12 -1097 1099 0
-1099 1100 0
-13 -1099 1101 0
-1101 1102 0
-14 -1101 1103 0
-1103 1104 0
-15 -1103 1105 0
-1105 1106 0
-16 -1105 1107 0
-1107 1108 0
-17 -1107 0
-2 1078 0
-1078 1109 0
-3 -1078 1080 0
-1080 1110 0
-4 -1080 1082 0
-1082 1111 0
-5 -1082 1084 0
-1084 1112 0
-6 -1084 1086 0
-1086 1113 0
-7 -1086 1088 0
-1088 1114 0
-8 -1088 1090 0
-1090 1115 0
-9 -1090 1092 0
-1092 1116 0
-10 -1092 1094 0
-1094 1117 0
-11 -1094 1096 0
-1096 1118 0
-12 -1096 1098 0
-1098 1119 0
-13 -1098 1100 0
-1100 1120 0
-14 -1100 1102 0
-1102 1121 0
-15 -1102 1104 0
-1104 1122 0
-16 -1104 1106 0
-1106 1123 0
-17 -1106 1108 0
-1108 1124 0
-18 -1108 0
-3 1109 0
-1109 1125 0
-4 -1109 1110 0
-1110 1126 0
-5 -1110 1111 0
-1111 1127 0
-6 -1111 1112 0
-1112 1128 0
-7 -1112 1113 0
-1113 1129 0
-8 -1113 1114 0
-1114 1130 0
-9 -1114 1115 0
-1115 1131 0
-10 -1115 1116 0
-1116 1132 0
-11 -1116 1117 0
-1117 1133 0
-12 -1117 1118 0
-1118 1134 0
-13 -1118 1119 0
-1119 1135 0
-14 -1119 1120 0
-1120 1136 0
-15 -1120 1121 0
-1121 1137 0
-16 -1121 1122 0
-1122 1138 0
-17 -1122 1123 0
-1123 1139 0
-18 -1123 1124 0
-1124 1140 0
-19 -1124 0
-4 1125 0
-1125 1141 0
-5 -1125 1126 0
-1126 1142 0
-6 -1126 1127 0
-1127 1143 0
-7 -1127 1128 0
-1128 1144 0
-8 -1128 1129 0
-1129 1145 0
-9 -1129 1130 0
-1130 1146 0
-10 -1130 1131 0
-1131 1147 0
-11 -1131 1132 0
-1132 1148 0
-12 -1132 1133 0
-1133 1149 0
-13 -1133 1134 0
-1134 1150 0
-14 -1134 1135 0
-1135 1151 0
-15 -1135 1136 0
-1136 1152 0
-16 -1136 1137 0
-1137 1153 0
-17 -1137 1138 0
-1138 1154 0
-18 -1138 1139 0
-1139 1155 0
-19 -1139 1140 0
-1140 1156 0
-20 -1140 0
-5 1141 0
-1141 1157 0
-6 -1141 1142 0
-1142 1158 0
-7 -1142 1143 0
-1143 1159 0
-8 -1143 1144 0
-1144 1160 0
-9 -1144 1145 0
-1145 1161 0
-10 -1145 1146 0
-1146 1162 0
-11 -1146 1147 0
-1147 1163 0
-12 -1147 1148 0
-1148 1164 0
-13 -1148 1149 0
-1149 1165 0
-14 -1149 1150 0
-1150 1166 0
-15 -1150 1151 0
-1151 1167 0
-16 -1151 1152 0
-1152 1168 0
-17 -1152 1153 0
-1153 1169 0
-18 -1153 1154 0
-1154 1170 0
-19 -1154 1155 0
-1155 1171 0
-20 -1155 1156 0
-1156 1172 0
-21 -1156 0
-6 1157 0
-1157 1173 0
-7 -1157 1158 0
-1158 1174 0
-8 -1158 1159 0
-1159 1175 0
-9 -1159 1160 0
-1160 1176 0
-10 -1160 1161 0
-1161 1177 0
-11 -1161 1162 0
-1162 1178 0
-12 -1162 1163 0
-1163 1179 0
-13 -1163 1164 0
-1164 1180 0
-14 -1164 1165 0
-1165 1181 0
-15 -1165 1166 0
-1166 1182 0
-16 -1166 1167 0
-1167 1183 0
-17 -1167 1168 0
-1168 1184 0
-18 -1168 1169 0
-1169 1185 0
-19 -1169 1170 0
-1170 1186 0
-20 -1170 1171 0
-1171 1187 0
-21 -1171 1172 0
-1172 1188 0
-22 -1172 0
-7 1173 0
-1173 1189 0
-8 -1173 1174 0
-1174 1190 0
-9 -1174 1175 0
-1175 1191 0
-10 -1175 1176 0
-1176 1192 0
-11 -1176 1177 0
-1177 1193 0
-12 -1177 1178 0
-1178 1194 0
-13 -1178 1179 0
-1179 1195 0
-14 -1179 1180 0
-1180 1196 0
-15 -1180 1181 0
-1181 1197 0
-16 -1181 1182 0
-1182 1198 0
-17 -1182 1183 0
-1183 1199 0
-18 -1183 1184 0
-1184 1200 0
-19 -1184 1185 0
-1185 1201 0
-20 -1185 1186 0
-1186 1202 0
-21 -1186 1187 0
-1187 1203 0
-22 -1187 1188 0
-1188 1204 0
-23 -1188 0
-8 1189 0
-1189 1205 0
-9 -1189 1190 0
-1190 1206 0
-10 -1190 1191 0
-1191 1207 0
-11 -1191 1192 0
-1192 1208 0
-12 -1192 1193 0
-1193 1209 0
-13 -1193 1194 0
-1194 1210 0
-14 -1194 1195 0
-1195 1211 0
-15 -1195 1196 0
-1196 1212 0
-16 -1196 1197 0
-1197 1213 0
-17 -1197 1198 0
-1198 1214 0
-18 -1198 1199 0
-1199 1215 0
-19 -1199 1200 0
-1200 1216 0
-20 -1200 1201 0
-1201 1217 0
-21 -1201 1202 0
-1202 1218 0
-22 -1202 1203 0
-1203 1219 0
-23 -1203 1204 0
-1204 1220 0
-24 -1204 0
-9 1205 0
-1205 1221 0
-10 -1205 1206 0
-1206 1222 0
-11 -1206 1207 0
-1207 1223 0
-12 -1207 1208 0
-1208 1224 0
-13 -1208 1209 0
-1209 1225 0
-14 -1209 1210 0
-1210 1226 0
-15 -1210 1211 0
-1211 1227 0
-16 -1211 1212 0
-1212 1228 0
-17 -1212 1213 0
-1213 1229 0
-18 -1213 1214 0
-1214 1230 0
-19 -1214 1215 0
-1215 1231 0
-20 -1215 1216 0
-1216 1232 0
-21 -1216 1217 0
-1217 1233 0
-22 -1217 1218 0
-1218 1234 0
-23 -1218 1219 0
-1219 1235 0
-24 -1219 1220 0
-1220 1236 0
-25 -1220 0
-10 1221 0
-1221 1237 0
-11 -1221 1222 0
-1222 1238 0
-12 -1222 1223 0
-1223 1239 0
-13 -1223 1224 0
-1224 1240 0
-14 -1224 1225 0
-1225 1241 0
-15 -1225 1226 0
-1226 1242 0
-16 -1226 1227 0
-1227 1243 0
-17 -1227 1228 0
-1228 1244 0
-18 -1228 1229 0
-1229 1245 0
-19 -1229 1230 0
-1230 1246 0
-20 -1230 1231 0
-1231 1247 0
-21 -1231 1232 0
-1232 1248 0
-22 -1232 1233 0
-1233 1249 0
-23 -1233 1234 0
-1234 1250 0
-24 -1234 1235 0
-1235 1251 0
-25 -1235 1236 0
-1236 1252 0
-26 -1236 0
-11 1237 0
-1237 1253 0
-12 -1237 1238 0
-1238 1254 0
-13 -1238 1239 0
-1239 1255 0
-14 -1239 1240 0
-1240 1256 0
-15 -1240 1241 0
-1241 1257 0
-16 -1241 1242 0
-1242 1258 0
-17 -1242 1243 0
-1243 1259 0
-18 -1243 1244 0
-1244 1260 0
-19 -1244 1245 0
-1245 1261 0
-20 -1245 1246 0
-1246 1262 0
-21 -1246 1247 0
-1247 1263 0
-22 -1247 1248 0
-1248 1264 0
-23 -1248 1249 0
-1249 1265 0
-24 -1249 1250 0
-1250 1266 0
-25 -1250 1251 0
-1251 1267 0
-26 -1251 1252 0
-1252 1268 0
-27 -1252 0
-12 1253 0
-1253 1269 0
-13 -1253 1254 0
-1254 1270 0
-14 -1254 1255 0
-1255 1271 0
-15 -1255 1256 0
-1256 1272 0
-16 -1256 1257 0
-1257 1273 0
-17 -1257 1258 0
-1258 1274 0
-18 -1258 1259 0
-1259 1275 0
-19 -1259 1260 0
-1260 1276 0
-20 -1260 1261 0
-1261 1277 0
-21 -1261 1262 0
-1262 1278 0
-22 -1262 1263 0
-1263 1279 0
-23 -1263 1264 0
-1264 1280 0
-24 -1264 1265 0
-1265 1281 0
-25 -1265 1266 0
-1266 1282 0
-26 -1266 1267 0
-1267 1283 0
-27 -1267 1268 0
-1268 1284 0
-28 -1268 0
-13 1269 0
-1269 1285 0
-14 -1269 1270 0
-1270 1286 0
-15 -1270 1271 0
-1271 1287 0
-16 -1271 1272 0
-1272 1288 0
-17 -1272 1273 0
-1273 1289 0
-18 -1273 1274 0
-1274 1290 0
-19 -1274 1275 0
-1275 1291 0
-20 -1275 1276 0
-1276 1292 0
-21 -1276 1277 0
-1277 1293 0
-22 -1277 1278 0
-1278 1294 0
-23 -1278 1279 0
-1279 1295 0
-24 -1279 1280 0
-1280 1296 0
-25 -1280 1281 0
-1281 1297 0
-26 -1281 1282 0
-1282 1298 0
-27 -1282 1283 0
-1283 1299 0
-28 -1283 1284 0
-1284 1300 0
-29 -1284 0
-14 1285 0
-1285 1301 0
-15 -1285 1286 0
-1286 1302 0
-16 -1286 1287 0
-1287 1303 0
-17 -1287 1288 0
-1288 1304 0
-18 -1288 1289 0
-1289 1305 0
-19 -1289 1290 0
-1290 1306 0
-20 -1290 1291 0
-1291 1307 0
-21 -1291 1292 0
-1292 1308 0
-22 -1292 1293 0
-1293 1309 0
-23 -1293 1294 0
-1294 1310 0
-24 -1294 1295 0
-1295 1311 0
-25 -1295 1296 0
-1296 1312 0
-26 -1296 1297 0
-1297 1313 0
-27 -1297 1298 0
-1298 1314 0
-28 -1298 1299 0
-1299 1315 0
-29 -1299 1300 0
-1300 1316 0
-30 -1300 0
-15 1301 0
-1301 1317 0
-16 -1301 1302 0
-1302 1318 0
-17 -1302 1303 0
-1303 1319 0
-18 -1303 1304 0
-1304 1320 0
-19 -1304 1305 0
-1305 1321 0
-20 -1305 1306 0
-1306 1322 0
-21 -1306 1307 0
-1307 1323 0
-22 -1307 1308 0
-1308 1324 0
-23 -1308 1309 0
-1309 1325 0
-24 -1309 1310 0
-1310 1326 0
-25 -1310 1311 0
-1311 1327 0
-26 -1311 1312 0
-1312 1328 0
-27 -1312 1313 0
-1313 1329 0
-28 -1313 1314 0
-1314 1330 0
-29 -1314 1315 0
-1315 1331 0
-30 -1315 1316 0
-1316 1332 0
-31 -1316 0
-16 1317 0
-1317 1333 0
-17 -1317 1318 0
-1318 1334 0
-18 -1318 1319 0
-1319 1335 0
-19 -1319 1320 0
-1320 1336 0
-20 -1320 1321 0
-1321 1337 0
-21 -1321 1322 0
-1322 1338 0
-22 -1322 1323 0
-1323 1339 0
-23 -1323 1324 0
-1324 1340 0
-24 -1324 1325 0
-1325 1341 0
-25 -1325 1326 0
-1326 1342 0
-26 -1326 1327 0
-1327 1343 0
-27 -1327 1328 0
-1328 1344 0
-28 -1328 1329 0
-1329 1345 0
-29 -1329 1330 0
-1330 1346 0
-30 -1330 1331 0
-1331 1347 0
-31 -1331 1332 0
-1332 1348 0
-32 -1332 0
-17 1333 0
-1333 1349 0
-18 -1333 1334 0
-1334 1350 0
-19 -1334 1335 0
-1335 1351 0
-20 -1335 1336 0
-1336 1352 0
-21 -1336 1337 0
-1337 1353 0
-22 -1337 1338 0
-1338 1354 0
-23 -1338 1339 0
-1339 1355 0
-24 -1339 1340 0
-1340 1356 0
-25 -1340 1341 0
-1341 1357 0
-26 -1341 1342 0
-1342 1358 0
-27 -1342 1343 0
-1343 1359 0
-28 -1343 1344 0
-1344 1360 0
-29 -1344 1345 0
-1345 1361 0
-30 -1345 1346 0
-1346 1362 0
-31 -1346 1347 0
-1347 1363 0
-32 -1347 1348 0
-1348 1364 0
-33 -1348 0
-18 1349 0
-1349 1365 0
-19 -1349 1350 0
-1350 1366 0
-20 -1350 1351 0
-1351 1367 0
-21 -1351 1352 0
-1352 1368 0
-22 -1352 1353 0
-1353 1369 0
-23 -1353 1354 0
-1354 1370 0
-24 -1354 1355 0
-1355 1371 0
-25 -1355 1356 0
-1356 1372 0
-26 -1356 1357 0
-1357 1373 0
-27 -1357 1358 0
-1358 1374 0
-28 -1358 1359 0
-1359 1375 0
-29 -1359 1360 0
-1360 1376 0
-30 -1360 1361 0
-1361 1377 0
-31 -1361 1362 0
-1362 1378 0
-32 -1362 1363 0
-1363 1379 0
-33 -1363 1364 0
-1364 1380 0
-34 -1364 0
-19 1365 0
-1365 1381 0
-20 -1365 1366 0
-1366 1382 0
-21 -1366 1367 0
-1367 1383 0
-22 -1367 1368 0
-1368 1384 0
-23 -1368 1369 0
-1369 1385 0
-24 -1369 1370 0
-1370 1386 0
-25 -1370 1371 0
-1371 1387 0
-26 -1371 1372 0
-1372 1388 0
-27 -1372 1373 0
-1373 1389 0
-28 -1373 1374 0
-1374 1390 0
-29 -1374 1375 0
-1375 1391 0
-30 -1375 1376 0
-1376 1392 0
-31 -1376 1377 0
-1377 1393 0
-32 -1377 1378 0
-1378 1394 0
-33 -1378 1379 0
-1379 1395 0
-34 -1379 1380 0
-1380 1396 0
-35 -1380 0
-20 1381 0
-1381 1397 0
-21 -1381 1382 0
-1382 1398 0
-22 -1382 1383 0
-1383 1399 0
-23 -1383 1384 0
-1384 1400 0
-24 -1384 1385 0
-1385 1401 0
-25 -1385 1386 0
-1386 1402 0
-26 -1386 1387 0
-1387 1403 0
-27 -1387 1388 0
-1388 1404 0
-28 -1388 1389 0
-1389 1405 0
-29 -1389 1390 0
-1390 1406 0
-30 -1390 1391 0
-1391 1407 0
-31 -1391 1392 0
-1392 1408 0
-32 -1392 1393 0
-1393 1409 0
-33 -1393 1394 0
-1394 1410 0
-34 -1394 1395 0
-1395 1411 0
-35 -1395 1396 0
-1396 1412 0
-36 -1396 0
-21 1397 0
-1397 1413 0
-22 -1397 1398 0
-1398 1414 0
-23 -1398 1399 0
-1399 1415 0
-24 -1399 1400 0
-1400 1416 0
-25 -1400 1401 0
-1401 1417 0
-26 -1401 1402 0
-1402 1418 0
-27 -1402 1403 0
-1403 1419 0
-28 -1403 1404 0
-1404 1420 0
-29 -1404 1405 0
-1405 1421 0
-30 -1405 1406 0
-1406 1422 0
-31 -1406 1407 0
-1407 1423 0
-32 -1407 1408 0
-1408 1424 0
-33 -1408 1409 0
-1409 1425 0
-34 -1409 1410 0
-1410 1426 0
-35 -1410 1411 0
-1411 1427 0
-36 -1411 1412 0
-1412 1428 0
-37 -1412 0
-22 1413 0
-1413 1429 0
-23 -1413 1414 0
-1414 1430 0
-24 -1414 1415 0
-1415 1431 0
-25 -1415 1416 0
-1416 1432 0
-26 -1416 1417 0
-1417 1433 0
-27 -1417 1418 0
-1418 1434 0
-28 -1418 1419 0
-1419 1435 0
-29 -1419 1420 0
-1420 1436 0
-30 -1420 1421 0
-1421 1437 0
-31 -1421 1422 0
-1422 1438 0
-32 -1422 1423 0
-1423 1439 0
-33 -1423 1424 0
-1424 1440 0
-34 -1424 1425 0
-1425 1441 0
-35 -1425 1426 0
-1426 1442 0
-36 -1426 1427 0
-1427 1443 0
-37 -1427 1428 0
-1428 1444 0
-38 -1428 0
-23 1429 0
-1429 1445 0
-24 -1429 1430 0
-1430 1446 0
-25 -1430 1431 0
-1431 1447 0
-26 -1431 1432 0
-1432 1448 0
-27 -1432 1433 0
-1433 1449 0
-28 -1433 1434 0
-1434 1450 0
-29 -1434 1435 0
-1435 1451 0
-30 -1435 1436 0
-1436 1452 0
-31 -1436 1437 0
-1437 1453 0
-32 -1437 1438 0
-1438 1454 0
-33 -1438 1439 0
-1439 1455 0
-34 -1439 1440 0
-1440 1456 0
-35 -1440 1441 0
-1441 1457 0
-36 -1441 1442 0
-1442 1458 0
-37 -1442 1443 0
-1443 1459 0
-38 -1443 1444 0
-1444 1460 0
-39 -1444 0
-24 1445 0
-1445 1461 0
-25 -1445 1446 0
-1446 1462 0
-26 -1446 1447 0
-1447 1463 0
-27 -1447 1448 0
-1448 1464 0
-28 -1448 1449 0
-1449 1465 0
-29 -1449 1450 0
-1450 1466 0
-30 -1450 1451 0
-1451 1467 0
-31 -1451 1452 0
-1452 1468 0
-32 -1452 1453 0
-1453 1469 0
-33 -1453 1454 0
-1454 1470 0
-34 -1454 1455 0
-1455 1471 0
-35 -1455 1456 0
-1456 1472 0
-36 -1456 1457 0
-1457 1473 0
-37 -1457 1458 0
-1458 1474 0
-38 -1458 1459 0
-1459 1475 0
-39 -1459 1460 0
-1460 1476 0
-40 -1460 0
-25 1461 0
-1461 1477 0
-26 -1461 1462 0
-1462 1478 0
-27 -1462 1463 0
-1463 1479 0
-28 -1463 1464 0
-1464 1480 0
-29 -1464 1465 0
-1465 1481 0
-30 -1465 1466 0
-1466 1482 0
-31 -1466 1467 0
-1467 1483 0
-32 -1467 1468 0
-1468 1484 0
-33 -1468 1469 0
-1469 1485 0
-34 -1469 1470 0
-1470 1486 0
-35 -1470 1471 0
-1471 1487 0
-36 -1471 1472 0
-1472 1488 0
-37 -1472 1473 0
-1473 1489 0
-38 -1473 1474 0
-1474 1490 0
-39 -1474 1475 0
-1475 1491 0
-40 -1475 1476 0
-1476 1492 0
-41 -1476 0
-26 1477 0
-1477 1493 0
-27 -1477 1478 0
-1478 1494 0
-28 -1478 1479 0
-1479 1495 0
-29 -1479 1480 0
-1480 1496 0
-30 -1480 1481 0
-1481 1497 0
-31 -1481 1482 0
-1482 1498 0
-32 -1482 1483 0
-1483 1499 0
-33 -1483 1484 0
-1484 1500 0
-34 -1484 1485 0
-1485 1501 0
-35 -1485 1486 0
-1486 1502 0
-36 -1486 1487 0
-1487 1503 0
-37 -1487 1488 0
-1488 1504 0
-38 -1488 1489 0
-1489 1505 0
-39 -1489 1490 0
-1490 1506 0
-40 -1490 1491 0
-1491 1507 0
-41 -1491 1492 0
-1492 1508 0
-42 -1492 0
-27 1493 0
-1493 1509 0
-28 -1493 1494 0
-1494 1510 0
-29 -1494 1495 0
-1495 1511 0
-30 -1495 1496 0
-1496 1512 0
-31 -1496 1497 0
-1497 1513 0
-32 -1497 1498 0
-1498 1514 0
-33 -1498 1499 0
-1499 1515 0
-34 -1499 1500 0
-1500 1516 0
-35 -1500 1501 0
-1501 1517 0
-36 -1501 1502 0
-1502 1518 0
-37 -1502 1503 0
-1503 1519 0
-38 -1503 1504 0
-1504 1520 0
-39 -1504 1505 0
-1505 1521 0
-40 -1505 1506 0
-1506 1522 0
-41 -1506 1507 0
-1507 1523 0
-42 -1507 1508 0
-1508 1524 0
-43 -1508 0
-28 1509 0
-1509 1525 0
-29 -1509 1510 0
-1510 1526 0
-30 -1510 1511 0
-1511 1527 0
-31 -1511 1512 0
-1512 1528 0
-32 -1512 1513 0
-1513 1529 0
-33 -1513 1514 0
-1514 1530 0
-34 -1514 1515 0
-1515 1531 0
-35 -1515 1516 0
-1516 1532 0
-36 -1516 1517 0
-1517 1533 0
-37 -1517 1518 0
-1518 1534 0
-38 -1518 1519 0
-1519 1535 0
-39 -1519 1520 0
-1520 1536 0
-40 -1520 1521 0
-1521 1537 0
-41 -1521 1522 0
-1522 1538 0
-42 -1522 1523 0
-1523 1539 0
-43 -1523 1524 0
-1524 1540 0
-44 -1524 0
-29 1525 0
-1525 1541 0
-30 -1525 1526 0
-1526 1542 0
-31 -1526 1527 0
-1527 1543 0
-32 -1527 1528 0
-1528 1544 0
-33 -1528 1529 0
-1529 1545 0
-34 -1529 1530 0
-1530 1546 0
-35 -1530 1531 0
-1531 1547 0
-36 -1531 1532 0
-1532 1548 0
-37 -1532 1533 0
-1533 1549 0
-38 -1533 1534 0
-1534 1550 0
-39 -1534 1535 0
-1535 1551 0
-40 -1535 1536 0
-1536 1552 0
-41 -1536 1537 0
-1537 1553 0
-42 -1537 1538 0
-1538 1554 0
-43 -1538 1539 0
-1539 1555 0
-44 -1539 1540 0
-1540 1556 0
-45 -1540 0
-30 1541 0
-1541 1557 0
-31 -1541 1542 0
-1542 1558 0
-32 -1542 1543 0
-1543 1559 0
-33 -1543 1544 0
-1544 1560 0
-34 -1544 1545 0
-1545 1561 0
-35 -1545 1546 0
-1546 1562 0
-36 -1546 1547 0
-1547 1563 0
-37 -1547 1548 0
-1548 1564 0
-38 -1548 1549 0
-1549 1565 0
-39 -1549 1550 0
-1550 1566 0
-40 -1550 1551 0
-1551 1567 0
-41 -1551 1552 0
-1552 1568 0
-42 -1552 1553 0
-1553 1569 0
-43 -1553 1554 0
-1554 1570 0
-44 -1554 1555 0
-1555 1571 0
-45 -1555 1556 0
-1556 1572 0
-46 -1556 0
-31 1557 0
-1557 1573 0
-32 -1557 1558 0
-1558 1574 0
-33 -1558 1559 0
-1559 1575 0
-34 -1559 1560 0
-1560 1576 0
-35 -1560 1561 0
-1561 1577 0
-36 -1561 1562 0
-1562 1578 0
-37 -1562 1563 0
-1563 1579 0
-38 -1563 1564 0
-1564 1580 0
-39 -1564 1565 0
-1565 1581 0
-40 -1565 1566 0
-1566 1582 0
-41 -1566 1567 0
-1567 1583 0
-42 -1567 1568 0
-1568 1584 0
-43 -1568 1569 0
-1569 1585 0
-44 -1569 1570 0
-1570 1586 0
-45 -1570 1571 0
-1571 1587 0
-46 -1571 1572 0
-1572 1588 0
-47 -1572 0
-32 1573 0
-1573 1589 0
-33 -1573 1574 0
-1574 1590 0
-34 -1574 1575 0
-1575 1591 0
-35 -1575 1576 0
-1576 1592 0
-36 -1576 1577 0
-1577 1593 0
-37 -1577 1578 0
-1578 1594 0
-38 -1578 1579 0
-1579 1595 0
-39 -1579 1580 0
-1580 1596 0
-40 -1580 1581 0
-1581 1597 0
-41 -1581 1582 0
-1582 1598 0
-42 -1582 1583 0
-1583 1599 0
-43 -1583 1584 0
-1584 1600 0
-44 -1584 1585 0
-1585 1601 0
-45 -1585 1586 0
-1586 1602 0
-46 -1586 1587 0
-1587 1603 0
-47 -1587 1588 0
-1588 1604 0
-48 -1588 0
-33 1589 0
-1589 1605 0
-34 -1589 1590 0
-1590 1606 0
-35 -1590 1591 0
-1591 1607 0
-36 -1591 1592 0
-1592 1608 0
-37 -1592 1593 0
-1593 1609 0
-38 -1593 1594 0
-1594 1610 0
-39 -1594 1595 0
-1595 1611 0
-40 -1595 1596 0
-1596 1612 0
-41 -1596 1597 0
-1597 1613 0
-42 -1597 1598 0
-1598 1614 0
-43 -1598 1599 0
-1599 1615 0
-44 -1599 1600 0
-1600 1616 0
-45 -1600 1601 0
-1601 1617 0
-46 -1601 1602 0
-1602 1618 0
-47 -1602 1603 0
-1603 1619 0
-48 -1603 1604 0
-1604 1620 0
-49 -1604 0
-34 1605 0
-1605 1621 0
-35 -1605 1606 0
-1606 1622 0
-36 -1606 1607 0
-1607 1623 0
-37 -1607 1608 0
-1608 1624 0
-38 -1608 1609 0
-1609 1625 0
-39 -1609 1610 0
-1610 1626 0
-40 -1610 1611 0
-1611 1627 0
-41 -1611 1612 0
-1612 1628 0
-42 -1612 1613 0
-1613 1629 0
-43 -1613 1614 0
-1614 1630 0
-44 -1614 1615 0
-1615 1631 0
-45 -1615 1616 0
-1616 1632 0
-46 -1616 1617 0
-1617 1633 0
-47 -1617 1618 0
-1618 1634 0
-48 -1618 1619 0
-1619 1635 0
-49 -1619 1620 0
-1620 1636 0
-50 -1620 0
-35 1621 0
-1621 1637 0
-36 -1621 1622 0
-1622 1638 0
-37 -1622 1623 0
-1623 1639 0
-38 -1623 1624 0
-1624 1640 0
-39 -1624 1625 0
-1625 1641 0
-40 -1625 1626 0
-1626 1642 0
-41 -1626 1627 0
-1627 1643 0
-42 -1627 1628 0
-1628 1644 0
-43 -1628 1629 0
-1629 1645 0
-44 -1629 1630 0
-1630 1646 0
-45 -1630 1631 0
-1631 1647 0
-46 -1631 1632 0
-1632 1648 0
-47 -1632 1633 0
-1633 1649 0
-48 -1633 1634 0
-1634 1650 0
-49 -1634 1635 0
-1635 1651 0
-50 -1635 1636 0
-1636 1652 0
-51 -1636 0
-36 1637 0
-1637 1653 0
-37 -1637 1638 0
-1638 1654 0
-38 -1638 1639 0
-1639 1655 0
-39 -1639 1640 0
-1640 1656 0
-40 -1640 1641 0
-1641 1657 0
-41 -1641 1642 0
-1642 1658 0
-42 -1642 1643 0
-1643 1659 0
-43 -1643 1644 0
-1644 1660 0
-44 -1644 1645 0
-1645 1661 0
-45 -1645 1646 0
-1646 1662 0
-46 -1646 1647 0
-1647 1663 0
-47 -1647 1648 0
-1648 1664 0
-48 -1648 1649 0
-1649 1665 0
-49 -1649 1650 0
-1650 1666 0
-50 -1650 1651 0
-1651 1667 0
-51 -1651 1652 0
-1652 1668 0
-52 -1652 0
-37 1653 0
-1653 1669 0
-38 -1653 1654 0
-1654 1670 0
-39 -1654 1655 0
-1655 1671 0
-40 -1655 1656 0
-1656 1672 0
-41 -1656 1657 0
-1657 1673 0
-42 -1657 1658 0
-1658 1674 0
-43 -1658 1659 0
-1659 1675 0
-44 -1659 1660 0
-1660 1676 0
-45 -1660 1661 0
-1661 1677 0
-46 -1661 1662 0
-1662 1678 0
-47 -1662 1663 0
-1663 1679 0
-48 -1663 1664 0
-1664 1680 0
-49 -1664 1665 0
-1665 1681 0
-50 -1665 1666 0
-1666 1682 0
-51 -1666 1667 0
-1667 1683 0
-52 -1667 1668 0
-1668 1684 0
-53 -1668 0
-38 1669 0
-1669 1685 0
-39 -1669 1670 0
-1670 1686 0
-40 -1670 1671 0
-1671 1687 0
-41 -1671 1672 0
-1672 1688 0
-42 -1672 1673 0
-1673 1689 0
-43 -1673 1674 0
-1674 1690 0
-44 -1674 1675 0
-1675 1691 0
-45 -1675 1676 0
-1676 1692 0
-46 -1676 1677 0
-1677 1693 0
-47 -1677 1678 0
-1678 1694 0
-48 -1678 1679 0
-1679 1695 0
-49 -1679 1680 0
-1680 1696 0
-50 -1680 1681 0
-1681 1697 0
-51 -1681 1682 0
-1682 1698 0
-52 -1682 1683 0
-1683 1699 0
-53 -1683 1684 0
-1684 1700 0
-54 -1684 0
-39 1685 0
-1685 1701 0
-40 -1685 1686 0
-1686 1702 0
-41 -1686 1687 0
-1687 1703 0
-42 -1687 1688 0
-1688 1704 0
-43 -1688 1689 0
-1689 1705 0
-44 -1689 1690 0
-1690 1706 0
-45 -1690 1691 0
-1691 1707 0
-46 -1691 1692 0
-1692 1708 0
-47 -1692 1693 0
-1693 1709 0
-48 -1693 1694 0
-1694 1710 0
-49 -1694 1695 0
-1695 1711 0
-50 -1695 1696 0
-1696 1712 0
-51 -1696 1697 0
-1697 1713 0
-52 -1697 1698 0
-1698 1714 0
-53 -1698 1699 0
-1699 1715 0
-54 -1699 1700 0
-1700 1716 0
-55 -1700 0
-40 1701 0
-1701 1717 0
-41 -1701 1702 0
-1702 1718 0
-42 -1702 1703 0
-1703 1719 0
-43 -1703 1704 0
-1704 1720 0
-44 -1704 1705 0
-1705 1721 0
-45 -1705 1706 0
-1706 1722 0
-46 -1706 1707 0
-1707 1723 0
-47 -1707 1708 0
-1708 1724 0
-48 -1708 1709 0
-1709 1725 0
-49 -1709 1710 0
-1710 1726 0
-50 -1710 1711 0
-1711 1727 0
-51 -1711 1712 0
-1712 1728 0
-52 -1712 1713 0
-1713 1729 0
-53 -1713 1714 0
-1714 1730 0
-54 -1714 1715 0
-1715 1731 0
-55 -1715 1716 0
-1716 1732 0
-56 -1716 0
-41 1717 0
-1717 1733 0
-42 -1717 1718 0
-1718 1734 0
-43 -1718 1719 0
-1719 1735 0
-44 -1719 1720 0
-1720 1736 0
-45 -1720 1721 0
-1721 1737 0
-46 -1721 1722 0
-1722 1738 0
-47 -1722 1723 0
-1723 1739 0
-48 -1723 1724 0
-1724 1740 0
-49 -1724 1725 0
-1725 1741 0
-50 -1725 1726 0
-1726 1742 0
-51 -1726 1727 0
-1727 1743 0
-52 -1727 1728 0
-1728 1744 0
-53 -1728 1729 0
-1729 1745 0
-54 -1729 1730 0
-1730 1746 0
-55 -1730 1731 0
-1731 1747 0
-56 -1731 1732 0
-1732 1748 0
-57 -1732 0
-42 1733 0
-1733 1749 0
-43 -1733 1734 0
-1734 1750 0
-44 -1734 1735 0
-1735 1751 0
-45 -1735 1736 0
-1736 1752 0
-46 -1736 1737 0
-1737 1753 0
-47 -1737 1738 0
-1738 1754 0
-48 -1738 1739 0
-1739 1755 0
-49 -1739 1740 0
-1740 1756 0
-50 -1740 1741 0
-1741 1757 0
-51 -1741 1742 0
-1742 1758 0
-52 -1742 1743 0
-1743 1759 0
-53 -1743 1744 0
-1744 1760 0
-54 -1744 1745 0
-1745 1761 0
-55 -1745 1746 0
-1746 1762 0
-56 -1746 1747 0
-1747 1763 0
-57 -1747 1748 0
-1748 1764 0
-58 -1748 0
-43 1749 0
-1749 1765 0
-44 -1749 1750 0
-1750 1766 0
-45 -1750 1751 0
-1751 1767 0
-46 -1751 1752 0
-1752 1768 0
-47 -1752 1753 0
-1753 1769 0
-48 -1753 1754 0
-1754 1770 0
-49 -1754 1755 0
-1755 1771 0
-50 -1755 1756 0
-1756 1772 0
-51 -1756 1757 0
-1757 1773 0
-52 -1757 1758 0
-1758 1774 0
-53 -1758 1759 0
-1759 1775 0
-54 -1759 1760 0
-1760 1776 0
-55 -1760 1761 0
-1761 1777 0
-56 -1761 1762 0
-1762 1778 0
-57 -1762 1763 0
-1763 1779 0
-58 -1763 1764 0
-1764 1780 0
-59 -1764 0
-44 1765 0
-1765 1781 0
-45 -1765 1766 0
-1766 1782 0
-46 -1766 1767 0
-1767 1783 0
-47 -1767 1768 0
-1768 1784 0
-48 -1768 1769 0
-1769 1785 0
-49 -1769 1770 0
-1770 1786 0
-50 -1770 1771 0
-1771 1787 0
-51 -1771 1772 0
-1772 1788 0
-52 -1772 1773 0
-1773 1789 0
-53 -1773 1774 0
-1774 1790 0
-54 -1774 1775 0
-1775 1791 0
-55 -1775 1776 0
-1776 1792 0
-56 -1776 1777 0
-1777 1793 0
-57 -1777 1778 0
-1778 1794 0
-58 -1778 1779 0
-1779 1795 0
-59 -1779 1780 0
-1780 1796 0
-60 -1780 0
-45 1781 0
-1781 1797 0
-46 -1781 1782 0
-1782 1798 0
-47 -1782 1783 0
-1783 1799 0
-48 -1783 1784 0
-1784 1800 0
-49 -1784 1785 0
-1785 1801 0
-50 -1785 1786 0
-1786 1802 0
-51 -1786 1787 0
-1787 1803 0
-52 -1787 1788 0
-1788 1804 0
-53 -1788 1789 0
-1789 1805 0
-54 -1789 1790 0
-1790 1806 0
-55 -1790 1791 0
-1791 1807 0
-56 -1791 1792 0
-1792 1808 0
-57 -1792 1793 0
-1793 1809 0
-58 -1793 1794 0
-1794 1810 0
-59 -1794 1795 0
-1795 1811 0
-60 -1795 1796 0
-1796 1812 0
-61 -1796 0
-46 1797 0
-1797 1813 0
-47 -1797 1798 0
-1798 1814 0
-48 -1798 1799 0
-1799 1815 0
-49 -1799 1800 0
-1800 1816 0
-50 -1800 1801 0
-1801 1817 0
-51 -1801 1802 0
-1802 1818 0
-52 -1802 1803 0
-1803 1819 0
-53 -1803 1804 0
-1804 1820 0
-54 -1804 1805 0
-1805 1821 0
-55 -1805 1806 0
-1806 1822 0
-56 -1806 1807 0
-1807 1823 0
-57 -1807 1808 0
-1808 1824 0
-58 -1808 1809 0
-1809 1825 0
-59 -1809 1810 0
-1810 1826 0
-60 -1810 1811 0
-1811 1827 0
-61 -1811 1812 0
-1812 1828 0
-62 -1812 0
-47 1813 0
-1813 1829 0
-48 -1813 1814 0
-1814 1830 0
-49 -1814 1815 0
-1815 1831 0
-50 -1815 1816 0
-1816 1832 0
-51 -1816 1817 0
-1817 1833 0
-52 -1817 1818 0
-1818 1834 0
-53 -1818 1819 0
-1819 1835 0
-54 -1819 1820 0
-1820 1836 0
-55 -1820 1821 0
-1821 1837 0
-56 -1821 1822 0
-1822 1838 0
-57 -1822 1823 0
-1823 1839 0
-58 -1823 1824 0
-1824 1840 0
-59 -1824 1825 0
-1825 1841 0
-60 -1825 1826 0
-1826 1842 0
-61 -1826 1827 0
-1827 1843 0
-62 -1827 1828 0
-1828 1844 0
-63 -1828 0
-48 1829 0
-1829 1845 0
-49 -1829 1830 0
-1830 1846 0
-50 -1830 1831 0
-1831 1847 0
-51 -1831 1832 0
-1832 1848 0
-52 -1832 1833 0
-1833 1849 0
-53 -1833 1834 0
-1834 1850 0
-54 -1834 1835 0
-1835 1851 0
-55 -1835 1836 0
-1836 1852 0
-56 -1836 1837 0
-1837 1853 0
-57 -1837 1838 0
-1838 1854 0
-58 -1838 1839 0
-1839 1855 0
-59 -1839 1840 0
-1840 1856 0
-60 -1840 1841 0
-1841 1857 0
-61 -1841 1842 0
-1842 1858 0
-62 -1842 1843 0
-1843 1859 0
-63 -1843 1844 0
-1844 1860 0
-64 -1844 0
-49 1845 0
-1845 1861 0
-50 -1845 1846 0
-1846 1862 0
-51 -1846 1847 0
-1847 1863 0
-52 -1847 1848 0
-1848 1864 0
-53 -1848 1849 0
-1849 1865 0
-54 -1849 1850 0
-1850 1866 0
-55 -1850 1851 0
-1851 1867 0
-56 -1851 1852 0
-1852 1868 0
-57 -1852 1853 0
-1853 1869 0
-58 -1853 1854 0
-1854 1870 0
-59 -1854 1855 0
-1855 1871 0
-60 -1855 1856 0
-1856 1872 0
-61 -1856 1857 0
-1857 1873 0
-62 -1857 1858 0
-1858 1874 0
-63 -1858 1859 0
-1859 1875 0
-64 -1859 1860 0
-1860 1876 0
-65 -1860 0
-50 1861 0
-1861 1877 0
-51 -1861 1862 0
-1862 1878 0
-52 -1862 1863 0
-1863 1879 0
-53 -1863 1864 0
-1864 1880 0
-54 -1864 1865 0
-1865 1881 0
-55 -1865 1866 0
-1866 1882 0
-56 -1866 1867 0
-1867 1883 0
-57 -1867 1868 0
-1868 1884 0
-58 -1868 1869 0
-1869 1885 0
-59 -1869 1870 0
-1870 1886 0
-60 -1870 1871 0
-1871 1887 0
-61 -1871 1872 0
-1872 1888 0
-62 -1872 1873 0
-1873 1889 0
-63 -1873 1874 0
-1874 1890 0
-64 -1874 1875 0
-1875 1891 0
-65 -1875 1876 0
-1876 1892 0
-66 -1876 0
-51 1877 0
-1877 1893 0
-52 -1877 1878 0
-1878 1894 0
-53 -1878 1879 0
-1879 1895 0
-54 -1879 1880 0
-1880 1896 0
-55 -1880 1881 0
-1881 1897 0
-56 -1881 1882 0
-1882 1898 0
-57 -1882 1883 0
-1883 1899 0
-58 -1883 1884 0
-1884 1900 0
-59 -1884 1885 0
-1885 1901 0
-60 -1885 1886 0
-1886 1902 0
-61 -1886 1887 0
-1887 1903 0
-62 -1887 1888 0
-1888 1904 0
-63 -1888 1889 0
-1889 1905 0
-64 -1889 1890 0
-1890 1906 0
-65 -1890 1891 0
-1891 1907 0
-66 -1891 1892 0
-1892 1908 0
-67 -1892 0
-52 1893 0
-1893 1909 0
-53 -1893 1894 0
-1894 1910 0
-54 -1894 1895 0
-1895 1911 0
-55 -1895 1896 0
-1896 1912 0
-56 -1896 1897 0
-1897 1913 0
-57 -1897 1898 0
-1898 1914 0
-58 -1898 1899 0
-1899 1915 0
-59 -1899 1900 0
-1900 1916 0
-60 -1900 1901 0
-1901 1917 0
-61 -1901 1902 0
-1902 1918 0
-62 -1902 1903 0
-1903 1919 0
-63 -1903 1904 0
-1904 1920 0
-64 -1904 1905 0
-1905 1921 0
-65 -1905 1906 0
-1906 1922 0
-66 -1906 1907 0
-1907 1923 0
-67 -1907 1908 0
-1908 1924 0
-68 -1908 0
-53 1909 0
-1909 1925 0
-54 -1909 1910 0
-1910 1926 0
-55 -1910 1911 0
-1911 1927 0
-56 -1911 1912 0
-1912 1928 0
-57 -1912 1913 0
-1913 1929 0
-58 -1913 1914 0
-1914 1930 0
-59 -1914 1915 0
-1915 1931 0
-60 -1915 1916 0
-1916 1932 0
-61 -1916 1917 0
-1917 1933 0
-62 -1917 1918 0
-1918 1934 0
-63 -1918 1919 0
-1919 1935 0
-64 -1919 1920 0
-1920 1936 0
-65 -1920 1921 0
-1921 1937 0
-66 -1921 1922 0
-1922 1938 0
-67 -1922 1923 0
-1923 1939 0
-68 -1923 1924 0
-1924 1940 0
-69 -1924 0
-54 1925 0
-1925 1941 0
-55 -1925 1926 0
-1926 1942 0
-56 -1926 1927 0
-1927 1943 0
-57 -1927 1928 0
-1928 1944 0
-58 -1928 1929 0
-1929 1945 0
-59 -1929 1930 0
-1930 1946 0
-60 -1930 1931 0
-1931 1947 0
-61 -1931 1932 0
-1932 1948 0
-62 -1932 1933 0
-1933 1949 0
-63 -1933 1934 0
-1934 1950 0
-64 -1934 1935 0
-1935 1951 0
-65 -1935 1936 0
-1936 1952 0
-66 -1936 1937 0
-1937 1953 0
-67 -1937 1938 0
-1938 1954 0
-68 -1938 1939 0
-1939 1955 0
-69 -1939 1940 0
-1940 1956 0
-70 -1940 0
-55 1941 0
-1941 1957 0
-56 -1941 1942 0
-1942 1958 0
-57 -1942 1943 0
-1943 1959 0
-58 -1943 1944 0
-1944 1960 0
-59 -1944 1945 0
-1945 1961 0
-60 -1945 1946 0
-1946 1962 0
-61 -1946 1947 0
-1947 1963 0
-62 -1947 1948 0
-1948 1964 0
-63 -1948 1949 0
-1949 1965 0
-64 -1949 1950 0
-1950 1966 0
-65 -1950 1951 0
-1951 1967 0
-66 -1951 1952 0
-1952 1968 0
-67 -1952 1953 0
-1953 1969 0
-68 -1953 1954 0
-1954 1970 0
-69 -1954 1955 0
-1955 1971 0
-70 -1955 1956 0
-1956 1972 0
-71 -1956 0
-56 1957 0
-1957 1973 0
-57 -1957 1958 0
-1958 1974 0
-58 -1958 1959 0
-1959 1975 0
-59 -1959 1960 0
-1960 1976 0
-60 -1960 1961 0
-1961 1977 0
-61 -1961 1962 0
-1962 1978 0
-62 -1962 1963 0
-1963 1979 0
-63 -1963 1964 0
-1964 1980 0
-64 -1964 1965 0
-1965 1981 0
-65 -1965 1966 0
-1966 1982 0
-66 -1966 1967 0
-1967 1983 0
-67 -1967 1968 0
-1968 1984 0
-68 -1968 1969 0
-1969 1985 0
-69 -1969 1970 0
-1970 1986 0
-70 -1970 1971 0
-1971 1987 0
-71 -1971 1972 0
-1972 1988 0
-72 -1972 0
-57 1973 0
-1973 1989 0
-58 -1973 1974 0
-1974 1990 0
-59 -1974 1975 0
-1975 1991 0
-60 -1975 1976 0
-1976 1992 0
-61 -1976 1977 0
-1977 1993 0
-62 -1977 1978 0
-1978 1994 0
-63 -1978 1979 0
-1979 1995 0
-64 -1979 1980 0
-1980 1996 0
-65 -1980 1981 0
-1981 1997 0
-66 -1981 1982 0
-1982 1998 0
-67 -1982 1983 0
-1983 1999 0
-68 -1983 1984 0
-1984 2000 0
-69 -1984 1985 0
-1985 2001 0
-70 -1985 1986 0
-1986 2002 0
-71 -1986 1987 0
-1987 2003 0
-72 -1987 1988 0
-1988 2004 0
-73 -1988 0
-58 1989 0
-59 -1989 1990 0
-60 -1990 1991 0
-61 -1991 1992 0
-62 -1992 1993 0
-63 -1993 1994 0
-64 -1994 1995 0
-65 -1995 1996 0
-66 -1996 1997 0
-67 -1997 1998 0
-68 -1998 1999 0
-69 -1999 2000 0
-70 -2000 2001 0
-71 -2001 2002 0
-72 -2002 2003 0
-73 -2003 2004 0
-74 -2004 0
-75 2005 0
-2005 2006 0
-76 -2005 2007 0
-2007 2008 0
-77 -2007 2009 0
-2009 2010 0
-78 -2009 2011 0
-2011 2012 0
-79 -2011 2013 0
-2013 2014 0
-80 -2013 2015 0
-2015 2016 0
-81 -2015 2017 0
-2017 2018 0
-82 -2017 2019 0
-2019 2020 0
-83 -2019 2021 0
-2021 2022 0
-84 -2021 0
-76 2006 0
-2006 2023 0
-77 -2006 2008 0
-2008 2024 0
-78 -2008 2010 0
-2010 2025 0
-79 -2010 2012 0
-2012 2026 0
-80 -2012 2014 0
-2014 2027 0
-81 -2014 2016 0
-2016 2028 0
-82 -2016 2018 0
-2018 2029 0
-83 -2018 2020 0
-2020 2030 0
-84 -2020 2022 0
-2022 2031 0
-85 -2022 0
-77 2023 0
-2023 2032 0
-78 -2023 2024 0
-2024 2033 0
-79 -2024 2025 0
-2025 2034 0
-80 -2025 2026 0
-2026 2035 0
-81 -2026 2027 0
-2027 2036 0
-82 -2027 2028 0
-2028 2037 0
-83 -2028 2029 0
-2029 2038 0
-84 -2029 2030 0
-2030 2039 0
-85 -2030 2031 0
-2031 2040 0
-86 -2031 0
-78 2032 0
-2032 2041 0
-79 -2032 2033 0
-2033 2042 0
-80 -2033 2034 0
-2034 2043 0
-81 -2034 2035 0
-2035 2044 0
-82 -2035 2036 0
-2036 2045 0
-83 -2036 2037 0
-2037 2046 0
-84 -2037 2038 0
-2038 2047 0
-85 -2038 2039 0
-2039 2048 0
-86 -2039 2040 0
-2040 2049 0
-87 -2040 0
-79 2041 0
-2041 2050 0
-80 -2041 2042 0
-2042 2051 0
-81 -2042 2043 0
-2043 2052 0
-82 -2043 2044 0
-2044 2053 0
-83 -2044 2045 0
-2045 2054 0
-84 -2045 2046 0
-2046 2055 0
-85 -2046 2047 0
-2047 2056 0
-86 -2047 2048 0
-2048 2057 0
-87 -2048 2049 0
-2049 2058 0
-88 -2049 0
-80 2050 0
-2050 2059 0
-81 -2050 2051 0
-2051 2060 0
-82 -2051 2052 0
-2052 2061 0
-83 -2052 2053 0
-2053 2062 0
-84 -2053 2054 0
-2054 2063 0
-85 -2054 2055 0
-2055 2064 0
-86 -2055 2056 0
-2056 2065 0
-87 -2056 2057 0
-2057 2066 0
-88 -2057 2058 0
-2058 2067 0
-89 -2058 0
-81 2059 0
-2059 2068 0
-82 -2059 2060 0
-2060 2069 0
-83 -2060 2061 0
-2061 2070 0
-84 -2061 2062 0
-2062 2071 0
-85 -2062 2063 0
-2063 2072 0
-86 -2063 2064 0
-2064 2073 0
-87 -2064 2065 0
-2065 2074 0
-88 -2065 2066 0
-2066 2075 0
-89 -2066 2067 0
-2067 2076 0
-90 -2067 0
-82 2068 0
-2068 2077 0
-83 -2068 2069 0
-2069 2078 0
-84 -2069 2070 0
-2070 2079 0
-85 -2070 2071 0
-2071 2080 0
-86 -2071 2072 0
-2072 2081 0
-87 -2072 2073 0
-2073 2082 0
-88 -2073 2074 0
-2074 2083 0
-89 -2074 2075 0
-2075 2084 0
-90 -2075 2076 0
-2076 2085 0
-91 -2076 0
-83 2077 0
-2077 2086 0
-84 -2077 2078 0
-2078 2087 0
-85 -2078 2079 0
-2079 2088 0
-86 -2079 2080 0
-2080 2089 0
-87 -2080 2081 0
-2081 2090 0
-88 -2081 2082 0
-2082 2091 0
-89 -2082 2083 0
-2083 2092 0
-90 -2083 2084 0
-2084 2093 0
-91 -2084 2085 0
-2085 2094 0
-92 -2085 0
-84 2086 0
-2086 2095 0
-85 -2086 2087 0
-2087 2096 0
-86 -2087 2088 0
-2088 2097 0
-87 -2088 2089 0
-2089 2098 0
-88 -2089 2090 0
-2090 2099 0
-89 -2090 2091 0
-2091 2100 0
-90 -2091 2092 0
-2092 2101 0
-91 -2092 2093 0
-2093 2102 0
-92 -2093 2094 0
-2094 2103 0
-93 -2094 0
-85 2095 0
-2095 2104 0
-86 -2095 2096 0
-2096 2105 0
-87 -2096 2097 0
-2097 2106 0
-88 -2097 2098 0
-2098 2107 0
-89 -2098 2099 0
-2099 2108 0
-90 -2099 2100 0
-2100 2109 0
-91 -2100 2101 0
-2101 2110 0
-92 -2101 2102 0
-2102 2111 0
-93 -2102 2103 0
-2103 2112 0
-94 -2103 0
-86 2104 0
-2104 2113 0
-87 -2104 2105 0
-2105 2114 0
-88 -2105 2106 0
-2106 2115 0
-89 -2106 2107 0
-2107 2116 0
-90 -2107 2108 0
-2108 2117 0
-91 -2108 2109 0
-2109 2118 0
-92 -2109 2110 0
-2110 2119 0
-93 -2110 2111 0
-2111 2120 0
-94 -2111 2112 0
-2112 2121 0
-95 -2112 0
-87 2113 0
-2113 2122 0
-88 -2113 2114 0
-2114 2123 0
-89 -2114 2115 0
-2115 2124 0
-90 -2115 2116 0
-2116 2125 0
-91 -2116 2117 0
-2117 2126 0
-92 -2117 2118 0
-2118 2127 0
-93 -2118 2119 0
-2119 2128 0
-94 -2119 2120 0
-2120 2129 0
-95 -2120 2121 0
-2121 2130 0
-96 -2121 0
-88 2122 0
-2122 2131 0
-89 -2122 2123 0
-2123 2132 0
-90 -2123 2124 0
-2124 2133 0
-91 -2124 2125 0
-2125 2134 0
-92 -2125 2126 0
-2126 2135 0
-93 -2126 2127 0
-2127 2136 0
-94 -2127 2128 0
-2128 2137 0
-95 -2128 2129 0
-2129 2138 0
-96 -2129 2130 0
-2130 2139 0
-97 -2130 0
-89 2131 0
-2131 2140 0
-90 -2131 2132 0
-2132 2141 0
-91 -2132 2133 0
-2133 2142 0
-92 -2133 2134 0
-2134 2143 0
-93 -2134 2135 0
-2135 2144 0
-94 -2135 2136 0
-2136 2145 0
-95 -2136 2137 0
-2137 2146 0
-96 -2137 2138 0
-2138 2147 0
-97 -2138 2139 0
-2139 2148 0
-98 -2139 0
-90 2140 0
-2140 2149 0
-91 -2140 2141 0
-2141 2150 0
-92 -2141 2142 0
-2142 2151 0
-93 -2142 2143 0
-2143 2152 0
-94 -2143 2144 0
-2144 2153 0
-95 -2144 2145 0
-2145 2154 0
-96 -2145 2146 0
-2146 2155 0
-97 -2146 2147 0
-2147 2156 0
-98 -2147 2148 0
-2148 2157 0
-99 -2148 0
-91 2149 0
-2149 2158 0
-92 -2149 2150 0
-2150 2159 0
-93 -2150 2151 0
-2151 2160 0
-94 -2151 2152 0
-2152 2161 0
-95 -2152 2153 0
-2153 2162 0
-96 -2153 2154 0
-2154 2163 0
-97 -2154 2155 0
-2155 2164 0
-98 -2155 2156 0
-2156 2165 0
-99 -2156 2157 0
-2157 2166 0
-100 -2157 0
-92 2158 0
-2158 2167 0
-93 -2158 2159 0
-2159 2168 0
-94 -2159 2160 0
-2160 2169 0
-95 -2160 2161 0
-2161 2170 0
-96 -2161 2162 0
-2162 2171 0
-97 -2162 2163 0
-2163 2172 0
-98 -2163 2164 0
-2164 2173 0
-99 -2164 2165 0
-2165 2174 0
-100 -2165 2166 0
-2166 2175 0
-101 -2166 0
-93 2167 0
-2167 2176 0
-94 -2167 2168 0
-2168 2177 0
-95 -2168 2169 0
-2169 2178 0
-96 -2169 2170 0
-2170 2179 0
-97 -2170 2171 0
-2171 2180 0
-98 -2171 2172 0
-2172 2181 0
-99 -2172 2173 0
-2173 2182 0
-100 -2173 2174 0
-2174 2183 0
-101 -2174 2175 0
-2175 2184 0
-102 -2175 0
-94 2176 0
-2176 2185 0
-95 -2176 2177 0
-2177 2186 0
-96 -2177 2178 0
-2178 2187 0
-97 -2178 2179 0
-2179 2188 0
-98 -2179 2180 0
-2180 2189 0
-99 -2180 2181 0
-2181 2190 0
-100 -2181 2182 0
-2182 2191 0
-101 -2182 2183 0
-2183 2192 0
-102 -2183 2184 0
-2184 2193 0
-103 -2184 0
-95 2185 0
-2185 2194 0
-96 -2185 2186 0
-2186 2195 0
-97 -2186 2187 0
-2187 2196 0
-98 -2187 2188 0
-2188 2197 0
-99 -2188 2189 0
-2189 2198 0
-100 -2189 2190 0
-2190 2199 0
-101 -2190 2191 0
-2191 2200 0
-102 -2191 2192 0
-2192 2201 0
-103 -2192 2193 0
-2193 2202 0
-104 -2193 0
-96 2194 0
-2194 2203 0
-97 -2194 2195 0
-2195 2204 0
-98 -2195 2196 0
-2196 2205 0
-99 -2196 2197 0
-2197 2206 0
-100 -2197 2198 0
-2198 2207 0
-101 -2198 2199 0
-2199 2208 0
-102 -2199 2200 0
-2200 2209 0
-103 -2200 2201 0
-2201 2210 0
-104 -2201 2202 0
-2202 2211 0
-105 -2202 0
-97 2203 0
-2203 2212 0
-98 -2203 2204 0
-2204 2213 0
-99 -2204 2205 0
-2205 2214 0
-100 -2205 2206 0
-2206 2215 0
-101 -2206 2207 0
-2207 2216 0
-102 -2207 2208 0
-2208 2217 0
-103 -2208 2209 0
-2209 2218 0
-104 -2209 2210 0
-2210 2219 0
-105 -2210 2211 0
-2211 2220 0
-106 -2211 0
-98 2212 0
-2212 2221 0
-99 -2212 2213 0
-2213 2222 0
-100 -2213 2214 0
-2214 2223 0
-101 -2214 2215 0
-2215 2224 0
-102 -2215 2216 0
-2216 2225 0
-103 -2216 2217 0
-2217 2226 0
-104 -2217 2218 0
-2218 2227 0
-105 -2218 2219 0
-2219 2228 0
-106 -2219 2220 0
-2220 2229 0
-107 -2220 0
-99 2221 0
-2221 2230 0
-100 -2221 2222 0
-2222 2231 0
-101 -2222 2223 0
-2223 2232 0
-102 -2223 2224 0
-2224 2233 0
-103 -2224 2225 0
-2225 2234 0
-104 -2225 2226 0
-2226 2235 0
-105 -2226 2227 0
-2227 2236 0
-106 -2227 2228 0
-2228 2237 0
-107 -2228 2229 0
-2229 2238 0
-108 -2229 0
-100 2230 0
-2230 2239 0
-101 -2230 2231 0
-2231 2240 0
-102 -2231 2232 0
-2232 2241 0
-103 -2232 2233 0
-2233 2242 0
-104 -2233 2234 0
-2234 2243 0
-105 -2234 2235 0
-2235 2244 0
-106 -2235 2236 0
-2236 2245 0
-107 -2236 2237 0
-2237 2246 0
-108 -2237 2238 0
-2238 2247 0
-109 -2238 0
-101 2239 0
-2239 2248 0
-102 -2239 2240 0
-2240 2249 0
-103 -2240 2241 0
-2241 2250 0
-104 -2241 2242 0
-2242 2251 0
-105 -2242 2243 0
-2243 2252 0
-106 -2243 2244 0
-2244 2253 0
-107 -2244 2245 0
-2245 2254 0
-108 -2245 2246 0
-2246 2255 0
-109 -2246 2247 0
-2247 2256 0
-110 -2247 0
-102 2248 0
-2248 2257 0
-103 -2248 2249 0
-2249 2258 0
-104 -2249 2250 0
-2250 2259 0
-105 -2250 2251 0
-2251 2260 0
-106 -2251 2252 0
-2252 2261 0
-107 -2252 2253 0
-2253 2262 0
-108 -2253 2254 0
-2254 2263 0
-109 -2254 2255 0
-2255 2264 0
-110 -2255 2256 0
-2256 2265 0
-111 -2256 0
-103 2257 0
-2257 2266 0
-104 -2257 2258 0
-2258 2267 0
-105 -2258 2259 0
-2259 2268 0
-106 -2259 2260 0
-2260 2269 0
-107 -2260 2261 0
-2261 2270 0
-108 -2261 2262 0
-2262 2271 0
-109 -2262 2263 0
-2263 2272 0
-110 -2263 2264 0
-2264 2273 0
-111 -2264 2265 0
-2265 2274 0
-112 -2265 0
-104 2266 0
-2266 2275 0
-105 -2266 2267 0
-2267 2276 0
-106 -2267 2268 0
-2268 2277 0
-107 -2268 2269 0
-2269 2278 0
-108 -2269 2270 0
-2270 2279 0
-109 -2270 2271 0
-2271 2280 0
-110 -2271 2272 0
-2272 2281 0
-111 -2272 2273 0
-2273 2282 0
-112 -2273 2274 0
-2274 2283 0
-113 -2274 0
-105 2275 0
-2275 2284 0
-106 -2275 2276 0
-2276 2285 0
-107 -2276 2277 0
-2277 2286 0
-108 -2277 2278 0
-2278 2287 0
-109 -2278 2279 0
-2279 2288 0
-110 -2279 2280 0
-2280 2289 0
-111 -2280 2281 0
-2281 2290 0
-112 -2281 2282 0
-2282 2291 0
-113 -2282 2283 0
-2283 2292 0
-114 -2283 0
-106 2284 0
-2284 2293 0
-107 -2284 2285 0
-2285 2294 0
-108 -2285 2286 0
-2286 2295 0
-109 -2286 2287 0
-2287 2296 0
-110 -2287 2288 0
-2288 2297 0
-111 -2288 2289 0
-2289 2298 0
-112 -2289 2290 0
-2290 2299 0
-113 -2290 2291 0
-2291 2300 0
-114 -2291 2292 0
-2292 2301 0
-115 -2292 0
-107 2293 0
-2293 2302 0
-108 -2293 2294 0
-2294 2303 0
-109 -2294 2295 0
-2295 2304 0
-110 -2295 2296 0
-2296 2305 0
-111 -2296 2297 0
-2297 2306 0
-112 -2297 2298 0
-2298 2307 0
-113 -2298 2299 0
-2299 2308 0
-114 -2299 2300 0
-2300 2309 0
-115 -2300 2301 0
-2301 2310 0
-116 -2301 0
-108 2302 0
-2302 2311 0
-109 -2302 2303 0
-2303 2312 0
-110 -2303 2304 0
-2304 2313 0
-111 -2304 2305 0
-2305 2314 0
-112 -2305 2306 0
-2306 2315 0
-113 -2306 2307 0
-2307 2316 0
-114 -2307 2308 0
-2308 2317 0
-115 -2308 2309 0
-2309 2318 0
-116 -2309 2310 0
-2310 2319 0
-117 -2310 0
-109 2311 0
-2311 2320 0
-110 -2311 2312 0
-2312 2321 0
-111 -2312 2313 0
-2313 2322 0
-112 -2313 2314 0
-2314 2323 0
-113 -2314 2315 0
-2315 2324 0
-114 -2315 2316 0
-2316 2325 0
-115 -2316 2317 0
-2317 2326 0
-116 -2317 2318 0
-2318 2327 0
-117 -2318 2319 0
-2319 2328 0
-118 -2319 0
-110 2320 0
-2320 2329 0
-111 -2320 2321 0
-2321 2330 0
-112 -2321 2322 0
-2322 2331 0
-113 -2322 2323 0
-2323 2332 0
-114 -2323 2324 0
-2324 2333 0
-115 -2324 2325 0
-2325 2334 0
-116 -2325 2326 0
-2326 2335 0
-117 -2326 2327 0
-2327 2336 0
-118 -2327 2328 0
-2328 2337 0
-119 -2328 0
-111 2329 0
-2329 2338 0
-112 -2329 2330 0
-2330 2339 0
-113 -2330 2331 0
-2331 2340 0
-114 -2331 2332 0
-2332 2341 0
-115 -2332 2333 0
-2333 2342 0
-116 -2333 2334 0
-2334 2343 0
-117 -2334 2335 0
-2335 2344 0
-118 -2335 2336 0
-2336 2345 0
-119 -2336 2337 0
-2337 2346 0
-120 -2337 0
-112 2338 0
-2338 2347 0
-113 -2338 2339 0
-2339 2348 0
-114 -2339 2340 0
-2340 2349 0
-115 -2340 2341 0
-2341 2350 0
-116 -2341 2342 0
-2342 2351 0
-117 -2342 2343 0
-2343 2352 0
-118 -2343 2344 0
-2344 2353 0
-119 -2344 2345 0
-2345 2354 0
-120 -2345 2346 0
-2346 2355 0
-121 -2346 0
-113 2347 0
-2347 2356 0
-114 -2347 2348 0
-2348 2357 0
-115 -2348 2349 0
-2349 2358 0
-116 -2349 2350 0
-2350 2359 0
-117 -2350 2351 0
-2351 2360 0
-118 -2351 2352 0
-2352 2361 0
-119 -2352 2353 0
-2353 2362 0
-120 -2353 2354 0
-2354 2363 0
-121 -2354 2355 0
-2355 2364 0
-122 -2355 0
-114 2356 0
-2356 2365 0
-115 -2356 2357 0
-2357 2366 0
-116 -2357 2358 0
-2358 2367 0
-117 -2358 2359 0
-2359 2368 0
-118 -2359 2360 0
-2360 2369 0
-119 -2360 2361 0
-2361 2370 0
-120 -2361 2362 0
-2362 2371 0
-121 -2362 2363 0
-2363 2372 0
-122 -2363 2364 0
-2364 2373 0
-123 -2364 0
-115 2365 0
-2365 2374 0
-116 -2365 2366 0
-2366 2375 0
-117 -2366 2367 0
-2367 2376 0
-118 -2367 2368 0
-2368 2377 0
-119 -2368 2369 0
-2369 2378 0
-120 -2369 2370 0
-2370 2379 0
-121 -2370 2371 0
-2371 2380 0
-122 -2371 2372 0
-2372 2381 0
-123 -2372 2373 0
-2373 2382 0
-124 -2373 0
-116 2374 0
-2374 2383 0
-117 -2374 2375 0
-2375 2384 0
-118 -2375 2376 0
-2376 2385 0
-119 -2376 2377 0
-2377 2386 0
-120 -2377 2378 0
-2378 2387 0
-121 -2378 2379 0
-2379 2388 0
-122 -2379 2380 0
-2380 2389 0
-123 -2380 2381 0
-2381 2390 0
-124 -2381 2382 0
-2382 2391 0
-125 -2382 0
-117 2383 0
-2383 2392 0
-118 -2383 2384 0
-2384 2393 0
-119 -2384 2385 0
-2385 2394 0
-120 -2385 2386 0
-2386 2395 0
-121 -2386 2387 0
-2387 2396 0
-122 -2387 2388 0
-2388 2397 0
-123 -2388 2389 0
-2389 2398 0
-124 -2389 2390 0
-2390 2399 0
-125 -2390 2391 0
-2391 2400 0
-126 -2391 0
-118 2392 0
-2392 2401 0
-119 -2392 2393 0
-2393 2402 0
-120 -2393 2394 0
-2394 2403 0
-121 -2394 2395 0
-2395 2404 0
-122 -2395 2396 0
-2396 2405 0
-123 -2396 2397 0
-2397 2406 0
-124 -2397 2398 0
-2398 2407 0
-125 -2398 2399 0
-2399 2408 0
-126 -2399 2400 0
-2400 2409 0
-127 -2400 0
-119 2401 0
-2401 2410 0
-120 -2401 2402 0
-2402 2411 0
-121 -2402 2403 0
-2403 2412 0
-122 -2403 2404 0
-2404 2413 0
-123 -2404 2405 0
-2405 2414 0
-124 -2405 2406 0
-2406 2415 0
-125 -2406 2407 0
-2407 2416 0
-126 -2407 2408 0
-2408 2417 0
-127 -2408 2409 0
-2409 2418 0
-128 -2409 0
-120 2410 0
-2410 2419 0
-121 -2410 2411 0
-2411 2420 0
-122 -2411 2412 0
-2412 2421 0
-123 -2412 2413 0
-2413 2422 0
-124 -2413 2414 0
-2414 2423 0
-125 -2414 2415 0
-2415 2424 0
-126 -2415 2416 0
-2416 2425 0
-127 -2416 2417 0
-2417 2426 0
-128 -2417 2418 0
-2418 2427 0
-129 -2418 0
-121 2419 0
-2419 2428 0
-122 -2419 2420 0
-2420 2429 0
-123 -2420 2421 0
-2421 2430 0
-124 -2421 2422 0
-2422 2431 0
-125 -2422 2423 0
-2423 2432 0
-126 -2423 2424 0
-2424 2433 0
-127 -2424 2425 0
-2425 2434 0
-128 -2425 2426 0
-2426 2435 0
-129 -2426 2427 0
-2427 2436 0
-130 -2427 0
-122 2428 0
-2428 2437 0
-123 -2428 2429 0
-2429 2438 0
-124 -2429 2430 0
-2430 2439 0
-125 -2430 2431 0
-2431 2440 0
-126 -2431 2432 0
-2432 2441 0
-127 -2432 2433 0
-2433 2442 0
-128 -2433 2434 0
-2434 2443 0
-129 -2434 2435 0
-2435 2444 0
-130 -2435 2436 0
-2436 2445 0
-131 -2436 0
-123 2437 0
-2437 2446 0
-124 -2437 2438 0
-2438 2447 0
-125 -2438 2439 0
-2439 2448 0
-126 -2439 2440 0
-2440 2449 0
-127 -2440 2441 0
-2441 2450 0
-128 -2441 2442 0
-2442 2451 0
-129 -2442 2443 0
-2443 2452 0
-130 -2443 2444 0
-2444 2453 0
-131 -2444 2445 0
-2445 2454 0
-132 -2445 0
-124 2446 0
-2446 2455 0
-125 -2446 2447 0
-2447 2456 0
-126 -2447 2448 0
-2448 2457 0
-127 -2448 2449 0
-2449 2458 0
-128 -2449 2450 0
-2450 2459 0
-129 -2450 2451 0
-2451 2460 0
-130 -2451 2452 0
-2452 2461 0
-131 -2452 2453 0
-2453 2462 0
-132 -2453 2454 0
-2454 2463 0
-133 -2454 0
-125 2455 0
-2455 2464 0
-126 -2455 2456 0
-2456 2465 0
-127 -2456 2457 0
-2457 2466 0
-128 -2457 2458 0
-2458 2467 0
-129 -2458 2459 0
-2459 2468 0
-130 -2459 2460 0
-2460 2469 0
-131 -2460 2461 0
-2461 2470 0
-132 -2461 2462 0
-2462 2471 0
-133 -2462 2463 0
-2463 2472 0
-134 -2463 0
-126 2464 0
-2464 2473 0
-127 -2464 2465 0
-2465 2474 0
-128 -2465 2466 0
-2466 2475 0
-129 -2466 2467 0
-2467 2476 0
-130 -2467 2468 0
-2468 2477 0
-131 -2468 2469 0
-2469 2478 0
-132 -2469 2470 0
-2470 2479 0
-133 -2470 2471 0
-2471 2480 0
-134 -2471 2472 0
-2472 2481 0
-135 -2472 0
-127 2473 0
-2473 2482 0
-128 -2473 2474 0
-2474 2483 0
-129 -2474 2475 0
-2475 2484 0
-130 -2475 2476 0
-2476 2485 0
-131 -2476 2477 0
-2477 2486 0
-132 -2477 2478 0
-2478 2487 0
-133 -2478 2479 0
-2479 2488 0
-134 -2479 2480 0
-2480 2489 0
-135 -2480 2481 0
-2481 2490 0
-136 -2481 0
-128 2482 0
-2482 2491 0
-129 -2482 2483 0
-2483 2492 0
-130 -2483 2484 0
-2484 2493 0
-131 -2484 2485 0
-2485 2494 0
-132 -2485 2486 0
-2486 2495 0
-133 -2486 2487 0
-2487 2496 0
-134 -2487 2488 0
-2488 2497 0
-135 -2488 2489 0
-2489 2498 0
-136 -2489 2490 0
-2490 2499 0
-137 -2490 0
-129 2491 0
-2491 2500 0
-130 -2491 2492 0
-2492 2501 0
-131 -2492 2493 0
-2493 2502 0
-132 -2493 2494 0
-2494 2503 0
-133 -2494 2495 0
-2495 2504 0
-134 -2495 2496 0
-2496 2505 0
-135 -2496 2497 0
-2497 2506 0
-136 -2497 2498 0
-2498 2507 0
-137 -2498 2499 0
-2499 2508 0
-138 -2499 0
-130 2500 0
-2500 2509 0
-131 -2500 2501 0
-2501 2510 0
-132 -2501 2502 0
-2502 2511 0
-133 -2502 2503 0
-2503 2512 0
-134 -2503 2504 0
-2504 2513 0
-135 -2504 2505 0
-2505 2514 0
-136 -2505 2506 0
-2506 2515 0
-137 -2506 2507 0
-2507 2516 0
-138 -2507 2508 0
-2508 2517 0
-139 -2508 0
-131 2509 0
-2509 2518 0
-132 -2509 2510 0
-2510 2519 0
-133 -2510 2511 0
-2511 2520 0
-134 -2511 2512 0
-2512 2521 0
-135 -2512 2513 0
-2513 2522 0
-136 -2513 2514 0
-2514 2523 0
-137 -2514 2515 0
-2515 2524 0
-138 -2515 2516 0
-2516 2525 0
-139 -2516 2517 0
-2517 2526 0
-140 -2517 0
-132 2518 0
-2518 2527 0
-133 -2518 2519 0
-2519 2528 0
-134 -2519 2520 0
-2520 2529 0
-135 -2520 2521 0
-2521 2530 0
-136 -2521 2522 0
-2522 2531 0
-137 -2522 2523 0
-2523 2532 0
-138 -2523 2524 0
-2524 2533 0
-139 -2524 2525 0
-2525 2534 0
-140 -2525 2526 0
-2526 2535 0
-141 -2526 0
-133 2527 0
-2527 2536 0
-134 -2527 2528 0
-2528 2537 0
-135 -2528 2529 0
-2529 2538 0
-136 -2529 2530 0
-2530 2539 0
-137 -2530 2531 0
-2531 2540 0
-138 -2531 2532 0
-2532 2541 0
-139 -2532 2533 0
-2533 2542 0
-140 -2533 2534 0
-2534 2543 0
-141 -2534 2535 0
-2535 2544 0
-142 -2535 0
-134 2536 0
-2536 2545 0
-135 -2536 2537 0
-2537 2546 0
-136 -2537 2538 0
-2538 2547 0
-137 -2538 2539 0
-2539 2548 0
-138 -2539 2540 0
-2540 2549 0
-139 -2540 2541 0
-2541 2550 0
-140 -2541 2542 0
-2542 2551 0
-141 -2542 2543 0
-2543 2552 0
-142 -2543 2544 0
-2544 2553 0
-143 -2544 0
-135 2545 0
-2545 2554 0
-136 -2545 2546 0
-2546 2555 0
-137 -2546 2547 0
-2547 2556 0
-138 -2547 2548 0
-2548 2557 0
-139 -2548 2549 0
-2549 2558 0
-140 -2549 2550 0
-2550 2559 0
-141 -2550 2551 0
-2551 2560 0
-142 -2551 2552 0
-2552 2561 0
-143 -2552 2553 0
-2553 2562 0
-144 -2553 0
-136 2554 0
-2554 2563 0
-137 -2554 2555 0
-2555 2564 0
-138 -2555 2556 0
-2556 2565 0
-139 -2556 2557 0
-2557 2566 0
-140 -2557 2558 0
-2558 2567 0
-141 -2558 2559 0
-2559 2568 0
-142 -2559 2560 0
-2560 2569 0
-143 -2560 2561 0
-2561 2570 0
-144 -2561 2562 0
-2562 2571 0
-145 -2562 0
-137 2563 0
-2563 2572 0
-138 -2563 2564 0
-2564 2573 0
-139 -2564 2565 0
-2565 2574 0
-140 -2565 2566 0
-2566 2575 0
-141 -2566 2567 0
-2567 2576 0
-142 -2567 2568 0
-2568 2577 0
-143 -2568 2569 0
-2569 2578 0
-144 -2569 2570 0
-2570 2579 0
-145 -2570 2571 0
-2571 2580 0
-146 -2571 0
-138 2572 0
-2572 2581 0
-139 -2572 2573 0
-2573 2582 0
-140 -2573 2574 0
-2574 2583 0
-141 -2574 2575 0
-2575 2584 0
-142 -2575 2576 0
-2576 2585 0
-143 -2576 2577 0
-2577 2586 0
-144 -2577 2578 0
-2578 2587 0
-145 -2578 2579 0
-2579 2588 0
-146 -2579 2580 0
-2580 2589 0
-147 -2580 0
-139 2581 0
-140 -2581 2582 0
-141 -2582 2583 0
-142 -2583 2584 0
-143 -2584 2585 0
-144 -2585 2586 0
-145 -2586 2587 0
-146 -2587 2588 0
-147 -2588 2589 0
-148 -2589 0
1 38 0
