p cnf 5169 10589
-135 -1 0
-135 2 67 68 0
-2 1 135 0
-67 1 135 0
-68 1 135 0
-136 -2 0
-136 1 3 69 0
-1 2 136 0
-3 2 136 0
-69 2 136 0
-137 -3 0
-137 2 4 70 0
-2 3 137 0
-4 3 137 0
-70 3 137 0
-138 -4 0
-138 3 5 71 0
-3 4 138 0
-5 4 138 0
-71 4 138 0
-139 -5 0
-139 4 6 72 0
-4 5 139 0
-6 5 139 0
-72 5 139 0
-140 -6 0
-140 5 7 73 0
-5 6 140 0
-7 6 140 0
-73 6 140 0
-141 -7 0
-141 6 8 74 0
-6 7 141 0
-8 7 141 0
-74 7 141 0
-142 -8 0
-142 7 9 75 0
-7 8 142 0
-9 8 142 0
-75 8 142 0
-143 -9 0
-143 8 10 76 0
-8 9 143 0
-10 9 143 0
-76 9 143 0
-144 -10 0
-144 9 11 77 0
-9 10 144 0
-11 10 144 0
-77 10 144 0
-145 -11 0
-145 10 12 78 0
-10 11 145 0
-12 11 145 0
-78 11 145 0
-146 -12 0
-146 11 13 79 0
-11 12 146 0
-13 12 146 0
-79 12 146 0
-147 -13 0
-147 12 14 80 0
-12 13 147 0
-14 13 147 0
-80 13 147 0
-148 -14 0
-148 13 15 81 0
-13 14 148 0
-15 14 148 0
-81 14 148 0
-149 -15 0
-149 14 16 82 0
-14 15 149 0
-16 15 149 0
-82 15 149 0
-150 -16 0
-150 15 17 83 0
-15 16 150 0
-17 16 150 0
-83 16 150 0
-151 -17 0
-151 16 18 84 0
-16 17 151 0
-18 17 151 0
-84 17 151 0
-152 -18 0
-152 17 19 85 0
-17 18 152 0
-19 18 152 0
-85 18 152 0
-153 -19 0
-153 18 20 86 0
-18 19 153 0
-20 19 153 0
-86 19 153 0
-154 -20 0
-154 19 21 87 0
-19 20 154 0
-21 20 154 0
-87 20 154 0
-155 -21 0
-155 20 22 88 0
-20 21 155 0
-22 21 155 0
-88 21 155 0
-156 -22 0
-156 21 23 89 0
-21 22 156 0
-23 22 156 0
-89 22 156 0
-157 -23 0
-157 22 24 90 0
-22 23 157 0
-24 23 157 0
-90 23 157 0
-158 -24 0
-158 23 25 91 0
-23 24 158 0
-25 24 158 0
-91 24 158 0
-159 -25 0
-159 24 26 92 0
-24 25 159 0
-26 25 159 0
-92 25 159 0
-160 -26 0
-160 25 27 93 0
-25 26 160 0
-27 26 160 0
-93 26 160 0
-161 -27 0
-161 26 28 94 0
-26 27 161 0
-28 27 161 0
-94 27 161 0
-162 -28 0
-162 27 29 95 0
-27 28 162 0
-29 28 162 0
-95 28 162 0
-163 -29 0
-163 28 30 96 0
-28 29 163 0
-30 29 163 0
-96 29 163 0
-164 -30 0
-164 29 31 97 0
-29 30 164 0
-31 30 164 0
-97 30 164 0
-165 -31 0
-165 30 32 98 0
-30 31 165 0
-32 31 165 0
-98 31 165 0
-166 -32 0
-166 31 33 99 0
-31 32 166 0
-33 32 166 0
-99 32 166 0
-167 -33 0
-167 32 34 100 0
-32 33 167 0
-34 33 167 0
-100 33 167 0
-168 -34 0
-168 33 35 101 0
-33 34 168 0
-35 34 168 0
-101 34 168 0
-169 -35 0
-169 34 36 102 0
-34 35 169 0
-36 35 169 0
-102 35 169 0
-170 -36 0
-170 35 37 103 0
-35 36 170 0
-37 36 170 0
-103 36 170 0
-171 -37 0
-171 36 38 104 0
-36 37 171 0
-38 37 171 0
-104 37 171 0
-172 -38 0
-172 37 39 105 0
-37 38 172 0
-39 38 172 0
-105 38 172 0
-173 -39 0
-173 38 40 106 0
-38 39 173 0
-40 39 173 0
-106 39 173 0
-174 -40 0
-174 39 41 107 0
-39 40 174 0
-41 40 174 0
-107 40 174 0
-175 -41 0
-175 40 42 108 0
-40 41 175 0
-42 41 175 0
-108 41 175 0
-176 -42 0
-176 41 43 109 0
-41 42 176 0
-43 42 176 0
-109 42 176 0
-177 -43 0
-177 42 44 110 0
-42 43 177 0
-44 43 177 0
-110 43 177 0
-178 -44 0
-178 43 45 111 0
-43 44 178 0
-45 44 178 0
-111 44 178 0
-179 -45 0
-179 44 46 112 0
-44 45 179 0
-46 45 179 0
-112 45 179 0
-180 -46 0
-180 45 47 113 0
-45 46 180 0
-47 46 180 0
-113 46 180 0
-181 -47 0
-181 46 48 114 0
-46 47 181 0
-48 47 181 0
-114 47 181 0
-182 -48 0
-182 47 49 115 0
-47 48 182 0
-49 48 182 0
-115 48 182 0
-183 -49 0
-183 48 50 116 0
-48 49 183 0
-50 49 183 0
-116 49 183 0
-184 -50 0
-184 49 51 117 0
-49 50 184 0
-51 50 184 0
-117 50 184 0
-185 -51 0
-185 50 52 118 0
-50 51 185 0
-52 51 185 0
-118 51 185 0
-186 -52 0
-186 51 53 119 0
-51 52 186 0
-53 52 186 0
-119 52 186 0
-187 -53 0
-187 52 54 120 0
-52 53 187 0
-54 53 187 0
-120 53 187 0
-188 -54 0
-188 53 55 121 0
-53 54 188 0
-55 54 188 0
-121 54 188 0
-189 -55 0
-189 54 56 122 0
-54 55 189 0
-56 55 189 0
-122 55 189 0
-190 -56 0
-190 55 57 123 0
-55 56 190 0
-57 56 190 0
-123 56 190 0
-191 -57 0
-191 56 58 124 0
-56 57 191 0
-58 57 191 0
-124 57 191 0
-192 -58 0
-192 57 59 125 0
-57 58 192 0
-59 58 192 0
-125 58 192 0
-193 -59 0
-193 58 60 126 0
-58 59 193 0
-60 59 193 0
-126 59 193 0
-194 -60 0
-194 59 61 127 0
-59 60 194 0
-61 60 194 0
-127 60 194 0
-195 -61 0
-195 60 62 128 0
-60 61 195 0
-62 61 195 0
-128 61 195 0
-196 -62 0
-196 61 63 129 0
-61 62 196 0
-63 62 196 0
-129 62 196 0
-197 -63 0
-197 62 64 130 0
-62 63 197 0
-64 63 197 0
-130 63 197 0
-198 -64 0
-198 63 65 131 0
-63 64 198 0
-65 64 198 0
-131 64 198 0
-199 -65 0
-199 64 66 132 0
-64 65 199 0
-66 65 199 0
-132 65 199 0
-200 -66 0
-200 65 67 133 0
-65 66 200 0
-67 66 200 0
-133 66 200 0
-201 -67 0
-201 1 66 134 0
-1 67 201 0
-66 67 201 0
-134 67 201 0
-202 -68 0
-202 1 72 131 0
-1 68 202 0
-72 68 202 0
-131 68 202 0
-203 -69 0
-203 2 73 132 0
-2 69 203 0
-73 69 203 0
-132 69 203 0
-204 -70 0
-204 3 74 133 0
-3 70 204 0
-74 70 204 0
-133 70 204 0
-205 -71 0
-205 4 75 134 0
-4 71 205 0
-75 71 205 0
-134 71 205 0
-206 -72 0
-206 5 68 76 0
-5 72 206 0
-68 72 206 0
-76 72 206 0
-207 -73 0
-207 6 69 77 0
-6 73 207 0
-69 73 207 0
-77 73 207 0
-208 -74 0
-208 7 70 78 0
-7 74 208 0
-70 74 208 0
-78 74 208 0
-209 -75 0
-209 8 71 79 0
-8 75 209 0
-71 75 209 0
-79 75 209 0
-210 -76 0
-210 9 72 80 0
-9 76 210 0
-72 76 210 0
-80 76 210 0
-211 -77 0
-211 10 73 81 0
-10 77 211 0
-73 77 211 0
-81 77 211 0
-212 -78 0
-212 11 74 82 0
-11 78 212 0
-74 78 212 0
-82 78 212 0
-213 -79 0
-213 12 75 83 0
-12 79 213 0
-75 79 213 0
-83 79 213 0
-214 -80 0
-214 13 76 84 0
-13 80 214 0
-76 80 214 0
-84 80 214 0
-215 -81 0
-215 14 77 85 0
-14 81 215 0
-77 81 215 0
-85 81 215 0
-216 -82 0
-216 15 78 86 0
-15 82 216 0
-78 82 216 0
-86 82 216 0
-217 -83 0
-217 16 79 87 0
-16 83 217 0
-79 83 217 0
-87 83 217 0
-218 -84 0
-218 17 80 88 0
-17 84 218 0
-80 84 218 0
-88 84 218 0
-219 -85 0
-219 18 81 89 0
-18 85 219 0
-81 85 219 0
-89 85 219 0
-220 -86 0
-220 19 82 90 0
-19 86 220 0
-82 86 220 0
-90 86 220 0
-221 -87 0
-221 20 83 91 0
-20 87 221 0
-83 87 221 0
-91 87 221 0
-222 -88 0
-222 21 84 92 0
-21 88 222 0
-84 88 222 0
-92 88 222 0
-223 -89 0
-223 22 85 93 0
-22 89 223 0
-85 89 223 0
-93 89 223 0
-224 -90 0
-224 23 86 94 0
-23 90 224 0
-86 90 224 0
-94 90 224 0
-225 -91 0
-225 24 87 95 0
-24 91 225 0
-87 91 225 0
-95 91 225 0
-226 -92 0
-226 25 88 96 0
-25 92 226 0
-88 92 226 0
-96 92 226 0
-227 -93 0
-227 26 89 97 0
-26 93 227 0
-89 93 227 0
-97 93 227 0
-228 -94 0
-228 27 90 98 0
-27 94 228 0
-90 94 228 0
-98 94 228 0
-229 -95 0
-229 28 91 99 0
-28 95 229 0
-91 95 229 0
-99 95 229 0
-230 -96 0
-230 29 92 100 0
-29 96 230 0
-92 96 230 0
-100 96 230 0
-231 -97 0
-231 30 93 101 0
-30 97 231 0
-93 97 231 0
-101 97 231 0
-232 -98 0
-232 31 94 102 0
-31 98 232 0
-94 98 232 0
-102 98 232 0
-233 -99 0
-233 32 95 103 0
-32 99 233 0
-95 99 233 0
-103 99 233 0
-234 -100 0
-234 33 96 104 0
-33 100 234 0
-96 100 234 0
-104 100 234 0
-235 -101 0
-235 34 97 105 0
-34 101 235 0
-97 101 235 0
-105 101 235 0
-236 -102 0
-236 35 98 106 0
-35 102 236 0
-98 102 236 0
-106 102 236 0
-237 -103 0
-237 36 99 107 0
-36 103 237 0
-99 103 237 0
-107 103 237 0
-238 -104 0
-238 37 100 108 0
-37 104 238 0
-100 104 238 0
-108 104 238 0
-239 -105 0
-239 38 101 109 0
-38 105 239 0
-101 105 239 0
-109 105 239 0
-240 -106 0
-240 39 102 110 0
-39 106 240 0
-102 106 240 0
-110 106 240 0
-241 -107 0
-241 40 103 111 0
-40 107 241 0
-103 107 241 0
-111 107 241 0
-242 -108 0
-242 41 104 112 0
-41 108 242 0
-104 108 242 0
-112 108 242 0
-243 -109 0
-243 42 105 113 0
-42 109 243 0
-105 109 243 0
-113 109 243 0
-244 -110 0
-244 43 106 114 0
-43 110 244 0
-106 110 244 0
-114 110 244 0
-245 -111 0
-245 44 107 115 0
-44 111 245 0
-107 111 245 0
-115 111 245 0
-246 -112 0
-246 45 108 116 0
-45 112 246 0
-108 112 246 0
-116 112 246 0
-247 -113 0
-247 46 109 117 0
-46 113 247 0
-109 113 247 0
-117 113 247 0
-248 -114 0
-248 47 110 118 0
-47 114 248 0
-110 114 248 0
-118 114 248 0
-249 -115 0
-249 48 111 119 0
-48 115 249 0
-111 115 249 0
-119 115 249 0
-250 -116 0
-250 49 112 120 0
-49 116 250 0
-112 116 250 0
-120 116 250 0
-251 -117 0
-251 50 113 121 0
-50 117 251 0
-113 117 251 0
-121 117 251 0
-252 -118 0
-252 51 114 122 0
-51 118 252 0
-114 118 252 0
-122 118 252 0
-253 -119 0
-253 52 115 123 0
-52 119 253 0
-115 119 253 0
-123 119 253 0
-254 -120 0
-254 53 116 124 0
-53 120 254 0
-116 120 254 0
-124 120 254 0
-255 -121 0
-255 54 117 125 0
-54 121 255 0
-117 121 255 0
-125 121 255 0
-256 -122 0
-256 55 118 126 0
-55 122 256 0
-118 122 256 0
-126 122 256 0
-257 -123 0
-257 56 119 127 0
-56 123 257 0
-119 123 257 0
-127 123 257 0
-258 -124 0
-258 57 120 128 0
-57 124 258 0
-120 124 258 0
-128 124 258 0
-259 -125 0
-259 58 121 129 0
-58 125 259 0
-121 125 259 0
-129 125 259 0
-260 -126 0
-260 59 122 130 0
-59 126 260 0
-122 126 260 0
-130 126 260 0
-261 -127 0
-261 60 123 131 0
-60 127 261 0
-123 127 261 0
-131 127 261 0
-262 -128 0
-262 61 124 132 0
-61 128 262 0
-124 128 262 0
-132 128 262 0
-263 -129 0
-263 62 125 133 0
-62 129 263 0
-125 129 263 0
-133 129 263 0
-264 -130 0
-264 63 126 134 0
-63 130 264 0
-126 130 264 0
-134 130 264 0
-265 -131 0
-265 64 68 127 0
-64 131 265 0
-68 131 265 0
-127 131 265 0
-266 -132 0
-266 65 69 128 0
-65 132 266 0
-69 132 266 0
-128 132 266 0
-267 -133 0
-267 66 70 129 0
-66 133 267 0
-70 133 267 0
-129 133 267 0
-268 -134 0
-268 67 71 130 0
-67 134 268 0
-71 134 268 0
-130 134 268 0
1 269 0
-269 270 0
2 -269 271 0
-271 272 0
3 -271 273 0
-273 274 0
4 -273 275 0
-275 276 0
5 -275 277 0
-277 278 0
6 -277 279 0
-279 280 0
7 -279 281 0
-281 282 0
8 -281 283 0
-283 284 0
9 -283 285 0
-285 286 0
10 -285 287 0
-287 288 0
11 -287 289 0
-289 290 0
12 -289 291 0
-291 292 0
13 -291 293 0
-293 294 0
14 -293 295 0
-295 296 0
15 -295 297 0
-297 298 0
16 -297 299 0
-299 300 0
17 -299 301 0
-301 302 0
18 -301 303 0
-303 304 0
19 -303 305 0
-305 306 0
20 -305 307 0
-307 308 0
21 -307 309 0
-309 310 0
22 -309 311 0
-311 312 0
23 -311 313 0
-313 314 0
24 -313 315 0
-315 316 0
25 -315 317 0
-317 318 0
26 -317 319 0
-319 320 0
27 -319 321 0
-321 322 0
28 -321 323 0
-323 324 0
29 -323 325 0
-325 326 0
30 -325 327 0
-327 328 0
31 -327 329 0
-329 330 0
32 -329 331 0
-331 332 0
33 -331 333 0
-333 334 0
34 -333 335 0
-335 336 0
35 -335 337 0
-337 338 0
36 -337 339 0
-339 340 0
37 -339 341 0
-341 342 0
38 -341 343 0
-343 344 0
39 -343 345 0
-345 346 0
40 -345 347 0
-347 348 0
41 -347 349 0
-349 350 0
42 -349 351 0
-351 352 0
43 -351 353 0
-353 354 0
44 -353 355 0
-355 356 0
45 -355 357 0
-357 358 0
46 -357 359 0
-359 360 0
47 -359 361 0
-361 362 0
48 -361 363 0
-363 364 0
49 -363 365 0
-365 366 0
50 -365 367 0
-367 368 0
51 -367 369 0
-369 370 0
52 -369 371 0
-371 372 0
53 -371 373 0
-373 374 0
54 -373 375 0
-375 376 0
55 -375 377 0
-377 378 0
56 -377 379 0
-379 380 0
57 -379 381 0
-381 382 0
58 -381 383 0
-383 384 0
59 -383 385 0
-385 386 0
60 -385 387 0
-387 388 0
61 -387 389 0
-389 390 0
62 -389 391 0
-391 392 0
63 -391 393 0
-393 394 0
64 -393 395 0
-395 396 0
65 -395 397 0
-397 398 0
66 -397 399 0
-399 400 0
67 -399 401 0
-401 402 0
68 -401 403 0
-403 404 0
69 -403 405 0
-405 406 0
70 -405 407 0
-407 408 0
71 -407 409 0
-409 410 0
72 -409 411 0
-411 412 0
73 -411 413 0
-413 414 0
74 -413 415 0
-415 416 0
75 -415 417 0
-417 418 0
76 -417 419 0
-419 420 0
77 -419 421 0
-421 422 0
78 -421 423 0
-423 424 0
79 -423 425 0
-425 426 0
80 -425 427 0
-427 428 0
81 -427 429 0
-429 430 0
82 -429 431 0
-431 432 0
83 -431 433 0
-433 434 0
84 -433 435 0
-435 436 0
85 -435 437 0
-437 438 0
86 -437 439 0
-439 440 0
87 -439 441 0
-441 442 0
88 -441 443 0
-443 444 0
89 -443 445 0
-445 446 0
90 -445 447 0
-447 448 0
91 -447 449 0
-449 450 0
92 -449 451 0
-451 452 0
93 -451 453 0
-453 454 0
94 -453 455 0
-455 456 0
95 -455 457 0
-457 458 0
96 -457 459 0
-459 460 0
97 -459 461 0
-461 462 0
98 -461 463 0
-463 464 0
99 -463 465 0
-465 466 0
100 -465 467 0
-467 468 0
101 -467 469 0
-469 470 0
102 -469 471 0
-471 472 0
103 -471 473 0
-473 474 0
104 -473 475 0
-475 476 0
105 -475 477 0
-477 478 0
106 -477 479 0
-479 480 0
107 -479 481 0
-481 482 0
108 -481 483 0
-483 484 0
109 -483 485 0
-485 486 0
110 -485 487 0
-487 488 0
111 -487 489 0
-489 490 0
112 -489 491 0
-491 492 0
113 -491 493 0
-493 494 0
114 -493 495 0
-495 496 0
115 -495 497 0
-497 498 0
116 -497 499 0
-499 500 0
117 -499 501 0
-501 502 0
118 -501 503 0
-503 504 0
119 -503 0
2 270 0
-270 505 0
3 -270 272 0
-272 506 0
4 -272 274 0
-274 507 0
5 -274 276 0
-276 508 0
6 -276 278 0
-278 509 0
7 -278 280 0
-280 510 0
8 -280 282 0
-282 511 0
9 -282 284 0
-284 512 0
10 -284 286 0
-286 513 0
11 -286 288 0
-288 514 0
12 -288 290 0
-290 515 0
13 -290 292 0
-292 516 0
14 -292 294 0
-294 517 0
15 -294 296 0
-296 518 0
16 -296 298 0
-298 519 0
17 -298 300 0
-300 520 0
18 -300 302 0
-302 521 0
19 -302 304 0
-304 522 0
20 -304 306 0
-306 523 0
21 -306 308 0
-308 524 0
22 -308 310 0
-310 525 0
23 -310 312 0
-312 526 0
24 -312 314 0
-314 527 0
25 -314 316 0
-316 528 0
26 -316 318 0
-318 529 0
27 -318 320 0
-320 530 0
28 -320 322 0
-322 531 0
29 -322 324 0
-324 532 0
30 -324 326 0
-326 533 0
31 -326 328 0
-328 534 0
32 -328 330 0
-330 535 0
33 -330 332 0
-332 536 0
34 -332 334 0
-334 537 0
35 -334 336 0
-336 538 0
36 -336 338 0
-338 539 0
37 -338 340 0
-340 540 0
38 -340 342 0
-342 541 0
39 -342 344 0
-344 542 0
40 -344 346 0
-346 543 0
41 -346 348 0
-348 544 0
42 -348 350 0
-350 545 0
43 -350 352 0
-352 546 0
44 -352 354 0
-354 547 0
45 -354 356 0
-356 548 0
46 -356 358 0
-358 549 0
47 -358 360 0
-360 550 0
48 -360 362 0
-362 551 0
49 -362 364 0
-364 552 0
50 -364 366 0
-366 553 0
51 -366 368 0
-368 554 0
52 -368 370 0
-370 555 0
53 -370 372 0
-372 556 0
54 -372 374 0
-374 557 0
55 -374 376 0
-376 558 0
56 -376 378 0
-378 559 0
57 -378 380 0
-380 560 0
58 -380 382 0
-382 561 0
59 -382 384 0
-384 562 0
60 -384 386 0
-386 563 0
61 -386 388 0
-388 564 0
62 -388 390 0
-390 565 0
63 -390 392 0
-392 566 0
64 -392 394 0
-394 567 0
65 -394 396 0
-396 568 0
66 -396 398 0
-398 569 0
67 -398 400 0
-400 570 0
68 -400 402 0
-402 571 0
69 -402 404 0
-404 572 0
70 -404 406 0
-406 573 0
71 -406 408 0
-408 574 0
72 -408 410 0
-410 575 0
73 -410 412 0
-412 576 0
74 -412 414 0
-414 577 0
75 -414 416 0
-416 578 0
76 -416 418 0
-418 579 0
77 -418 420 0
-420 580 0
78 -420 422 0
-422 581 0
79 -422 424 0
-424 582 0
80 -424 426 0
-426 583 0
81 -426 428 0
-428 584 0
82 -428 430 0
-430 585 0
83 -430 432 0
-432 586 0
84 -432 434 0
-434 587 0
85 -434 436 0
-436 588 0
86 -436 438 0
-438 589 0
87 -438 440 0
-440 590 0
88 -440 442 0
-442 591 0
89 -442 444 0
-444 592 0
90 -444 446 0
-446 593 0
91 -446 448 0
-448 594 0
92 -448 450 0
-450 595 0
93 -450 452 0
-452 596 0
94 -452 454 0
-454 597 0
95 -454 456 0
-456 598 0
96 -456 458 0
-458 599 0
97 -458 460 0
-460 600 0
98 -460 462 0
-462 601 0
99 -462 464 0
-464 602 0
100 -464 466 0
-466 603 0
101 -466 468 0
-468 604 0
102 -468 470 0
-470 605 0
103 -470 472 0
-472 606 0
104 -472 474 0
-474 607 0
105 -474 476 0
-476 608 0
106 -476 478 0
-478 609 0
107 -478 480 0
-480 610 0
108 -480 482 0
-482 611 0
109 -482 484 0
-484 612 0
110 -484 486 0
-486 613 0
111 -486 488 0
-488 614 0
112 -488 490 0
-490 615 0
113 -490 492 0
-492 616 0
114 -492 494 0
-494 617 0
115 -494 496 0
-496 618 0
116 -496 498 0
-498 619 0
117 -498 500 0
-500 620 0
118 -500 502 0
-502 621 0
119 -502 504 0
-504 622 0
120 -504 0
3 505 0
-505 623 0
4 -505 506 0
-506 624 0
5 -506 507 0
-507 625 0
6 -507 508 0
-508 626 0
7 -508 509 0
-509 627 0
8 -509 510 0
-510 628 0
9 -510 511 0
-511 629 0
10 -511 512 0
-512 630 0
11 -512 513 0
-513 631 0
12 -513 514 0
-514 632 0
13 -514 515 0
-515 633 0
14 -515 516 0
-516 634 0
15 -516 517 0
-517 635 0
16 -517 518 0
-518 636 0
17 -518 519 0
-519 637 0
18 -519 520 0
-520 638 0
19 -520 521 0
-521 639 0
20 -521 522 0
-522 640 0
21 -522 523 0
-523 641 0
22 -523 524 0
-524 642 0
23 -524 525 0
-525 643 0
24 -525 526 0
-526 644 0
25 -526 527 0
-527 645 0
26 -527 528 0
-528 646 0
27 -528 529 0
-529 647 0
28 -529 530 0
-530 648 0
29 -530 531 0
-531 649 0
30 -531 532 0
-532 650 0
31 -532 533 0
-533 651 0
32 -533 534 0
-534 652 0
33 -534 535 0
-535 653 0
34 -535 536 0
-536 654 0
35 -536 537 0
-537 655 0
36 -537 538 0
-538 656 0
37 -538 539 0
-539 657 0
38 -539 540 0
-540 658 0
39 -540 541 0
-541 659 0
40 -541 542 0
-542 660 0
41 -542 543 0
-543 661 0
42 -543 544 0
-544 662 0
43 -544 545 0
-545 663 0
44 -545 546 0
-546 664 0
45 -546 547 0
-547 665 0
46 -547 548 0
-548 666 0
47 -548 549 0
-549 667 0
48 -549 550 0
-550 668 0
49 -550 551 0
-551 669 0
50 -551 552 0
-552 670 0
51 -552 553 0
-553 671 0
52 -553 554 0
-554 672 0
53 -554 555 0
-555 673 0
54 -555 556 0
-556 674 0
55 -556 557 0
-557 675 0
56 -557 558 0
-558 676 0
57 -558 559 0
-559 677 0
58 -559 560 0
-560 678 0
59 -560 561 0
-561 679 0
60 -561 562 0
-562 680 0
61 -562 563 0
-563 681 0
62 -563 564 0
-564 682 0
63 -564 565 0
-565 683 0
64 -565 566 0
-566 684 0
65 -566 567 0
-567 685 0
66 -567 568 0
-568 686 0
67 -568 569 0
-569 687 0
68 -569 570 0
-570 688 0
69 -570 571 0
-571 689 0
70 -571 572 0
-572 690 0
71 -572 573 0
-573 691 0
72 -573 574 0
-574 692 0
73 -574 575 0
-575 693 0
74 -575 576 0
-576 694 0
75 -576 577 0
-577 695 0
76 -577 578 0
-578 696 0
77 -578 579 0
-579 697 0
78 -579 580 0
-580 698 0
79 -580 581 0
-581 699 0
80 -581 582 0
-582 700 0
81 -582 583 0
-583 701 0
82 -583 584 0
-584 702 0
83 -584 585 0
-585 703 0
84 -585 586 0
-586 704 0
85 -586 587 0
-587 705 0
86 -587 588 0
-588 706 0
87 -588 589 0
-589 707 0
88 -589 590 0
-590 708 0
89 -590 591 0
-591 709 0
90 -591 592 0
-592 710 0
91 -592 593 0
-593 711 0
92 -593 594 0
-594 712 0
93 -594 595 0
-595 713 0
94 -595 596 0
-596 714 0
95 -596 597 0
-597 715 0
96 -597 598 0
-598 716 0
97 -598 599 0
-599 717 0
98 -599 600 0
-600 718 0
99 -600 601 0
-601 719 0
100 -601 602 0
-602 720 0
101 -602 603 0
-603 721 0
102 -603 604 0
-604 722 0
103 -604 605 0
-605 723 0
104 -605 606 0
-606 724 0
105 -606 607 0
-607 725 0
106 -607 608 0
-608 726 0
107 -608 609 0
-609 727 0
108 -609 610 0
-610 728 0
109 -610 611 0
-611 729 0
110 -611 612 0
-612 730 0
111 -612 613 0
-613 731 0
112 -613 614 0
-614 732 0
113 -614 615 0
-615 733 0
114 -615 616 0
-616 734 0
115 -616 617 0
-617 735 0
116 -617 618 0
-618 736 0
117 -618 619 0
-619 737 0
118 -619 620 0
-620 738 0
119 -620 621 0
-621 739 0
120 -621 622 0
-622 740 0
121 -622 0
4 623 0
-623 741 0
5 -623 624 0
-624 742 0
6 -624 625 0
-625 743 0
7 -625 626 0
-626 744 0
8 -626 627 0
-627 745 0
9 -627 628 0
-628 746 0
10 -628 629 0
-629 747 0
11 -629 630 0
-630 748 0
12 -630 631 0
-631 749 0
13 -631 632 0
-632 750 0
14 -632 633 0
-633 751 0
15 -633 634 0
-634 752 0
16 -634 635 0
-635 753 0
17 -635 636 0
-636 754 0
18 -636 637 0
-637 755 0
19 -637 638 0
-638 756 0
20 -638 639 0
-639 757 0
21 -639 640 0
-640 758 0
22 -640 641 0
-641 759 0
23 -641 642 0
-642 760 0
24 -642 643 0
-643 761 0
25 -643 644 0
-644 762 0
26 -644 645 0
-645 763 0
27 -645 646 0
-646 764 0
28 -646 647 0
-647 765 0
29 -647 648 0
-648 766 0
30 -648 649 0
-649 767 0
31 -649 650 0
-650 768 0
32 -650 651 0
-651 769 0
33 -651 652 0
-652 770 0
34 -652 653 0
-653 771 0
35 -653 654 0
-654 772 0
36 -654 655 0
-655 773 0
37 -655 656 0
-656 774 0
38 -656 657 0
-657 775 0
39 -657 658 0
-658 776 0
40 -658 659 0
-659 777 0
41 -659 660 0
-660 778 0
42 -660 661 0
-661 779 0
43 -661 662 0
-662 780 0
44 -662 663 0
-663 781 0
45 -663 664 0
-664 782 0
46 -664 665 0
-665 783 0
47 -665 666 0
-666 784 0
48 -666 667 0
-667 785 0
49 -667 668 0
-668 786 0
50 -668 669 0
-669 787 0
51 -669 670 0
-670 788 0
52 -670 671 0
-671 789 0
53 -671 672 0
-672 790 0
54 -672 673 0
-673 791 0
55 -673 674 0
-674 792 0
56 -674 675 0
-675 793 0
57 -675 676 0
-676 794 0
58 -676 677 0
-677 795 0
59 -677 678 0
-678 796 0
60 -678 679 0
-679 797 0
61 -679 680 0
-680 798 0
62 -680 681 0
-681 799 0
63 -681 682 0
-682 800 0
64 -682 683 0
-683 801 0
65 -683 684 0
-684 802 0
66 -684 685 0
-685 803 0
67 -685 686 0
-686 804 0
68 -686 687 0
-687 805 0
69 -687 688 0
-688 806 0
70 -688 689 0
-689 807 0
71 -689 690 0
-690 808 0
72 -690 691 0
-691 809 0
73 -691 692 0
-692 810 0
74 -692 693 0
-693 811 0
75 -693 694 0
-694 812 0
76 -694 695 0
-695 813 0
77 -695 696 0
-696 814 0
78 -696 697 0
-697 815 0
79 -697 698 0
-698 816 0
80 -698 699 0
-699 817 0
81 -699 700 0
-700 818 0
82 -700 701 0
-701 819 0
83 -701 702 0
-702 820 0
84 -702 703 0
-703 821 0
85 -703 704 0
-704 822 0
86 -704 705 0
-705 823 0
87 -705 706 0
-706 824 0
88 -706 707 0
-707 825 0
89 -707 708 0
-708 826 0
90 -708 709 0
-709 827 0
91 -709 710 0
-710 828 0
92 -710 711 0
-711 829 0
93 -711 712 0
-712 830 0
94 -712 713 0
-713 831 0
95 -713 714 0
-714 832 0
96 -714 715 0
-715 833 0
97 -715 716 0
-716 834 0
98 -716 717 0
-717 835 0
99 -717 718 0
-718 836 0
100 -718 719 0
-719 837 0
101 -719 720 0
-720 838 0
102 -720 721 0
-721 839 0
103 -721 722 0
-722 840 0
104 -722 723 0
-723 841 0
105 -723 724 0
-724 842 0
106 -724 725 0
-725 843 0
107 -725 726 0
-726 844 0
108 -726 727 0
-727 845 0
109 -727 728 0
-728 846 0
110 -728 729 0
-729 847 0
111 -729 730 0
-730 848 0
112 -730 731 0
-731 849 0
113 -731 732 0
-732 850 0
114 -732 733 0
-733 851 0
115 -733 734 0
-734 852 0
116 -734 735 0
-735 853 0
117 -735 736 0
-736 854 0
118 -736 737 0
-737 855 0
119 -737 738 0
-738 856 0
120 -738 739 0
-739 857 0
121 -739 740 0
-740 858 0
122 -740 0
5 741 0
-741 859 0
6 -741 742 0
-742 860 0
7 -742 743 0
-743 861 0
8 -743 744 0
-744 862 0
9 -744 745 0
-745 863 0
10 -745 746 0
-746 864 0
11 -746 747 0
-747 865 0
12 -747 748 0
-748 866 0
13 -748 749 0
-749 867 0
14 -749 750 0
-750 868 0
15 -750 751 0
-751 869 0
16 -751 752 0
-752 870 0
17 -752 753 0
-753 871 0
18 -753 754 0
-754 872 0
19 -754 755 0
-755 873 0
20 -755 756 0
-756 874 0
21 -756 757 0
-757 875 0
22 -757 758 0
-758 876 0
23 -758 759 0
-759 877 0
24 -759 760 0
-760 878 0
25 -760 761 0
-761 879 0
26 -761 762 0
-762 880 0
27 -762 763 0
-763 881 0
28 -763 764 0
-764 882 0
29 -764 765 0
-765 883 0
30 -765 766 0
-766 884 0
31 -766 767 0
-767 885 0
32 -767 768 0
-768 886 0
33 -768 769 0
-769 887 0
34 -769 770 0
-770 888 0
35 -770 771 0
-771 889 0
36 -771 772 0
-772 890 0
37 -772 773 0
-773 891 0
38 -773 774 0
-774 892 0
39 -774 775 0
-775 893 0
40 -775 776 0
-776 894 0
41 -776 777 0
-777 895 0
42 -777 778 0
-778 896 0
43 -778 779 0
-779 897 0
44 -779 780 0
-780 898 0
45 -780 781 0
-781 899 0
46 -781 782 0
-782 900 0
47 -782 783 0
-783 901 0
48 -783 784 0
-784 902 0
49 -784 785 0
-785 903 0
50 -785 786 0
-786 904 0
51 -786 787 0
-787 905 0
52 -787 788 0
-788 906 0
53 -788 789 0
-789 907 0
54 -789 790 0
-790 908 0
55 -790 791 0
-791 909 0
56 -791 792 0
-792 910 0
57 -792 793 0
-793 911 0
58 -793 794 0
-794 912 0
59 -794 795 0
-795 913 0
60 -795 796 0
-796 914 0
61 -796 797 0
-797 915 0
62 -797 798 0
-798 916 0
63 -798 799 0
-799 917 0
64 -799 800 0
-800 918 0
65 -800 801 0
-801 919 0
66 -801 802 0
-802 920 0
67 -802 803 0
-803 921 0
68 -803 804 0
-804 922 0
69 -804 805 0
-805 923 0
70 -805 806 0
-806 924 0
71 -806 807 0
-807 925 0
72 -807 808 0
-808 926 0
73 -808 809 0
-809 927 0
74 -809 810 0
-810 928 0
75 -810 811 0
-811 929 0
76 -811 812 0
-812 930 0
77 -812 813 0
-813 931 0
78 -813 814 0
-814 932 0
79 -814 815 0
-815 933 0
80 -815 816 0
-816 934 0
81 -816 817 0
-817 935 0
82 -817 818 0
-818 936 0
83 -818 819 0
-819 937 0
84 -819 820 0
-820 938 0
85 -820 821 0
-821 939 0
86 -821 822 0
-822 940 0
87 -822 823 0
-823 941 0
88 -823 824 0
-824 942 0
89 -824 825 0
-825 943 0
90 -825 826 0
-826 944 0
91 -826 827 0
-827 945 0
92 -827 828 0
-828 946 0
93 -828 829 0
-829 947 0
94 -829 830 0
-830 948 0
95 -830 831 0
-831 949 0
96 -831 832 0
-832 950 0
97 -832 833 0
-833 951 0
98 -833 834 0
-834 952 0
99 -834 835 0
-835 953 0
100 -835 836 0
-836 954 0
101 -836 837 0
-837 955 0
102 -837 838 0
-838 956 0
103 -838 839 0
-839 957 0
104 -839 840 0
-840 958 0
105 -840 841 0
-841 959 0
106 -841 842 0
-842 960 0
107 -842 843 0
-843 961 0
108 -843 844 0
-844 962 0
109 -844 845 0
-845 963 0
110 -845 846 0
-846 964 0
111 -846 847 0
-847 965 0
112 -847 848 0
-848 966 0
113 -848 849 0
-849 967 0
114 -849 850 0
-850 968 0
115 -850 851 0
-851 969 0
116 -851 852 0
-852 970 0
117 -852 853 0
-853 971 0
118 -853 854 0
-854 972 0
119 -854 855 0
-855 973 0
120 -855 856 0
-856 974 0
121 -856 857 0
-857 975 0
122 -857 858 0
-858 976 0
123 -858 0
6 859 0
-859 977 0
7 -859 860 0
-860 978 0
8 -860 861 0
-861 979 0
9 -861 862 0
-862 980 0
10 -862 863 0
-863 981 0
11 -863 864 0
-864 982 0
12 -864 865 0
-865 983 0
13 -865 866 0
-866 984 0
14 -866 867 0
-867 985 0
15 -867 868 0
-868 986 0
16 -868 869 0
-869 987 0
17 -869 870 0
-870 988 0
18 -870 871 0
-871 989 0
19 -871 872 0
-872 990 0
20 -872 873 0
-873 991 0
21 -873 874 0
-874 992 0
22 -874 875 0
-875 993 0
23 -875 876 0
-876 994 0
24 -876 877 0
-877 995 0
25 -877 878 0
-878 996 0
26 -878 879 0
-879 997 0
27 -879 880 0
-880 998 0
28 -880 881 0
-881 999 0
29 -881 882 0
-882 1000 0
30 -882 883 0
-883 1001 0
31 -883 884 0
-884 1002 0
32 -884 885 0
-885 1003 0
33 -885 886 0
-886 1004 0
34 -886 887 0
-887 1005 0
35 -887 888 0
-888 1006 0
36 -888 889 0
-889 1007 0
37 -889 890 0
-890 1008 0
38 -890 891 0
-891 1009 0
39 -891 892 0
-892 1010 0
40 -892 893 0
-893 1011 0
41 -893 894 0
-894 1012 0
42 -894 895 0
-895 1013 0
43 -895 896 0
-896 1014 0
44 -896 897 0
-897 1015 0
45 -897 898 0
-898 1016 0
46 -898 899 0
-899 1017 0
47 -899 900 0
-900 1018 0
48 -900 901 0
-901 1019 0
49 -901 902 0
-902 1020 0
50 -902 903 0
-903 1021 0
51 -903 904 0
-904 1022 0
52 -904 905 0
-905 1023 0
53 -905 906 0
-906 1024 0
54 -906 907 0
-907 1025 0
55 -907 908 0
-908 1026 0
56 -908 909 0
-909 1027 0
57 -909 910 0
-910 1028 0
58 -910 911 0
-911 1029 0
59 -911 912 0
-912 1030 0
60 -912 913 0
-913 1031 0
61 -913 914 0
-914 1032 0
62 -914 915 0
-915 1033 0
63 -915 916 0
-916 1034 0
64 -916 917 0
-917 1035 0
65 -917 918 0
-918 1036 0
66 -918 919 0
-919 1037 0
67 -919 920 0
-920 1038 0
68 -920 921 0
-921 1039 0
69 -921 922 0
-922 1040 0
70 -922 923 0
-923 1041 0
71 -923 924 0
-924 1042 0
72 -924 925 0
-925 1043 0
73 -925 926 0
-926 1044 0
74 -926 927 0
-927 1045 0
75 -927 928 0
-928 1046 0
76 -928 929 0
-929 1047 0
77 -929 930 0
-930 1048 0
78 -930 931 0
-931 1049 0
79 -931 932 0
-932 1050 0
80 -932 933 0
-933 1051 0
81 -933 934 0
-934 1052 0
82 -934 935 0
-935 1053 0
83 -935 936 0
-936 1054 0
84 -936 937 0
-937 1055 0
85 -937 938 0
-938 1056 0
86 -938 939 0
-939 1057 0
87 -939 940 0
-940 1058 0
88 -940 941 0
-941 1059 0
89 -941 942 0
-942 1060 0
90 -942 943 0
-943 1061 0
91 -943 944 0
-944 1062 0
92 -944 945 0
-945 1063 0
93 -945 946 0
-946 1064 0
94 -946 947 0
-947 1065 0
95 -947 948 0
-948 1066 0
96 -948 949 0
-949 1067 0
97 -949 950 0
-950 1068 0
98 -950 951 0
-951 1069 0
99 -951 952 0
-952 1070 0
100 -952 953 0
-953 1071 0
101 -953 954 0
-954 1072 0
102 -954 955 0
-955 1073 0
103 -955 956 0
-956 1074 0
104 -956 957 0
-957 1075 0
105 -957 958 0
-958 1076 0
106 -958 959 0
-959 1077 0
107 -959 960 0
-960 1078 0
108 -960 961 0
-961 1079 0
109 -961 962 0
-962 1080 0
110 -962 963 0
-963 1081 0
111 -963 964 0
-964 1082 0
112 -964 965 0
-965 1083 0
113 -965 966 0
-966 1084 0
114 -966 967 0
-967 1085 0
115 -967 968 0
-968 1086 0
116 -968 969 0
-969 1087 0
117 -969 970 0
-970 1088 0
118 -970 971 0
-971 1089 0
119 -971 972 0
-972 1090 0
120 -972 973 0
-973 1091 0
121 -973 974 0
-974 1092 0
122 -974 975 0
-975 1093 0
123 -975 976 0
-976 1094 0
124 -976 0
7 977 0
-977 1095 0
8 -977 978 0
-978 1096 0
9 -978 979 0
-979 1097 0
10 -979 980 0
-980 1098 0
11 -980 981 0
-981 1099 0
12 -981 982 0
-982 1100 0
13 -982 983 0
-983 1101 0
14 -983 984 0
-984 1102 0
15 -984 985 0
-985 1103 0
16 -985 986 0
-986 1104 0
17 -986 987 0
-987 1105 0
18 -987 988 0
-988 1106 0
19 -988 989 0
-989 1107 0
20 -989 990 0
-990 1108 0
21 -990 991 0
-991 1109 0
22 -991 992 0
-992 1110 0
23 -992 993 0
-993 1111 0
24 -993 994 0
-994 1112 0
25 -994 995 0
-995 1113 0
26 -995 996 0
-996 1114 0
27 -996 997 0
-997 1115 0
28 -997 998 0
-998 1116 0
29 -998 999 0
-999 1117 0
30 -999 1000 0
-1000 1118 0
31 -1000 1001 0
-1001 1119 0
32 -1001 1002 0
-1002 1120 0
33 -1002 1003 0
-1003 1121 0
34 -1003 1004 0
-1004 1122 0
35 -1004 1005 0
-1005 1123 0
36 -1005 1006 0
-1006 1124 0
37 -1006 1007 0
-1007 1125 0
38 -1007 1008 0
-1008 1126 0
39 -1008 1009 0
-1009 1127 0
40 -1009 1010 0
-1010 1128 0
41 -1010 1011 0
-1011 1129 0
42 -1011 1012 0
-1012 1130 0
43 -1012 1013 0
-1013 1131 0
44 -1013 1014 0
-1014 1132 0
45 -1014 1015 0
-1015 1133 0
46 -1015 1016 0
-1016 1134 0
47 -1016 1017 0
-1017 1135 0
48 -1017 1018 0
-1018 1136 0
49 -1018 1019 0
-1019 1137 0
50 -1019 1020 0
-1020 1138 0
51 -1020 1021 0
-1021 1139 0
52 -1021 1022 0
-1022 1140 0
53 -1022 1023 0
-1023 1141 0
54 -1023 1024 0
-1024 1142 0
55 -1024 1025 0
-1025 1143 0
56 -1025 1026 0
-1026 1144 0
57 -1026 1027 0
-1027 1145 0
58 -1027 1028 0
-1028 1146 0
59 -1028 1029 0
-1029 1147 0
60 -1029 1030 0
-1030 1148 0
61 -1030 1031 0
-1031 1149 0
62 -1031 1032 0
-1032 1150 0
63 -1032 1033 0
-1033 1151 0
64 -1033 1034 0
-1034 1152 0
65 -1034 1035 0
-1035 1153 0
66 -1035 1036 0
-1036 1154 0
67 -1036 1037 0
-1037 1155 0
68 -1037 1038 0
-1038 1156 0
69 -1038 1039 0
-1039 1157 0
70 -1039 1040 0
-1040 1158 0
71 -1040 1041 0
-1041 1159 0
72 -1041 1042 0
-1042 1160 0
73 -1042 1043 0
-1043 1161 0
74 -1043 1044 0
-1044 1162 0
75 -1044 1045 0
-1045 1163 0
76 -1045 1046 0
-1046 1164 0
77 -1046 1047 0
-1047 1165 0
78 -1047 1048 0
-1048 1166 0
79 -1048 1049 0
-1049 1167 0
80 -1049 1050 0
-1050 1168 0
81 -1050 1051 0
-1051 1169 0
82 -1051 1052 0
-1052 1170 0
83 -1052 1053 0
-1053 1171 0
84 -1053 1054 0
-1054 1172 0
85 -1054 1055 0
-1055 1173 0
86 -1055 1056 0
-1056 1174 0
87 -1056 1057 0
-1057 1175 0
88 -1057 1058 0
-1058 1176 0
89 -1058 1059 0
-1059 1177 0
90 -1059 1060 0
-1060 1178 0
91 -1060 1061 0
-1061 1179 0
92 -1061 1062 0
-1062 1180 0
93 -1062 1063 0
-1063 1181 0
94 -1063 1064 0
-1064 1182 0
95 -1064 1065 0
-1065 1183 0
96 -1065 1066 0
-1066 1184 0
97 -1066 1067 0
-1067 1185 0
98 -1067 1068 0
-1068 1186 0
99 -1068 1069 0
-1069 1187 0
100 -1069 1070 0
-1070 1188 0
101 -1070 1071 0
-1071 1189 0
102 -1071 1072 0
-1072 1190 0
103 -1072 1073 0
-1073 1191 0
104 -1073 1074 0
-1074 1192 0
105 -1074 1075 0
-1075 1193 0
106 -1075 1076 0
-1076 1194 0
107 -1076 1077 0
-1077 1195 0
108 -1077 1078 0
-1078 1196 0
109 -1078 1079 0
-1079 1197 0
110 -1079 1080 0
-1080 1198 0
111 -1080 1081 0
-1081 1199 0
112 -1081 1082 0
-1082 1200 0
113 -1082 1083 0
-1083 1201 0
114 -1083 1084 0
-1084 1202 0
115 -1084 1085 0
-1085 1203 0
116 -1085 1086 0
-1086 1204 0
117 -1086 1087 0
-1087 1205 0
118 -1087 1088 0
-1088 1206 0
119 -1088 1089 0
-1089 1207 0
120 -1089 1090 0
-1090 1208 0
121 -1090 1091 0
-1091 1209 0
122 -1091 1092 0
-1092 1210 0
123 -1092 1093 0
-1093 1211 0
124 -1093 1094 0
-1094 1212 0
125 -1094 0
8 1095 0
-1095 1213 0
9 -1095 1096 0
-1096 1214 0
10 -1096 1097 0
-1097 1215 0
11 -1097 1098 0
-1098 1216 0
12 -1098 1099 0
-1099 1217 0
13 -1099 1100 0
-1100 1218 0
14 -1100 1101 0
-1101 1219 0
15 -1101 1102 0
-1102 1220 0
16 -1102 1103 0
-1103 1221 0
17 -1103 1104 0
-1104 1222 0
18 -1104 1105 0
-1105 1223 0
19 -1105 1106 0
-1106 1224 0
20 -1106 1107 0
-1107 1225 0
21 -1107 1108 0
-1108 1226 0
22 -1108 1109 0
-1109 1227 0
23 -1109 1110 0
-1110 1228 0
24 -1110 1111 0
-1111 1229 0
25 -1111 1112 0
-1112 1230 0
26 -1112 1113 0
-1113 1231 0
27 -1113 1114 0
-1114 1232 0
28 -1114 1115 0
-1115 1233 0
29 -1115 1116 0
-1116 1234 0
30 -1116 1117 0
-1117 1235 0
31 -1117 1118 0
-1118 1236 0
32 -1118 1119 0
-1119 1237 0
33 -1119 1120 0
-1120 1238 0
34 -1120 1121 0
-1121 1239 0
35 -1121 1122 0
-1122 1240 0
36 -1122 1123 0
-1123 1241 0
37 -1123 1124 0
-1124 1242 0
38 -1124 1125 0
-1125 1243 0
39 -1125 1126 0
-1126 1244 0
40 -1126 1127 0
-1127 1245 0
41 -1127 1128 0
-1128 1246 0
42 -1128 1129 0
-1129 1247 0
43 -1129 1130 0
-1130 1248 0
44 -1130 1131 0
-1131 1249 0
45 -1131 1132 0
-1132 1250 0
46 -1132 1133 0
-1133 1251 0
47 -1133 1134 0
-1134 1252 0
48 -1134 1135 0
-1135 1253 0
49 -1135 1136 0
-1136 1254 0
50 -1136 1137 0
-1137 1255 0
51 -1137 1138 0
-1138 1256 0
52 -1138 1139 0
-1139 1257 0
53 -1139 1140 0
-1140 1258 0
54 -1140 1141 0
-1141 1259 0
55 -1141 1142 0
-1142 1260 0
56 -1142 1143 0
-1143 1261 0
57 -1143 1144 0
-1144 1262 0
58 -1144 1145 0
-1145 1263 0
59 -1145 1146 0
-1146 1264 0
60 -1146 1147 0
-1147 1265 0
61 -1147 1148 0
-1148 1266 0
62 -1148 1149 0
-1149 1267 0
63 -1149 1150 0
-1150 1268 0
64 -1150 1151 0
-1151 1269 0
65 -1151 1152 0
-1152 1270 0
66 -1152 1153 0
-1153 1271 0
67 -1153 1154 0
-1154 1272 0
68 -1154 1155 0
-1155 1273 0
69 -1155 1156 0
-1156 1274 0
70 -1156 1157 0
-1157 1275 0
71 -1157 1158 0
-1158 1276 0
72 -1158 1159 0
-1159 1277 0
73 -1159 1160 0
-1160 1278 0
74 -1160 1161 0
-1161 1279 0
75 -1161 1162 0
-1162 1280 0
76 -1162 1163 0
-1163 1281 0
77 -1163 1164 0
-1164 1282 0
78 -1164 1165 0
-1165 1283 0
79 -1165 1166 0
-1166 1284 0
80 -1166 1167 0
-1167 1285 0
81 -1167 1168 0
-1168 1286 0
82 -1168 1169 0
-1169 1287 0
83 -1169 1170 0
-1170 1288 0
84 -1170 1171 0
-1171 1289 0
85 -1171 1172 0
-1172 1290 0
86 -1172 1173 0
-1173 1291 0
87 -1173 1174 0
-1174 1292 0
88 -1174 1175 0
-1175 1293 0
89 -1175 1176 0
-1176 1294 0
90 -1176 1177 0
-1177 1295 0
91 -1177 1178 0
-1178 1296 0
92 -1178 1179 0
-1179 1297 0
93 -1179 1180 0
-1180 1298 0
94 -1180 1181 0
-1181 1299 0
95 -1181 1182 0
-1182 1300 0
96 -1182 1183 0
-1183 1301 0
97 -1183 1184 0
-1184 1302 0
98 -1184 1185 0
-1185 1303 0
99 -1185 1186 0
-1186 1304 0
100 -1186 1187 0
-1187 1305 0
101 -1187 1188 0
-1188 1306 0
102 -1188 1189 0
-1189 1307 0
103 -1189 1190 0
-1190 1308 0
104 -1190 1191 0
-1191 1309 0
105 -1191 1192 0
-1192 1310 0
106 -1192 1193 0
-1193 1311 0
107 -1193 1194 0
-1194 1312 0
108 -1194 1195 0
-1195 1313 0
109 -1195 1196 0
-1196 1314 0
110 -1196 1197 0
-1197 1315 0
111 -1197 1198 0
-1198 1316 0
112 -1198 1199 0
-1199 1317 0
113 -1199 1200 0
-1200 1318 0
114 -1200 1201 0
-1201 1319 0
115 -1201 1202 0
-1202 1320 0
116 -1202 1203 0
-1203 1321 0
117 -1203 1204 0
-1204 1322 0
118 -1204 1205 0
-1205 1323 0
119 -1205 1206 0
-1206 1324 0
120 -1206 1207 0
-1207 1325 0
121 -1207 1208 0
-1208 1326 0
122 -1208 1209 0
-1209 1327 0
123 -1209 1210 0
-1210 1328 0
124 -1210 1211 0
-1211 1329 0
125 -1211 1212 0
-1212 1330 0
126 -1212 0
9 1213 0
-1213 1331 0
10 -1213 1214 0
-1214 1332 0
11 -1214 1215 0
-1215 1333 0
12 -1215 1216 0
-1216 1334 0
13 -1216 1217 0
-1217 1335 0
14 -1217 1218 0
-1218 1336 0
15 -1218 1219 0
-1219 1337 0
16 -1219 1220 0
-1220 1338 0
17 -1220 1221 0
-1221 1339 0
18 -1221 1222 0
-1222 1340 0
19 -1222 1223 0
-1223 1341 0
20 -1223 1224 0
-1224 1342 0
21 -1224 1225 0
-1225 1343 0
22 -1225 1226 0
-1226 1344 0
23 -1226 1227 0
-1227 1345 0
24 -1227 1228 0
-1228 1346 0
25 -1228 1229 0
-1229 1347 0
26 -1229 1230 0
-1230 1348 0
27 -1230 1231 0
-1231 1349 0
28 -1231 1232 0
-1232 1350 0
29 -1232 1233 0
-1233 1351 0
30 -1233 1234 0
-1234 1352 0
31 -1234 1235 0
-1235 1353 0
32 -1235 1236 0
-1236 1354 0
33 -1236 1237 0
-1237 1355 0
34 -1237 1238 0
-1238 1356 0
35 -1238 1239 0
-1239 1357 0
36 -1239 1240 0
-1240 1358 0
37 -1240 1241 0
-1241 1359 0
38 -1241 1242 0
-1242 1360 0
39 -1242 1243 0
-1243 1361 0
40 -1243 1244 0
-1244 1362 0
41 -1244 1245 0
-1245 1363 0
42 -1245 1246 0
-1246 1364 0
43 -1246 1247 0
-1247 1365 0
44 -1247 1248 0
-1248 1366 0
45 -1248 1249 0
-1249 1367 0
46 -1249 1250 0
-1250 1368 0
47 -1250 1251 0
-1251 1369 0
48 -1251 1252 0
-1252 1370 0
49 -1252 1253 0
-1253 1371 0
50 -1253 1254 0
-1254 1372 0
51 -1254 1255 0
-1255 1373 0
52 -1255 1256 0
-1256 1374 0
53 -1256 1257 0
-1257 1375 0
54 -1257 1258 0
-1258 1376 0
55 -1258 1259 0
-1259 1377 0
56 -1259 1260 0
-1260 1378 0
57 -1260 1261 0
-1261 1379 0
58 -1261 1262 0
-1262 1380 0
59 -1262 1263 0
-1263 1381 0
60 -1263 1264 0
-1264 1382 0
61 -1264 1265 0
-1265 1383 0
62 -1265 1266 0
-1266 1384 0
63 -1266 1267 0
-1267 1385 0
64 -1267 1268 0
-1268 1386 0
65 -1268 1269 0
-1269 1387 0
66 -1269 1270 0
-1270 1388 0
67 -1270 1271 0
-1271 1389 0
68 -1271 1272 0
-1272 1390 0
69 -1272 1273 0
-1273 1391 0
70 -1273 1274 0
-1274 1392 0
71 -1274 1275 0
-1275 1393 0
72 -1275 1276 0
-1276 1394 0
73 -1276 1277 0
-1277 1395 0
74 -1277 1278 0
-1278 1396 0
75 -1278 1279 0
-1279 1397 0
76 -1279 1280 0
-1280 1398 0
77 -1280 1281 0
-1281 1399 0
78 -1281 1282 0
-1282 1400 0
79 -1282 1283 0
-1283 1401 0
80 -1283 1284 0
-1284 1402 0
81 -1284 1285 0
-1285 1403 0
82 -1285 1286 0
-1286 1404 0
83 -1286 1287 0
-1287 1405 0
84 -1287 1288 0
-1288 1406 0
85 -1288 1289 0
-1289 1407 0
86 -1289 1290 0
-1290 1408 0
87 -1290 1291 0
-1291 1409 0
88 -1291 1292 0
-1292 1410 0
89 -1292 1293 0
-1293 1411 0
90 -1293 1294 0
-1294 1412 0
91 -1294 1295 0
-1295 1413 0
92 -1295 1296 0
-1296 1414 0
93 -1296 1297 0
-1297 1415 0
94 -1297 1298 0
-1298 1416 0
95 -1298 1299 0
-1299 1417 0
96 -1299 1300 0
-1300 1418 0
97 -1300 1301 0
-1301 1419 0
98 -1301 1302 0
-1302 1420 0
99 -1302 1303 0
-1303 1421 0
100 -1303 1304 0
-1304 1422 0
101 -1304 1305 0
-1305 1423 0
102 -1305 1306 0
-1306 1424 0
103 -1306 1307 0
-1307 1425 0
104 -1307 1308 0
-1308 1426 0
105 -1308 1309 0
-1309 1427 0
106 -1309 1310 0
-1310 1428 0
107 -1310 1311 0
-1311 1429 0
108 -1311 1312 0
-1312 1430 0
109 -1312 1313 0
-1313 1431 0
110 -1313 1314 0
-1314 1432 0
111 -1314 1315 0
-1315 1433 0
112 -1315 1316 0
-1316 1434 0
113 -1316 1317 0
-1317 1435 0
114 -1317 1318 0
-1318 1436 0
115 -1318 1319 0
-1319 1437 0
116 -1319 1320 0
-1320 1438 0
117 -1320 1321 0
-1321 1439 0
118 -1321 1322 0
-1322 1440 0
119 -1322 1323 0
-1323 1441 0
120 -1323 1324 0
-1324 1442 0
121 -1324 1325 0
-1325 1443 0
122 -1325 1326 0
-1326 1444 0
123 -1326 1327 0
-1327 1445 0
124 -1327 1328 0
-1328 1446 0
125 -1328 1329 0
-1329 1447 0
126 -1329 1330 0
-1330 1448 0
127 -1330 0
10 1331 0
-1331 1449 0
11 -1331 1332 0
-1332 1450 0
12 -1332 1333 0
-1333 1451 0
13 -1333 1334 0
-1334 1452 0
14 -1334 1335 0
-1335 1453 0
15 -1335 1336 0
-1336 1454 0
16 -1336 1337 0
-1337 1455 0
17 -1337 1338 0
-1338 1456 0
18 -1338 1339 0
-1339 1457 0
19 -1339 1340 0
-1340 1458 0
20 -1340 1341 0
-1341 1459 0
21 -1341 1342 0
-1342 1460 0
22 -1342 1343 0
-1343 1461 0
23 -1343 1344 0
-1344 1462 0
24 -1344 1345 0
-1345 1463 0
25 -1345 1346 0
-1346 1464 0
26 -1346 1347 0
-1347 1465 0
27 -1347 1348 0
-1348 1466 0
28 -1348 1349 0
-1349 1467 0
29 -1349 1350 0
-1350 1468 0
30 -1350 1351 0
-1351 1469 0
31 -1351 1352 0
-1352 1470 0
32 -1352 1353 0
-1353 1471 0
33 -1353 1354 0
-1354 1472 0
34 -1354 1355 0
-1355 1473 0
35 -1355 1356 0
-1356 1474 0
36 -1356 1357 0
-1357 1475 0
37 -1357 1358 0
-1358 1476 0
38 -1358 1359 0
-1359 1477 0
39 -1359 1360 0
-1360 1478 0
40 -1360 1361 0
-1361 1479 0
41 -1361 1362 0
-1362 1480 0
42 -1362 1363 0
-1363 1481 0
43 -1363 1364 0
-1364 1482 0
44 -1364 1365 0
-1365 1483 0
45 -1365 1366 0
-1366 1484 0
46 -1366 1367 0
-1367 1485 0
47 -1367 1368 0
-1368 1486 0
48 -1368 1369 0
-1369 1487 0
49 -1369 1370 0
-1370 1488 0
50 -1370 1371 0
-1371 1489 0
51 -1371 1372 0
-1372 1490 0
52 -1372 1373 0
-1373 1491 0
53 -1373 1374 0
-1374 1492 0
54 -1374 1375 0
-1375 1493 0
55 -1375 1376 0
-1376 1494 0
56 -1376 1377 0
-1377 1495 0
57 -1377 1378 0
-1378 1496 0
58 -1378 1379 0
-1379 1497 0
59 -1379 1380 0
-1380 1498 0
60 -1380 1381 0
-1381 1499 0
61 -1381 1382 0
-1382 1500 0
62 -1382 1383 0
-1383 1501 0
63 -1383 1384 0
-1384 1502 0
64 -1384 1385 0
-1385 1503 0
65 -1385 1386 0
-1386 1504 0
66 -1386 1387 0
-1387 1505 0
67 -1387 1388 0
-1388 1506 0
68 -1388 1389 0
-1389 1507 0
69 -1389 1390 0
-1390 1508 0
70 -1390 1391 0
-1391 1509 0
71 -1391 1392 0
-1392 1510 0
72 -1392 1393 0
-1393 1511 0
73 -1393 1394 0
-1394 1512 0
74 -1394 1395 0
-1395 1513 0
75 -1395 1396 0
-1396 1514 0
76 -1396 1397 0
-1397 1515 0
77 -1397 1398 0
-1398 1516 0
78 -1398 1399 0
-1399 1517 0
79 -1399 1400 0
-1400 1518 0
80 -1400 1401 0
-1401 1519 0
81 -1401 1402 0
-1402 1520 0
82 -1402 1403 0
-1403 1521 0
83 -1403 1404 0
-1404 1522 0
84 -1404 1405 0
-1405 1523 0
85 -1405 1406 0
-1406 1524 0
86 -1406 1407 0
-1407 1525 0
87 -1407 1408 0
-1408 1526 0
88 -1408 1409 0
-1409 1527 0
89 -1409 1410 0
-1410 1528 0
90 -1410 1411 0
-1411 1529 0
91 -1411 1412 0
-1412 1530 0
92 -1412 1413 0
-1413 1531 0
93 -1413 1414 0
-1414 1532 0
94 -1414 1415 0
-1415 1533 0
95 -1415 1416 0
-1416 1534 0
96 -1416 1417 0
-1417 1535 0
97 -1417 1418 0
-1418 1536 0
98 -1418 1419 0
-1419 1537 0
99 -1419 1420 0
-1420 1538 0
100 -1420 1421 0
-1421 1539 0
101 -1421 1422 0
-1422 1540 0
102 -1422 1423 0
-1423 1541 0
103 -1423 1424 0
-1424 1542 0
104 -1424 1425 0
-1425 1543 0
105 -1425 1426 0
-1426 1544 0
106 -1426 1427 0
-1427 1545 0
107 -1427 1428 0
-1428 1546 0
108 -1428 1429 0
-1429 1547 0
109 -1429 1430 0
-1430 1548 0
110 -1430 1431 0
-1431 1549 0
111 -1431 1432 0
-1432 1550 0
112 -1432 1433 0
-1433 1551 0
113 -1433 1434 0
-1434 1552 0
114 -1434 1435 0
-1435 1553 0
115 -1435 1436 0
-1436 1554 0
116 -1436 1437 0
-1437 1555 0
117 -1437 1438 0
-1438 1556 0
118 -1438 1439 0
-1439 1557 0
119 -1439 1440 0
-1440 1558 0
120 -1440 1441 0
-1441 1559 0
121 -1441 1442 0
-1442 1560 0
122 -1442 1443 0
-1443 1561 0
123 -1443 1444 0
-1444 1562 0
124 -1444 1445 0
-1445 1563 0
125 -1445 1446 0
-1446 1564 0
126 -1446 1447 0
-1447 1565 0
127 -1447 1448 0
-1448 1566 0
128 -1448 0
11 1449 0
-1449 1567 0
12 -1449 1450 0
-1450 1568 0
13 -1450 1451 0
-1451 1569 0
14 -1451 1452 0
-1452 1570 0
15 -1452 1453 0
-1453 1571 0
16 -1453 1454 0
-1454 1572 0
17 -1454 1455 0
-1455 1573 0
18 -1455 1456 0
-1456 1574 0
19 -1456 1457 0
-1457 1575 0
20 -1457 1458 0
-1458 1576 0
21 -1458 1459 0
-1459 1577 0
22 -1459 1460 0
-1460 1578 0
23 -1460 1461 0
-1461 1579 0
24 -1461 1462 0
-1462 1580 0
25 -1462 1463 0
-1463 1581 0
26 -1463 1464 0
-1464 1582 0
27 -1464 1465 0
-1465 1583 0
28 -1465 1466 0
-1466 1584 0
29 -1466 1467 0
-1467 1585 0
30 -1467 1468 0
-1468 1586 0
31 -1468 1469 0
-1469 1587 0
32 -1469 1470 0
-1470 1588 0
33 -1470 1471 0
-1471 1589 0
34 -1471 1472 0
-1472 1590 0
35 -1472 1473 0
-1473 1591 0
36 -1473 1474 0
-1474 1592 0
37 -1474 1475 0
-1475 1593 0
38 -1475 1476 0
-1476 1594 0
39 -1476 1477 0
-1477 1595 0
40 -1477 1478 0
-1478 1596 0
41 -1478 1479 0
-1479 1597 0
42 -1479 1480 0
-1480 1598 0
43 -1480 1481 0
-1481 1599 0
44 -1481 1482 0
-1482 1600 0
45 -1482 1483 0
-1483 1601 0
46 -1483 1484 0
-1484 1602 0
47 -1484 1485 0
-1485 1603 0
48 -1485 1486 0
-1486 1604 0
49 -1486 1487 0
-1487 1605 0
50 -1487 1488 0
-1488 1606 0
51 -1488 1489 0
-1489 1607 0
52 -1489 1490 0
-1490 1608 0
53 -1490 1491 0
-1491 1609 0
54 -1491 1492 0
-1492 1610 0
55 -1492 1493 0
-1493 1611 0
56 -1493 1494 0
-1494 1612 0
57 -1494 1495 0
-1495 1613 0
58 -1495 1496 0
-1496 1614 0
59 -1496 1497 0
-1497 1615 0
60 -1497 1498 0
-1498 1616 0
61 -1498 1499 0
-1499 1617 0
62 -1499 1500 0
-1500 1618 0
63 -1500 1501 0
-1501 1619 0
64 -1501 1502 0
-1502 1620 0
65 -1502 1503 0
-1503 1621 0
66 -1503 1504 0
-1504 1622 0
67 -1504 1505 0
-1505 1623 0
68 -1505 1506 0
-1506 1624 0
69 -1506 1507 0
-1507 1625 0
70 -1507 1508 0
-1508 1626 0
71 -1508 1509 0
-1509 1627 0
72 -1509 1510 0
-1510 1628 0
73 -1510 1511 0
-1511 1629 0
74 -1511 1512 0
-1512 1630 0
75 -1512 1513 0
-1513 1631 0
76 -1513 1514 0
-1514 1632 0
77 -1514 1515 0
-1515 1633 0
78 -1515 1516 0
-1516 1634 0
79 -1516 1517 0
-1517 1635 0
80 -1517 1518 0
-1518 1636 0
81 -1518 1519 0
-1519 1637 0
82 -1519 1520 0
-1520 1638 0
83 -1520 1521 0
-1521 1639 0
84 -1521 1522 0
-1522 1640 0
85 -1522 1523 0
-1523 1641 0
86 -1523 1524 0
-1524 1642 0
87 -1524 1525 0
-1525 1643 0
88 -1525 1526 0
-1526 1644 0
89 -1526 1527 0
-1527 1645 0
90 -1527 1528 0
-1528 1646 0
91 -1528 1529 0
-1529 1647 0
92 -1529 1530 0
-1530 1648 0
93 -1530 1531 0
-1531 1649 0
94 -1531 1532 0
-1532 1650 0
95 -1532 1533 0
-1533 1651 0
96 -1533 1534 0
-1534 1652 0
97 -1534 1535 0
-1535 1653 0
98 -1535 1536 0
-1536 1654 0
99 -1536 1537 0
-1537 1655 0
100 -1537 1538 0
-1538 1656 0
101 -1538 1539 0
-1539 1657 0
102 -1539 1540 0
-1540 1658 0
103 -1540 1541 0
-1541 1659 0
104 -1541 1542 0
-1542 1660 0
105 -1542 1543 0
-1543 1661 0
106 -1543 1544 0
-1544 1662 0
107 -1544 1545 0
-1545 1663 0
108 -1545 1546 0
-1546 1664 0
109 -1546 1547 0
-1547 1665 0
110 -1547 1548 0
-1548 1666 0
111 -1548 1549 0
-1549 1667 0
112 -1549 1550 0
-1550 1668 0
113 -1550 1551 0
-1551 1669 0
114 -1551 1552 0
-1552 1670 0
115 -1552 1553 0
-1553 1671 0
116 -1553 1554 0
-1554 1672 0
117 -1554 1555 0
-1555 1673 0
118 -1555 1556 0
-1556 1674 0
119 -1556 1557 0
-1557 1675 0
120 -1557 1558 0
-1558 1676 0
121 -1558 1559 0
-1559 1677 0
122 -1559 1560 0
-1560 1678 0
123 -1560 1561 0
-1561 1679 0
124 -1561 1562 0
-1562 1680 0
125 -1562 1563 0
-1563 1681 0
126 -1563 1564 0
-1564 1682 0
127 -1564 1565 0
-1565 1683 0
128 -1565 1566 0
-1566 1684 0
129 -1566 0
12 1567 0
-1567 1685 0
13 -1567 1568 0
-1568 1686 0
14 -1568 1569 0
-1569 1687 0
15 -1569 1570 0
-1570 1688 0
16 -1570 1571 0
-1571 1689 0
17 -1571 1572 0
-1572 1690 0
18 -1572 1573 0
-1573 1691 0
19 -1573 1574 0
-1574 1692 0
20 -1574 1575 0
-1575 1693 0
21 -1575 1576 0
-1576 1694 0
22 -1576 1577 0
-1577 1695 0
23 -1577 1578 0
-1578 1696 0
24 -1578 1579 0
-1579 1697 0
25 -1579 1580 0
-1580 1698 0
26 -1580 1581 0
-1581 1699 0
27 -1581 1582 0
-1582 1700 0
28 -1582 1583 0
-1583 1701 0
29 -1583 1584 0
-1584 1702 0
30 -1584 1585 0
-1585 1703 0
31 -1585 1586 0
-1586 1704 0
32 -1586 1587 0
-1587 1705 0
33 -1587 1588 0
-1588 1706 0
34 -1588 1589 0
-1589 1707 0
35 -1589 1590 0
-1590 1708 0
36 -1590 1591 0
-1591 1709 0
37 -1591 1592 0
-1592 1710 0
38 -1592 1593 0
-1593 1711 0
39 -1593 1594 0
-1594 1712 0
40 -1594 1595 0
-1595 1713 0
41 -1595 1596 0
-1596 1714 0
42 -1596 1597 0
-1597 1715 0
43 -1597 1598 0
-1598 1716 0
44 -1598 1599 0
-1599 1717 0
45 -1599 1600 0
-1600 1718 0
46 -1600 1601 0
-1601 1719 0
47 -1601 1602 0
-1602 1720 0
48 -1602 1603 0
-1603 1721 0
49 -1603 1604 0
-1604 1722 0
50 -1604 1605 0
-1605 1723 0
51 -1605 1606 0
-1606 1724 0
52 -1606 1607 0
-1607 1725 0
53 -1607 1608 0
-1608 1726 0
54 -1608 1609 0
-1609 1727 0
55 -1609 1610 0
-1610 1728 0
56 -1610 1611 0
-1611 1729 0
57 -1611 1612 0
-1612 1730 0
58 -1612 1613 0
-1613 1731 0
59 -1613 1614 0
-1614 1732 0
60 -1614 1615 0
-1615 1733 0
61 -1615 1616 0
-1616 1734 0
62 -1616 1617 0
-1617 1735 0
63 -1617 1618 0
-1618 1736 0
64 -1618 1619 0
-1619 1737 0
65 -1619 1620 0
-1620 1738 0
66 -1620 1621 0
-1621 1739 0
67 -1621 1622 0
-1622 1740 0
68 -1622 1623 0
-1623 1741 0
69 -1623 1624 0
-1624 1742 0
70 -1624 1625 0
-1625 1743 0
71 -1625 1626 0
-1626 1744 0
72 -1626 1627 0
-1627 1745 0
73 -1627 1628 0
-1628 1746 0
74 -1628 1629 0
-1629 1747 0
75 -1629 1630 0
-1630 1748 0
76 -1630 1631 0
-1631 1749 0
77 -1631 1632 0
-1632 1750 0
78 -1632 1633 0
-1633 1751 0
79 -1633 1634 0
-1634 1752 0
80 -1634 1635 0
-1635 1753 0
81 -1635 1636 0
-1636 1754 0
82 -1636 1637 0
-1637 1755 0
83 -1637 1638 0
-1638 1756 0
84 -1638 1639 0
-1639 1757 0
85 -1639 1640 0
-1640 1758 0
86 -1640 1641 0
-1641 1759 0
87 -1641 1642 0
-1642 1760 0
88 -1642 1643 0
-1643 1761 0
89 -1643 1644 0
-1644 1762 0
90 -1644 1645 0
-1645 1763 0
91 -1645 1646 0
-1646 1764 0
92 -1646 1647 0
-1647 1765 0
93 -1647 1648 0
-1648 1766 0
94 -1648 1649 0
-1649 1767 0
95 -1649 1650 0
-1650 1768 0
96 -1650 1651 0
-1651 1769 0
97 -1651 1652 0
-1652 1770 0
98 -1652 1653 0
-1653 1771 0
99 -1653 1654 0
-1654 1772 0
100 -1654 1655 0
-1655 1773 0
101 -1655 1656 0
-1656 1774 0
102 -1656 1657 0
-1657 1775 0
103 -1657 1658 0
-1658 1776 0
104 -1658 1659 0
-1659 1777 0
105 -1659 1660 0
-1660 1778 0
106 -1660 1661 0
-1661 1779 0
107 -1661 1662 0
-1662 1780 0
108 -1662 1663 0
-1663 1781 0
109 -1663 1664 0
-1664 1782 0
110 -1664 1665 0
-1665 1783 0
111 -1665 1666 0
-1666 1784 0
112 -1666 1667 0
-1667 1785 0
113 -1667 1668 0
-1668 1786 0
114 -1668 1669 0
-1669 1787 0
115 -1669 1670 0
-1670 1788 0
116 -1670 1671 0
-1671 1789 0
117 -1671 1672 0
-1672 1790 0
118 -1672 1673 0
-1673 1791 0
119 -1673 1674 0
-1674 1792 0
120 -1674 1675 0
-1675 1793 0
121 -1675 1676 0
-1676 1794 0
122 -1676 1677 0
-1677 1795 0
123 -1677 1678 0
-1678 1796 0
124 -1678 1679 0
-1679 1797 0
125 -1679 1680 0
-1680 1798 0
126 -1680 1681 0
-1681 1799 0
127 -1681 1682 0
-1682 1800 0
128 -1682 1683 0
-1683 1801 0
129 -1683 1684 0
-1684 1802 0
130 -1684 0
13 1685 0
-1685 1803 0
14 -1685 1686 0
-1686 1804 0
15 -1686 1687 0
-1687 1805 0
16 -1687 1688 0
-1688 1806 0
17 -1688 1689 0
-1689 1807 0
18 -1689 1690 0
-1690 1808 0
19 -1690 1691 0
-1691 1809 0
20 -1691 1692 0
-1692 1810 0
21 -1692 1693 0
-1693 1811 0
22 -1693 1694 0
-1694 1812 0
23 -1694 1695 0
-1695 1813 0
24 -1695 1696 0
-1696 1814 0
25 -1696 1697 0
-1697 1815 0
26 -1697 1698 0
-1698 1816 0
27 -1698 1699 0
-1699 1817 0
28 -1699 1700 0
-1700 1818 0
29 -1700 1701 0
-1701 1819 0
30 -1701 1702 0
-1702 1820 0
31 -1702 1703 0
-1703 1821 0
32 -1703 1704 0
-1704 1822 0
33 -1704 1705 0
-1705 1823 0
34 -1705 1706 0
-1706 1824 0
35 -1706 1707 0
-1707 1825 0
36 -1707 1708 0
-1708 1826 0
37 -1708 1709 0
-1709 1827 0
38 -1709 1710 0
-1710 1828 0
39 -1710 1711 0
-1711 1829 0
40 -1711 1712 0
-1712 1830 0
41 -1712 1713 0
-1713 1831 0
42 -1713 1714 0
-1714 1832 0
43 -1714 1715 0
-1715 1833 0
44 -1715 1716 0
-1716 1834 0
45 -1716 1717 0
-1717 1835 0
46 -1717 1718 0
-1718 1836 0
47 -1718 1719 0
-1719 1837 0
48 -1719 1720 0
-1720 1838 0
49 -1720 1721 0
-1721 1839 0
50 -1721 1722 0
-1722 1840 0
51 -1722 1723 0
-1723 1841 0
52 -1723 1724 0
-1724 1842 0
53 -1724 1725 0
-1725 1843 0
54 -1725 1726 0
-1726 1844 0
55 -1726 1727 0
-1727 1845 0
56 -1727 1728 0
-1728 1846 0
57 -1728 1729 0
-1729 1847 0
58 -1729 1730 0
-1730 1848 0
59 -1730 1731 0
-1731 1849 0
60 -1731 1732 0
-1732 1850 0
61 -1732 1733 0
-1733 1851 0
62 -1733 1734 0
-1734 1852 0
63 -1734 1735 0
-1735 1853 0
64 -1735 1736 0
-1736 1854 0
65 -1736 1737 0
-1737 1855 0
66 -1737 1738 0
-1738 1856 0
67 -1738 1739 0
-1739 1857 0
68 -1739 1740 0
-1740 1858 0
69 -1740 1741 0
-1741 1859 0
70 -1741 1742 0
-1742 1860 0
71 -1742 1743 0
-1743 1861 0
72 -1743 1744 0
-1744 1862 0
73 -1744 1745 0
-1745 1863 0
74 -1745 1746 0
-1746 1864 0
75 -1746 1747 0
-1747 1865 0
76 -1747 1748 0
-1748 1866 0
77 -1748 1749 0
-1749 1867 0
78 -1749 1750 0
-1750 1868 0
79 -1750 1751 0
-1751 1869 0
80 -1751 1752 0
-1752 1870 0
81 -1752 1753 0
-1753 1871 0
82 -1753 1754 0
-1754 1872 0
83 -1754 1755 0
-1755 1873 0
84 -1755 1756 0
-1756 1874 0
85 -1756 1757 0
-1757 1875 0
86 -1757 1758 0
-1758 1876 0
87 -1758 1759 0
-1759 1877 0
88 -1759 1760 0
-1760 1878 0
89 -1760 1761 0
-1761 1879 0
90 -1761 1762 0
-1762 1880 0
91 -1762 1763 0
-1763 1881 0
92 -1763 1764 0
-1764 1882 0
93 -1764 1765 0
-1765 1883 0
94 -1765 1766 0
-1766 1884 0
95 -1766 1767 0
-1767 1885 0
96 -1767 1768 0
-1768 1886 0
97 -1768 1769 0
-1769 1887 0
98 -1769 1770 0
-1770 1888 0
99 -1770 1771 0
-1771 1889 0
100 -1771 1772 0
-1772 1890 0
101 -1772 1773 0
-1773 1891 0
102 -1773 1774 0
-1774 1892 0
103 -1774 1775 0
-1775 1893 0
104 -1775 1776 0
-1776 1894 0
105 -1776 1777 0
-1777 1895 0
106 -1777 1778 0
-1778 1896 0
107 -1778 1779 0
-1779 1897 0
108 -1779 1780 0
-1780 1898 0
109 -1780 1781 0
-1781 1899 0
110 -1781 1782 0
-1782 1900 0
111 -1782 1783 0
-1783 1901 0
112 -1783 1784 0
-1784 1902 0
113 -1784 1785 0
-1785 1903 0
114 -1785 1786 0
-1786 1904 0
115 -1786 1787 0
-1787 1905 0
116 -1787 1788 0
-1788 1906 0
117 -1788 1789 0
-1789 1907 0
118 -1789 1790 0
-1790 1908 0
119 -1790 1791 0
-1791 1909 0
120 -1791 1792 0
-1792 1910 0
121 -1792 1793 0
-1793 1911 0
122 -1793 1794 0
-1794 1912 0
123 -1794 1795 0
-1795 1913 0
124 -1795 1796 0
-1796 1914 0
125 -1796 1797 0
-1797 1915 0
126 -1797 1798 0
-1798 1916 0
127 -1798 1799 0
-1799 1917 0
128 -1799 1800 0
-1800 1918 0
129 -1800 1801 0
-1801 1919 0
130 -1801 1802 0
-1802 1920 0
131 -1802 0
14 1803 0
-1803 1921 0
15 -1803 1804 0
-1804 1922 0
16 -1804 1805 0
-1805 1923 0
17 -1805 1806 0
-1806 1924 0
18 -1806 1807 0
-1807 1925 0
19 -1807 1808 0
-1808 1926 0
20 -1808 1809 0
-1809 1927 0
21 -1809 1810 0
-1810 1928 0
22 -1810 1811 0
-1811 1929 0
23 -1811 1812 0
-1812 1930 0
24 -1812 1813 0
-1813 1931 0
25 -1813 1814 0
-1814 1932 0
26 -1814 1815 0
-1815 1933 0
27 -1815 1816 0
-1816 1934 0
28 -1816 1817 0
-1817 1935 0
29 -1817 1818 0
-1818 1936 0
30 -1818 1819 0
-1819 1937 0
31 -1819 1820 0
-1820 1938 0
32 -1820 1821 0
-1821 1939 0
33 -1821 1822 0
-1822 1940 0
34 -1822 1823 0
-1823 1941 0
35 -1823 1824 0
-1824 1942 0
36 -1824 1825 0
-1825 1943 0
37 -1825 1826 0
-1826 1944 0
38 -1826 1827 0
-1827 1945 0
39 -1827 1828 0
-1828 1946 0
40 -1828 1829 0
-1829 1947 0
41 -1829 1830 0
-1830 1948 0
42 -1830 1831 0
-1831 1949 0
43 -1831 1832 0
-1832 1950 0
44 -1832 1833 0
-1833 1951 0
45 -1833 1834 0
-1834 1952 0
46 -1834 1835 0
-1835 1953 0
47 -1835 1836 0
-1836 1954 0
48 -1836 1837 0
-1837 1955 0
49 -1837 1838 0
-1838 1956 0
50 -1838 1839 0
-1839 1957 0
51 -1839 1840 0
-1840 1958 0
52 -1840 1841 0
-1841 1959 0
53 -1841 1842 0
-1842 1960 0
54 -1842 1843 0
-1843 1961 0
55 -1843 1844 0
-1844 1962 0
56 -1844 1845 0
-1845 1963 0
57 -1845 1846 0
-1846 1964 0
58 -1846 1847 0
-1847 1965 0
59 -1847 1848 0
-1848 1966 0
60 -1848 1849 0
-1849 1967 0
61 -1849 1850 0
-1850 1968 0
62 -1850 1851 0
-1851 1969 0
63 -1851 1852 0
-1852 1970 0
64 -1852 1853 0
-1853 1971 0
65 -1853 1854 0
-1854 1972 0
66 -1854 1855 0
-1855 1973 0
67 -1855 1856 0
-1856 1974 0
68 -1856 1857 0
-1857 1975 0
69 -1857 1858 0
-1858 1976 0
70 -1858 1859 0
-1859 1977 0
71 -1859 1860 0
-1860 1978 0
72 -1860 1861 0
-1861 1979 0
73 -1861 1862 0
-1862 1980 0
74 -1862 1863 0
-1863 1981 0
75 -1863 1864 0
-1864 1982 0
76 -1864 1865 0
-1865 1983 0
77 -1865 1866 0
-1866 1984 0
78 -1866 1867 0
-1867 1985 0
79 -1867 1868 0
-1868 1986 0
80 -1868 1869 0
-1869 1987 0
81 -1869 1870 0
-1870 1988 0
82 -1870 1871 0
-1871 1989 0
83 -1871 1872 0
-1872 1990 0
84 -1872 1873 0
-1873 1991 0
85 -1873 1874 0
-1874 1992 0
86 -1874 1875 0
-1875 1993 0
87 -1875 1876 0
-1876 1994 0
88 -1876 1877 0
-1877 1995 0
89 -1877 1878 0
-1878 1996 0
90 -1878 1879 0
-1879 1997 0
91 -1879 1880 0
-1880 1998 0
92 -1880 1881 0
-1881 1999 0
93 -1881 1882 0
-1882 2000 0
94 -1882 1883 0
-1883 2001 0
95 -1883 1884 0
-1884 2002 0
96 -1884 1885 0
-1885 2003 0
97 -1885 1886 0
-1886 2004 0
98 -1886 1887 0
-1887 2005 0
99 -1887 1888 0
-1888 2006 0
100 -1888 1889 0
-1889 2007 0
101 -1889 1890 0
-1890 2008 0
102 -1890 1891 0
-1891 2009 0
103 -1891 1892 0
-1892 2010 0
104 -1892 1893 0
-1893 2011 0
105 -1893 1894 0
-1894 2012 0
106 -1894 1895 0
-1895 2013 0
107 -1895 1896 0
-1896 2014 0
108 -1896 1897 0
-1897 2015 0
109 -1897 1898 0
-1898 2016 0
110 -1898 1899 0
-1899 2017 0
111 -1899 1900 0
-1900 2018 0
112 -1900 1901 0
-1901 2019 0
113 -1901 1902 0
-1902 2020 0
114 -1902 1903 0
-1903 2021 0
115 -1903 1904 0
-1904 2022 0
116 -1904 1905 0
-1905 2023 0
117 -1905 1906 0
-1906 2024 0
118 -1906 1907 0
-1907 2025 0
119 -1907 1908 0
-1908 2026 0
120 -1908 1909 0
-1909 2027 0
121 -1909 1910 0
-1910 2028 0
122 -1910 1911 0
-1911 2029 0
123 -1911 1912 0
-1912 2030 0
124 -1912 1913 0
-1913 2031 0
125 -1913 1914 0
-1914 2032 0
126 -1914 1915 0
-1915 2033 0
127 -1915 1916 0
-1916 2034 0
128 -1916 1917 0
-1917 2035 0
129 -1917 1918 0
-1918 2036 0
130 -1918 1919 0
-1919 2037 0
131 -1919 1920 0
-1920 2038 0
132 -1920 0
15 1921 0
-1921 2039 0
16 -1921 1922 0
-1922 2040 0
17 -1922 1923 0
-1923 2041 0
18 -1923 1924 0
-1924 2042 0
19 -1924 1925 0
-1925 2043 0
20 -1925 1926 0
-1926 2044 0
21 -1926 1927 0
-1927 2045 0
22 -1927 1928 0
-1928 2046 0
23 -1928 1929 0
-1929 2047 0
24 -1929 1930 0
-1930 2048 0
25 -1930 1931 0
-1931 2049 0
26 -1931 1932 0
-1932 2050 0
27 -1932 1933 0
-1933 2051 0
28 -1933 1934 0
-1934 2052 0
29 -1934 1935 0
-1935 2053 0
30 -1935 1936 0
-1936 2054 0
31 -1936 1937 0
-1937 2055 0
32 -1937 1938 0
-1938 2056 0
33 -1938 1939 0
-1939 2057 0
34 -1939 1940 0
-1940 2058 0
35 -1940 1941 0
-1941 2059 0
36 -1941 1942 0
-1942 2060 0
37 -1942 1943 0
-1943 2061 0
38 -1943 1944 0
-1944 2062 0
39 -1944 1945 0
-1945 2063 0
40 -1945 1946 0
-1946 2064 0
41 -1946 1947 0
-1947 2065 0
42 -1947 1948 0
-1948 2066 0
43 -1948 1949 0
-1949 2067 0
44 -1949 1950 0
-1950 2068 0
45 -1950 1951 0
-1951 2069 0
46 -1951 1952 0
-1952 2070 0
47 -1952 1953 0
-1953 2071 0
48 -1953 1954 0
-1954 2072 0
49 -1954 1955 0
-1955 2073 0
50 -1955 1956 0
-1956 2074 0
51 -1956 1957 0
-1957 2075 0
52 -1957 1958 0
-1958 2076 0
53 -1958 1959 0
-1959 2077 0
54 -1959 1960 0
-1960 2078 0
55 -1960 1961 0
-1961 2079 0
56 -1961 1962 0
-1962 2080 0
57 -1962 1963 0
-1963 2081 0
58 -1963 1964 0
-1964 2082 0
59 -1964 1965 0
-1965 2083 0
60 -1965 1966 0
-1966 2084 0
61 -1966 1967 0
-1967 2085 0
62 -1967 1968 0
-1968 2086 0
63 -1968 1969 0
-1969 2087 0
64 -1969 1970 0
-1970 2088 0
65 -1970 1971 0
-1971 2089 0
66 -1971 1972 0
-1972 2090 0
67 -1972 1973 0
-1973 2091 0
68 -1973 1974 0
-1974 2092 0
69 -1974 1975 0
-1975 2093 0
70 -1975 1976 0
-1976 2094 0
71 -1976 1977 0
-1977 2095 0
72 -1977 1978 0
-1978 2096 0
73 -1978 1979 0
-1979 2097 0
74 -1979 1980 0
-1980 2098 0
75 -1980 1981 0
-1981 2099 0
76 -1981 1982 0
-1982 2100 0
77 -1982 1983 0
-1983 2101 0
78 -1983 1984 0
-1984 2102 0
79 -1984 1985 0
-1985 2103 0
80 -1985 1986 0
-1986 2104 0
81 -1986 1987 0
-1987 2105 0
82 -1987 1988 0
-1988 2106 0
83 -1988 1989 0
-1989 2107 0
84 -1989 1990 0
-1990 2108 0
85 -1990 1991 0
-1991 2109 0
86 -1991 1992 0
-1992 2110 0
87 -1992 1993 0
-1993 2111 0
88 -1993 1994 0
-1994 2112 0
89 -1994 1995 0
-1995 2113 0
90 -1995 1996 0
-1996 2114 0
91 -1996 1997 0
-1997 2115 0
92 -1997 1998 0
-1998 2116 0
93 -1998 1999 0
-1999 2117 0
94 -1999 2000 0
-2000 2118 0
95 -2000 2001 0
-2001 2119 0
96 -2001 2002 0
-2002 2120 0
97 -2002 2003 0
-2003 2121 0
98 -2003 2004 0
-2004 2122 0
99 -2004 2005 0
-2005 2123 0
100 -2005 2006 0
-2006 2124 0
101 -2006 2007 0
-2007 2125 0
102 -2007 2008 0
-2008 2126 0
103 -2008 2009 0
-2009 2127 0
104 -2009 2010 0
-2010 2128 0
105 -2010 2011 0
-2011 2129 0
106 -2011 2012 0
-2012 2130 0
107 -2012 2013 0
-2013 2131 0
108 -2013 2014 0
-2014 2132 0
109 -2014 2015 0
-2015 2133 0
110 -2015 2016 0
-2016 2134 0
111 -2016 2017 0
-2017 2135 0
112 -2017 2018 0
-2018 2136 0
113 -2018 2019 0
-2019 2137 0
114 -2019 2020 0
-2020 2138 0
115 -2020 2021 0
-2021 2139 0
116 -2021 2022 0
-2022 2140 0
117 -2022 2023 0
-2023 2141 0
118 -2023 2024 0
-2024 2142 0
119 -2024 2025 0
-2025 2143 0
120 -2025 2026 0
-2026 2144 0
121 -2026 2027 0
-2027 2145 0
122 -2027 2028 0
-2028 2146 0
123 -2028 2029 0
-2029 2147 0
124 -2029 2030 0
-2030 2148 0
125 -2030 2031 0
-2031 2149 0
126 -2031 2032 0
-2032 2150 0
127 -2032 2033 0
-2033 2151 0
128 -2033 2034 0
-2034 2152 0
129 -2034 2035 0
-2035 2153 0
130 -2035 2036 0
-2036 2154 0
131 -2036 2037 0
-2037 2155 0
132 -2037 2038 0
-2038 2156 0
133 -2038 0
16 2039 0
17 -2039 2040 0
18 -2040 2041 0
19 -2041 2042 0
20 -2042 2043 0
21 -2043 2044 0
22 -2044 2045 0
23 -2045 2046 0
24 -2046 2047 0
25 -2047 2048 0
26 -2048 2049 0
27 -2049 2050 0
28 -2050 2051 0
29 -2051 2052 0
30 -2052 2053 0
31 -2053 2054 0
32 -2054 2055 0
33 -2055 2056 0
34 -2056 2057 0
35 -2057 2058 0
36 -2058 2059 0
37 -2059 2060 0
38 -2060 2061 0
39 -2061 2062 0
40 -2062 2063 0
41 -2063 2064 0
42 -2064 2065 0
43 -2065 2066 0
44 -2066 2067 0
45 -2067 2068 0
46 -2068 2069 0
47 -2069 2070 0
48 -2070 2071 0
49 -2071 2072 0
50 -2072 2073 0
51 -2073 2074 0
52 -2074 2075 0
53 -2075 2076 0
54 -2076 2077 0
55 -2077 2078 0
56 -2078 2079 0
57 -2079 2080 0
58 -2080 2081 0
59 -2081 2082 0
60 -2082 2083 0
61 -2083 2084 0
62 -2084 2085 0
63 -2085 2086 0
64 -2086 2087 0
65 -2087 2088 0
66 -2088 2089 0
67 -2089 2090 0
68 -2090 2091 0
69 -2091 2092 0
70 -2092 2093 0
71 -2093 2094 0
72 -2094 2095 0
73 -2095 2096 0
74 -2096 2097 0
75 -2097 2098 0
76 -2098 2099 0
77 -2099 2100 0
78 -2100 2101 0
79 -2101 2102 0
80 -2102 2103 0
81 -2103 2104 0
82 -2104 2105 0
83 -2105 2106 0
84 -2106 2107 0
85 -2107 2108 0
86 -2108 2109 0
87 -2109 2110 0
88 -2110 2111 0
89 -2111 2112 0
90 -2112 2113 0
91 -2113 2114 0
92 -2114 2115 0
93 -2115 2116 0
94 -2116 2117 0
95 -2117 2118 0
96 -2118 2119 0
97 -2119 2120 0
98 -2120 2121 0
99 -2121 2122 0
100 -2122 2123 0
101 -2123 2124 0
102 -2124 2125 0
103 -2125 2126 0
104 -2126 2127 0
105 -2127 2128 0
106 -2128 2129 0
107 -2129 2130 0
108 -2130 2131 0
109 -2131 2132 0
110 -2132 2133 0
111 -2133 2134 0
112 -2134 2135 0
113 -2135 2136 0
114 -2136 2137 0
115 -2137 2138 0
116 -2138 2139 0
117 -2139 2140 0
118 -2140 2141 0
119 -2141 2142 0
120 -2142 2143 0
121 -2143 2144 0
122 -2144 2145 0
123 -2145 2146 0
124 -2146 2147 0
125 -2147 2148 0
126 -2148 2149 0
127 -2149 2150 0
128 -2150 2151 0
129 -2151 2152 0
130 -2152 2153 0
131 -2153 2154 0
132 -2154 2155 0
133 -2155 2156 0
134 -2156 0
-1 2157 0
-2157 2158 0
-2 -2157 2159 0
-2159 2160 0
-3 -2159 2161 0
-2161 2162 0
-4 -2161 2163 0
-2163 2164 0
-5 -2163 2165 0
-2165 2166 0
-6 -2165 2167 0
-2167 2168 0
-7 -2167 2169 0
-2169 2170 0
-8 -2169 2171 0
-2171 2172 0
-9 -2171 2173 0
-2173 2174 0
-10 -2173 2175 0
-2175 2176 0
-11 -2175 2177 0
-2177 2178 0
-12 -2177 2179 0
-2179 2180 0
-13 -2179 2181 0
-2181 2182 0
-14 -2181 2183 0
-2183 2184 0
-15 -2183 2185 0
-2185 2186 0
-16 -2185 2187 0
-2187 2188 0
-17 -2187 0
-2 2158 0
-2158 2189 0
-3 -2158 2160 0
-2160 2190 0
-4 -2160 2162 0
-2162 2191 0
-5 -2162 2164 0
-2164 2192 0
-6 -2164 2166 0
-2166 2193 0
-7 -2166 2168 0
-2168 2194 0
-8 -2168 2170 0
-2170 2195 0
-9 -2170 2172 0
-2172 2196 0
-10 -2172 2174 0
-2174 2197 0
-11 -2174 2176 0
-2176 2198 0
-12 -2176 2178 0
-2178 2199 0
-13 -2178 2180 0
-2180 2200 0
-14 -2180 2182 0
-2182 2201 0
-15 -2182 2184 0
-2184 2202 0
-16 -2184 2186 0
-2186 2203 0
-17 -2186 2188 0
-2188 2204 0
-18 -2188 0
-3 2189 0
-2189 2205 0
-4 -2189 2190 0
-2190 2206 0
-5 -2190 2191 0
-2191 2207 0
-6 -2191 2192 0
-2192 2208 0
-7 -2192 2193 0
-2193 2209 0
-8 -2193 2194 0
-2194 2210 0
-9 -2194 2195 0
-2195 2211 0
-10 -2195 2196 0
-2196 2212 0
-11 -2196 2197 0
-2197 2213 0
-12 -2197 2198 0
-2198 2214 0
-13 -2198 2199 0
-2199 2215 0
-14 -2199 2200 0
-2200 2216 0
-15 -2200 2201 0
-2201 2217 0
-16 -2201 2202 0
-2202 2218 0
-17 -2202 2203 0
-2203 2219 0
-18 -2203 2204 0
-2204 2220 0
-19 -2204 0
-4 2205 0
-2205 2221 0
-5 -2205 2206 0
-2206 2222 0
-6 -2206 2207 0
-2207 2223 0
-7 -2207 2208 0
-2208 2224 0
-8 -2208 2209 0
-2209 2225 0
-9 -2209 2210 0
-2210 2226 0
-10 -2210 2211 0
-2211 2227 0
-11 -2211 2212 0
-2212 2228 0
-12 -2212 2213 0
-2213 2229 0
-13 -2213 2214 0
-2214 2230 0
-14 -2214 2215 0
-2215 2231 0
-15 -2215 2216 0
-2216 2232 0
-16 -2216 2217 0
-2217 2233 0
-17 -2217 2218 0
-2218 2234 0
-18 -2218 2219 0
-2219 2235 0
-19 -2219 2220 0
-2220 2236 0
-20 -2220 0
-5 2221 0
-2221 2237 0
-6 -2221 2222 0
-2222 2238 0
-7 -2222 2223 0
-2223 2239 0
-8 -2223 2224 0
-2224 2240 0
-9 -2224 2225 0
-2225 2241 0
-10 -2225 2226 0
-2226 2242 0
-11 -2226 2227 0
-2227 2243 0
-12 -2227 2228 0
-2228 2244 0
-13 -2228 2229 0
-2229 2245 0
-14 -2229 2230 0
-2230 2246 0
-15 -2230 2231 0
-2231 2247 0
-16 -2231 2232 0
-2232 2248 0
-17 -2232 2233 0
-2233 2249 0
-18 -2233 2234 0
-2234 2250 0
-19 -2234 2235 0
-2235 2251 0
-20 -2235 2236 0
-2236 2252 0
-21 -2236 0
-6 2237 0
-2237 2253 0
-7 -2237 2238 0
-2238 2254 0
-8 -2238 2239 0
-2239 2255 0
-9 -2239 2240 0
-2240 2256 0
-10 -2240 2241 0
-2241 2257 0
-11 -2241 2242 0
-2242 2258 0
-12 -2242 2243 0
-2243 2259 0
-13 -2243 2244 0
-2244 2260 0
-14 -2244 2245 0
-2245 2261 0
-15 -2245 2246 0
-2246 2262 0
-16 -2246 2247 0
-2247 2263 0
-17 -2247 2248 0
-2248 2264 0
-18 -2248 2249 0
-2249 2265 0
-19 -2249 2250 0
-2250 2266 0
-20 -2250 2251 0
-2251 2267 0
-21 -2251 2252 0
-2252 2268 0
-22 -2252 0
-7 2253 0
-2253 2269 0
-8 -2253 2254 0
-2254 2270 0
-9 -2254 2255 0
-2255 2271 0
-10 -2255 2256 0
-2256 2272 0
-11 -2256 2257 0
-2257 2273 0
-12 -2257 2258 0
-2258 2274 0
-13 -2258 2259 0
-2259 2275 0
-14 -2259 2260 0
-2260 2276 0
-15 -2260 2261 0
-2261 2277 0
-16 -2261 2262 0
-2262 2278 0
-17 -2262 2263 0
-2263 2279 0
-18 -2263 2264 0
-2264 2280 0
-19 -2264 2265 0
-2265 2281 0
-20 -2265 2266 0
-2266 2282 0
-21 -2266 2267 0
-2267 2283 0
-22 -2267 2268 0
-2268 2284 0
-23 -2268 0
-8 2269 0
-2269 2285 0
-9 -2269 2270 0
-2270 2286 0
-10 -2270 2271 0
-2271 2287 0
-11 -2271 2272 0
-2272 2288 0
-12 -2272 2273 0
-2273 2289 0
-13 -2273 2274 0
-2274 2290 0
-14 -2274 2275 0
-2275 2291 0
-15 -2275 2276 0
-2276 2292 0
-16 -2276 2277 0
-2277 2293 0
-17 -2277 2278 0
-2278 2294 0
-18 -2278 2279 0
-2279 2295 0
-19 -2279 2280 0
-2280 2296 0
-20 -2280 2281 0
-2281 2297 0
-21 -2281 2282 0
-2282 2298 0
-22 -2282 2283 0
-2283 2299 0
-23 -2283 2284 0
-2284 2300 0
-24 -2284 0
-9 2285 0
-2285 2301 0
-10 -2285 2286 0
-2286 2302 0
-11 -2286 2287 0
-2287 2303 0
-12 -2287 2288 0
-2288 2304 0
-13 -2288 2289 0
-2289 2305 0
-14 -2289 2290 0
-2290 2306 0
-15 -2290 2291 0
-2291 2307 0
-16 -2291 2292 0
-2292 2308 0
-17 -2292 2293 0
-2293 2309 0
-18 -2293 2294 0
-2294 2310 0
-19 -2294 2295 0
-2295 2311 0
-20 -2295 2296 0
-2296 2312 0
-21 -2296 2297 0
-2297 2313 0
-22 -2297 2298 0
-2298 2314 0
-23 -2298 2299 0
-2299 2315 0
-24 -2299 2300 0
-2300 2316 0
-25 -2300 0
-10 2301 0
-2301 2317 0
-11 -2301 2302 0
-2302 2318 0
-12 -2302 2303 0
-2303 2319 0
-13 -2303 2304 0
-2304 2320 0
-14 -2304 2305 0
-2305 2321 0
-15 -2305 2306 0
-2306 2322 0
-16 -2306 2307 0
-2307 2323 0
-17 -2307 2308 0
-2308 2324 0
-18 -2308 2309 0
-2309 2325 0
-19 -2309 2310 0
-2310 2326 0
-20 -2310 2311 0
-2311 2327 0
-21 -2311 2312 0
-2312 2328 0
-22 -2312 2313 0
-2313 2329 0
-23 -2313 2314 0
-2314 2330 0
-24 -2314 2315 0
-2315 2331 0
-25 -2315 2316 0
-2316 2332 0
-26 -2316 0
-11 2317 0
-2317 2333 0
-12 -2317 2318 0
-2318 2334 0
-13 -2318 2319 0
-2319 2335 0
-14 -2319 2320 0
-2320 2336 0
-15 -2320 2321 0
-2321 2337 0
-16 -2321 2322 0
-2322 2338 0
-17 -2322 2323 0
-2323 2339 0
-18 -2323 2324 0
-2324 2340 0
-19 -2324 2325 0
-2325 2341 0
-20 -2325 2326 0
-2326 2342 0
-21 -2326 2327 0
-2327 2343 0
-22 -2327 2328 0
-2328 2344 0
-23 -2328 2329 0
-2329 2345 0
-24 -2329 2330 0
-2330 2346 0
-25 -2330 2331 0
-2331 2347 0
-26 -2331 2332 0
-2332 2348 0
-27 -2332 0
-12 2333 0
-2333 2349 0
-13 -2333 2334 0
-2334 2350 0
-14 -2334 2335 0
-2335 2351 0
-15 -2335 2336 0
-2336 2352 0
-16 -2336 2337 0
-2337 2353 0
-17 -2337 2338 0
-2338 2354 0
-18 -2338 2339 0
-2339 2355 0
-19 -2339 2340 0
-2340 2356 0
-20 -2340 2341 0
-2341 2357 0
-21 -2341 2342 0
-2342 2358 0
-22 -2342 2343 0
-2343 2359 0
-23 -2343 2344 0
-2344 2360 0
-24 -2344 2345 0
-2345 2361 0
-25 -2345 2346 0
-2346 2362 0
-26 -2346 2347 0
-2347 2363 0
-27 -2347 2348 0
-2348 2364 0
-28 -2348 0
-13 2349 0
-2349 2365 0
-14 -2349 2350 0
-2350 2366 0
-15 -2350 2351 0
-2351 2367 0
-16 -2351 2352 0
-2352 2368 0
-17 -2352 2353 0
-2353 2369 0
-18 -2353 2354 0
-2354 2370 0
-19 -2354 2355 0
-2355 2371 0
-20 -2355 2356 0
-2356 2372 0
-21 -2356 2357 0
-2357 2373 0
-22 -2357 2358 0
-2358 2374 0
-23 -2358 2359 0
-2359 2375 0
-24 -2359 2360 0
-2360 2376 0
-25 -2360 2361 0
-2361 2377 0
-26 -2361 2362 0
-2362 2378 0
-27 -2362 2363 0
-2363 2379 0
-28 -2363 2364 0
-2364 2380 0
-29 -2364 0
-14 2365 0
-2365 2381 0
-15 -2365 2366 0
-2366 2382 0
-16 -2366 2367 0
-2367 2383 0
-17 -2367 2368 0
-2368 2384 0
-18 -2368 2369 0
-2369 2385 0
-19 -2369 2370 0
-2370 2386 0
-20 -2370 2371 0
-2371 2387 0
-21 -2371 2372 0
-2372 2388 0
-22 -2372 2373 0
-2373 2389 0
-23 -2373 2374 0
-2374 2390 0
-24 -2374 2375 0
-2375 2391 0
-25 -2375 2376 0
-2376 2392 0
-26 -2376 2377 0
-2377 2393 0
-27 -2377 2378 0
-2378 2394 0
-28 -2378 2379 0
-2379 2395 0
-29 -2379 2380 0
-2380 2396 0
-30 -2380 0
-15 2381 0
-2381 2397 0
-16 -2381 2382 0
-2382 2398 0
-17 -2382 2383 0
-2383 2399 0
-18 -2383 2384 0
-2384 2400 0
-19 -2384 2385 0
-2385 2401 0
-20 -2385 2386 0
-2386 2402 0
-21 -2386 2387 0
-2387 2403 0
-22 -2387 2388 0
-2388 2404 0
-23 -2388 2389 0
-2389 2405 0
-24 -2389 2390 0
-2390 2406 0
-25 -2390 2391 0
-2391 2407 0
-26 -2391 2392 0
-2392 2408 0
-27 -2392 2393 0
-2393 2409 0
-28 -2393 2394 0
-2394 2410 0
-29 -2394 2395 0
-2395 2411 0
-30 -2395 2396 0
-2396 2412 0
-31 -2396 0
-16 2397 0
-2397 2413 0
-17 -2397 2398 0
-2398 2414 0
-18 -2398 2399 0
-2399 2415 0
-19 -2399 2400 0
-2400 2416 0
-20 -2400 2401 0
-2401 2417 0
-21 -2401 2402 0
-2402 2418 0
-22 -2402 2403 0
-2403 2419 0
-23 -2403 2404 0
-2404 2420 0
-24 -2404 2405 0
-2405 2421 0
-25 -2405 2406 0
-2406 2422 0
-26 -2406 2407 0
-2407 2423 0
-27 -2407 2408 0
-2408 2424 0
-28 -2408 2409 0
-2409 2425 0
-29 -2409 2410 0
-2410 2426 0
-30 -2410 2411 0
-2411 2427 0
-31 -2411 2412 0
-2412 2428 0
-32 -2412 0
-17 2413 0
-2413 2429 0
-18 -2413 2414 0
-2414 2430 0
-19 -2414 2415 0
-2415 2431 0
-20 -2415 2416 0
-2416 2432 0
-21 -2416 2417 0
-2417 2433 0
-22 -2417 2418 0
-2418 2434 0
-23 -2418 2419 0
-2419 2435 0
-24 -2419 2420 0
-2420 2436 0
-25 -2420 2421 0
-2421 2437 0
-26 -2421 2422 0
-2422 2438 0
-27 -2422 2423 0
-2423 2439 0
-28 -2423 2424 0
-2424 2440 0
-29 -2424 2425 0
-2425 2441 0
-30 -2425 2426 0
-2426 2442 0
-31 -2426 2427 0
-2427 2443 0
-32 -2427 2428 0
-2428 2444 0
-33 -2428 0
-18 2429 0
-2429 2445 0
-19 -2429 2430 0
-2430 2446 0
-20 -2430 2431 0
-2431 2447 0
-21 -2431 2432 0
-2432 2448 0
-22 -2432 2433 0
-2433 2449 0
-23 -2433 2434 0
-2434 2450 0
-24 -2434 2435 0
-2435 2451 0
-25 -2435 2436 0
-2436 2452 0
-26 -2436 2437 0
-2437 2453 0
-27 -2437 2438 0
-2438 2454 0
-28 -2438 2439 0
-2439 2455 0
-29 -2439 2440 0
-2440 2456 0
-30 -2440 2441 0
-2441 2457 0
-31 -2441 2442 0
-2442 2458 0
-32 -2442 2443 0
-2443 2459 0
-33 -2443 2444 0
-2444 2460 0
-34 -2444 0
-19 2445 0
-2445 2461 0
-20 -2445 2446 0
-2446 2462 0
-21 -2446 2447 0
-2447 2463 0
-22 -2447 2448 0
-2448 2464 0
-23 -2448 2449 0
-2449 2465 0
-24 -2449 2450 0
-2450 2466 0
-25 -2450 2451 0
-2451 2467 0
-26 -2451 2452 0
-2452 2468 0
-27 -2452 2453 0
-2453 2469 0
-28 -2453 2454 0
-2454 2470 0
-29 -2454 2455 0
-2455 2471 0
-30 -2455 2456 0
-2456 2472 0
-31 -2456 2457 0
-2457 2473 0
-32 -2457 2458 0
-2458 2474 0
-33 -2458 2459 0
-2459 2475 0
-34 -2459 2460 0
-2460 2476 0
-35 -2460 0
-20 2461 0
-2461 2477 0
-21 -2461 2462 0
-2462 2478 0
-22 -2462 2463 0
-2463 2479 0
-23 -2463 2464 0
-2464 2480 0
-24 -2464 2465 0
-2465 2481 0
-25 -2465 2466 0
-2466 2482 0
-26 -2466 2467 0
-2467 2483 0
-27 -2467 2468 0
-2468 2484 0
-28 -2468 2469 0
-2469 2485 0
-29 -2469 2470 0
-2470 2486 0
-30 -2470 2471 0
-2471 2487 0
-31 -2471 2472 0
-2472 2488 0
-32 -2472 2473 0
-2473 2489 0
-33 -2473 2474 0
-2474 2490 0
-34 -2474 2475 0
-2475 2491 0
-35 -2475 2476 0
-2476 2492 0
-36 -2476 0
-21 2477 0
-2477 2493 0
-22 -2477 2478 0
-2478 2494 0
-23 -2478 2479 0
-2479 2495 0
-24 -2479 2480 0
-2480 2496 0
-25 -2480 2481 0
-2481 2497 0
-26 -2481 2482 0
-2482 2498 0
-27 -2482 2483 0
-2483 2499 0
-28 -2483 2484 0
-2484 2500 0
-29 -2484 2485 0
-2485 2501 0
-30 -2485 2486 0
-2486 2502 0
-31 -2486 2487 0
-2487 2503 0
-32 -2487 2488 0
-2488 2504 0
-33 -2488 2489 0
-2489 2505 0
-34 -2489 2490 0
-2490 2506 0
-35 -2490 2491 0
-2491 2507 0
-36 -2491 2492 0
-2492 2508 0
-37 -2492 0
-22 2493 0
-2493 2509 0
-23 -2493 2494 0
-2494 2510 0
-24 -2494 2495 0
-2495 2511 0
-25 -2495 2496 0
-2496 2512 0
-26 -2496 2497 0
-2497 2513 0
-27 -2497 2498 0
-2498 2514 0
-28 -2498 2499 0
-2499 2515 0
-29 -2499 2500 0
-2500 2516 0
-30 -2500 2501 0
-2501 2517 0
-31 -2501 2502 0
-2502 2518 0
-32 -2502 2503 0
-2503 2519 0
-33 -2503 2504 0
-2504 2520 0
-34 -2504 2505 0
-2505 2521 0
-35 -2505 2506 0
-2506 2522 0
-36 -2506 2507 0
-2507 2523 0
-37 -2507 2508 0
-2508 2524 0
-38 -2508 0
-23 2509 0
-2509 2525 0
-24 -2509 2510 0
-2510 2526 0
-25 -2510 2511 0
-2511 2527 0
-26 -2511 2512 0
-2512 2528 0
-27 -2512 2513 0
-2513 2529 0
-28 -2513 2514 0
-2514 2530 0
-29 -2514 2515 0
-2515 2531 0
-30 -2515 2516 0
-2516 2532 0
-31 -2516 2517 0
-2517 2533 0
-32 -2517 2518 0
-2518 2534 0
-33 -2518 2519 0
-2519 2535 0
-34 -2519 2520 0
-2520 2536 0
-35 -2520 2521 0
-2521 2537 0
-36 -2521 2522 0
-2522 2538 0
-37 -2522 2523 0
-2523 2539 0
-38 -2523 2524 0
-2524 2540 0
-39 -2524 0
-24 2525 0
-2525 2541 0
-25 -2525 2526 0
-2526 2542 0
-26 -2526 2527 0
-2527 2543 0
-27 -2527 2528 0
-2528 2544 0
-28 -2528 2529 0
-2529 2545 0
-29 -2529 2530 0
-2530 2546 0
-30 -2530 2531 0
-2531 2547 0
-31 -2531 2532 0
-2532 2548 0
-32 -2532 2533 0
-2533 2549 0
-33 -2533 2534 0
-2534 2550 0
-34 -2534 2535 0
-2535 2551 0
-35 -2535 2536 0
-2536 2552 0
-36 -2536 2537 0
-2537 2553 0
-37 -2537 2538 0
-2538 2554 0
-38 -2538 2539 0
-2539 2555 0
-39 -2539 2540 0
-2540 2556 0
-40 -2540 0
-25 2541 0
-2541 2557 0
-26 -2541 2542 0
-2542 2558 0
-27 -2542 2543 0
-2543 2559 0
-28 -2543 2544 0
-2544 2560 0
-29 -2544 2545 0
-2545 2561 0
-30 -2545 2546 0
-2546 2562 0
-31 -2546 2547 0
-2547 2563 0
-32 -2547 2548 0
-2548 2564 0
-33 -2548 2549 0
-2549 2565 0
-34 -2549 2550 0
-2550 2566 0
-35 -2550 2551 0
-2551 2567 0
-36 -2551 2552 0
-2552 2568 0
-37 -2552 2553 0
-2553 2569 0
-38 -2553 2554 0
-2554 2570 0
-39 -2554 2555 0
-2555 2571 0
-40 -2555 2556 0
-2556 2572 0
-41 -2556 0
-26 2557 0
-2557 2573 0
-27 -2557 2558 0
-2558 2574 0
-28 -2558 2559 0
-2559 2575 0
-29 -2559 2560 0
-2560 2576 0
-30 -2560 2561 0
-2561 2577 0
-31 -2561 2562 0
-2562 2578 0
-32 -2562 2563 0
-2563 2579 0
-33 -2563 2564 0
-2564 2580 0
-34 -2564 2565 0
-2565 2581 0
-35 -2565 2566 0
-2566 2582 0
-36 -2566 2567 0
-2567 2583 0
-37 -2567 2568 0
-2568 2584 0
-38 -2568 2569 0
-2569 2585 0
-39 -2569 2570 0
-2570 2586 0
-40 -2570 2571 0
-2571 2587 0
-41 -2571 2572 0
-2572 2588 0
-42 -2572 0
-27 2573 0
-2573 2589 0
-28 -2573 2574 0
-2574 2590 0
-29 -2574 2575 0
-2575 2591 0
-30 -2575 2576 0
-2576 2592 0
-31 -2576 2577 0
-2577 2593 0
-32 -2577 2578 0
-2578 2594 0
-33 -2578 2579 0
-2579 2595 0
-34 -2579 2580 0
-2580 2596 0
-35 -2580 2581 0
-2581 2597 0
-36 -2581 2582 0
-2582 2598 0
-37 -2582 2583 0
-2583 2599 0
-38 -2583 2584 0
-2584 2600 0
-39 -2584 2585 0
-2585 2601 0
-40 -2585 2586 0
-2586 2602 0
-41 -2586 2587 0
-2587 2603 0
-42 -2587 2588 0
-2588 2604 0
-43 -2588 0
-28 2589 0
-2589 2605 0
-29 -2589 2590 0
-2590 2606 0
-30 -2590 2591 0
-2591 2607 0
-31 -2591 2592 0
-2592 2608 0
-32 -2592 2593 0
-2593 2609 0
-33 -2593 2594 0
-2594 2610 0
-34 -2594 2595 0
-2595 2611 0
-35 -2595 2596 0
-2596 2612 0
-36 -2596 2597 0
-2597 2613 0
-37 -2597 2598 0
-2598 2614 0
-38 -2598 2599 0
-2599 2615 0
-39 -2599 2600 0
-2600 2616 0
-40 -2600 2601 0
-2601 2617 0
-41 -2601 2602 0
-2602 2618 0
-42 -2602 2603 0
-2603 2619 0
-43 -2603 2604 0
-2604 2620 0
-44 -2604 0
-29 2605 0
-2605 2621 0
-30 -2605 2606 0
-2606 2622 0
-31 -2606 2607 0
-2607 2623 0
-32 -2607 2608 0
-2608 2624 0
-33 -2608 2609 0
-2609 2625 0
-34 -2609 2610 0
-2610 2626 0
-35 -2610 2611 0
-2611 2627 0
-36 -2611 2612 0
-2612 2628 0
-37 -2612 2613 0
-2613 2629 0
-38 -2613 2614 0
-2614 2630 0
-39 -2614 2615 0
-2615 2631 0
-40 -2615 2616 0
-2616 2632 0
-41 -2616 2617 0
-2617 2633 0
-42 -2617 2618 0
-2618 2634 0
-43 -2618 2619 0
-2619 2635 0
-44 -2619 2620 0
-2620 2636 0
-45 -2620 0
-30 2621 0
-2621 2637 0
-31 -2621 2622 0
-2622 2638 0
-32 -2622 2623 0
-2623 2639 0
-33 -2623 2624 0
-2624 2640 0
-34 -2624 2625 0
-2625 2641 0
-35 -2625 2626 0
-2626 2642 0
-36 -2626 2627 0
-2627 2643 0
-37 -2627 2628 0
-2628 2644 0
-38 -2628 2629 0
-2629 2645 0
-39 -2629 2630 0
-2630 2646 0
-40 -2630 2631 0
-2631 2647 0
-41 -2631 2632 0
-2632 2648 0
-42 -2632 2633 0
-2633 2649 0
-43 -2633 2634 0
-2634 2650 0
-44 -2634 2635 0
-2635 2651 0
-45 -2635 2636 0
-2636 2652 0
-46 -2636 0
-31 2637 0
-2637 2653 0
-32 -2637 2638 0
-2638 2654 0
-33 -2638 2639 0
-2639 2655 0
-34 -2639 2640 0
-2640 2656 0
-35 -2640 2641 0
-2641 2657 0
-36 -2641 2642 0
-2642 2658 0
-37 -2642 2643 0
-2643 2659 0
-38 -2643 2644 0
-2644 2660 0
-39 -2644 2645 0
-2645 2661 0
-40 -2645 2646 0
-2646 2662 0
-41 -2646 2647 0
-2647 2663 0
-42 -2647 2648 0
-2648 2664 0
-43 -2648 2649 0
-2649 2665 0
-44 -2649 2650 0
-2650 2666 0
-45 -2650 2651 0
-2651 2667 0
-46 -2651 2652 0
-2652 2668 0
-47 -2652 0
-32 2653 0
-2653 2669 0
-33 -2653 2654 0
-2654 2670 0
-34 -2654 2655 0
-2655 2671 0
-35 -2655 2656 0
-2656 2672 0
-36 -2656 2657 0
-2657 2673 0
-37 -2657 2658 0
-2658 2674 0
-38 -2658 2659 0
-2659 2675 0
-39 -2659 2660 0
-2660 2676 0
-40 -2660 2661 0
-2661 2677 0
-41 -2661 2662 0
-2662 2678 0
-42 -2662 2663 0
-2663 2679 0
-43 -2663 2664 0
-2664 2680 0
-44 -2664 2665 0
-2665 2681 0
-45 -2665 2666 0
-2666 2682 0
-46 -2666 2667 0
-2667 2683 0
-47 -2667 2668 0
-2668 2684 0
-48 -2668 0
-33 2669 0
-2669 2685 0
-34 -2669 2670 0
-2670 2686 0
-35 -2670 2671 0
-2671 2687 0
-36 -2671 2672 0
-2672 2688 0
-37 -2672 2673 0
-2673 2689 0
-38 -2673 2674 0
-2674 2690 0
-39 -2674 2675 0
-2675 2691 0
-40 -2675 2676 0
-2676 2692 0
-41 -2676 2677 0
-2677 2693 0
-42 -2677 2678 0
-2678 2694 0
-43 -2678 2679 0
-2679 2695 0
-44 -2679 2680 0
-2680 2696 0
-45 -2680 2681 0
-2681 2697 0
-46 -2681 2682 0
-2682 2698 0
-47 -2682 2683 0
-2683 2699 0
-48 -2683 2684 0
-2684 2700 0
-49 -2684 0
-34 2685 0
-2685 2701 0
-35 -2685 2686 0
-2686 2702 0
-36 -2686 2687 0
-2687 2703 0
-37 -2687 2688 0
-2688 2704 0
-38 -2688 2689 0
-2689 2705 0
-39 -2689 2690 0
-2690 2706 0
-40 -2690 2691 0
-2691 2707 0
-41 -2691 2692 0
-2692 2708 0
-42 -2692 2693 0
-2693 2709 0
-43 -2693 2694 0
-2694 2710 0
-44 -2694 2695 0
-2695 2711 0
-45 -2695 2696 0
-2696 2712 0
-46 -2696 2697 0
-2697 2713 0
-47 -2697 2698 0
-2698 2714 0
-48 -2698 2699 0
-2699 2715 0
-49 -2699 2700 0
-2700 2716 0
-50 -2700 0
-35 2701 0
-2701 2717 0
-36 -2701 2702 0
-2702 2718 0
-37 -2702 2703 0
-2703 2719 0
-38 -2703 2704 0
-2704 2720 0
-39 -2704 2705 0
-2705 2721 0
-40 -2705 2706 0
-2706 2722 0
-41 -2706 2707 0
-2707 2723 0
-42 -2707 2708 0
-2708 2724 0
-43 -2708 2709 0
-2709 2725 0
-44 -2709 2710 0
-2710 2726 0
-45 -2710 2711 0
-2711 2727 0
-46 -2711 2712 0
-2712 2728 0
-47 -2712 2713 0
-2713 2729 0
-48 -2713 2714 0
-2714 2730 0
-49 -2714 2715 0
-2715 2731 0
-50 -2715 2716 0
-2716 2732 0
-51 -2716 0
-36 2717 0
-2717 2733 0
-37 -2717 2718 0
-2718 2734 0
-38 -2718 2719 0
-2719 2735 0
-39 -2719 2720 0
-2720 2736 0
-40 -2720 2721 0
-2721 2737 0
-41 -2721 2722 0
-2722 2738 0
-42 -2722 2723 0
-2723 2739 0
-43 -2723 2724 0
-2724 2740 0
-44 -2724 2725 0
-2725 2741 0
-45 -2725 2726 0
-2726 2742 0
-46 -2726 2727 0
-2727 2743 0
-47 -2727 2728 0
-2728 2744 0
-48 -2728 2729 0
-2729 2745 0
-49 -2729 2730 0
-2730 2746 0
-50 -2730 2731 0
-2731 2747 0
-51 -2731 2732 0
-2732 2748 0
-52 -2732 0
-37 2733 0
-2733 2749 0
-38 -2733 2734 0
-2734 2750 0
-39 -2734 2735 0
-2735 2751 0
-40 -2735 2736 0
-2736 2752 0
-41 -2736 2737 0
-2737 2753 0
-42 -2737 2738 0
-2738 2754 0
-43 -2738 2739 0
-2739 2755 0
-44 -2739 2740 0
-2740 2756 0
-45 -2740 2741 0
-2741 2757 0
-46 -2741 2742 0
-2742 2758 0
-47 -2742 2743 0
-2743 2759 0
-48 -2743 2744 0
-2744 2760 0
-49 -2744 2745 0
-2745 2761 0
-50 -2745 2746 0
-2746 2762 0
-51 -2746 2747 0
-2747 2763 0
-52 -2747 2748 0
-2748 2764 0
-53 -2748 0
-38 2749 0
-2749 2765 0
-39 -2749 2750 0
-2750 2766 0
-40 -2750 2751 0
-2751 2767 0
-41 -2751 2752 0
-2752 2768 0
-42 -2752 2753 0
-2753 2769 0
-43 -2753 2754 0
-2754 2770 0
-44 -2754 2755 0
-2755 2771 0
-45 -2755 2756 0
-2756 2772 0
-46 -2756 2757 0
-2757 2773 0
-47 -2757 2758 0
-2758 2774 0
-48 -2758 2759 0
-2759 2775 0
-49 -2759 2760 0
-2760 2776 0
-50 -2760 2761 0
-2761 2777 0
-51 -2761 2762 0
-2762 2778 0
-52 -2762 2763 0
-2763 2779 0
-53 -2763 2764 0
-2764 2780 0
-54 -2764 0
-39 2765 0
-2765 2781 0
-40 -2765 2766 0
-2766 2782 0
-41 -2766 2767 0
-2767 2783 0
-42 -2767 2768 0
-2768 2784 0
-43 -2768 2769 0
-2769 2785 0
-44 -2769 2770 0
-2770 2786 0
-45 -2770 2771 0
-2771 2787 0
-46 -2771 2772 0
-2772 2788 0
-47 -2772 2773 0
-2773 2789 0
-48 -2773 2774 0
-2774 2790 0
-49 -2774 2775 0
-2775 2791 0
-50 -2775 2776 0
-2776 2792 0
-51 -2776 2777 0
-2777 2793 0
-52 -2777 2778 0
-2778 2794 0
-53 -2778 2779 0
-2779 2795 0
-54 -2779 2780 0
-2780 2796 0
-55 -2780 0
-40 2781 0
-2781 2797 0
-41 -2781 2782 0
-2782 2798 0
-42 -2782 2783 0
-2783 2799 0
-43 -2783 2784 0
-2784 2800 0
-44 -2784 2785 0
-2785 2801 0
-45 -2785 2786 0
-2786 2802 0
-46 -2786 2787 0
-2787 2803 0
-47 -2787 2788 0
-2788 2804 0
-48 -2788 2789 0
-2789 2805 0
-49 -2789 2790 0
-2790 2806 0
-50 -2790 2791 0
-2791 2807 0
-51 -2791 2792 0
-2792 2808 0
-52 -2792 2793 0
-2793 2809 0
-53 -2793 2794 0
-2794 2810 0
-54 -2794 2795 0
-2795 2811 0
-55 -2795 2796 0
-2796 2812 0
-56 -2796 0
-41 2797 0
-2797 2813 0
-42 -2797 2798 0
-2798 2814 0
-43 -2798 2799 0
-2799 2815 0
-44 -2799 2800 0
-2800 2816 0
-45 -2800 2801 0
-2801 2817 0
-46 -2801 2802 0
-2802 2818 0
-47 -2802 2803 0
-2803 2819 0
-48 -2803 2804 0
-2804 2820 0
-49 -2804 2805 0
-2805 2821 0
-50 -2805 2806 0
-2806 2822 0
-51 -2806 2807 0
-2807 2823 0
-52 -2807 2808 0
-2808 2824 0
-53 -2808 2809 0
-2809 2825 0
-54 -2809 2810 0
-2810 2826 0
-55 -2810 2811 0
-2811 2827 0
-56 -2811 2812 0
-2812 2828 0
-57 -2812 0
-42 2813 0
-2813 2829 0
-43 -2813 2814 0
-2814 2830 0
-44 -2814 2815 0
-2815 2831 0
-45 -2815 2816 0
-2816 2832 0
-46 -2816 2817 0
-2817 2833 0
-47 -2817 2818 0
-2818 2834 0
-48 -2818 2819 0
-2819 2835 0
-49 -2819 2820 0
-2820 2836 0
-50 -2820 2821 0
-2821 2837 0
-51 -2821 2822 0
-2822 2838 0
-52 -2822 2823 0
-2823 2839 0
-53 -2823 2824 0
-2824 2840 0
-54 -2824 2825 0
-2825 2841 0
-55 -2825 2826 0
-2826 2842 0
-56 -2826 2827 0
-2827 2843 0
-57 -2827 2828 0
-2828 2844 0
-58 -2828 0
-43 2829 0
-2829 2845 0
-44 -2829 2830 0
-2830 2846 0
-45 -2830 2831 0
-2831 2847 0
-46 -2831 2832 0
-2832 2848 0
-47 -2832 2833 0
-2833 2849 0
-48 -2833 2834 0
-2834 2850 0
-49 -2834 2835 0
-2835 2851 0
-50 -2835 2836 0
-2836 2852 0
-51 -2836 2837 0
-2837 2853 0
-52 -2837 2838 0
-2838 2854 0
-53 -2838 2839 0
-2839 2855 0
-54 -2839 2840 0
-2840 2856 0
-55 -2840 2841 0
-2841 2857 0
-56 -2841 2842 0
-2842 2858 0
-57 -2842 2843 0
-2843 2859 0
-58 -2843 2844 0
-2844 2860 0
-59 -2844 0
-44 2845 0
-2845 2861 0
-45 -2845 2846 0
-2846 2862 0
-46 -2846 2847 0
-2847 2863 0
-47 -2847 2848 0
-2848 2864 0
-48 -2848 2849 0
-2849 2865 0
-49 -2849 2850 0
-2850 2866 0
-50 -2850 2851 0
-2851 2867 0
-51 -2851 2852 0
-2852 2868 0
-52 -2852 2853 0
-2853 2869 0
-53 -2853 2854 0
-2854 2870 0
-54 -2854 2855 0
-2855 2871 0
-55 -2855 2856 0
-2856 2872 0
-56 -2856 2857 0
-2857 2873 0
-57 -2857 2858 0
-2858 2874 0
-58 -2858 2859 0
-2859 2875 0
-59 -2859 2860 0
-2860 2876 0
-60 -2860 0
-45 2861 0
-2861 2877 0
-46 -2861 2862 0
-2862 2878 0
-47 -2862 2863 0
-2863 2879 0
-48 -2863 2864 0
-2864 2880 0
-49 -2864 2865 0
-2865 2881 0
-50 -2865 2866 0
-2866 2882 0
-51 -2866 2867 0
-2867 2883 0
-52 -2867 2868 0
-2868 2884 0
-53 -2868 2869 0
-2869 2885 0
-54 -2869 2870 0
-2870 2886 0
-55 -2870 2871 0
-2871 2887 0
-56 -2871 2872 0
-2872 2888 0
-57 -2872 2873 0
-2873 2889 0
-58 -2873 2874 0
-2874 2890 0
-59 -2874 2875 0
-2875 2891 0
-60 -2875 2876 0
-2876 2892 0
-61 -2876 0
-46 2877 0
-2877 2893 0
-47 -2877 2878 0
-2878 2894 0
-48 -2878 2879 0
-2879 2895 0
-49 -2879 2880 0
-2880 2896 0
-50 -2880 2881 0
-2881 2897 0
-51 -2881 2882 0
-2882 2898 0
-52 -2882 2883 0
-2883 2899 0
-53 -2883 2884 0
-2884 2900 0
-54 -2884 2885 0
-2885 2901 0
-55 -2885 2886 0
-2886 2902 0
-56 -2886 2887 0
-2887 2903 0
-57 -2887 2888 0
-2888 2904 0
-58 -2888 2889 0
-2889 2905 0
-59 -2889 2890 0
-2890 2906 0
-60 -2890 2891 0
-2891 2907 0
-61 -2891 2892 0
-2892 2908 0
-62 -2892 0
-47 2893 0
-2893 2909 0
-48 -2893 2894 0
-2894 2910 0
-49 -2894 2895 0
-2895 2911 0
-50 -2895 2896 0
-2896 2912 0
-51 -2896 2897 0
-2897 2913 0
-52 -2897 2898 0
-2898 2914 0
-53 -2898 2899 0
-2899 2915 0
-54 -2899 2900 0
-2900 2916 0
-55 -2900 2901 0
-2901 2917 0
-56 -2901 2902 0
-2902 2918 0
-57 -2902 2903 0
-2903 2919 0
-58 -2903 2904 0
-2904 2920 0
-59 -2904 2905 0
-2905 2921 0
-60 -2905 2906 0
-2906 2922 0
-61 -2906 2907 0
-2907 2923 0
-62 -2907 2908 0
-2908 2924 0
-63 -2908 0
-48 2909 0
-2909 2925 0
-49 -2909 2910 0
-2910 2926 0
-50 -2910 2911 0
-2911 2927 0
-51 -2911 2912 0
-2912 2928 0
-52 -2912 2913 0
-2913 2929 0
-53 -2913 2914 0
-2914 2930 0
-54 -2914 2915 0
-2915 2931 0
-55 -2915 2916 0
-2916 2932 0
-56 -2916 2917 0
-2917 2933 0
-57 -2917 2918 0
-2918 2934 0
-58 -2918 2919 0
-2919 2935 0
-59 -2919 2920 0
-2920 2936 0
-60 -2920 2921 0
-2921 2937 0
-61 -2921 2922 0
-2922 2938 0
-62 -2922 2923 0
-2923 2939 0
-63 -2923 2924 0
-2924 2940 0
-64 -2924 0
-49 2925 0
-2925 2941 0
-50 -2925 2926 0
-2926 2942 0
-51 -2926 2927 0
-2927 2943 0
-52 -2927 2928 0
-2928 2944 0
-53 -2928 2929 0
-2929 2945 0
-54 -2929 2930 0
-2930 2946 0
-55 -2930 2931 0
-2931 2947 0
-56 -2931 2932 0
-2932 2948 0
-57 -2932 2933 0
-2933 2949 0
-58 -2933 2934 0
-2934 2950 0
-59 -2934 2935 0
-2935 2951 0
-60 -2935 2936 0
-2936 2952 0
-61 -2936 2937 0
-2937 2953 0
-62 -2937 2938 0
-2938 2954 0
-63 -2938 2939 0
-2939 2955 0
-64 -2939 2940 0
-2940 2956 0
-65 -2940 0
-50 2941 0
-2941 2957 0
-51 -2941 2942 0
-2942 2958 0
-52 -2942 2943 0
-2943 2959 0
-53 -2943 2944 0
-2944 2960 0
-54 -2944 2945 0
-2945 2961 0
-55 -2945 2946 0
-2946 2962 0
-56 -2946 2947 0
-2947 2963 0
-57 -2947 2948 0
-2948 2964 0
-58 -2948 2949 0
-2949 2965 0
-59 -2949 2950 0
-2950 2966 0
-60 -2950 2951 0
-2951 2967 0
-61 -2951 2952 0
-2952 2968 0
-62 -2952 2953 0
-2953 2969 0
-63 -2953 2954 0
-2954 2970 0
-64 -2954 2955 0
-2955 2971 0
-65 -2955 2956 0
-2956 2972 0
-66 -2956 0
-51 2957 0
-2957 2973 0
-52 -2957 2958 0
-2958 2974 0
-53 -2958 2959 0
-2959 2975 0
-54 -2959 2960 0
-2960 2976 0
-55 -2960 2961 0
-2961 2977 0
-56 -2961 2962 0
-2962 2978 0
-57 -2962 2963 0
-2963 2979 0
-58 -2963 2964 0
-2964 2980 0
-59 -2964 2965 0
-2965 2981 0
-60 -2965 2966 0
-2966 2982 0
-61 -2966 2967 0
-2967 2983 0
-62 -2967 2968 0
-2968 2984 0
-63 -2968 2969 0
-2969 2985 0
-64 -2969 2970 0
-2970 2986 0
-65 -2970 2971 0
-2971 2987 0
-66 -2971 2972 0
-2972 2988 0
-67 -2972 0
-52 2973 0
-2973 2989 0
-53 -2973 2974 0
-2974 2990 0
-54 -2974 2975 0
-2975 2991 0
-55 -2975 2976 0
-2976 2992 0
-56 -2976 2977 0
-2977 2993 0
-57 -2977 2978 0
-2978 2994 0
-58 -2978 2979 0
-2979 2995 0
-59 -2979 2980 0
-2980 2996 0
-60 -2980 2981 0
-2981 2997 0
-61 -2981 2982 0
-2982 2998 0
-62 -2982 2983 0
-2983 2999 0
-63 -2983 2984 0
-2984 3000 0
-64 -2984 2985 0
-2985 3001 0
-65 -2985 2986 0
-2986 3002 0
-66 -2986 2987 0
-2987 3003 0
-67 -2987 2988 0
-2988 3004 0
-68 -2988 0
-53 2989 0
-2989 3005 0
-54 -2989 2990 0
-2990 3006 0
-55 -2990 2991 0
-2991 3007 0
-56 -2991 2992 0
-2992 3008 0
-57 -2992 2993 0
-2993 3009 0
-58 -2993 2994 0
-2994 3010 0
-59 -2994 2995 0
-2995 3011 0
-60 -2995 2996 0
-2996 3012 0
-61 -2996 2997 0
-2997 3013 0
-62 -2997 2998 0
-2998 3014 0
-63 -2998 2999 0
-2999 3015 0
-64 -2999 3000 0
-3000 3016 0
-65 -3000 3001 0
-3001 3017 0
-66 -3001 3002 0
-3002 3018 0
-67 -3002 3003 0
-3003 3019 0
-68 -3003 3004 0
-3004 3020 0
-69 -3004 0
-54 3005 0
-3005 3021 0
-55 -3005 3006 0
-3006 3022 0
-56 -3006 3007 0
-3007 3023 0
-57 -3007 3008 0
-3008 3024 0
-58 -3008 3009 0
-3009 3025 0
-59 -3009 3010 0
-3010 3026 0
-60 -3010 3011 0
-3011 3027 0
-61 -3011 3012 0
-3012 3028 0
-62 -3012 3013 0
-3013 3029 0
-63 -3013 3014 0
-3014 3030 0
-64 -3014 3015 0
-3015 3031 0
-65 -3015 3016 0
-3016 3032 0
-66 -3016 3017 0
-3017 3033 0
-67 -3017 3018 0
-3018 3034 0
-68 -3018 3019 0
-3019 3035 0
-69 -3019 3020 0
-3020 3036 0
-70 -3020 0
-55 3021 0
-3021 3037 0
-56 -3021 3022 0
-3022 3038 0
-57 -3022 3023 0
-3023 3039 0
-58 -3023 3024 0
-3024 3040 0
-59 -3024 3025 0
-3025 3041 0
-60 -3025 3026 0
-3026 3042 0
-61 -3026 3027 0
-3027 3043 0
-62 -3027 3028 0
-3028 3044 0
-63 -3028 3029 0
-3029 3045 0
-64 -3029 3030 0
-3030 3046 0
-65 -3030 3031 0
-3031 3047 0
-66 -3031 3032 0
-3032 3048 0
-67 -3032 3033 0
-3033 3049 0
-68 -3033 3034 0
-3034 3050 0
-69 -3034 3035 0
-3035 3051 0
-70 -3035 3036 0
-3036 3052 0
-71 -3036 0
-56 3037 0
-3037 3053 0
-57 -3037 3038 0
-3038 3054 0
-58 -3038 3039 0
-3039 3055 0
-59 -3039 3040 0
-3040 3056 0
-60 -3040 3041 0
-3041 3057 0
-61 -3041 3042 0
-3042 3058 0
-62 -3042 3043 0
-3043 3059 0
-63 -3043 3044 0
-3044 3060 0
-64 -3044 3045 0
-3045 3061 0
-65 -3045 3046 0
-3046 3062 0
-66 -3046 3047 0
-3047 3063 0
-67 -3047 3048 0
-3048 3064 0
-68 -3048 3049 0
-3049 3065 0
-69 -3049 3050 0
-3050 3066 0
-70 -3050 3051 0
-3051 3067 0
-71 -3051 3052 0
-3052 3068 0
-72 -3052 0
-57 3053 0
-3053 3069 0
-58 -3053 3054 0
-3054 3070 0
-59 -3054 3055 0
-3055 3071 0
-60 -3055 3056 0
-3056 3072 0
-61 -3056 3057 0
-3057 3073 0
-62 -3057 3058 0
-3058 3074 0
-63 -3058 3059 0
-3059 3075 0
-64 -3059 3060 0
-3060 3076 0
-65 -3060 3061 0
-3061 3077 0
-66 -3061 3062 0
-3062 3078 0
-67 -3062 3063 0
-3063 3079 0
-68 -3063 3064 0
-3064 3080 0
-69 -3064 3065 0
-3065 3081 0
-70 -3065 3066 0
-3066 3082 0
-71 -3066 3067 0
-3067 3083 0
-72 -3067 3068 0
-3068 3084 0
-73 -3068 0
-58 3069 0
-3069 3085 0
-59 -3069 3070 0
-3070 3086 0
-60 -3070 3071 0
-3071 3087 0
-61 -3071 3072 0
-3072 3088 0
-62 -3072 3073 0
-3073 3089 0
-63 -3073 3074 0
-3074 3090 0
-64 -3074 3075 0
-3075 3091 0
-65 -3075 3076 0
-3076 3092 0
-66 -3076 3077 0
-3077 3093 0
-67 -3077 3078 0
-3078 3094 0
-68 -3078 3079 0
-3079 3095 0
-69 -3079 3080 0
-3080 3096 0
-70 -3080 3081 0
-3081 3097 0
-71 -3081 3082 0
-3082 3098 0
-72 -3082 3083 0
-3083 3099 0
-73 -3083 3084 0
-3084 3100 0
-74 -3084 0
-59 3085 0
-3085 3101 0
-60 -3085 3086 0
-3086 3102 0
-61 -3086 3087 0
-3087 3103 0
-62 -3087 3088 0
-3088 3104 0
-63 -3088 3089 0
-3089 3105 0
-64 -3089 3090 0
-3090 3106 0
-65 -3090 3091 0
-3091 3107 0
-66 -3091 3092 0
-3092 3108 0
-67 -3092 3093 0
-3093 3109 0
-68 -3093 3094 0
-3094 3110 0
-69 -3094 3095 0
-3095 3111 0
-70 -3095 3096 0
-3096 3112 0
-71 -3096 3097 0
-3097 3113 0
-72 -3097 3098 0
-3098 3114 0
-73 -3098 3099 0
-3099 3115 0
-74 -3099 3100 0
-3100 3116 0
-75 -3100 0
-60 3101 0
-3101 3117 0
-61 -3101 3102 0
-3102 3118 0
-62 -3102 3103 0
-3103 3119 0
-63 -3103 3104 0
-3104 3120 0
-64 -3104 3105 0
-3105 3121 0
-65 -3105 3106 0
-3106 3122 0
-66 -3106 3107 0
-3107 3123 0
-67 -3107 3108 0
-3108 3124 0
-68 -3108 3109 0
-3109 3125 0
-69 -3109 3110 0
-3110 3126 0
-70 -3110 3111 0
-3111 3127 0
-71 -3111 3112 0
-3112 3128 0
-72 -3112 3113 0
-3113 3129 0
-73 -3113 3114 0
-3114 3130 0
-74 -3114 3115 0
-3115 3131 0
-75 -3115 3116 0
-3116 3132 0
-76 -3116 0
-61 3117 0
-3117 3133 0
-62 -3117 3118 0
-3118 3134 0
-63 -3118 3119 0
-3119 3135 0
-64 -3119 3120 0
-3120 3136 0
-65 -3120 3121 0
-3121 3137 0
-66 -3121 3122 0
-3122 3138 0
-67 -3122 3123 0
-3123 3139 0
-68 -3123 3124 0
-3124 3140 0
-69 -3124 3125 0
-3125 3141 0
-70 -3125 3126 0
-3126 3142 0
-71 -3126 3127 0
-3127 3143 0
-72 -3127 3128 0
-3128 3144 0
-73 -3128 3129 0
-3129 3145 0
-74 -3129 3130 0
-3130 3146 0
-75 -3130 3131 0
-3131 3147 0
-76 -3131 3132 0
-3132 3148 0
-77 -3132 0
-62 3133 0
-3133 3149 0
-63 -3133 3134 0
-3134 3150 0
-64 -3134 3135 0
-3135 3151 0
-65 -3135 3136 0
-3136 3152 0
-66 -3136 3137 0
-3137 3153 0
-67 -3137 3138 0
-3138 3154 0
-68 -3138 3139 0
-3139 3155 0
-69 -3139 3140 0
-3140 3156 0
-70 -3140 3141 0
-3141 3157 0
-71 -3141 3142 0
-3142 3158 0
-72 -3142 3143 0
-3143 3159 0
-73 -3143 3144 0
-3144 3160 0
-74 -3144 3145 0
-3145 3161 0
-75 -3145 3146 0
-3146 3162 0
-76 -3146 3147 0
-3147 3163 0
-77 -3147 3148 0
-3148 3164 0
-78 -3148 0
-63 3149 0
-3149 3165 0
-64 -3149 3150 0
-3150 3166 0
-65 -3150 3151 0
-3151 3167 0
-66 -3151 3152 0
-3152 3168 0
-67 -3152 3153 0
-3153 3169 0
-68 -3153 3154 0
-3154 3170 0
-69 -3154 3155 0
-3155 3171 0
-70 -3155 3156 0
-3156 3172 0
-71 -3156 3157 0
-3157 3173 0
-72 -3157 3158 0
-3158 3174 0
-73 -3158 3159 0
-3159 3175 0
-74 -3159 3160 0
-3160 3176 0
-75 -3160 3161 0
-3161 3177 0
-76 -3161 3162 0
-3162 3178 0
-77 -3162 3163 0
-3163 3179 0
-78 -3163 3164 0
-3164 3180 0
-79 -3164 0
-64 3165 0
-3165 3181 0
-65 -3165 3166 0
-3166 3182 0
-66 -3166 3167 0
-3167 3183 0
-67 -3167 3168 0
-3168 3184 0
-68 -3168 3169 0
-3169 3185 0
-69 -3169 3170 0
-3170 3186 0
-70 -3170 3171 0
-3171 3187 0
-71 -3171 3172 0
-3172 3188 0
-72 -3172 3173 0
-3173 3189 0
-73 -3173 3174 0
-3174 3190 0
-74 -3174 3175 0
-3175 3191 0
-75 -3175 3176 0
-3176 3192 0
-76 -3176 3177 0
-3177 3193 0
-77 -3177 3178 0
-3178 3194 0
-78 -3178 3179 0
-3179 3195 0
-79 -3179 3180 0
-3180 3196 0
-80 -3180 0
-65 3181 0
-3181 3197 0
-66 -3181 3182 0
-3182 3198 0
-67 -3182 3183 0
-3183 3199 0
-68 -3183 3184 0
-3184 3200 0
-69 -3184 3185 0
-3185 3201 0
-70 -3185 3186 0
-3186 3202 0
-71 -3186 3187 0
-3187 3203 0
-72 -3187 3188 0
-3188 3204 0
-73 -3188 3189 0
-3189 3205 0
-74 -3189 3190 0
-3190 3206 0
-75 -3190 3191 0
-3191 3207 0
-76 -3191 3192 0
-3192 3208 0
-77 -3192 3193 0
-3193 3209 0
-78 -3193 3194 0
-3194 3210 0
-79 -3194 3195 0
-3195 3211 0
-80 -3195 3196 0
-3196 3212 0
-81 -3196 0
-66 3197 0
-3197 3213 0
-67 -3197 3198 0
-3198 3214 0
-68 -3198 3199 0
-3199 3215 0
-69 -3199 3200 0
-3200 3216 0
-70 -3200 3201 0
-3201 3217 0
-71 -3201 3202 0
-3202 3218 0
-72 -3202 3203 0
-3203 3219 0
-73 -3203 3204 0
-3204 3220 0
-74 -3204 3205 0
-3205 3221 0
-75 -3205 3206 0
-3206 3222 0
-76 -3206 3207 0
-3207 3223 0
-77 -3207 3208 0
-3208 3224 0
-78 -3208 3209 0
-3209 3225 0
-79 -3209 3210 0
-3210 3226 0
-80 -3210 3211 0
-3211 3227 0
-81 -3211 3212 0
-3212 3228 0
-82 -3212 0
-67 3213 0
-3213 3229 0
-68 -3213 3214 0
-3214 3230 0
-69 -3214 3215 0
-3215 3231 0
-70 -3215 3216 0
-3216 3232 0
-71 -3216 3217 0
-3217 3233 0
-72 -3217 3218 0
-3218 3234 0
-73 -3218 3219 0
-3219 3235 0
-74 -3219 3220 0
-3220 3236 0
-75 -3220 3221 0
-3221 3237 0
-76 -3221 3222 0
-3222 3238 0
-77 -3222 3223 0
-3223 3239 0
-78 -3223 3224 0
-3224 3240 0
-79 -3224 3225 0
-3225 3241 0
-80 -3225 3226 0
-3226 3242 0
-81 -3226 3227 0
-3227 3243 0
-82 -3227 3228 0
-3228 3244 0
-83 -3228 0
-68 3229 0
-3229 3245 0
-69 -3229 3230 0
-3230 3246 0
-70 -3230 3231 0
-3231 3247 0
-71 -3231 3232 0
-3232 3248 0
-72 -3232 3233 0
-3233 3249 0
-73 -3233 3234 0
-3234 3250 0
-74 -3234 3235 0
-3235 3251 0
-75 -3235 3236 0
-3236 3252 0
-76 -3236 3237 0
-3237 3253 0
-77 -3237 3238 0
-3238 3254 0
-78 -3238 3239 0
-3239 3255 0
-79 -3239 3240 0
-3240 3256 0
-80 -3240 3241 0
-3241 3257 0
-81 -3241 3242 0
-3242 3258 0
-82 -3242 3243 0
-3243 3259 0
-83 -3243 3244 0
-3244 3260 0
-84 -3244 0
-69 3245 0
-3245 3261 0
-70 -3245 3246 0
-3246 3262 0
-71 -3246 3247 0
-3247 3263 0
-72 -3247 3248 0
-3248 3264 0
-73 -3248 3249 0
-3249 3265 0
-74 -3249 3250 0
-3250 3266 0
-75 -3250 3251 0
-3251 3267 0
-76 -3251 3252 0
-3252 3268 0
-77 -3252 3253 0
-3253 3269 0
-78 -3253 3254 0
-3254 3270 0
-79 -3254 3255 0
-3255 3271 0
-80 -3255 3256 0
-3256 3272 0
-81 -3256 3257 0
-3257 3273 0
-82 -3257 3258 0
-3258 3274 0
-83 -3258 3259 0
-3259 3275 0
-84 -3259 3260 0
-3260 3276 0
-85 -3260 0
-70 3261 0
-3261 3277 0
-71 -3261 3262 0
-3262 3278 0
-72 -3262 3263 0
-3263 3279 0
-73 -3263 3264 0
-3264 3280 0
-74 -3264 3265 0
-3265 3281 0
-75 -3265 3266 0
-3266 3282 0
-76 -3266 3267 0
-3267 3283 0
-77 -3267 3268 0
-3268 3284 0
-78 -3268 3269 0
-3269 3285 0
-79 -3269 3270 0
-3270 3286 0
-80 -3270 3271 0
-3271 3287 0
-81 -3271 3272 0
-3272 3288 0
-82 -3272 3273 0
-3273 3289 0
-83 -3273 3274 0
-3274 3290 0
-84 -3274 3275 0
-3275 3291 0
-85 -3275 3276 0
-3276 3292 0
-86 -3276 0
-71 3277 0
-3277 3293 0
-72 -3277 3278 0
-3278 3294 0
-73 -3278 3279 0
-3279 3295 0
-74 -3279 3280 0
-3280 3296 0
-75 -3280 3281 0
-3281 3297 0
-76 -3281 3282 0
-3282 3298 0
-77 -3282 3283 0
-3283 3299 0
-78 -3283 3284 0
-3284 3300 0
-79 -3284 3285 0
-3285 3301 0
-80 -3285 3286 0
-3286 3302 0
-81 -3286 3287 0
-3287 3303 0
-82 -3287 3288 0
-3288 3304 0
-83 -3288 3289 0
-3289 3305 0
-84 -3289 3290 0
-3290 3306 0
-85 -3290 3291 0
-3291 3307 0
-86 -3291 3292 0
-3292 3308 0
-87 -3292 0
-72 3293 0
-3293 3309 0
-73 -3293 3294 0
-3294 3310 0
-74 -3294 3295 0
-3295 3311 0
-75 -3295 3296 0
-3296 3312 0
-76 -3296 3297 0
-3297 3313 0
-77 -3297 3298 0
-3298 3314 0
-78 -3298 3299 0
-3299 3315 0
-79 -3299 3300 0
-3300 3316 0
-80 -3300 3301 0
-3301 3317 0
-81 -3301 3302 0
-3302 3318 0
-82 -3302 3303 0
-3303 3319 0
-83 -3303 3304 0
-3304 3320 0
-84 -3304 3305 0
-3305 3321 0
-85 -3305 3306 0
-3306 3322 0
-86 -3306 3307 0
-3307 3323 0
-87 -3307 3308 0
-3308 3324 0
-88 -3308 0
-73 3309 0
-3309 3325 0
-74 -3309 3310 0
-3310 3326 0
-75 -3310 3311 0
-3311 3327 0
-76 -3311 3312 0
-3312 3328 0
-77 -3312 3313 0
-3313 3329 0
-78 -3313 3314 0
-3314 3330 0
-79 -3314 3315 0
-3315 3331 0
-80 -3315 3316 0
-3316 3332 0
-81 -3316 3317 0
-3317 3333 0
-82 -3317 3318 0
-3318 3334 0
-83 -3318 3319 0
-3319 3335 0
-84 -3319 3320 0
-3320 3336 0
-85 -3320 3321 0
-3321 3337 0
-86 -3321 3322 0
-3322 3338 0
-87 -3322 3323 0
-3323 3339 0
-88 -3323 3324 0
-3324 3340 0
-89 -3324 0
-74 3325 0
-3325 3341 0
-75 -3325 3326 0
-3326 3342 0
-76 -3326 3327 0
-3327 3343 0
-77 -3327 3328 0
-3328 3344 0
-78 -3328 3329 0
-3329 3345 0
-79 -3329 3330 0
-3330 3346 0
-80 -3330 3331 0
-3331 3347 0
-81 -3331 3332 0
-3332 3348 0
-82 -3332 3333 0
-3333 3349 0
-83 -3333 3334 0
-3334 3350 0
-84 -3334 3335 0
-3335 3351 0
-85 -3335 3336 0
-3336 3352 0
-86 -3336 3337 0
-3337 3353 0
-87 -3337 3338 0
-3338 3354 0
-88 -3338 3339 0
-3339 3355 0
-89 -3339 3340 0
-3340 3356 0
-90 -3340 0
-75 3341 0
-3341 3357 0
-76 -3341 3342 0
-3342 3358 0
-77 -3342 3343 0
-3343 3359 0
-78 -3343 3344 0
-3344 3360 0
-79 -3344 3345 0
-3345 3361 0
-80 -3345 3346 0
-3346 3362 0
-81 -3346 3347 0
-3347 3363 0
-82 -3347 3348 0
-3348 3364 0
-83 -3348 3349 0
-3349 3365 0
-84 -3349 3350 0
-3350 3366 0
-85 -3350 3351 0
-3351 3367 0
-86 -3351 3352 0
-3352 3368 0
-87 -3352 3353 0
-3353 3369 0
-88 -3353 3354 0
-3354 3370 0
-89 -3354 3355 0
-3355 3371 0
-90 -3355 3356 0
-3356 3372 0
-91 -3356 0
-76 3357 0
-3357 3373 0
-77 -3357 3358 0
-3358 3374 0
-78 -3358 3359 0
-3359 3375 0
-79 -3359 3360 0
-3360 3376 0
-80 -3360 3361 0
-3361 3377 0
-81 -3361 3362 0
-3362 3378 0
-82 -3362 3363 0
-3363 3379 0
-83 -3363 3364 0
-3364 3380 0
-84 -3364 3365 0
-3365 3381 0
-85 -3365 3366 0
-3366 3382 0
-86 -3366 3367 0
-3367 3383 0
-87 -3367 3368 0
-3368 3384 0
-88 -3368 3369 0
-3369 3385 0
-89 -3369 3370 0
-3370 3386 0
-90 -3370 3371 0
-3371 3387 0
-91 -3371 3372 0
-3372 3388 0
-92 -3372 0
-77 3373 0
-3373 3389 0
-78 -3373 3374 0
-3374 3390 0
-79 -3374 3375 0
-3375 3391 0
-80 -3375 3376 0
-3376 3392 0
-81 -3376 3377 0
-3377 3393 0
-82 -3377 3378 0
-3378 3394 0
-83 -3378 3379 0
-3379 3395 0
-84 -3379 3380 0
-3380 3396 0
-85 -3380 3381 0
-3381 3397 0
-86 -3381 3382 0
-3382 3398 0
-87 -3382 3383 0
-3383 3399 0
-88 -3383 3384 0
-3384 3400 0
-89 -3384 3385 0
-3385 3401 0
-90 -3385 3386 0
-3386 3402 0
-91 -3386 3387 0
-3387 3403 0
-92 -3387 3388 0
-3388 3404 0
-93 -3388 0
-78 3389 0
-3389 3405 0
-79 -3389 3390 0
-3390 3406 0
-80 -3390 3391 0
-3391 3407 0
-81 -3391 3392 0
-3392 3408 0
-82 -3392 3393 0
-3393 3409 0
-83 -3393 3394 0
-3394 3410 0
-84 -3394 3395 0
-3395 3411 0
-85 -3395 3396 0
-3396 3412 0
-86 -3396 3397 0
-3397 3413 0
-87 -3397 3398 0
-3398 3414 0
-88 -3398 3399 0
-3399 3415 0
-89 -3399 3400 0
-3400 3416 0
-90 -3400 3401 0
-3401 3417 0
-91 -3401 3402 0
-3402 3418 0
-92 -3402 3403 0
-3403 3419 0
-93 -3403 3404 0
-3404 3420 0
-94 -3404 0
-79 3405 0
-3405 3421 0
-80 -3405 3406 0
-3406 3422 0
-81 -3406 3407 0
-3407 3423 0
-82 -3407 3408 0
-3408 3424 0
-83 -3408 3409 0
-3409 3425 0
-84 -3409 3410 0
-3410 3426 0
-85 -3410 3411 0
-3411 3427 0
-86 -3411 3412 0
-3412 3428 0
-87 -3412 3413 0
-3413 3429 0
-88 -3413 3414 0
-3414 3430 0
-89 -3414 3415 0
-3415 3431 0
-90 -3415 3416 0
-3416 3432 0
-91 -3416 3417 0
-3417 3433 0
-92 -3417 3418 0
-3418 3434 0
-93 -3418 3419 0
-3419 3435 0
-94 -3419 3420 0
-3420 3436 0
-95 -3420 0
-80 3421 0
-3421 3437 0
-81 -3421 3422 0
-3422 3438 0
-82 -3422 3423 0
-3423 3439 0
-83 -3423 3424 0
-3424 3440 0
-84 -3424 3425 0
-3425 3441 0
-85 -3425 3426 0
-3426 3442 0
-86 -3426 3427 0
-3427 3443 0
-87 -3427 3428 0
-3428 3444 0
-88 -3428 3429 0
-3429 3445 0
-89 -3429 3430 0
-3430 3446 0
-90 -3430 3431 0
-3431 3447 0
-91 -3431 3432 0
-3432 3448 0
-92 -3432 3433 0
-3433 3449 0
-93 -3433 3434 0
-3434 3450 0
-94 -3434 3435 0
-3435 3451 0
-95 -3435 3436 0
-3436 3452 0
-96 -3436 0
-81 3437 0
-3437 3453 0
-82 -3437 3438 0
-3438 3454 0
-83 -3438 3439 0
-3439 3455 0
-84 -3439 3440 0
-3440 3456 0
-85 -3440 3441 0
-3441 3457 0
-86 -3441 3442 0
-3442 3458 0
-87 -3442 3443 0
-3443 3459 0
-88 -3443 3444 0
-3444 3460 0
-89 -3444 3445 0
-3445 3461 0
-90 -3445 3446 0
-3446 3462 0
-91 -3446 3447 0
-3447 3463 0
-92 -3447 3448 0
-3448 3464 0
-93 -3448 3449 0
-3449 3465 0
-94 -3449 3450 0
-3450 3466 0
-95 -3450 3451 0
-3451 3467 0
-96 -3451 3452 0
-3452 3468 0
-97 -3452 0
-82 3453 0
-3453 3469 0
-83 -3453 3454 0
-3454 3470 0
-84 -3454 3455 0
-3455 3471 0
-85 -3455 3456 0
-3456 3472 0
-86 -3456 3457 0
-3457 3473 0
-87 -3457 3458 0
-3458 3474 0
-88 -3458 3459 0
-3459 3475 0
-89 -3459 3460 0
-3460 3476 0
-90 -3460 3461 0
-3461 3477 0
-91 -3461 3462 0
-3462 3478 0
-92 -3462 3463 0
-3463 3479 0
-93 -3463 3464 0
-3464 3480 0
-94 -3464 3465 0
-3465 3481 0
-95 -3465 3466 0
-3466 3482 0
-96 -3466 3467 0
-3467 3483 0
-97 -3467 3468 0
-3468 3484 0
-98 -3468 0
-83 3469 0
-3469 3485 0
-84 -3469 3470 0
-3470 3486 0
-85 -3470 3471 0
-3471 3487 0
-86 -3471 3472 0
-3472 3488 0
-87 -3472 3473 0
-3473 3489 0
-88 -3473 3474 0
-3474 3490 0
-89 -3474 3475 0
-3475 3491 0
-90 -3475 3476 0
-3476 3492 0
-91 -3476 3477 0
-3477 3493 0
-92 -3477 3478 0
-3478 3494 0
-93 -3478 3479 0
-3479 3495 0
-94 -3479 3480 0
-3480 3496 0
-95 -3480 3481 0
-3481 3497 0
-96 -3481 3482 0
-3482 3498 0
-97 -3482 3483 0
-3483 3499 0
-98 -3483 3484 0
-3484 3500 0
-99 -3484 0
-84 3485 0
-3485 3501 0
-85 -3485 3486 0
-3486 3502 0
-86 -3486 3487 0
-3487 3503 0
-87 -3487 3488 0
-3488 3504 0
-88 -3488 3489 0
-3489 3505 0
-89 -3489 3490 0
-3490 3506 0
-90 -3490 3491 0
-3491 3507 0
-91 -3491 3492 0
-3492 3508 0
-92 -3492 3493 0
-3493 3509 0
-93 -3493 3494 0
-3494 3510 0
-94 -3494 3495 0
-3495 3511 0
-95 -3495 3496 0
-3496 3512 0
-96 -3496 3497 0
-3497 3513 0
-97 -3497 3498 0
-3498 3514 0
-98 -3498 3499 0
-3499 3515 0
-99 -3499 3500 0
-3500 3516 0
-100 -3500 0
-85 3501 0
-3501 3517 0
-86 -3501 3502 0
-3502 3518 0
-87 -3502 3503 0
-3503 3519 0
-88 -3503 3504 0
-3504 3520 0
-89 -3504 3505 0
-3505 3521 0
-90 -3505 3506 0
-3506 3522 0
-91 -3506 3507 0
-3507 3523 0
-92 -3507 3508 0
-3508 3524 0
-93 -3508 3509 0
-3509 3525 0
-94 -3509 3510 0
-3510 3526 0
-95 -3510 3511 0
-3511 3527 0
-96 -3511 3512 0
-3512 3528 0
-97 -3512 3513 0
-3513 3529 0
-98 -3513 3514 0
-3514 3530 0
-99 -3514 3515 0
-3515 3531 0
-100 -3515 3516 0
-3516 3532 0
-101 -3516 0
-86 3517 0
-3517 3533 0
-87 -3517 3518 0
-3518 3534 0
-88 -3518 3519 0
-3519 3535 0
-89 -3519 3520 0
-3520 3536 0
-90 -3520 3521 0
-3521 3537 0
-91 -3521 3522 0
-3522 3538 0
-92 -3522 3523 0
-3523 3539 0
-93 -3523 3524 0
-3524 3540 0
-94 -3524 3525 0
-3525 3541 0
-95 -3525 3526 0
-3526 3542 0
-96 -3526 3527 0
-3527 3543 0
-97 -3527 3528 0
-3528 3544 0
-98 -3528 3529 0
-3529 3545 0
-99 -3529 3530 0
-3530 3546 0
-100 -3530 3531 0
-3531 3547 0
-101 -3531 3532 0
-3532 3548 0
-102 -3532 0
-87 3533 0
-3533 3549 0
-88 -3533 3534 0
-3534 3550 0
-89 -3534 3535 0
-3535 3551 0
-90 -3535 3536 0
-3536 3552 0
-91 -3536 3537 0
-3537 3553 0
-92 -3537 3538 0
-3538 3554 0
-93 -3538 3539 0
-3539 3555 0
-94 -3539 3540 0
-3540 3556 0
-95 -3540 3541 0
-3541 3557 0
-96 -3541 3542 0
-3542 3558 0
-97 -3542 3543 0
-3543 3559 0
-98 -3543 3544 0
-3544 3560 0
-99 -3544 3545 0
-3545 3561 0
-100 -3545 3546 0
-3546 3562 0
-101 -3546 3547 0
-3547 3563 0
-102 -3547 3548 0
-3548 3564 0
-103 -3548 0
-88 3549 0
-3549 3565 0
-89 -3549 3550 0
-3550 3566 0
-90 -3550 3551 0
-3551 3567 0
-91 -3551 3552 0
-3552 3568 0
-92 -3552 3553 0
-3553 3569 0
-93 -3553 3554 0
-3554 3570 0
-94 -3554 3555 0
-3555 3571 0
-95 -3555 3556 0
-3556 3572 0
-96 -3556 3557 0
-3557 3573 0
-97 -3557 3558 0
-3558 3574 0
-98 -3558 3559 0
-3559 3575 0
-99 -3559 3560 0
-3560 3576 0
-100 -3560 3561 0
-3561 3577 0
-101 -3561 3562 0
-3562 3578 0
-102 -3562 3563 0
-3563 3579 0
-103 -3563 3564 0
-3564 3580 0
-104 -3564 0
-89 3565 0
-3565 3581 0
-90 -3565 3566 0
-3566 3582 0
-91 -3566 3567 0
-3567 3583 0
-92 -3567 3568 0
-3568 3584 0
-93 -3568 3569 0
-3569 3585 0
-94 -3569 3570 0
-3570 3586 0
-95 -3570 3571 0
-3571 3587 0
-96 -3571 3572 0
-3572 3588 0
-97 -3572 3573 0
-3573 3589 0
-98 -3573 3574 0
-3574 3590 0
-99 -3574 3575 0
-3575 3591 0
-100 -3575 3576 0
-3576 3592 0
-101 -3576 3577 0
-3577 3593 0
-102 -3577 3578 0
-3578 3594 0
-103 -3578 3579 0
-3579 3595 0
-104 -3579 3580 0
-3580 3596 0
-105 -3580 0
-90 3581 0
-3581 3597 0
-91 -3581 3582 0
-3582 3598 0
-92 -3582 3583 0
-3583 3599 0
-93 -3583 3584 0
-3584 3600 0
-94 -3584 3585 0
-3585 3601 0
-95 -3585 3586 0
-3586 3602 0
-96 -3586 3587 0
-3587 3603 0
-97 -3587 3588 0
-3588 3604 0
-98 -3588 3589 0
-3589 3605 0
-99 -3589 3590 0
-3590 3606 0
-100 -3590 3591 0
-3591 3607 0
-101 -3591 3592 0
-3592 3608 0
-102 -3592 3593 0
-3593 3609 0
-103 -3593 3594 0
-3594 3610 0
-104 -3594 3595 0
-3595 3611 0
-105 -3595 3596 0
-3596 3612 0
-106 -3596 0
-91 3597 0
-3597 3613 0
-92 -3597 3598 0
-3598 3614 0
-93 -3598 3599 0
-3599 3615 0
-94 -3599 3600 0
-3600 3616 0
-95 -3600 3601 0
-3601 3617 0
-96 -3601 3602 0
-3602 3618 0
-97 -3602 3603 0
-3603 3619 0
-98 -3603 3604 0
-3604 3620 0
-99 -3604 3605 0
-3605 3621 0
-100 -3605 3606 0
-3606 3622 0
-101 -3606 3607 0
-3607 3623 0
-102 -3607 3608 0
-3608 3624 0
-103 -3608 3609 0
-3609 3625 0
-104 -3609 3610 0
-3610 3626 0
-105 -3610 3611 0
-3611 3627 0
-106 -3611 3612 0
-3612 3628 0
-107 -3612 0
-92 3613 0
-3613 3629 0
-93 -3613 3614 0
-3614 3630 0
-94 -3614 3615 0
-3615 3631 0
-95 -3615 3616 0
-3616 3632 0
-96 -3616 3617 0
-3617 3633 0
-97 -3617 3618 0
-3618 3634 0
-98 -3618 3619 0
-3619 3635 0
-99 -3619 3620 0
-3620 3636 0
-100 -3620 3621 0
-3621 3637 0
-101 -3621 3622 0
-3622 3638 0
-102 -3622 3623 0
-3623 3639 0
-103 -3623 3624 0
-3624 3640 0
-104 -3624 3625 0
-3625 3641 0
-105 -3625 3626 0
-3626 3642 0
-106 -3626 3627 0
-3627 3643 0
-107 -3627 3628 0
-3628 3644 0
-108 -3628 0
-93 3629 0
-3629 3645 0
-94 -3629 3630 0
-3630 3646 0
-95 -3630 3631 0
-3631 3647 0
-96 -3631 3632 0
-3632 3648 0
-97 -3632 3633 0
-3633 3649 0
-98 -3633 3634 0
-3634 3650 0
-99 -3634 3635 0
-3635 3651 0
-100 -3635 3636 0
-3636 3652 0
-101 -3636 3637 0
-3637 3653 0
-102 -3637 3638 0
-3638 3654 0
-103 -3638 3639 0
-3639 3655 0
-104 -3639 3640 0
-3640 3656 0
-105 -3640 3641 0
-3641 3657 0
-106 -3641 3642 0
-3642 3658 0
-107 -3642 3643 0
-3643 3659 0
-108 -3643 3644 0
-3644 3660 0
-109 -3644 0
-94 3645 0
-3645 3661 0
-95 -3645 3646 0
-3646 3662 0
-96 -3646 3647 0
-3647 3663 0
-97 -3647 3648 0
-3648 3664 0
-98 -3648 3649 0
-3649 3665 0
-99 -3649 3650 0
-3650 3666 0
-100 -3650 3651 0
-3651 3667 0
-101 -3651 3652 0
-3652 3668 0
-102 -3652 3653 0
-3653 3669 0
-103 -3653 3654 0
-3654 3670 0
-104 -3654 3655 0
-3655 3671 0
-105 -3655 3656 0
-3656 3672 0
-106 -3656 3657 0
-3657 3673 0
-107 -3657 3658 0
-3658 3674 0
-108 -3658 3659 0
-3659 3675 0
-109 -3659 3660 0
-3660 3676 0
-110 -3660 0
-95 3661 0
-3661 3677 0
-96 -3661 3662 0
-3662 3678 0
-97 -3662 3663 0
-3663 3679 0
-98 -3663 3664 0
-3664 3680 0
-99 -3664 3665 0
-3665 3681 0
-100 -3665 3666 0
-3666 3682 0
-101 -3666 3667 0
-3667 3683 0
-102 -3667 3668 0
-3668 3684 0
-103 -3668 3669 0
-3669 3685 0
-104 -3669 3670 0
-3670 3686 0
-105 -3670 3671 0
-3671 3687 0
-106 -3671 3672 0
-3672 3688 0
-107 -3672 3673 0
-3673 3689 0
-108 -3673 3674 0
-3674 3690 0
-109 -3674 3675 0
-3675 3691 0
-110 -3675 3676 0
-3676 3692 0
-111 -3676 0
-96 3677 0
-3677 3693 0
-97 -3677 3678 0
-3678 3694 0
-98 -3678 3679 0
-3679 3695 0
-99 -3679 3680 0
-3680 3696 0
-100 -3680 3681 0
-3681 3697 0
-101 -3681 3682 0
-3682 3698 0
-102 -3682 3683 0
-3683 3699 0
-103 -3683 3684 0
-3684 3700 0
-104 -3684 3685 0
-3685 3701 0
-105 -3685 3686 0
-3686 3702 0
-106 -3686 3687 0
-3687 3703 0
-107 -3687 3688 0
-3688 3704 0
-108 -3688 3689 0
-3689 3705 0
-109 -3689 3690 0
-3690 3706 0
-110 -3690 3691 0
-3691 3707 0
-111 -3691 3692 0
-3692 3708 0
-112 -3692 0
-97 3693 0
-3693 3709 0
-98 -3693 3694 0
-3694 3710 0
-99 -3694 3695 0
-3695 3711 0
-100 -3695 3696 0
-3696 3712 0
-101 -3696 3697 0
-3697 3713 0
-102 -3697 3698 0
-3698 3714 0
-103 -3698 3699 0
-3699 3715 0
-104 -3699 3700 0
-3700 3716 0
-105 -3700 3701 0
-3701 3717 0
-106 -3701 3702 0
-3702 3718 0
-107 -3702 3703 0
-3703 3719 0
-108 -3703 3704 0
-3704 3720 0
-109 -3704 3705 0
-3705 3721 0
-110 -3705 3706 0
-3706 3722 0
-111 -3706 3707 0
-3707 3723 0
-112 -3707 3708 0
-3708 3724 0
-113 -3708 0
-98 3709 0
-3709 3725 0
-99 -3709 3710 0
-3710 3726 0
-100 -3710 3711 0
-3711 3727 0
-101 -3711 3712 0
-3712 3728 0
-102 -3712 3713 0
-3713 3729 0
-103 -3713 3714 0
-3714 3730 0
-104 -3714 3715 0
-3715 3731 0
-105 -3715 3716 0
-3716 3732 0
-106 -3716 3717 0
-3717 3733 0
-107 -3717 3718 0
-3718 3734 0
-108 -3718 3719 0
-3719 3735 0
-109 -3719 3720 0
-3720 3736 0
-110 -3720 3721 0
-3721 3737 0
-111 -3721 3722 0
-3722 3738 0
-112 -3722 3723 0
-3723 3739 0
-113 -3723 3724 0
-3724 3740 0
-114 -3724 0
-99 3725 0
-3725 3741 0
-100 -3725 3726 0
-3726 3742 0
-101 -3726 3727 0
-3727 3743 0
-102 -3727 3728 0
-3728 3744 0
-103 -3728 3729 0
-3729 3745 0
-104 -3729 3730 0
-3730 3746 0
-105 -3730 3731 0
-3731 3747 0
-106 -3731 3732 0
-3732 3748 0
-107 -3732 3733 0
-3733 3749 0
-108 -3733 3734 0
-3734 3750 0
-109 -3734 3735 0
-3735 3751 0
-110 -3735 3736 0
-3736 3752 0
-111 -3736 3737 0
-3737 3753 0
-112 -3737 3738 0
-3738 3754 0
-113 -3738 3739 0
-3739 3755 0
-114 -3739 3740 0
-3740 3756 0
-115 -3740 0
-100 3741 0
-3741 3757 0
-101 -3741 3742 0
-3742 3758 0
-102 -3742 3743 0
-3743 3759 0
-103 -3743 3744 0
-3744 3760 0
-104 -3744 3745 0
-3745 3761 0
-105 -3745 3746 0
-3746 3762 0
-106 -3746 3747 0
-3747 3763 0
-107 -3747 3748 0
-3748 3764 0
-108 -3748 3749 0
-3749 3765 0
-109 -3749 3750 0
-3750 3766 0
-110 -3750 3751 0
-3751 3767 0
-111 -3751 3752 0
-3752 3768 0
-112 -3752 3753 0
-3753 3769 0
-113 -3753 3754 0
-3754 3770 0
-114 -3754 3755 0
-3755 3771 0
-115 -3755 3756 0
-3756 3772 0
-116 -3756 0
-101 3757 0
-3757 3773 0
-102 -3757 3758 0
-3758 3774 0
-103 -3758 3759 0
-3759 3775 0
-104 -3759 3760 0
-3760 3776 0
-105 -3760 3761 0
-3761 3777 0
-106 -3761 3762 0
-3762 3778 0
-107 -3762 3763 0
-3763 3779 0
-108 -3763 3764 0
-3764 3780 0
-109 -3764 3765 0
-3765 3781 0
-110 -3765 3766 0
-3766 3782 0
-111 -3766 3767 0
-3767 3783 0
-112 -3767 3768 0
-3768 3784 0
-113 -3768 3769 0
-3769 3785 0
-114 -3769 3770 0
-3770 3786 0
-115 -3770 3771 0
-3771 3787 0
-116 -3771 3772 0
-3772 3788 0
-117 -3772 0
-102 3773 0
-3773 3789 0
-103 -3773 3774 0
-3774 3790 0
-104 -3774 3775 0
-3775 3791 0
-105 -3775 3776 0
-3776 3792 0
-106 -3776 3777 0
-3777 3793 0
-107 -3777 3778 0
-3778 3794 0
-108 -3778 3779 0
-3779 3795 0
-109 -3779 3780 0
-3780 3796 0
-110 -3780 3781 0
-3781 3797 0
-111 -3781 3782 0
-3782 3798 0
-112 -3782 3783 0
-3783 3799 0
-113 -3783 3784 0
-3784 3800 0
-114 -3784 3785 0
-3785 3801 0
-115 -3785 3786 0
-3786 3802 0
-116 -3786 3787 0
-3787 3803 0
-117 -3787 3788 0
-3788 3804 0
-118 -3788 0
-103 3789 0
-3789 3805 0
-104 -3789 3790 0
-3790 3806 0
-105 -3790 3791 0
-3791 3807 0
-106 -3791 3792 0
-3792 3808 0
-107 -3792 3793 0
-3793 3809 0
-108 -3793 3794 0
-3794 3810 0
-109 -3794 3795 0
-3795 3811 0
-110 -3795 3796 0
-3796 3812 0
-111 -3796 3797 0
-3797 3813 0
-112 -3797 3798 0
-3798 3814 0
-113 -3798 3799 0
-3799 3815 0
-114 -3799 3800 0
-3800 3816 0
-115 -3800 3801 0
-3801 3817 0
-116 -3801 3802 0
-3802 3818 0
-117 -3802 3803 0
-3803 3819 0
-118 -3803 3804 0
-3804 3820 0
-119 -3804 0
-104 3805 0
-3805 3821 0
-105 -3805 3806 0
-3806 3822 0
-106 -3806 3807 0
-3807 3823 0
-107 -3807 3808 0
-3808 3824 0
-108 -3808 3809 0
-3809 3825 0
-109 -3809 3810 0
-3810 3826 0
-110 -3810 3811 0
-3811 3827 0
-111 -3811 3812 0
-3812 3828 0
-112 -3812 3813 0
-3813 3829 0
-113 -3813 3814 0
-3814 3830 0
-114 -3814 3815 0
-3815 3831 0
-115 -3815 3816 0
-3816 3832 0
-116 -3816 3817 0
-3817 3833 0
-117 -3817 3818 0
-3818 3834 0
-118 -3818 3819 0
-3819 3835 0
-119 -3819 3820 0
-3820 3836 0
-120 -3820 0
-105 3821 0
-3821 3837 0
-106 -3821 3822 0
-3822 3838 0
-107 -3822 3823 0
-3823 3839 0
-108 -3823 3824 0
-3824 3840 0
-109 -3824 3825 0
-3825 3841 0
-110 -3825 3826 0
-3826 3842 0
-111 -3826 3827 0
-3827 3843 0
-112 -3827 3828 0
-3828 3844 0
-113 -3828 3829 0
-3829 3845 0
-114 -3829 3830 0
-3830 3846 0
-115 -3830 3831 0
-3831 3847 0
-116 -3831 3832 0
-3832 3848 0
-117 -3832 3833 0
-3833 3849 0
-118 -3833 3834 0
-3834 3850 0
-119 -3834 3835 0
-3835 3851 0
-120 -3835 3836 0
-3836 3852 0
-121 -3836 0
-106 3837 0
-3837 3853 0
-107 -3837 3838 0
-3838 3854 0
-108 -3838 3839 0
-3839 3855 0
-109 -3839 3840 0
-3840 3856 0
-110 -3840 3841 0
-3841 3857 0
-111 -3841 3842 0
-3842 3858 0
-112 -3842 3843 0
-3843 3859 0
-113 -3843 3844 0
-3844 3860 0
-114 -3844 3845 0
-3845 3861 0
-115 -3845 3846 0
-3846 3862 0
-116 -3846 3847 0
-3847 3863 0
-117 -3847 3848 0
-3848 3864 0
-118 -3848 3849 0
-3849 3865 0
-119 -3849 3850 0
-3850 3866 0
-120 -3850 3851 0
-3851 3867 0
-121 -3851 3852 0
-3852 3868 0
-122 -3852 0
-107 3853 0
-3853 3869 0
-108 -3853 3854 0
-3854 3870 0
-109 -3854 3855 0
-3855 3871 0
-110 -3855 3856 0
-3856 3872 0
-111 -3856 3857 0
-3857 3873 0
-112 -3857 3858 0
-3858 3874 0
-113 -3858 3859 0
-3859 3875 0
-114 -3859 3860 0
-3860 3876 0
-115 -3860 3861 0
-3861 3877 0
-116 -3861 3862 0
-3862 3878 0
-117 -3862 3863 0
-3863 3879 0
-118 -3863 3864 0
-3864 3880 0
-119 -3864 3865 0
-3865 3881 0
-120 -3865 3866 0
-3866 3882 0
-121 -3866 3867 0
-3867 3883 0
-122 -3867 3868 0
-3868 3884 0
-123 -3868 0
-108 3869 0
-3869 3885 0
-109 -3869 3870 0
-3870 3886 0
-110 -3870 3871 0
-3871 3887 0
-111 -3871 3872 0
-3872 3888 0
-112 -3872 3873 0
-3873 3889 0
-113 -3873 3874 0
-3874 3890 0
-114 -3874 3875 0
-3875 3891 0
-115 -3875 3876 0
-3876 3892 0
-116 -3876 3877 0
-3877 3893 0
-117 -3877 3878 0
-3878 3894 0
-118 -3878 3879 0
-3879 3895 0
-119 -3879 3880 0
-3880 3896 0
-120 -3880 3881 0
-3881 3897 0
-121 -3881 3882 0
-3882 3898 0
-122 -3882 3883 0
-3883 3899 0
-123 -3883 3884 0
-3884 3900 0
-124 -3884 0
-109 3885 0
-3885 3901 0
-110 -3885 3886 0
-3886 3902 0
-111 -3886 3887 0
-3887 3903 0
-112 -3887 3888 0
-3888 3904 0
-113 -3888 3889 0
-3889 3905 0
-114 -3889 3890 0
-3890 3906 0
-115 -3890 3891 0
-3891 3907 0
-116 -3891 3892 0
-3892 3908 0
-117 -3892 3893 0
-3893 3909 0
-118 -3893 3894 0
-3894 3910 0
-119 -3894 3895 0
-3895 3911 0
-120 -3895 3896 0
-3896 3912 0
-121 -3896 3897 0
-3897 3913 0
-122 -3897 3898 0
-3898 3914 0
-123 -3898 3899 0
-3899 3915 0
-124 -3899 3900 0
-3900 3916 0
-125 -3900 0
-110 3901 0
-3901 3917 0
-111 -3901 3902 0
-3902 3918 0
-112 -3902 3903 0
-3903 3919 0
-113 -3903 3904 0
-3904 3920 0
-114 -3904 3905 0
-3905 3921 0
-115 -3905 3906 0
-3906 3922 0
-116 -3906 3907 0
-3907 3923 0
-117 -3907 3908 0
-3908 3924 0
-118 -3908 3909 0
-3909 3925 0
-119 -3909 3910 0
-3910 3926 0
-120 -3910 3911 0
-3911 3927 0
-121 -3911 3912 0
-3912 3928 0
-122 -3912 3913 0
-3913 3929 0
-123 -3913 3914 0
-3914 3930 0
-124 -3914 3915 0
-3915 3931 0
-125 -3915 3916 0
-3916 3932 0
-126 -3916 0
-111 3917 0
-3917 3933 0
-112 -3917 3918 0
-3918 3934 0
-113 -3918 3919 0
-3919 3935 0
-114 -3919 3920 0
-3920 3936 0
-115 -3920 3921 0
-3921 3937 0
-116 -3921 3922 0
-3922 3938 0
-117 -3922 3923 0
-3923 3939 0
-118 -3923 3924 0
-3924 3940 0
-119 -3924 3925 0
-3925 3941 0
-120 -3925 3926 0
-3926 3942 0
-121 -3926 3927 0
-3927 3943 0
-122 -3927 3928 0
-3928 3944 0
-123 -3928 3929 0
-3929 3945 0
-124 -3929 3930 0
-3930 3946 0
-125 -3930 3931 0
-3931 3947 0
-126 -3931 3932 0
-3932 3948 0
-127 -3932 0
-112 3933 0
-3933 3949 0
-113 -3933 3934 0
-3934 3950 0
-114 -3934 3935 0
-3935 3951 0
-115 -3935 3936 0
-3936 3952 0
-116 -3936 3937 0
-3937 3953 0
-117 -3937 3938 0
-3938 3954 0
-118 -3938 3939 0
-3939 3955 0
-119 -3939 3940 0
-3940 3956 0
-120 -3940 3941 0
-3941 3957 0
-121 -3941 3942 0
-3942 3958 0
-122 -3942 3943 0
-3943 3959 0
-123 -3943 3944 0
-3944 3960 0
-124 -3944 3945 0
-3945 3961 0
-125 -3945 3946 0
-3946 3962 0
-126 -3946 3947 0
-3947 3963 0
-127 -3947 3948 0
-3948 3964 0
-128 -3948 0
-113 3949 0
-3949 3965 0
-114 -3949 3950 0
-3950 3966 0
-115 -3950 3951 0
-3951 3967 0
-116 -3951 3952 0
-3952 3968 0
-117 -3952 3953 0
-3953 3969 0
-118 -3953 3954 0
-3954 3970 0
-119 -3954 3955 0
-3955 3971 0
-120 -3955 3956 0
-3956 3972 0
-121 -3956 3957 0
-3957 3973 0
-122 -3957 3958 0
-3958 3974 0
-123 -3958 3959 0
-3959 3975 0
-124 -3959 3960 0
-3960 3976 0
-125 -3960 3961 0
-3961 3977 0
-126 -3961 3962 0
-3962 3978 0
-127 -3962 3963 0
-3963 3979 0
-128 -3963 3964 0
-3964 3980 0
-129 -3964 0
-114 3965 0
-3965 3981 0
-115 -3965 3966 0
-3966 3982 0
-116 -3966 3967 0
-3967 3983 0
-117 -3967 3968 0
-3968 3984 0
-118 -3968 3969 0
-3969 3985 0
-119 -3969 3970 0
-3970 3986 0
-120 -3970 3971 0
-3971 3987 0
-121 -3971 3972 0
-3972 3988 0
-122 -3972 3973 0
-3973 3989 0
-123 -3973 3974 0
-3974 3990 0
-124 -3974 3975 0
-3975 3991 0
-125 -3975 3976 0
-3976 3992 0
-126 -3976 3977 0
-3977 3993 0
-127 -3977 3978 0
-3978 3994 0
-128 -3978 3979 0
-3979 3995 0
-129 -3979 3980 0
-3980 3996 0
-130 -3980 0
-115 3981 0
-3981 3997 0
-116 -3981 3982 0
-3982 3998 0
-117 -3982 3983 0
-3983 3999 0
-118 -3983 3984 0
-3984 4000 0
-119 -3984 3985 0
-3985 4001 0
-120 -3985 3986 0
-3986 4002 0
-121 -3986 3987 0
-3987 4003 0
-122 -3987 3988 0
-3988 4004 0
-123 -3988 3989 0
-3989 4005 0
-124 -3989 3990 0
-3990 4006 0
-125 -3990 3991 0
-3991 4007 0
-126 -3991 3992 0
-3992 4008 0
-127 -3992 3993 0
-3993 4009 0
-128 -3993 3994 0
-3994 4010 0
-129 -3994 3995 0
-3995 4011 0
-130 -3995 3996 0
-3996 4012 0
-131 -3996 0
-116 3997 0
-3997 4013 0
-117 -3997 3998 0
-3998 4014 0
-118 -3998 3999 0
-3999 4015 0
-119 -3999 4000 0
-4000 4016 0
-120 -4000 4001 0
-4001 4017 0
-121 -4001 4002 0
-4002 4018 0
-122 -4002 4003 0
-4003 4019 0
-123 -4003 4004 0
-4004 4020 0
-124 -4004 4005 0
-4005 4021 0
-125 -4005 4006 0
-4006 4022 0
-126 -4006 4007 0
-4007 4023 0
-127 -4007 4008 0
-4008 4024 0
-128 -4008 4009 0
-4009 4025 0
-129 -4009 4010 0
-4010 4026 0
-130 -4010 4011 0
-4011 4027 0
-131 -4011 4012 0
-4012 4028 0
-132 -4012 0
-117 4013 0
-4013 4029 0
-118 -4013 4014 0
-4014 4030 0
-119 -4014 4015 0
-4015 4031 0
-120 -4015 4016 0
-4016 4032 0
-121 -4016 4017 0
-4017 4033 0
-122 -4017 4018 0
-4018 4034 0
-123 -4018 4019 0
-4019 4035 0
-124 -4019 4020 0
-4020 4036 0
-125 -4020 4021 0
-4021 4037 0
-126 -4021 4022 0
-4022 4038 0
-127 -4022 4023 0
-4023 4039 0
-128 -4023 4024 0
-4024 4040 0
-129 -4024 4025 0
-4025 4041 0
-130 -4025 4026 0
-4026 4042 0
-131 -4026 4027 0
-4027 4043 0
-132 -4027 4028 0
-4028 4044 0
-133 -4028 0
-118 4029 0
-119 -4029 4030 0
-120 -4030 4031 0
-121 -4031 4032 0
-122 -4032 4033 0
-123 -4033 4034 0
-124 -4034 4035 0
-125 -4035 4036 0
-126 -4036 4037 0
-127 -4037 4038 0
-128 -4038 4039 0
-129 -4039 4040 0
-130 -4040 4041 0
-131 -4041 4042 0
-132 -4042 4043 0
-133 -4043 4044 0
-134 -4044 0
-135 4045 0
-4045 4046 0
-136 -4045 4047 0
-4047 4048 0
-137 -4047 4049 0
-4049 4050 0
-138 -4049 4051 0
-4051 4052 0
-139 -4051 4053 0
-4053 4054 0
-140 -4053 4055 0
-4055 4056 0
-141 -4055 4057 0
-4057 4058 0
-142 -4057 4059 0
-4059 4060 0
-143 -4059 4061 0
-4061 4062 0
-144 -4061 0
-136 4046 0
-4046 4063 0
-137 -4046 4048 0
-4048 4064 0
-138 -4048 4050 0
-4050 4065 0
-139 -4050 4052 0
-4052 4066 0
-140 -4052 4054 0
-4054 4067 0
-141 -4054 4056 0
-4056 4068 0
-142 -4056 4058 0
-4058 4069 0
-143 -4058 4060 0
-4060 4070 0
-144 -4060 4062 0
-4062 4071 0
-145 -4062 0
-137 4063 0
-4063 4072 0
-138 -4063 4064 0
-4064 4073 0
-139 -4064 4065 0
-4065 4074 0
-140 -4065 4066 0
-4066 4075 0
-141 -4066 4067 0
-4067 4076 0
-142 -4067 4068 0
-4068 4077 0
-143 -4068 4069 0
-4069 4078 0
-144 -4069 4070 0
-4070 4079 0
-145 -4070 4071 0
-4071 4080 0
-146 -4071 0
-138 4072 0
-4072 4081 0
-139 -4072 4073 0
-4073 4082 0
-140 -4073 4074 0
-4074 4083 0
-141 -4074 4075 0
-4075 4084 0
-142 -4075 4076 0
-4076 4085 0
-143 -4076 4077 0
-4077 4086 0
-144 -4077 4078 0
-4078 4087 0
-145 -4078 4079 0
-4079 4088 0
-146 -4079 4080 0
-4080 4089 0
-147 -4080 0
-139 4081 0
-4081 4090 0
-140 -4081 4082 0
-4082 4091 0
-141 -4082 4083 0
-4083 4092 0
-142 -4083 4084 0
-4084 4093 0
-143 -4084 4085 0
-4085 4094 0
-144 -4085 4086 0
-4086 4095 0
-145 -4086 4087 0
-4087 4096 0
-146 -4087 4088 0
-4088 4097 0
-147 -4088 4089 0
-4089 4098 0
-148 -4089 0
-140 4090 0
-4090 4099 0
-141 -4090 4091 0
-4091 4100 0
-142 -4091 4092 0
-4092 4101 0
-143 -4092 4093 0
-4093 4102 0
-144 -4093 4094 0
-4094 4103 0
-145 -4094 4095 0
-4095 4104 0
-146 -4095 4096 0
-4096 4105 0
-147 -4096 4097 0
-4097 4106 0
-148 -4097 4098 0
-4098 4107 0
-149 -4098 0
-141 4099 0
-4099 4108 0
-142 -4099 4100 0
-4100 4109 0
-143 -4100 4101 0
-4101 4110 0
-144 -4101 4102 0
-4102 4111 0
-145 -4102 4103 0
-4103 4112 0
-146 -4103 4104 0
-4104 4113 0
-147 -4104 4105 0
-4105 4114 0
-148 -4105 4106 0
-4106 4115 0
-149 -4106 4107 0
-4107 4116 0
-150 -4107 0
-142 4108 0
-4108 4117 0
-143 -4108 4109 0
-4109 4118 0
-144 -4109 4110 0
-4110 4119 0
-145 -4110 4111 0
-4111 4120 0
-146 -4111 4112 0
-4112 4121 0
-147 -4112 4113 0
-4113 4122 0
-148 -4113 4114 0
-4114 4123 0
-149 -4114 4115 0
-4115 4124 0
-150 -4115 4116 0
-4116 4125 0
-151 -4116 0
-143 4117 0
-4117 4126 0
-144 -4117 4118 0
-4118 4127 0
-145 -4118 4119 0
-4119 4128 0
-146 -4119 4120 0
-4120 4129 0
-147 -4120 4121 0
-4121 4130 0
-148 -4121 4122 0
-4122 4131 0
-149 -4122 4123 0
-4123 4132 0
-150 -4123 4124 0
-4124 4133 0
-151 -4124 4125 0
-4125 4134 0
-152 -4125 0
-144 4126 0
-4126 4135 0
-145 -4126 4127 0
-4127 4136 0
-146 -4127 4128 0
-4128 4137 0
-147 -4128 4129 0
-4129 4138 0
-148 -4129 4130 0
-4130 4139 0
-149 -4130 4131 0
-4131 4140 0
-150 -4131 4132 0
-4132 4141 0
-151 -4132 4133 0
-4133 4142 0
-152 -4133 4134 0
-4134 4143 0
-153 -4134 0
-145 4135 0
-4135 4144 0
-146 -4135 4136 0
-4136 4145 0
-147 -4136 4137 0
-4137 4146 0
-148 -4137 4138 0
-4138 4147 0
-149 -4138 4139 0
-4139 4148 0
-150 -4139 4140 0
-4140 4149 0
-151 -4140 4141 0
-4141 4150 0
-152 -4141 4142 0
-4142 4151 0
-153 -4142 4143 0
-4143 4152 0
-154 -4143 0
-146 4144 0
-4144 4153 0
-147 -4144 4145 0
-4145 4154 0
-148 -4145 4146 0
-4146 4155 0
-149 -4146 4147 0
-4147 4156 0
-150 -4147 4148 0
-4148 4157 0
-151 -4148 4149 0
-4149 4158 0
-152 -4149 4150 0
-4150 4159 0
-153 -4150 4151 0
-4151 4160 0
-154 -4151 4152 0
-4152 4161 0
-155 -4152 0
-147 4153 0
-4153 4162 0
-148 -4153 4154 0
-4154 4163 0
-149 -4154 4155 0
-4155 4164 0
-150 -4155 4156 0
-4156 4165 0
-151 -4156 4157 0
-4157 4166 0
-152 -4157 4158 0
-4158 4167 0
-153 -4158 4159 0
-4159 4168 0
-154 -4159 4160 0
-4160 4169 0
-155 -4160 4161 0
-4161 4170 0
-156 -4161 0
-148 4162 0
-4162 4171 0
-149 -4162 4163 0
-4163 4172 0
-150 -4163 4164 0
-4164 4173 0
-151 -4164 4165 0
-4165 4174 0
-152 -4165 4166 0
-4166 4175 0
-153 -4166 4167 0
-4167 4176 0
-154 -4167 4168 0
-4168 4177 0
-155 -4168 4169 0
-4169 4178 0
-156 -4169 4170 0
-4170 4179 0
-157 -4170 0
-149 4171 0
-4171 4180 0
-150 -4171 4172 0
-4172 4181 0
-151 -4172 4173 0
-4173 4182 0
-152 -4173 4174 0
-4174 4183 0
-153 -4174 4175 0
-4175 4184 0
-154 -4175 4176 0
-4176 4185 0
-155 -4176 4177 0
-4177 4186 0
-156 -4177 4178 0
-4178 4187 0
-157 -4178 4179 0
-4179 4188 0
-158 -4179 0
-150 4180 0
-4180 4189 0
-151 -4180 4181 0
-4181 4190 0
-152 -4181 4182 0
-4182 4191 0
-153 -4182 4183 0
-4183 4192 0
-154 -4183 4184 0
-4184 4193 0
-155 -4184 4185 0
-4185 4194 0
-156 -4185 4186 0
-4186 4195 0
-157 -4186 4187 0
-4187 4196 0
-158 -4187 4188 0
-4188 4197 0
-159 -4188 0
-151 4189 0
-4189 4198 0
-152 -4189 4190 0
-4190 4199 0
-153 -4190 4191 0
-4191 4200 0
-154 -4191 4192 0
-4192 4201 0
-155 -4192 4193 0
-4193 4202 0
-156 -4193 4194 0
-4194 4203 0
-157 -4194 4195 0
-4195 4204 0
-158 -4195 4196 0
-4196 4205 0
-159 -4196 4197 0
-4197 4206 0
-160 -4197 0
-152 4198 0
-4198 4207 0
-153 -4198 4199 0
-4199 4208 0
-154 -4199 4200 0
-4200 4209 0
-155 -4200 4201 0
-4201 4210 0
-156 -4201 4202 0
-4202 4211 0
-157 -4202 4203 0
-4203 4212 0
-158 -4203 4204 0
-4204 4213 0
-159 -4204 4205 0
-4205 4214 0
-160 -4205 4206 0
-4206 4215 0
-161 -4206 0
-153 4207 0
-4207 4216 0
-154 -4207 4208 0
-4208 4217 0
-155 -4208 4209 0
-4209 4218 0
-156 -4209 4210 0
-4210 4219 0
-157 -4210 4211 0
-4211 4220 0
-158 -4211 4212 0
-4212 4221 0
-159 -4212 4213 0
-4213 4222 0
-160 -4213 4214 0
-4214 4223 0
-161 -4214 4215 0
-4215 4224 0
-162 -4215 0
-154 4216 0
-4216 4225 0
-155 -4216 4217 0
-4217 4226 0
-156 -4217 4218 0
-4218 4227 0
-157 -4218 4219 0
-4219 4228 0
-158 -4219 4220 0
-4220 4229 0
-159 -4220 4221 0
-4221 4230 0
-160 -4221 4222 0
-4222 4231 0
-161 -4222 4223 0
-4223 4232 0
-162 -4223 4224 0
-4224 4233 0
-163 -4224 0
-155 4225 0
-4225 4234 0
-156 -4225 4226 0
-4226 4235 0
-157 -4226 4227 0
-4227 4236 0
-158 -4227 4228 0
-4228 4237 0
-159 -4228 4229 0
-4229 4238 0
-160 -4229 4230 0
-4230 4239 0
-161 -4230 4231 0
-4231 4240 0
-162 -4231 4232 0
-4232 4241 0
-163 -4232 4233 0
-4233 4242 0
-164 -4233 0
-156 4234 0
-4234 4243 0
-157 -4234 4235 0
-4235 4244 0
-158 -4235 4236 0
-4236 4245 0
-159 -4236 4237 0
-4237 4246 0
-160 -4237 4238 0
-4238 4247 0
-161 -4238 4239 0
-4239 4248 0
-162 -4239 4240 0
-4240 4249 0
-163 -4240 4241 0
-4241 4250 0
-164 -4241 4242 0
-4242 4251 0
-165 -4242 0
-157 4243 0
-4243 4252 0
-158 -4243 4244 0
-4244 4253 0
-159 -4244 4245 0
-4245 4254 0
-160 -4245 4246 0
-4246 4255 0
-161 -4246 4247 0
-4247 4256 0
-162 -4247 4248 0
-4248 4257 0
-163 -4248 4249 0
-4249 4258 0
-164 -4249 4250 0
-4250 4259 0
-165 -4250 4251 0
-4251 4260 0
-166 -4251 0
-158 4252 0
-4252 4261 0
-159 -4252 4253 0
-4253 4262 0
-160 -4253 4254 0
-4254 4263 0
-161 -4254 4255 0
-4255 4264 0
-162 -4255 4256 0
-4256 4265 0
-163 -4256 4257 0
-4257 4266 0
-164 -4257 4258 0
-4258 4267 0
-165 -4258 4259 0
-4259 4268 0
-166 -4259 4260 0
-4260 4269 0
-167 -4260 0
-159 4261 0
-4261 4270 0
-160 -4261 4262 0
-4262 4271 0
-161 -4262 4263 0
-4263 4272 0
-162 -4263 4264 0
-4264 4273 0
-163 -4264 4265 0
-4265 4274 0
-164 -4265 4266 0
-4266 4275 0
-165 -4266 4267 0
-4267 4276 0
-166 -4267 4268 0
-4268 4277 0
-167 -4268 4269 0
-4269 4278 0
-168 -4269 0
-160 4270 0
-4270 4279 0
-161 -4270 4271 0
-4271 4280 0
-162 -4271 4272 0
-4272 4281 0
-163 -4272 4273 0
-4273 4282 0
-164 -4273 4274 0
-4274 4283 0
-165 -4274 4275 0
-4275 4284 0
-166 -4275 4276 0
-4276 4285 0
-167 -4276 4277 0
-4277 4286 0
-168 -4277 4278 0
-4278 4287 0
-169 -4278 0
-161 4279 0
-4279 4288 0
-162 -4279 4280 0
-4280 4289 0
-163 -4280 4281 0
-4281 4290 0
-164 -4281 4282 0
-4282 4291 0
-165 -4282 4283 0
-4283 4292 0
-166 -4283 4284 0
-4284 4293 0
-167 -4284 4285 0
-4285 4294 0
-168 -4285 4286 0
-4286 4295 0
-169 -4286 4287 0
-4287 4296 0
-170 -4287 0
-162 4288 0
-4288 4297 0
-163 -4288 4289 0
-4289 4298 0
-164 -4289 4290 0
-4290 4299 0
-165 -4290 4291 0
-4291 4300 0
-166 -4291 4292 0
-4292 4301 0
-167 -4292 4293 0
-4293 4302 0
-168 -4293 4294 0
-4294 4303 0
-169 -4294 4295 0
-4295 4304 0
-170 -4295 4296 0
-4296 4305 0
-171 -4296 0
-163 4297 0
-4297 4306 0
-164 -4297 4298 0
-4298 4307 0
-165 -4298 4299 0
-4299 4308 0
-166 -4299 4300 0
-4300 4309 0
-167 -4300 4301 0
-4301 4310 0
-168 -4301 4302 0
-4302 4311 0
-169 -4302 4303 0
-4303 4312 0
-170 -4303 4304 0
-4304 4313 0
-171 -4304 4305 0
-4305 4314 0
-172 -4305 0
-164 4306 0
-4306 4315 0
-165 -4306 4307 0
-4307 4316 0
-166 -4307 4308 0
-4308 4317 0
-167 -4308 4309 0
-4309 4318 0
-168 -4309 4310 0
-4310 4319 0
-169 -4310 4311 0
-4311 4320 0
-170 -4311 4312 0
-4312 4321 0
-171 -4312 4313 0
-4313 4322 0
-172 -4313 4314 0
-4314 4323 0
-173 -4314 0
-165 4315 0
-4315 4324 0
-166 -4315 4316 0
-4316 4325 0
-167 -4316 4317 0
-4317 4326 0
-168 -4317 4318 0
-4318 4327 0
-169 -4318 4319 0
-4319 4328 0
-170 -4319 4320 0
-4320 4329 0
-171 -4320 4321 0
-4321 4330 0
-172 -4321 4322 0
-4322 4331 0
-173 -4322 4323 0
-4323 4332 0
-174 -4323 0
-166 4324 0
-4324 4333 0
-167 -4324 4325 0
-4325 4334 0
-168 -4325 4326 0
-4326 4335 0
-169 -4326 4327 0
-4327 4336 0
-170 -4327 4328 0
-4328 4337 0
-171 -4328 4329 0
-4329 4338 0
-172 -4329 4330 0
-4330 4339 0
-173 -4330 4331 0
-4331 4340 0
-174 -4331 4332 0
-4332 4341 0
-175 -4332 0
-167 4333 0
-4333 4342 0
-168 -4333 4334 0
-4334 4343 0
-169 -4334 4335 0
-4335 4344 0
-170 -4335 4336 0
-4336 4345 0
-171 -4336 4337 0
-4337 4346 0
-172 -4337 4338 0
-4338 4347 0
-173 -4338 4339 0
-4339 4348 0
-174 -4339 4340 0
-4340 4349 0
-175 -4340 4341 0
-4341 4350 0
-176 -4341 0
-168 4342 0
-4342 4351 0
-169 -4342 4343 0
-4343 4352 0
-170 -4343 4344 0
-4344 4353 0
-171 -4344 4345 0
-4345 4354 0
-172 -4345 4346 0
-4346 4355 0
-173 -4346 4347 0
-4347 4356 0
-174 -4347 4348 0
-4348 4357 0
-175 -4348 4349 0
-4349 4358 0
-176 -4349 4350 0
-4350 4359 0
-177 -4350 0
-169 4351 0
-4351 4360 0
-170 -4351 4352 0
-4352 4361 0
-171 -4352 4353 0
-4353 4362 0
-172 -4353 4354 0
-4354 4363 0
-173 -4354 4355 0
-4355 4364 0
-174 -4355 4356 0
-4356 4365 0
-175 -4356 4357 0
-4357 4366 0
-176 -4357 4358 0
-4358 4367 0
-177 -4358 4359 0
-4359 4368 0
-178 -4359 0
-170 4360 0
-4360 4369 0
-171 -4360 4361 0
-4361 4370 0
-172 -4361 4362 0
-4362 4371 0
-173 -4362 4363 0
-4363 4372 0
-174 -4363 4364 0
-4364 4373 0
-175 -4364 4365 0
-4365 4374 0
-176 -4365 4366 0
-4366 4375 0
-177 -4366 4367 0
-4367 4376 0
-178 -4367 4368 0
-4368 4377 0
-179 -4368 0
-171 4369 0
-4369 4378 0
-172 -4369 4370 0
-4370 4379 0
-173 -4370 4371 0
-4371 4380 0
-174 -4371 4372 0
-4372 4381 0
-175 -4372 4373 0
-4373 4382 0
-176 -4373 4374 0
-4374 4383 0
-177 -4374 4375 0
-4375 4384 0
-178 -4375 4376 0
-4376 4385 0
-179 -4376 4377 0
-4377 4386 0
-180 -4377 0
-172 4378 0
-4378 4387 0
-173 -4378 4379 0
-4379 4388 0
-174 -4379 4380 0
-4380 4389 0
-175 -4380 4381 0
-4381 4390 0
-176 -4381 4382 0
-4382 4391 0
-177 -4382 4383 0
-4383 4392 0
-178 -4383 4384 0
-4384 4393 0
-179 -4384 4385 0
-4385 4394 0
-180 -4385 4386 0
-4386 4395 0
-181 -4386 0
-173 4387 0
-4387 4396 0
-174 -4387 4388 0
-4388 4397 0
-175 -4388 4389 0
-4389 4398 0
-176 -4389 4390 0
-4390 4399 0
-177 -4390 4391 0
-4391 4400 0
-178 -4391 4392 0
-4392 4401 0
-179 -4392 4393 0
-4393 4402 0
-180 -4393 4394 0
-4394 4403 0
-181 -4394 4395 0
-4395 4404 0
-182 -4395 0
-174 4396 0
-4396 4405 0
-175 -4396 4397 0
-4397 4406 0
-176 -4397 4398 0
-4398 4407 0
-177 -4398 4399 0
-4399 4408 0
-178 -4399 4400 0
-4400 4409 0
-179 -4400 4401 0
-4401 4410 0
-180 -4401 4402 0
-4402 4411 0
-181 -4402 4403 0
-4403 4412 0
-182 -4403 4404 0
-4404 4413 0
-183 -4404 0
-175 4405 0
-4405 4414 0
-176 -4405 4406 0
-4406 4415 0
-177 -4406 4407 0
-4407 4416 0
-178 -4407 4408 0
-4408 4417 0
-179 -4408 4409 0
-4409 4418 0
-180 -4409 4410 0
-4410 4419 0
-181 -4410 4411 0
-4411 4420 0
-182 -4411 4412 0
-4412 4421 0
-183 -4412 4413 0
-4413 4422 0
-184 -4413 0
-176 4414 0
-4414 4423 0
-177 -4414 4415 0
-4415 4424 0
-178 -4415 4416 0
-4416 4425 0
-179 -4416 4417 0
-4417 4426 0
-180 -4417 4418 0
-4418 4427 0
-181 -4418 4419 0
-4419 4428 0
-182 -4419 4420 0
-4420 4429 0
-183 -4420 4421 0
-4421 4430 0
-184 -4421 4422 0
-4422 4431 0
-185 -4422 0
-177 4423 0
-4423 4432 0
-178 -4423 4424 0
-4424 4433 0
-179 -4424 4425 0
-4425 4434 0
-180 -4425 4426 0
-4426 4435 0
-181 -4426 4427 0
-4427 4436 0
-182 -4427 4428 0
-4428 4437 0
-183 -4428 4429 0
-4429 4438 0
-184 -4429 4430 0
-4430 4439 0
-185 -4430 4431 0
-4431 4440 0
-186 -4431 0
-178 4432 0
-4432 4441 0
-179 -4432 4433 0
-4433 4442 0
-180 -4433 4434 0
-4434 4443 0
-181 -4434 4435 0
-4435 4444 0
-182 -4435 4436 0
-4436 4445 0
-183 -4436 4437 0
-4437 4446 0
-184 -4437 4438 0
-4438 4447 0
-185 -4438 4439 0
-4439 4448 0
-186 -4439 4440 0
-4440 4449 0
-187 -4440 0
-179 4441 0
-4441 4450 0
-180 -4441 4442 0
-4442 4451 0
-181 -4442 4443 0
-4443 4452 0
-182 -4443 4444 0
-4444 4453 0
-183 -4444 4445 0
-4445 4454 0
-184 -4445 4446 0
-4446 4455 0
-185 -4446 4447 0
-4447 4456 0
-186 -4447 4448 0
-4448 4457 0
-187 -4448 4449 0
-4449 4458 0
-188 -4449 0
-180 4450 0
-4450 4459 0
-181 -4450 4451 0
-4451 4460 0
-182 -4451 4452 0
-4452 4461 0
-183 -4452 4453 0
-4453 4462 0
-184 -4453 4454 0
-4454 4463 0
-185 -4454 4455 0
-4455 4464 0
-186 -4455 4456 0
-4456 4465 0
-187 -4456 4457 0
-4457 4466 0
-188 -4457 4458 0
-4458 4467 0
-189 -4458 0
-181 4459 0
-4459 4468 0
-182 -4459 4460 0
-4460 4469 0
-183 -4460 4461 0
-4461 4470 0
-184 -4461 4462 0
-4462 4471 0
-185 -4462 4463 0
-4463 4472 0
-186 -4463 4464 0
-4464 4473 0
-187 -4464 4465 0
-4465 4474 0
-188 -4465 4466 0
-4466 4475 0
-189 -4466 4467 0
-4467 4476 0
-190 -4467 0
-182 4468 0
-4468 4477 0
-183 -4468 4469 0
-4469 4478 0
-184 -4469 4470 0
-4470 4479 0
-185 -4470 4471 0
-4471 4480 0
-186 -4471 4472 0
-4472 4481 0
-187 -4472 4473 0
-4473 4482 0
-188 -4473 4474 0
-4474 4483 0
-189 -4474 4475 0
-4475 4484 0
-190 -4475 4476 0
-4476 4485 0
-191 -4476 0
-183 4477 0
-4477 4486 0
-184 -4477 4478 0
-4478 4487 0
-185 -4478 4479 0
-4479 4488 0
-186 -4479 4480 0
-4480 4489 0
-187 -4480 4481 0
-4481 4490 0
-188 -4481 4482 0
-4482 4491 0
-189 -4482 4483 0
-4483 4492 0
-190 -4483 4484 0
-4484 4493 0
-191 -4484 4485 0
-4485 4494 0
-192 -4485 0
-184 4486 0
-4486 4495 0
-185 -4486 4487 0
-4487 4496 0
-186 -4487 4488 0
-4488 4497 0
-187 -4488 4489 0
-4489 4498 0
-188 -4489 4490 0
-4490 4499 0
-189 -4490 4491 0
-4491 4500 0
-190 -4491 4492 0
-4492 4501 0
-191 -4492 4493 0
-4493 4502 0
-192 -4493 4494 0
-4494 4503 0
-193 -4494 0
-185 4495 0
-4495 4504 0
-186 -4495 4496 0
-4496 4505 0
-187 -4496 4497 0
-4497 4506 0
-188 -4497 4498 0
-4498 4507 0
-189 -4498 4499 0
-4499 4508 0
-190 -4499 4500 0
-4500 4509 0
-191 -4500 4501 0
-4501 4510 0
-192 -4501 4502 0
-4502 4511 0
-193 -4502 4503 0
-4503 4512 0
-194 -4503 0
-186 4504 0
-4504 4513 0
-187 -4504 4505 0
-4505 4514 0
-188 -4505 4506 0
-4506 4515 0
-189 -4506 4507 0
-4507 4516 0
-190 -4507 4508 0
-4508 4517 0
-191 -4508 4509 0
-4509 4518 0
-192 -4509 4510 0
-4510 4519 0
-193 -4510 4511 0
-4511 4520 0
-194 -4511 4512 0
-4512 4521 0
-195 -4512 0
-187 4513 0
-4513 4522 0
-188 -4513 4514 0
-4514 4523 0
-189 -4514 4515 0
-4515 4524 0
-190 -4515 4516 0
-4516 4525 0
-191 -4516 4517 0
-4517 4526 0
-192 -4517 4518 0
-4518 4527 0
-193 -4518 4519 0
-4519 4528 0
-194 -4519 4520 0
-4520 4529 0
-195 -4520 4521 0
-4521 4530 0
-196 -4521 0
-188 4522 0
-4522 4531 0
-189 -4522 4523 0
-4523 4532 0
-190 -4523 4524 0
-4524 4533 0
-191 -4524 4525 0
-4525 4534 0
-192 -4525 4526 0
-4526 4535 0
-193 -4526 4527 0
-4527 4536 0
-194 -4527 4528 0
-4528 4537 0
-195 -4528 4529 0
-4529 4538 0
-196 -4529 4530 0
-4530 4539 0
-197 -4530 0
-189 4531 0
-4531 4540 0
-190 -4531 4532 0
-4532 4541 0
-191 -4532 4533 0
-4533 4542 0
-192 -4533 4534 0
-4534 4543 0
-193 -4534 4535 0
-4535 4544 0
-194 -4535 4536 0
-4536 4545 0
-195 -4536 4537 0
-4537 4546 0
-196 -4537 4538 0
-4538 4547 0
-197 -4538 4539 0
-4539 4548 0
-198 -4539 0
-190 4540 0
-4540 4549 0
-191 -4540 4541 0
-4541 4550 0
-192 -4541 4542 0
-4542 4551 0
-193 -4542 4543 0
-4543 4552 0
-194 -4543 4544 0
-4544 4553 0
-195 -4544 4545 0
-4545 4554 0
-196 -4545 4546 0
-4546 4555 0
-197 -4546 4547 0
-4547 4556 0
-198 -4547 4548 0
-4548 4557 0
-199 -4548 0
-191 4549 0
-4549 4558 0
-192 -4549 4550 0
-4550 4559 0
-193 -4550 4551 0
-4551 4560 0
-194 -4551 4552 0
-4552 4561 0
-195 -4552 4553 0
-4553 4562 0
-196 -4553 4554 0
-4554 4563 0
-197 -4554 4555 0
-4555 4564 0
-198 -4555 4556 0
-4556 4565 0
-199 -4556 4557 0
-4557 4566 0
-200 -4557 0
-192 4558 0
-4558 4567 0
-193 -4558 4559 0
-4559 4568 0
-194 -4559 4560 0
-4560 4569 0
-195 -4560 4561 0
-4561 4570 0
-196 -4561 4562 0
-4562 4571 0
-197 -4562 4563 0
-4563 4572 0
-198 -4563 4564 0
-4564 4573 0
-199 -4564 4565 0
-4565 4574 0
-200 -4565 4566 0
-4566 4575 0
-201 -4566 0
-193 4567 0
-4567 4576 0
-194 -4567 4568 0
-4568 4577 0
-195 -4568 4569 0
-4569 4578 0
-196 -4569 4570 0
-4570 4579 0
-197 -4570 4571 0
-4571 4580 0
-198 -4571 4572 0
-4572 4581 0
-199 -4572 4573 0
-4573 4582 0
-200 -4573 4574 0
-4574 4583 0
-201 -4574 4575 0
-4575 4584 0
-202 -4575 0
-194 4576 0
-4576 4585 0
-195 -4576 4577 0
-4577 4586 0
-196 -4577 4578 0
-4578 4587 0
-197 -4578 4579 0
-4579 4588 0
-198 -4579 4580 0
-4580 4589 0
-199 -4580 4581 0
-4581 4590 0
-200 -4581 4582 0
-4582 4591 0
-201 -4582 4583 0
-4583 4592 0
-202 -4583 4584 0
-4584 4593 0
-203 -4584 0
-195 4585 0
-4585 4594 0
-196 -4585 4586 0
-4586 4595 0
-197 -4586 4587 0
-4587 4596 0
-198 -4587 4588 0
-4588 4597 0
-199 -4588 4589 0
-4589 4598 0
-200 -4589 4590 0
-4590 4599 0
-201 -4590 4591 0
-4591 4600 0
-202 -4591 4592 0
-4592 4601 0
-203 -4592 4593 0
-4593 4602 0
-204 -4593 0
-196 4594 0
-4594 4603 0
-197 -4594 4595 0
-4595 4604 0
-198 -4595 4596 0
-4596 4605 0
-199 -4596 4597 0
-4597 4606 0
-200 -4597 4598 0
-4598 4607 0
-201 -4598 4599 0
-4599 4608 0
-202 -4599 4600 0
-4600 4609 0
-203 -4600 4601 0
-4601 4610 0
-204 -4601 4602 0
-4602 4611 0
-205 -4602 0
-197 4603 0
-4603 4612 0
-198 -4603 4604 0
-4604 4613 0
-199 -4604 4605 0
-4605 4614 0
-200 -4605 4606 0
-4606 4615 0
-201 -4606 4607 0
-4607 4616 0
-202 -4607 4608 0
-4608 4617 0
-203 -4608 4609 0
-4609 4618 0
-204 -4609 4610 0
-4610 4619 0
-205 -4610 4611 0
-4611 4620 0
-206 -4611 0
-198 4612 0
-4612 4621 0
-199 -4612 4613 0
-4613 4622 0
-200 -4613 4614 0
-4614 4623 0
-201 -4614 4615 0
-4615 4624 0
-202 -4615 4616 0
-4616 4625 0
-203 -4616 4617 0
-4617 4626 0
-204 -4617 4618 0
-4618 4627 0
-205 -4618 4619 0
-4619 4628 0
-206 -4619 4620 0
-4620 4629 0
-207 -4620 0
-199 4621 0
-4621 4630 0
-200 -4621 4622 0
-4622 4631 0
-201 -4622 4623 0
-4623 4632 0
-202 -4623 4624 0
-4624 4633 0
-203 -4624 4625 0
-4625 4634 0
-204 -4625 4626 0
-4626 4635 0
-205 -4626 4627 0
-4627 4636 0
-206 -4627 4628 0
-4628 4637 0
-207 -4628 4629 0
-4629 4638 0
-208 -4629 0
-200 4630 0
-4630 4639 0
-201 -4630 4631 0
-4631 4640 0
-202 -4631 4632 0
-4632 4641 0
-203 -4632 4633 0
-4633 4642 0
-204 -4633 4634 0
-4634 4643 0
-205 -4634 4635 0
-4635 4644 0
-206 -4635 4636 0
-4636 4645 0
-207 -4636 4637 0
-4637 4646 0
-208 -4637 4638 0
-4638 4647 0
-209 -4638 0
-201 4639 0
-4639 4648 0
-202 -4639 4640 0
-4640 4649 0
-203 -4640 4641 0
-4641 4650 0
-204 -4641 4642 0
-4642 4651 0
-205 -4642 4643 0
-4643 4652 0
-206 -4643 4644 0
-4644 4653 0
-207 -4644 4645 0
-4645 4654 0
-208 -4645 4646 0
-4646 4655 0
-209 -4646 4647 0
-4647 4656 0
-210 -4647 0
-202 4648 0
-4648 4657 0
-203 -4648 4649 0
-4649 4658 0
-204 -4649 4650 0
-4650 4659 0
-205 -4650 4651 0
-4651 4660 0
-206 -4651 4652 0
-4652 4661 0
-207 -4652 4653 0
-4653 4662 0
-208 -4653 4654 0
-4654 4663 0
-209 -4654 4655 0
-4655 4664 0
-210 -4655 4656 0
-4656 4665 0
-211 -4656 0
-203 4657 0
-4657 4666 0
-204 -4657 4658 0
-4658 4667 0
-205 -4658 4659 0
-4659 4668 0
-206 -4659 4660 0
-4660 4669 0
-207 -4660 4661 0
-4661 4670 0
-208 -4661 4662 0
-4662 4671 0
-209 -4662 4663 0
-4663 4672 0
-210 -4663 4664 0
-4664 4673 0
-211 -4664 4665 0
-4665 4674 0
-212 -4665 0
-204 4666 0
-4666 4675 0
-205 -4666 4667 0
-4667 4676 0
-206 -4667 4668 0
-4668 4677 0
-207 -4668 4669 0
-4669 4678 0
-208 -4669 4670 0
-4670 4679 0
-209 -4670 4671 0
-4671 4680 0
-210 -4671 4672 0
-4672 4681 0
-211 -4672 4673 0
-4673 4682 0
-212 -4673 4674 0
-4674 4683 0
-213 -4674 0
-205 4675 0
-4675 4684 0
-206 -4675 4676 0
-4676 4685 0
-207 -4676 4677 0
-4677 4686 0
-208 -4677 4678 0
-4678 4687 0
-209 -4678 4679 0
-4679 4688 0
-210 -4679 4680 0
-4680 4689 0
-211 -4680 4681 0
-4681 4690 0
-212 -4681 4682 0
-4682 4691 0
-213 -4682 4683 0
-4683 4692 0
-214 -4683 0
-206 4684 0
-4684 4693 0
-207 -4684 4685 0
-4685 4694 0
-208 -4685 4686 0
-4686 4695 0
-209 -4686 4687 0
-4687 4696 0
-210 -4687 4688 0
-4688 4697 0
-211 -4688 4689 0
-4689 4698 0
-212 -4689 4690 0
-4690 4699 0
-213 -4690 4691 0
-4691 4700 0
-214 -4691 4692 0
-4692 4701 0
-215 -4692 0
-207 4693 0
-4693 4702 0
-208 -4693 4694 0
-4694 4703 0
-209 -4694 4695 0
-4695 4704 0
-210 -4695 4696 0
-4696 4705 0
-211 -4696 4697 0
-4697 4706 0
-212 -4697 4698 0
-4698 4707 0
-213 -4698 4699 0
-4699 4708 0
-214 -4699 4700 0
-4700 4709 0
-215 -4700 4701 0
-4701 4710 0
-216 -4701 0
-208 4702 0
-4702 4711 0
-209 -4702 4703 0
-4703 4712 0
-210 -4703 4704 0
-4704 4713 0
-211 -4704 4705 0
-4705 4714 0
-212 -4705 4706 0
-4706 4715 0
-213 -4706 4707 0
-4707 4716 0
-214 -4707 4708 0
-4708 4717 0
-215 -4708 4709 0
-4709 4718 0
-216 -4709 4710 0
-4710 4719 0
-217 -4710 0
-209 4711 0
-4711 4720 0
-210 -4711 4712 0
-4712 4721 0
-211 -4712 4713 0
-4713 4722 0
-212 -4713 4714 0
-4714 4723 0
-213 -4714 4715 0
-4715 4724 0
-214 -4715 4716 0
-4716 4725 0
-215 -4716 4717 0
-4717 4726 0
-216 -4717 4718 0
-4718 4727 0
-217 -4718 4719 0
-4719 4728 0
-218 -4719 0
-210 4720 0
-4720 4729 0
-211 -4720 4721 0
-4721 4730 0
-212 -4721 4722 0
-4722 4731 0
-213 -4722 4723 0
-4723 4732 0
-214 -4723 4724 0
-4724 4733 0
-215 -4724 4725 0
-4725 4734 0
-216 -4725 4726 0
-4726 4735 0
-217 -4726 4727 0
-4727 4736 0
-218 -4727 4728 0
-4728 4737 0
-219 -4728 0
-211 4729 0
-4729 4738 0
-212 -4729 4730 0
-4730 4739 0
-213 -4730 4731 0
-4731 4740 0
-214 -4731 4732 0
-4732 4741 0
-215 -4732 4733 0
-4733 4742 0
-216 -4733 4734 0
-4734 4743 0
-217 -4734 4735 0
-4735 4744 0
-218 -4735 4736 0
-4736 4745 0
-219 -4736 4737 0
-4737 4746 0
-220 -4737 0
-212 4738 0
-4738 4747 0
-213 -4738 4739 0
-4739 4748 0
-214 -4739 4740 0
-4740 4749 0
-215 -4740 4741 0
-4741 4750 0
-216 -4741 4742 0
-4742 4751 0
-217 -4742 4743 0
-4743 4752 0
-218 -4743 4744 0
-4744 4753 0
-219 -4744 4745 0
-4745 4754 0
-220 -4745 4746 0
-4746 4755 0
-221 -4746 0
-213 4747 0
-4747 4756 0
-214 -4747 4748 0
-4748 4757 0
-215 -4748 4749 0
-4749 4758 0
-216 -4749 4750 0
-4750 4759 0
-217 -4750 4751 0
-4751 4760 0
-218 -4751 4752 0
-4752 4761 0
-219 -4752 4753 0
-4753 4762 0
-220 -4753 4754 0
-4754 4763 0
-221 -4754 4755 0
-4755 4764 0
-222 -4755 0
-214 4756 0
-4756 4765 0
-215 -4756 4757 0
-4757 4766 0
-216 -4757 4758 0
-4758 4767 0
-217 -4758 4759 0
-4759 4768 0
-218 -4759 4760 0
-4760 4769 0
-219 -4760 4761 0
-4761 4770 0
-220 -4761 4762 0
-4762 4771 0
-221 -4762 4763 0
-4763 4772 0
-222 -4763 4764 0
-4764 4773 0
-223 -4764 0
-215 4765 0
-4765 4774 0
-216 -4765 4766 0
-4766 4775 0
-217 -4766 4767 0
-4767 4776 0
-218 -4767 4768 0
-4768 4777 0
-219 -4768 4769 0
-4769 4778 0
-220 -4769 4770 0
-4770 4779 0
-221 -4770 4771 0
-4771 4780 0
-222 -4771 4772 0
-4772 4781 0
-223 -4772 4773 0
-4773 4782 0
-224 -4773 0
-216 4774 0
-4774 4783 0
-217 -4774 4775 0
-4775 4784 0
-218 -4775 4776 0
-4776 4785 0
-219 -4776 4777 0
-4777 4786 0
-220 -4777 4778 0
-4778 4787 0
-221 -4778 4779 0
-4779 4788 0
-222 -4779 4780 0
-4780 4789 0
-223 -4780 4781 0
-4781 4790 0
-224 -4781 4782 0
-4782 4791 0
-225 -4782 0
-217 4783 0
-4783 4792 0
-218 -4783 4784 0
-4784 4793 0
-219 -4784 4785 0
-4785 4794 0
-220 -4785 4786 0
-4786 4795 0
-221 -4786 4787 0
-4787 4796 0
-222 -4787 4788 0
-4788 4797 0
-223 -4788 4789 0
-4789 4798 0
-224 -4789 4790 0
-4790 4799 0
-225 -4790 4791 0
-4791 4800 0
-226 -4791 0
-218 4792 0
-4792 4801 0
-219 -4792 4793 0
-4793 4802 0
-220 -4793 4794 0
-4794 4803 0
-221 -4794 4795 0
-4795 4804 0
-222 -4795 4796 0
-4796 4805 0
-223 -4796 4797 0
-4797 4806 0
-224 -4797 4798 0
-4798 4807 0
-225 -4798 4799 0
-4799 4808 0
-226 -4799 4800 0
-4800 4809 0
-227 -4800 0
-219 4801 0
-4801 4810 0
-220 -4801 4802 0
-4802 4811 0
-221 -4802 4803 0
-4803 4812 0
-222 -4803 4804 0
-4804 4813 0
-223 -4804 4805 0
-4805 4814 0
-224 -4805 4806 0
-4806 4815 0
-225 -4806 4807 0
-4807 4816 0
-226 -4807 4808 0
-4808 4817 0
-227 -4808 4809 0
-4809 4818 0
-228 -4809 0
-220 4810 0
-4810 4819 0
-221 -4810 4811 0
-4811 4820 0
-222 -4811 4812 0
-4812 4821 0
-223 -4812 4813 0
-4813 4822 0
-224 -4813 4814 0
-4814 4823 0
-225 -4814 4815 0
-4815 4824 0
-226 -4815 4816 0
-4816 4825 0
-227 -4816 4817 0
-4817 4826 0
-228 -4817 4818 0
-4818 4827 0
-229 -4818 0
-221 4819 0
-4819 4828 0
-222 -4819 4820 0
-4820 4829 0
-223 -4820 4821 0
-4821 4830 0
-224 -4821 4822 0
-4822 4831 0
-225 -4822 4823 0
-4823 4832 0
-226 -4823 4824 0
-4824 4833 0
-227 -4824 4825 0
-4825 4834 0
-228 -4825 4826 0
-4826 4835 0
-229 -4826 4827 0
-4827 4836 0
-230 -4827 0
-222 4828 0
-4828 4837 0
-223 -4828 4829 0
-4829 4838 0
-224 -4829 4830 0
-4830 4839 0
-225 -4830 4831 0
-4831 4840 0
-226 -4831 4832 0
-4832 4841 0
-227 -4832 4833 0
-4833 4842 0
-228 -4833 4834 0
-4834 4843 0
-229 -4834 4835 0
-4835 4844 0
-230 -4835 4836 0
-4836 4845 0
-231 -4836 0
-223 4837 0
-4837 4846 0
-224 -4837 4838 0
-4838 4847 0
-225 -4838 4839 0
-4839 4848 0
-226 -4839 4840 0
-4840 4849 0
-227 -4840 4841 0
-4841 4850 0
-228 -4841 4842 0
-4842 4851 0
-229 -4842 4843 0
-4843 4852 0
-230 -4843 4844 0
-4844 4853 0
-231 -4844 4845 0
-4845 4854 0
-232 -4845 0
-224 4846 0
-4846 4855 0
-225 -4846 4847 0
-4847 4856 0
-226 -4847 4848 0
-4848 4857 0
-227 -4848 4849 0
-4849 4858 0
-228 -4849 4850 0
-4850 4859 0
-229 -4850 4851 0
-4851 4860 0
-230 -4851 4852 0
-4852 4861 0
-231 -4852 4853 0
-4853 4862 0
-232 -4853 4854 0
-4854 4863 0
-233 -4854 0
-225 4855 0
-4855 4864 0
-226 -4855 4856 0
-4856 4865 0
-227 -4856 4857 0
-4857 4866 0
-228 -4857 4858 0
-4858 4867 0
-229 -4858 4859 0
-4859 4868 0
-230 -4859 4860 0
-4860 4869 0
-231 -4860 4861 0
-4861 4870 0
-232 -4861 4862 0
-4862 4871 0
-233 -4862 4863 0
-4863 4872 0
-234 -4863 0
-226 4864 0
-4864 4873 0
-227 -4864 4865 0
-4865 4874 0
-228 -4865 4866 0
-4866 4875 0
-229 -4866 4867 0
-4867 4876 0
-230 -4867 4868 0
-4868 4877 0
-231 -4868 4869 0
-4869 4878 0
-232 -4869 4870 0
-4870 4879 0
-233 -4870 4871 0
-4871 4880 0
-234 -4871 4872 0
-4872 4881 0
-235 -4872 0
-227 4873 0
-4873 4882 0
-228 -4873 4874 0
-4874 4883 0
-229 -4874 4875 0
-4875 4884 0
-230 -4875 4876 0
-4876 4885 0
-231 -4876 4877 0
-4877 4886 0
-232 -4877 4878 0
-4878 4887 0
-233 -4878 4879 0
-4879 4888 0
-234 -4879 4880 0
-4880 4889 0
-235 -4880 4881 0
-4881 4890 0
-236 -4881 0
-228 4882 0
-4882 4891 0
-229 -4882 4883 0
-4883 4892 0
-230 -4883 4884 0
-4884 4893 0
-231 -4884 4885 0
-4885 4894 0
-232 -4885 4886 0
-4886 4895 0
-233 -4886 4887 0
-4887 4896 0
-234 -4887 4888 0
-4888 4897 0
-235 -4888 4889 0
-4889 4898 0
-236 -4889 4890 0
-4890 4899 0
-237 -4890 0
-229 4891 0
-4891 4900 0
-230 -4891 4892 0
-4892 4901 0
-231 -4892 4893 0
-4893 4902 0
-232 -4893 4894 0
-4894 4903 0
-233 -4894 4895 0
-4895 4904 0
-234 -4895 4896 0
-4896 4905 0
-235 -4896 4897 0
-4897 4906 0
-236 -4897 4898 0
-4898 4907 0
-237 -4898 4899 0
-4899 4908 0
-238 -4899 0
-230 4900 0
-4900 4909 0
-231 -4900 4901 0
-4901 4910 0
-232 -4901 4902 0
-4902 4911 0
-233 -4902 4903 0
-4903 4912 0
-234 -4903 4904 0
-4904 4913 0
-235 -4904 4905 0
-4905 4914 0
-236 -4905 4906 0
-4906 4915 0
-237 -4906 4907 0
-4907 4916 0
-238 -4907 4908 0
-4908 4917 0
-239 -4908 0
-231 4909 0
-4909 4918 0
-232 -4909 4910 0
-4910 4919 0
-233 -4910 4911 0
-4911 4920 0
-234 -4911 4912 0
-4912 4921 0
-235 -4912 4913 0
-4913 4922 0
-236 -4913 4914 0
-4914 4923 0
-237 -4914 4915 0
-4915 4924 0
-238 -4915 4916 0
-4916 4925 0
-239 -4916 4917 0
-4917 4926 0
-240 -4917 0
-232 4918 0
-4918 4927 0
-233 -4918 4919 0
-4919 4928 0
-234 -4919 4920 0
-4920 4929 0
-235 -4920 4921 0
-4921 4930 0
-236 -4921 4922 0
-4922 4931 0
-237 -4922 4923 0
-4923 4932 0
-238 -4923 4924 0
-4924 4933 0
-239 -4924 4925 0
-4925 4934 0
-240 -4925 4926 0
-4926 4935 0
-241 -4926 0
-233 4927 0
-4927 4936 0
-234 -4927 4928 0
-4928 4937 0
-235 -4928 4929 0
-4929 4938 0
-236 -4929 4930 0
-4930 4939 0
-237 -4930 4931 0
-4931 4940 0
-238 -4931 4932 0
-4932 4941 0
-239 -4932 4933 0
-4933 4942 0
-240 -4933 4934 0
-4934 4943 0
-241 -4934 4935 0
-4935 4944 0
-242 -4935 0
-234 4936 0
-4936 4945 0
-235 -4936 4937 0
-4937 4946 0
-236 -4937 4938 0
-4938 4947 0
-237 -4938 4939 0
-4939 4948 0
-238 -4939 4940 0
-4940 4949 0
-239 -4940 4941 0
-4941 4950 0
-240 -4941 4942 0
-4942 4951 0
-241 -4942 4943 0
-4943 4952 0
-242 -4943 4944 0
-4944 4953 0
-243 -4944 0
-235 4945 0
-4945 4954 0
-236 -4945 4946 0
-4946 4955 0
-237 -4946 4947 0
-4947 4956 0
-238 -4947 4948 0
-4948 4957 0
-239 -4948 4949 0
-4949 4958 0
-240 -4949 4950 0
-4950 4959 0
-241 -4950 4951 0
-4951 4960 0
-242 -4951 4952 0
-4952 4961 0
-243 -4952 4953 0
-4953 4962 0
-244 -4953 0
-236 4954 0
-4954 4963 0
-237 -4954 4955 0
-4955 4964 0
-238 -4955 4956 0
-4956 4965 0
-239 -4956 4957 0
-4957 4966 0
-240 -4957 4958 0
-4958 4967 0
-241 -4958 4959 0
-4959 4968 0
-242 -4959 4960 0
-4960 4969 0
-243 -4960 4961 0
-4961 4970 0
-244 -4961 4962 0
-4962 4971 0
-245 -4962 0
-237 4963 0
-4963 4972 0
-238 -4963 4964 0
-4964 4973 0
-239 -4964 4965 0
-4965 4974 0
-240 -4965 4966 0
-4966 4975 0
-241 -4966 4967 0
-4967 4976 0
-242 -4967 4968 0
-4968 4977 0
-243 -4968 4969 0
-4969 4978 0
-244 -4969 4970 0
-4970 4979 0
-245 -4970 4971 0
-4971 4980 0
-246 -4971 0
-238 4972 0
-4972 4981 0
-239 -4972 4973 0
-4973 4982 0
-240 -4973 4974 0
-4974 4983 0
-241 -4974 4975 0
-4975 4984 0
-242 -4975 4976 0
-4976 4985 0
-243 -4976 4977 0
-4977 4986 0
-244 -4977 4978 0
-4978 4987 0
-245 -4978 4979 0
-4979 4988 0
-246 -4979 4980 0
-4980 4989 0
-247 -4980 0
-239 4981 0
-4981 4990 0
-240 -4981 4982 0
-4982 4991 0
-241 -4982 4983 0
-4983 4992 0
-242 -4983 4984 0
-4984 4993 0
-243 -4984 4985 0
-4985 4994 0
-244 -4985 4986 0
-4986 4995 0
-245 -4986 4987 0
-4987 4996 0
-246 -4987 4988 0
-4988 4997 0
-247 -4988 4989 0
-4989 4998 0
-248 -4989 0
-240 4990 0
-4990 4999 0
-241 -4990 4991 0
-4991 5000 0
-242 -4991 4992 0
-4992 5001 0
-243 -4992 4993 0
-4993 5002 0
-244 -4993 4994 0
-4994 5003 0
-245 -4994 4995 0
-4995 5004 0
-246 -4995 4996 0
-4996 5005 0
-247 -4996 4997 0
-4997 5006 0
-248 -4997 4998 0
-4998 5007 0
-249 -4998 0
-241 4999 0
-4999 5008 0
-242 -4999 5000 0
-5000 5009 0
-243 -5000 5001 0
-5001 5010 0
-244 -5001 5002 0
-5002 5011 0
-245 -5002 5003 0
-5003 5012 0
-246 -5003 5004 0
-5004 5013 0
-247 -5004 5005 0
-5005 5014 0
-248 -5005 5006 0
-5006 5015 0
-249 -5006 5007 0
-5007 5016 0
-250 -5007 0
-242 5008 0
-5008 5017 0
-243 -5008 5009 0
-5009 5018 0
-244 -5009 5010 0
-5010 5019 0
-245 -5010 5011 0
-5011 5020 0
-246 -5011 5012 0
-5012 5021 0
-247 -5012 5013 0
-5013 5022 0
-248 -5013 5014 0
-5014 5023 0
-249 -5014 5015 0
-5015 5024 0
-250 -5015 5016 0
-5016 5025 0
-251 -5016 0
-243 5017 0
-5017 5026 0
-244 -5017 5018 0
-5018 5027 0
-245 -5018 5019 0
-5019 5028 0
-246 -5019 5020 0
-5020 5029 0
-247 -5020 5021 0
-5021 5030 0
-248 -5021 5022 0
-5022 5031 0
-249 -5022 5023 0
-5023 5032 0
-250 -5023 5024 0
-5024 5033 0
-251 -5024 5025 0
-5025 5034 0
-252 -5025 0
-244 5026 0
-5026 5035 0
-245 -5026 5027 0
-5027 5036 0
-246 -5027 5028 0
-5028 5037 0
-247 -5028 5029 0
-5029 5038 0
-248 -5029 5030 0
-5030 5039 0
-249 -5030 5031 0
-5031 5040 0
-250 -5031 5032 0
-5032 5041 0
-251 -5032 5033 0
-5033 5042 0
-252 -5033 5034 0
-5034 5043 0
-253 -5034 0
-245 5035 0
-5035 5044 0
-246 -5035 5036 0
-5036 5045 0
-247 -5036 5037 0
-5037 5046 0
-248 -5037 5038 0
-5038 5047 0
-249 -5038 5039 0
-5039 5048 0
-250 -5039 5040 0
-5040 5049 0
-251 -5040 5041 0
-5041 5050 0
-252 -5041 5042 0
-5042 5051 0
-253 -5042 5043 0
-5043 5052 0
-254 -5043 0
-246 5044 0
-5044 5053 0
-247 -5044 5045 0
-5045 5054 0
-248 -5045 5046 0
-5046 5055 0
-249 -5046 5047 0
-5047 5056 0
-250 -5047 5048 0
-5048 5057 0
-251 -5048 5049 0
-5049 5058 0
-252 -5049 5050 0
-5050 5059 0
-253 -5050 5051 0
-5051 5060 0
-254 -5051 5052 0
-5052 5061 0
-255 -5052 0
-247 5053 0
-5053 5062 0
-248 -5053 5054 0
-5054 5063 0
-249 -5054 5055 0
-5055 5064 0
-250 -5055 5056 0
-5056 5065 0
-251 -5056 5057 0
-5057 5066 0
-252 -5057 5058 0
-5058 5067 0
-253 -5058 5059 0
-5059 5068 0
-254 -5059 5060 0
-5060 5069 0
-255 -5060 5061 0
-5061 5070 0
-256 -5061 0
-248 5062 0
-5062 5071 0
-249 -5062 5063 0
-5063 5072 0
-250 -5063 5064 0
-5064 5073 0
-251 -5064 5065 0
-5065 5074 0
-252 -5065 5066 0
-5066 5075 0
-253 -5066 5067 0
-5067 5076 0
-254 -5067 5068 0
-5068 5077 0
-255 -5068 5069 0
-5069 5078 0
-256 -5069 5070 0
-5070 5079 0
-257 -5070 0
-249 5071 0
-5071 5080 0
-250 -5071 5072 0
-5072 5081 0
-251 -5072 5073 0
-5073 5082 0
-252 -5073 5074 0
-5074 5083 0
-253 -5074 5075 0
-5075 5084 0
-254 -5075 5076 0
-5076 5085 0
-255 -5076 5077 0
-5077 5086 0
-256 -5077 5078 0
-5078 5087 0
-257 -5078 5079 0
-5079 5088 0
-258 -5079 0
-250 5080 0
-5080 5089 0
-251 -5080 5081 0
-5081 5090 0
-252 -5081 5082 0
-5082 5091 0
-253 -5082 5083 0
-5083 5092 0
-254 -5083 5084 0
-5084 5093 0
-255 -5084 5085 0
-5085 5094 0
-256 -5085 5086 0
-5086 5095 0
-257 -5086 5087 0
-5087 5096 0
-258 -5087 5088 0
-5088 5097 0
-259 -5088 0
-251 5089 0
-5089 5098 0
-252 -5089 5090 0
-5090 5099 0
-253 -5090 5091 0
-5091 5100 0
-254 -5091 5092 0
-5092 5101 0
-255 -5092 5093 0
-5093 5102 0
-256 -5093 5094 0
-5094 5103 0
-257 -5094 5095 0
-5095 5104 0
-258 -5095 5096 0
-5096 5105 0
-259 -5096 5097 0
-5097 5106 0
-260 -5097 0
-252 5098 0
-5098 5107 0
-253 -5098 5099 0
-5099 5108 0
-254 -5099 5100 0
-5100 5109 0
-255 -5100 5101 0
-5101 5110 0
-256 -5101 5102 0
-5102 5111 0
-257 -5102 5103 0
-5103 5112 0
-258 -5103 5104 0
-5104 5113 0
-259 -5104 5105 0
-5105 5114 0
-260 -5105 5106 0
-5106 5115 0
-261 -5106 0
-253 5107 0
-5107 5116 0
-254 -5107 5108 0
-5108 5117 0
-255 -5108 5109 0
-5109 5118 0
-256 -5109 5110 0
-5110 5119 0
-257 -5110 5111 0
-5111 5120 0
-258 -5111 5112 0
-5112 5121 0
-259 -5112 5113 0
-5113 5122 0
-260 -5113 5114 0
-5114 5123 0
-261 -5114 5115 0
-5115 5124 0
-262 -5115 0
-254 5116 0
-5116 5125 0
-255 -5116 5117 0
-5117 5126 0
-256 -5117 5118 0
-5118 5127 0
-257 -5118 5119 0
-5119 5128 0
-258 -5119 5120 0
-5120 5129 0
-259 -5120 5121 0
-5121 5130 0
-260 -5121 5122 0
-5122 5131 0
-261 -5122 5123 0
-5123 5132 0
-262 -5123 5124 0
-5124 5133 0
-263 -5124 0
-255 5125 0
-5125 5134 0
-256 -5125 5126 0
-5126 5135 0
-257 -5126 5127 0
-5127 5136 0
-258 -5127 5128 0
-5128 5137 0
-259 -5128 5129 0
-5129 5138 0
-260 -5129 5130 0
-5130 5139 0
-261 -5130 5131 0
-5131 5140 0
-262 -5131 5132 0
-5132 5141 0
-263 -5132 5133 0
-5133 5142 0
-264 -5133 0
-256 5134 0
-5134 5143 0
-257 -5134 5135 0
-5135 5144 0
-258 -5135 5136 0
-5136 5145 0
-259 -5136 5137 0
-5137 5146 0
-260 -5137 5138 0
-5138 5147 0
-261 -5138 5139 0
-5139 5148 0
-262 -5139 5140 0
-5140 5149 0
-263 -5140 5141 0
-5141 5150 0
-264 -5141 5142 0
-5142 5151 0
-265 -5142 0
-257 5143 0
-5143 5152 0
-258 -5143 5144 0
-5144 5153 0
-259 -5144 5145 0
-5145 5154 0
-260 -5145 5146 0
-5146 5155 0
-261 -5146 5147 0
-5147 5156 0
-262 -5147 5148 0
-5148 5157 0
-263 -5148 5149 0
-5149 5158 0
-264 -5149 5150 0
-5150 5159 0
-265 -5150 5151 0
-5151 5160 0
-266 -5151 0
-258 5152 0
-5152 5161 0
-259 -5152 5153 0
-5153 5162 0
-260 -5153 5154 0
-5154 5163 0
-261 -5154 5155 0
-5155 5164 0
-262 -5155 5156 0
-5156 5165 0
-263 -5156 5157 0
-5157 5166 0
-264 -5157 5158 0
-5158 5167 0
-265 -5158 5159 0
-5159 5168 0
-266 -5159 5160 0
-5160 5169 0
-267 -5160 0
-259 5161 0
-260 -5161 5162 0
-261 -5162 5163 0
-262 -5163 5164 0
-263 -5164 5165 0
-264 -5165 5166 0
-265 -5166 5167 0
-266 -5167 5168 0
-267 -5168 5169 0
-268 -5169 0
1 68 0
