p cnf 2049 4157
-1 55 0
-2 55 0
-27 55 0
-28 55 0
-55 1 2 27 28 0
-2 56 0
-1 56 0
-3 56 0
-29 56 0
-56 2 1 3 29 0
-3 57 0
-2 57 0
-4 57 0
-30 57 0
-57 3 2 4 30 0
-4 58 0
-3 58 0
-5 58 0
-31 58 0
-58 4 3 5 31 0
-5 59 0
-4 59 0
-6 59 0
-32 59 0
-59 5 4 6 32 0
-6 60 0
-5 60 0
-7 60 0
-33 60 0
-60 6 5 7 33 0
-7 61 0
-6 61 0
-8 61 0
-34 61 0
-61 7 6 8 34 0
-8 62 0
-7 62 0
-9 62 0
-35 62 0
-62 8 7 9 35 0
-9 63 0
-8 63 0
-10 63 0
-36 63 0
-63 9 8 10 36 0
-10 64 0
-9 64 0
-11 64 0
-37 64 0
-64 10 9 11 37 0
-11 65 0
-10 65 0
-12 65 0
-38 65 0
-65 11 10 12 38 0
-12 66 0
-11 66 0
-13 66 0
-39 66 0
-66 12 11 13 39 0
-13 67 0
-12 67 0
-14 67 0
-40 67 0
-67 13 12 14 40 0
-14 68 0
-13 68 0
-15 68 0
-41 68 0
-68 14 13 15 41 0
-15 69 0
-14 69 0
-16 69 0
-42 69 0
-69 15 14 16 42 0
-16 70 0
-15 70 0
-17 70 0
-43 70 0
-70 16 15 17 43 0
-17 71 0
-16 71 0
-18 71 0
-44 71 0
-71 17 16 18 44 0
-18 72 0
-17 72 0
-19 72 0
-45 72 0
-72 18 17 19 45 0
-19 73 0
-18 73 0
-20 73 0
-46 73 0
-73 19 18 20 46 0
-20 74 0
-19 74 0
-21 74 0
-47 74 0
-74 20 19 21 47 0
-21 75 0
-20 75 0
-22 75 0
-48 75 0
-75 21 20 22 48 0
-22 76 0
-21 76 0
-23 76 0
-49 76 0
-76 22 21 23 49 0
-23 77 0
-22 77 0
-24 77 0
-50 77 0
-77 23 22 24 50 0
-24 78 0
-23 78 0
-25 78 0
-51 78 0
-78 24 23 25 51 0
-25 79 0
-24 79 0
-26 79 0
-52 79 0
-79 25 24 26 52 0
-26 80 0
-25 80 0
-27 80 0
-53 80 0
-80 26 25 27 53 0
-27 81 0
-1 81 0
-26 81 0
-54 81 0
-81 27 1 26 54 0
-28 82 0
-1 82 0
-32 82 0
-51 82 0
-82 28 1 32 51 0
-29 83 0
-2 83 0
-33 83 0
-52 83 0
-83 29 2 33 52 0
-30 84 0
-3 84 0
-34 84 0
-53 84 0
-84 30 3 34 53 0
-31 85 0
-4 85 0
-35 85 0
-54 85 0
-85 31 4 35 54 0
-32 86 0
-5 86 0
-28 86 0
-36 86 0
-86 32 5 28 36 0
-33 87 0
-6 87 0
-29 87 0
-37 87 0
-87 33 6 29 37 0
-34 88 0
-7 88 0
-30 88 0
-38 88 0
-88 34 7 30 38 0
-35 89 0
-8 89 0
-31 89 0
-39 89 0
-89 35 8 31 39 0
-36 90 0
-9 90 0
-32 90 0
-40 90 0
-90 36 9 32 40 0
-37 91 0
-10 91 0
-33 91 0
-41 91 0
-91 37 10 33 41 0
-38 92 0
-11 92 0
-34 92 0
-42 92 0
-92 38 11 34 42 0
-39 93 0
-12 93 0
-35 93 0
-43 93 0
-93 39 12 35 43 0
-40 94 0
-13 94 0
-36 94 0
-44 94 0
-94 40 13 36 44 0
-41 95 0
-14 95 0
-37 95 0
-45 95 0
-95 41 14 37 45 0
-42 96 0
-15 96 0
-38 96 0
-46 96 0
-96 42 15 38 46 0
-43 97 0
-16 97 0
-39 97 0
-47 97 0
-97 43 16 39 47 0
-44 98 0
-17 98 0
-40 98 0
-48 98 0
-98 44 17 40 48 0
-45 99 0
-18 99 0
-41 99 0
-49 99 0
-99 45 18 41 49 0
-46 100 0
-19 100 0
-42 100 0
-50 100 0
-100 46 19 42 50 0
-47 101 0
-20 101 0
-43 101 0
-51 101 0
-101 47 20 43 51 0
-48 102 0
-21 102 0
-44 102 0
-52 102 0
-102 48 21 44 52 0
-49 103 0
-22 103 0
-45 103 0
-53 103 0
-103 49 22 45 53 0
-50 104 0
-23 104 0
-46 104 0
-54 104 0
-104 50 23 46 54 0
-51 105 0
-24 105 0
-28 105 0
-47 105 0
-105 51 24 28 47 0
-52 106 0
-25 106 0
-29 106 0
-48 106 0
-106 52 25 29 48 0
-53 107 0
-26 107 0
-30 107 0
-49 107 0
-107 53 26 30 49 0
-54 108 0
-27 108 0
-31 108 0
-50 108 0
-108 54 27 31 50 0
1 109 0
-109 110 0
2 -109 111 0
-111 112 0
3 -111 113 0
-113 114 0
4 -113 115 0
-115 116 0
5 -115 117 0
-117 118 0
6 -117 119 0
-119 120 0
7 -119 121 0
-121 122 0
8 -121 123 0
-123 124 0
9 -123 125 0
-125 126 0
10 -125 127 0
-127 128 0
11 -127 129 0
-129 130 0
12 -129 131 0
-131 132 0
13 -131 133 0
-133 134 0
14 -133 135 0
-135 136 0
15 -135 137 0
-137 138 0
16 -137 139 0
-139 140 0
17 -139 141 0
-141 142 0
18 -141 143 0
-143 144 0
19 -143 145 0
-145 146 0
20 -145 147 0
-147 148 0
21 -147 149 0
-149 150 0
22 -149 151 0
-151 152 0
23 -151 153 0
-153 154 0
24 -153 155 0
-155 156 0
25 -155 157 0
-157 158 0
26 -157 159 0
-159 160 0
27 -159 161 0
-161 162 0
28 -161 163 0
-163 164 0
29 -163 165 0
-165 166 0
30 -165 167 0
-167 168 0
31 -167 169 0
-169 170 0
32 -169 171 0
-171 172 0
33 -171 173 0
-173 174 0
34 -173 175 0
-175 176 0
35 -175 177 0
-177 178 0
36 -177 179 0
-179 180 0
37 -179 181 0
-181 182 0
38 -181 183 0
-183 184 0
39 -183 0
2 110 0
-110 185 0
3 -110 112 0
-112 186 0
4 -112 114 0
-114 187 0
5 -114 116 0
-116 188 0
6 -116 118 0
-118 189 0
7 -118 120 0
-120 190 0
8 -120 122 0
-122 191 0
9 -122 124 0
-124 192 0
10 -124 126 0
-126 193 0
11 -126 128 0
-128 194 0
12 -128 130 0
-130 195 0
13 -130 132 0
-132 196 0
14 -132 134 0
-134 197 0
15 -134 136 0
-136 198 0
16 -136 138 0
-138 199 0
17 -138 140 0
-140 200 0
18 -140 142 0
-142 201 0
19 -142 144 0
-144 202 0
20 -144 146 0
-146 203 0
21 -146 148 0
-148 204 0
22 -148 150 0
-150 205 0
23 -150 152 0
-152 206 0
24 -152 154 0
-154 207 0
25 -154 156 0
-156 208 0
26 -156 158 0
-158 209 0
27 -158 160 0
-160 210 0
28 -160 162 0
-162 211 0
29 -162 164 0
-164 212 0
30 -164 166 0
-166 213 0
31 -166 168 0
-168 214 0
32 -168 170 0
-170 215 0
33 -170 172 0
-172 216 0
34 -172 174 0
-174 217 0
35 -174 176 0
-176 218 0
36 -176 178 0
-178 219 0
37 -178 180 0
-180 220 0
38 -180 182 0
-182 221 0
39 -182 184 0
-184 222 0
40 -184 0
3 185 0
-185 223 0
4 -185 186 0
-186 224 0
5 -186 187 0
-187 225 0
6 -187 188 0
-188 226 0
7 -188 189 0
-189 227 0
8 -189 190 0
-190 228 0
9 -190 191 0
-191 229 0
10 -191 192 0
-192 230 0
11 -192 193 0
-193 231 0
12 -193 194 0
-194 232 0
13 -194 195 0
-195 233 0
14 -195 196 0
-196 234 0
15 -196 197 0
-197 235 0
16 -197 198 0
-198 236 0
17 -198 199 0
-199 237 0
18 -199 200 0
-200 238 0
19 -200 201 0
-201 239 0
20 -201 202 0
-202 240 0
21 -202 203 0
-203 241 0
22 -203 204 0
-204 242 0
23 -204 205 0
-205 243 0
24 -205 206 0
-206 244 0
25 -206 207 0
-207 245 0
26 -207 208 0
-208 246 0
27 -208 209 0
-209 247 0
28 -209 210 0
-210 248 0
29 -210 211 0
-211 249 0
30 -211 212 0
-212 250 0
31 -212 213 0
-213 251 0
32 -213 214 0
-214 252 0
33 -214 215 0
-215 253 0
34 -215 216 0
-216 254 0
35 -216 217 0
-217 255 0
36 -217 218 0
-218 256 0
37 -218 219 0
-219 257 0
38 -219 220 0
-220 258 0
39 -220 221 0
-221 259 0
40 -221 222 0
-222 260 0
41 -222 0
4 223 0
-223 261 0
5 -223 224 0
-224 262 0
6 -224 225 0
-225 263 0
7 -225 226 0
-226 264 0
8 -226 227 0
-227 265 0
9 -227 228 0
-228 266 0
10 -228 229 0
-229 267 0
11 -229 230 0
-230 268 0
12 -230 231 0
-231 269 0
13 -231 232 0
-232 270 0
14 -232 233 0
-233 271 0
15 -233 234 0
-234 272 0
16 -234 235 0
-235 273 0
17 -235 236 0
-236 274 0
18 -236 237 0
-237 275 0
19 -237 238 0
-238 276 0
20 -238 239 0
-239 277 0
21 -239 240 0
-240 278 0
22 -240 241 0
-241 279 0
23 -241 242 0
-242 280 0
24 -242 243 0
-243 281 0
25 -243 244 0
-244 282 0
26 -244 245 0
-245 283 0
27 -245 246 0
-246 284 0
28 -246 247 0
-247 285 0
29 -247 248 0
-248 286 0
30 -248 249 0
-249 287 0
31 -249 250 0
-250 288 0
32 -250 251 0
-251 289 0
33 -251 252 0
-252 290 0
34 -252 253 0
-253 291 0
35 -253 254 0
-254 292 0
36 -254 255 0
-255 293 0
37 -255 256 0
-256 294 0
38 -256 257 0
-257 295 0
39 -257 258 0
-258 296 0
40 -258 259 0
-259 297 0
41 -259 260 0
-260 298 0
42 -260 0
5 261 0
-261 299 0
6 -261 262 0
-262 300 0
7 -262 263 0
-263 301 0
8 -263 264 0
-264 302 0
9 -264 265 0
-265 303 0
10 -265 266 0
-266 304 0
11 -266 267 0
-267 305 0
12 -267 268 0
-268 306 0
13 -268 269 0
-269 307 0
14 -269 270 0
-270 308 0
15 -270 271 0
-271 309 0
16 -271 272 0
-272 310 0
17 -272 273 0
-273 311 0
18 -273 274 0
-274 312 0
19 -274 275 0
-275 313 0
20 -275 276 0
-276 314 0
21 -276 277 0
-277 315 0
22 -277 278 0
-278 316 0
23 -278 279 0
-279 317 0
24 -279 280 0
-280 318 0
25 -280 281 0
-281 319 0
26 -281 282 0
-282 320 0
27 -282 283 0
-283 321 0
28 -283 284 0
-284 322 0
29 -284 285 0
-285 323 0
30 -285 286 0
-286 324 0
31 -286 287 0
-287 325 0
32 -287 288 0
-288 326 0
33 -288 289 0
-289 327 0
34 -289 290 0
-290 328 0
35 -290 291 0
-291 329 0
36 -291 292 0
-292 330 0
37 -292 293 0
-293 331 0
38 -293 294 0
-294 332 0
39 -294 295 0
-295 333 0
40 -295 296 0
-296 334 0
41 -296 297 0
-297 335 0
42 -297 298 0
-298 336 0
43 -298 0
6 299 0
-299 337 0
7 -299 300 0
-300 338 0
8 -300 301 0
-301 339 0
9 -301 302 0
-302 340 0
10 -302 303 0
-303 341 0
11 -303 304 0
-304 342 0
12 -304 305 0
-305 343 0
13 -305 306 0
-306 344 0
14 -306 307 0
-307 345 0
15 -307 308 0
-308 346 0
16 -308 309 0
-309 347 0
17 -309 310 0
-310 348 0
18 -310 311 0
-311 349 0
19 -311 312 0
-312 350 0
20 -312 313 0
-313 351 0
21 -313 314 0
-314 352 0
22 -314 315 0
-315 353 0
23 -315 316 0
-316 354 0
24 -316 317 0
-317 355 0
25 -317 318 0
-318 356 0
26 -318 319 0
-319 357 0
27 -319 320 0
-320 358 0
28 -320 321 0
-321 359 0
29 -321 322 0
-322 360 0
30 -322 323 0
-323 361 0
31 -323 324 0
-324 362 0
32 -324 325 0
-325 363 0
33 -325 326 0
-326 364 0
34 -326 327 0
-327 365 0
35 -327 328 0
-328 366 0
36 -328 329 0
-329 367 0
37 -329 330 0
-330 368 0
38 -330 331 0
-331 369 0
39 -331 332 0
-332 370 0
40 -332 333 0
-333 371 0
41 -333 334 0
-334 372 0
42 -334 335 0
-335 373 0
43 -335 336 0
-336 374 0
44 -336 0
7 337 0
-337 375 0
8 -337 338 0
-338 376 0
9 -338 339 0
-339 377 0
10 -339 340 0
-340 378 0
11 -340 341 0
-341 379 0
12 -341 342 0
-342 380 0
13 -342 343 0
-343 381 0
14 -343 344 0
-344 382 0
15 -344 345 0
-345 383 0
16 -345 346 0
-346 384 0
17 -346 347 0
-347 385 0
18 -347 348 0
-348 386 0
19 -348 349 0
-349 387 0
20 -349 350 0
-350 388 0
21 -350 351 0
-351 389 0
22 -351 352 0
-352 390 0
23 -352 353 0
-353 391 0
24 -353 354 0
-354 392 0
25 -354 355 0
-355 393 0
26 -355 356 0
-356 394 0
27 -356 357 0
-357 395 0
28 -357 358 0
-358 396 0
29 -358 359 0
-359 397 0
30 -359 360 0
-360 398 0
31 -360 361 0
-361 399 0
32 -361 362 0
-362 400 0
33 -362 363 0
-363 401 0
34 -363 364 0
-364 402 0
35 -364 365 0
-365 403 0
36 -365 366 0
-366 404 0
37 -366 367 0
-367 405 0
38 -367 368 0
-368 406 0
39 -368 369 0
-369 407 0
40 -369 370 0
-370 408 0
41 -370 371 0
-371 409 0
42 -371 372 0
-372 410 0
43 -372 373 0
-373 411 0
44 -373 374 0
-374 412 0
45 -374 0
8 375 0
-375 413 0
9 -375 376 0
-376 414 0
10 -376 377 0
-377 415 0
11 -377 378 0
-378 416 0
12 -378 379 0
-379 417 0
13 -379 380 0
-380 418 0
14 -380 381 0
-381 419 0
15 -381 382 0
-382 420 0
16 -382 383 0
-383 421 0
17 -383 384 0
-384 422 0
18 -384 385 0
-385 423 0
19 -385 386 0
-386 424 0
20 -386 387 0
-387 425 0
21 -387 388 0
-388 426 0
22 -388 389 0
-389 427 0
23 -389 390 0
-390 428 0
24 -390 391 0
-391 429 0
25 -391 392 0
-392 430 0
26 -392 393 0
-393 431 0
27 -393 394 0
-394 432 0
28 -394 395 0
-395 433 0
29 -395 396 0
-396 434 0
30 -396 397 0
-397 435 0
31 -397 398 0
-398 436 0
32 -398 399 0
-399 437 0
33 -399 400 0
-400 438 0
34 -400 401 0
-401 439 0
35 -401 402 0
-402 440 0
36 -402 403 0
-403 441 0
37 -403 404 0
-404 442 0
38 -404 405 0
-405 443 0
39 -405 406 0
-406 444 0
40 -406 407 0
-407 445 0
41 -407 408 0
-408 446 0
42 -408 409 0
-409 447 0
43 -409 410 0
-410 448 0
44 -410 411 0
-411 449 0
45 -411 412 0
-412 450 0
46 -412 0
9 413 0
-413 451 0
10 -413 414 0
-414 452 0
11 -414 415 0
-415 453 0
12 -415 416 0
-416 454 0
13 -416 417 0
-417 455 0
14 -417 418 0
-418 456 0
15 -418 419 0
-419 457 0
16 -419 420 0
-420 458 0
17 -420 421 0
-421 459 0
18 -421 422 0
-422 460 0
19 -422 423 0
-423 461 0
20 -423 424 0
-424 462 0
21 -424 425 0
-425 463 0
22 -425 426 0
-426 464 0
23 -426 427 0
-427 465 0
24 -427 428 0
-428 466 0
25 -428 429 0
-429 467 0
26 -429 430 0
-430 468 0
27 -430 431 0
-431 469 0
28 -431 432 0
-432 470 0
29 -432 433 0
-433 471 0
30 -433 434 0
-434 472 0
31 -434 435 0
-435 473 0
32 -435 436 0
-436 474 0
33 -436 437 0
-437 475 0
34 -437 438 0
-438 476 0
35 -438 439 0
-439 477 0
36 -439 440 0
-440 478 0
37 -440 441 0
-441 479 0
38 -441 442 0
-442 480 0
39 -442 443 0
-443 481 0
40 -443 444 0
-444 482 0
41 -444 445 0
-445 483 0
42 -445 446 0
-446 484 0
43 -446 447 0
-447 485 0
44 -447 448 0
-448 486 0
45 -448 449 0
-449 487 0
46 -449 450 0
-450 488 0
47 -450 0
10 451 0
-451 489 0
11 -451 452 0
-452 490 0
12 -452 453 0
-453 491 0
13 -453 454 0
-454 492 0
14 -454 455 0
-455 493 0
15 -455 456 0
-456 494 0
16 -456 457 0
-457 495 0
17 -457 458 0
-458 496 0
18 -458 459 0
-459 497 0
19 -459 460 0
-460 498 0
20 -460 461 0
-461 499 0
21 -461 462 0
-462 500 0
22 -462 463 0
-463 501 0
23 -463 464 0
-464 502 0
24 -464 465 0
-465 503 0
25 -465 466 0
-466 504 0
26 -466 467 0
-467 505 0
27 -467 468 0
-468 506 0
28 -468 469 0
-469 507 0
29 -469 470 0
-470 508 0
30 -470 471 0
-471 509 0
31 -471 472 0
-472 510 0
32 -472 473 0
-473 511 0
33 -473 474 0
-474 512 0
34 -474 475 0
-475 513 0
35 -475 476 0
-476 514 0
36 -476 477 0
-477 515 0
37 -477 478 0
-478 516 0
38 -478 479 0
-479 517 0
39 -479 480 0
-480 518 0
40 -480 481 0
-481 519 0
41 -481 482 0
-482 520 0
42 -482 483 0
-483 521 0
43 -483 484 0
-484 522 0
44 -484 485 0
-485 523 0
45 -485 486 0
-486 524 0
46 -486 487 0
-487 525 0
47 -487 488 0
-488 526 0
48 -488 0
11 489 0
-489 527 0
12 -489 490 0
-490 528 0
13 -490 491 0
-491 529 0
14 -491 492 0
-492 530 0
15 -492 493 0
-493 531 0
16 -493 494 0
-494 532 0
17 -494 495 0
-495 533 0
18 -495 496 0
-496 534 0
19 -496 497 0
-497 535 0
20 -497 498 0
-498 536 0
21 -498 499 0
-499 537 0
22 -499 500 0
-500 538 0
23 -500 501 0
-501 539 0
24 -501 502 0
-502 540 0
25 -502 503 0
-503 541 0
26 -503 504 0
-504 542 0
27 -504 505 0
-505 543 0
28 -505 506 0
-506 544 0
29 -506 507 0
-507 545 0
30 -507 508 0
-508 546 0
31 -508 509 0
-509 547 0
32 -509 510 0
-510 548 0
33 -510 511 0
-511 549 0
34 -511 512 0
-512 550 0
35 -512 513 0
-513 551 0
36 -513 514 0
-514 552 0
37 -514 515 0
-515 553 0
38 -515 516 0
-516 554 0
39 -516 517 0
-517 555 0
40 -517 518 0
-518 556 0
41 -518 519 0
-519 557 0
42 -519 520 0
-520 558 0
43 -520 521 0
-521 559 0
44 -521 522 0
-522 560 0
45 -522 523 0
-523 561 0
46 -523 524 0
-524 562 0
47 -524 525 0
-525 563 0
48 -525 526 0
-526 564 0
49 -526 0
12 527 0
-527 565 0
13 -527 528 0
-528 566 0
14 -528 529 0
-529 567 0
15 -529 530 0
-530 568 0
16 -530 531 0
-531 569 0
17 -531 532 0
-532 570 0
18 -532 533 0
-533 571 0
19 -533 534 0
-534 572 0
20 -534 535 0
-535 573 0
21 -535 536 0
-536 574 0
22 -536 537 0
-537 575 0
23 -537 538 0
-538 576 0
24 -538 539 0
-539 577 0
25 -539 540 0
-540 578 0
26 -540 541 0
-541 579 0
27 -541 542 0
-542 580 0
28 -542 543 0
-543 581 0
29 -543 544 0
-544 582 0
30 -544 545 0
-545 583 0
31 -545 546 0
-546 584 0
32 -546 547 0
-547 585 0
33 -547 548 0
-548 586 0
34 -548 549 0
-549 587 0
35 -549 550 0
-550 588 0
36 -550 551 0
-551 589 0
37 -551 552 0
-552 590 0
38 -552 553 0
-553 591 0
39 -553 554 0
-554 592 0
40 -554 555 0
-555 593 0
41 -555 556 0
-556 594 0
42 -556 557 0
-557 595 0
43 -557 558 0
-558 596 0
44 -558 559 0
-559 597 0
45 -559 560 0
-560 598 0
46 -560 561 0
-561 599 0
47 -561 562 0
-562 600 0
48 -562 563 0
-563 601 0
49 -563 564 0
-564 602 0
50 -564 0
13 565 0
-565 603 0
14 -565 566 0
-566 604 0
15 -566 567 0
-567 605 0
16 -567 568 0
-568 606 0
17 -568 569 0
-569 607 0
18 -569 570 0
-570 608 0
19 -570 571 0
-571 609 0
20 -571 572 0
-572 610 0
21 -572 573 0
-573 611 0
22 -573 574 0
-574 612 0
23 -574 575 0
-575 613 0
24 -575 576 0
-576 614 0
25 -576 577 0
-577 615 0
26 -577 578 0
-578 616 0
27 -578 579 0
-579 617 0
28 -579 580 0
-580 618 0
29 -580 581 0
-581 619 0
30 -581 582 0
-582 620 0
31 -582 583 0
-583 621 0
32 -583 584 0
-584 622 0
33 -584 585 0
-585 623 0
34 -585 586 0
-586 624 0
35 -586 587 0
-587 625 0
36 -587 588 0
-588 626 0
37 -588 589 0
-589 627 0
38 -589 590 0
-590 628 0
39 -590 591 0
-591 629 0
40 -591 592 0
-592 630 0
41 -592 593 0
-593 631 0
42 -593 594 0
-594 632 0
43 -594 595 0
-595 633 0
44 -595 596 0
-596 634 0
45 -596 597 0
-597 635 0
46 -597 598 0
-598 636 0
47 -598 599 0
-599 637 0
48 -599 600 0
-600 638 0
49 -600 601 0
-601 639 0
50 -601 602 0
-602 640 0
51 -602 0
14 603 0
-603 641 0
15 -603 604 0
-604 642 0
16 -604 605 0
-605 643 0
17 -605 606 0
-606 644 0
18 -606 607 0
-607 645 0
19 -607 608 0
-608 646 0
20 -608 609 0
-609 647 0
21 -609 610 0
-610 648 0
22 -610 611 0
-611 649 0
23 -611 612 0
-612 650 0
24 -612 613 0
-613 651 0
25 -613 614 0
-614 652 0
26 -614 615 0
-615 653 0
27 -615 616 0
-616 654 0
28 -616 617 0
-617 655 0
29 -617 618 0
-618 656 0
30 -618 619 0
-619 657 0
31 -619 620 0
-620 658 0
32 -620 621 0
-621 659 0
33 -621 622 0
-622 660 0
34 -622 623 0
-623 661 0
35 -623 624 0
-624 662 0
36 -624 625 0
-625 663 0
37 -625 626 0
-626 664 0
38 -626 627 0
-627 665 0
39 -627 628 0
-628 666 0
40 -628 629 0
-629 667 0
41 -629 630 0
-630 668 0
42 -630 631 0
-631 669 0
43 -631 632 0
-632 670 0
44 -632 633 0
-633 671 0
45 -633 634 0
-634 672 0
46 -634 635 0
-635 673 0
47 -635 636 0
-636 674 0
48 -636 637 0
-637 675 0
49 -637 638 0
-638 676 0
50 -638 639 0
-639 677 0
51 -639 640 0
-640 678 0
52 -640 0
15 641 0
-641 679 0
16 -641 642 0
-642 680 0
17 -642 643 0
-643 681 0
18 -643 644 0
-644 682 0
19 -644 645 0
-645 683 0
20 -645 646 0
-646 684 0
21 -646 647 0
-647 685 0
22 -647 648 0
-648 686 0
23 -648 649 0
-649 687 0
24 -649 650 0
-650 688 0
25 -650 651 0
-651 689 0
26 -651 652 0
-652 690 0
27 -652 653 0
-653 691 0
28 -653 654 0
-654 692 0
29 -654 655 0
-655 693 0
30 -655 656 0
-656 694 0
31 -656 657 0
-657 695 0
32 -657 658 0
-658 696 0
33 -658 659 0
-659 697 0
34 -659 660 0
-660 698 0
35 -660 661 0
-661 699 0
36 -661 662 0
-662 700 0
37 -662 663 0
-663 701 0
38 -663 664 0
-664 702 0
39 -664 665 0
-665 703 0
40 -665 666 0
-666 704 0
41 -666 667 0
-667 705 0
42 -667 668 0
-668 706 0
43 -668 669 0
-669 707 0
44 -669 670 0
-670 708 0
45 -670 671 0
-671 709 0
46 -671 672 0
-672 710 0
47 -672 673 0
-673 711 0
48 -673 674 0
-674 712 0
49 -674 675 0
-675 713 0
50 -675 676 0
-676 714 0
51 -676 677 0
-677 715 0
52 -677 678 0
-678 716 0
53 -678 0
16 679 0
17 -679 680 0
18 -680 681 0
19 -681 682 0
20 -682 683 0
21 -683 684 0
22 -684 685 0
23 -685 686 0
24 -686 687 0
25 -687 688 0
26 -688 689 0
27 -689 690 0
28 -690 691 0
29 -691 692 0
30 -692 693 0
31 -693 694 0
32 -694 695 0
33 -695 696 0
34 -696 697 0
35 -697 698 0
36 -698 699 0
37 -699 700 0
38 -700 701 0
39 -701 702 0
40 -702 703 0
41 -703 704 0
42 -704 705 0
43 -705 706 0
44 -706 707 0
45 -707 708 0
46 -708 709 0
47 -709 710 0
48 -710 711 0
49 -711 712 0
50 -712 713 0
51 -713 714 0
52 -714 715 0
53 -715 716 0
54 -716 0
-1 717 0
-717 718 0
-2 -717 719 0
-719 720 0
-3 -719 721 0
-721 722 0
-4 -721 723 0
-723 724 0
-5 -723 725 0
-725 726 0
-6 -725 727 0
-727 728 0
-7 -727 729 0
-729 730 0
-8 -729 731 0
-731 732 0
-9 -731 733 0
-733 734 0
-10 -733 735 0
-735 736 0
-11 -735 737 0
-737 738 0
-12 -737 739 0
-739 740 0
-13 -739 741 0
-741 742 0
-14 -741 743 0
-743 744 0
-15 -743 745 0
-745 746 0
-16 -745 747 0
-747 748 0
-17 -747 0
-2 718 0
-718 749 0
-3 -718 720 0
-720 750 0
-4 -720 722 0
-722 751 0
-5 -722 724 0
-724 752 0
-6 -724 726 0
-726 753 0
-7 -726 728 0
-728 754 0
-8 -728 730 0
-730 755 0
-9 -730 732 0
-732 756 0
-10 -732 734 0
-734 757 0
-11 -734 736 0
-736 758 0
-12 -736 738 0
-738 759 0
-13 -738 740 0
-740 760 0
-14 -740 742 0
-742 761 0
-15 -742 744 0
-744 762 0
-16 -744 746 0
-746 763 0
-17 -746 748 0
-748 764 0
-18 -748 0
-3 749 0
-749 765 0
-4 -749 750 0
-750 766 0
-5 -750 751 0
-751 767 0
-6 -751 752 0
-752 768 0
-7 -752 753 0
-753 769 0
-8 -753 754 0
-754 770 0
-9 -754 755 0
-755 771 0
-10 -755 756 0
-756 772 0
-11 -756 757 0
-757 773 0
-12 -757 758 0
-758 774 0
-13 -758 759 0
-759 775 0
-14 -759 760 0
-760 776 0
-15 -760 761 0
-761 777 0
-16 -761 762 0
-762 778 0
-17 -762 763 0
-763 779 0
-18 -763 764 0
-764 780 0
-19 -764 0
-4 765 0
-765 781 0
-5 -765 766 0
-766 782 0
-6 -766 767 0
-767 783 0
-7 -767 768 0
-768 784 0
-8 -768 769 0
-769 785 0
-9 -769 770 0
-770 786 0
-10 -770 771 0
-771 787 0
-11 -771 772 0
-772 788 0
-12 -772 773 0
-773 789 0
-13 -773 774 0
-774 790 0
-14 -774 775 0
-775 791 0
-15 -775 776 0
-776 792 0
-16 -776 777 0
-777 793 0
-17 -777 778 0
-778 794 0
-18 -778 779 0
-779 795 0
-19 -779 780 0
-780 796 0
-20 -780 0
-5 781 0
-781 797 0
-6 -781 782 0
-782 798 0
-7 -782 783 0
-783 799 0
-8 -783 784 0
-784 800 0
-9 -784 785 0
-785 801 0
-10 -785 786 0
-786 802 0
-11 -786 787 0
-787 803 0
-12 -787 788 0
-788 804 0
-13 -788 789 0
-789 805 0
-14 -789 790 0
-790 806 0
-15 -790 791 0
-791 807 0
-16 -791 792 0
-792 808 0
-17 -792 793 0
-793 809 0
-18 -793 794 0
-794 810 0
-19 -794 795 0
-795 811 0
-20 -795 796 0
-796 812 0
-21 -796 0
-6 797 0
-797 813 0
-7 -797 798 0
-798 814 0
-8 -798 799 0
-799 815 0
-9 -799 800 0
-800 816 0
-10 -800 801 0
-801 817 0
-11 -801 802 0
-802 818 0
-12 -802 803 0
-803 819 0
-13 -803 804 0
-804 820 0
-14 -804 805 0
-805 821 0
-15 -805 806 0
-806 822 0
-16 -806 807 0
-807 823 0
-17 -807 808 0
-808 824 0
-18 -808 809 0
-809 825 0
-19 -809 810 0
-810 826 0
-20 -810 811 0
-811 827 0
-21 -811 812 0
-812 828 0
-22 -812 0
-7 813 0
-813 829 0
-8 -813 814 0
-814 830 0
-9 -814 815 0
-815 831 0
-10 -815 816 0
-816 832 0
-11 -816 817 0
-817 833 0
-12 -817 818 0
-818 834 0
-13 -818 819 0
-819 835 0
-14 -819 820 0
-820 836 0
-15 -820 821 0
-821 837 0
-16 -821 822 0
-822 838 0
-17 -822 823 0
-823 839 0
-18 -823 824 0
-824 840 0
-19 -824 825 0
-825 841 0
-20 -825 826 0
-826 842 0
-21 -826 827 0
-827 843 0
-22 -827 828 0
-828 844 0
-23 -828 0
-8 829 0
-829 845 0
-9 -829 830 0
-830 846 0
-10 -830 831 0
-831 847 0
-11 -831 832 0
-832 848 0
-12 -832 833 0
-833 849 0
-13 -833 834 0
-834 850 0
-14 -834 835 0
-835 851 0
-15 -835 836 0
-836 852 0
-16 -836 837 0
-837 853 0
-17 -837 838 0
-838 854 0
-18 -838 839 0
-839 855 0
-19 -839 840 0
-840 856 0
-20 -840 841 0
-841 857 0
-21 -841 842 0
-842 858 0
-22 -842 843 0
-843 859 0
-23 -843 844 0
-844 860 0
-24 -844 0
-9 845 0
-845 861 0
-10 -845 846 0
-846 862 0
-11 -846 847 0
-847 863 0
-12 -847 848 0
-848 864 0
-13 -848 849 0
-849 865 0
-14 -849 850 0
-850 866 0
-15 -850 851 0
-851 867 0
-16 -851 852 0
-852 868 0
-17 -852 853 0
-853 869 0
-18 -853 854 0
-854 870 0
-19 -854 855 0
-855 871 0
-20 -855 856 0
-856 872 0
-21 -856 857 0
-857 873 0
-22 -857 858 0
-858 874 0
-23 -858 859 0
-859 875 0
-24 -859 860 0
-860 876 0
-25 -860 0
-10 861 0
-861 877 0
-11 -861 862 0
-862 878 0
-12 -862 863 0
-863 879 0
-13 -863 864 0
-864 880 0
-14 -864 865 0
-865 881 0
-15 -865 866 0
-866 882 0
-16 -866 867 0
-867 883 0
-17 -867 868 0
-868 884 0
-18 -868 869 0
-869 885 0
-19 -869 870 0
-870 886 0
-20 -870 871 0
-871 887 0
-21 -871 872 0
-872 888 0
-22 -872 873 0
-873 889 0
-23 -873 874 0
-874 890 0
-24 -874 875 0
-875 891 0
-25 -875 876 0
-876 892 0
-26 -876 0
-11 877 0
-877 893 0
-12 -877 878 0
-878 894 0
-13 -878 879 0
-879 895 0
-14 -879 880 0
-880 896 0
-15 -880 881 0
-881 897 0
-16 -881 882 0
-882 898 0
-17 -882 883 0
-883 899 0
-18 -883 884 0
-884 900 0
-19 -884 885 0
-885 901 0
-20 -885 886 0
-886 902 0
-21 -886 887 0
-887 903 0
-22 -887 888 0
-888 904 0
-23 -888 889 0
-889 905 0
-24 -889 890 0
-890 906 0
-25 -890 891 0
-891 907 0
-26 -891 892 0
-892 908 0
-27 -892 0
-12 893 0
-893 909 0
-13 -893 894 0
-894 910 0
-14 -894 895 0
-895 911 0
-15 -895 896 0
-896 912 0
-16 -896 897 0
-897 913 0
-17 -897 898 0
-898 914 0
-18 -898 899 0
-899 915 0
-19 -899 900 0
-900 916 0
-20 -900 901 0
-901 917 0
-21 -901 902 0
-902 918 0
-22 -902 903 0
-903 919 0
-23 -903 904 0
-904 920 0
-24 -904 905 0
-905 921 0
-25 -905 906 0
-906 922 0
-26 -906 907 0
-907 923 0
-27 -907 908 0
-908 924 0
-28 -908 0
-13 909 0
-909 925 0
-14 -909 910 0
-910 926 0
-15 -910 911 0
-911 927 0
-16 -911 912 0
-912 928 0
-17 -912 913 0
-913 929 0
-18 -913 914 0
-914 930 0
-19 -914 915 0
-915 931 0
-20 -915 916 0
-916 932 0
-21 -916 917 0
-917 933 0
-22 -917 918 0
-918 934 0
-23 -918 919 0
-919 935 0
-24 -919 920 0
-920 936 0
-25 -920 921 0
-921 937 0
-26 -921 922 0
-922 938 0
-27 -922 923 0
-923 939 0
-28 -923 924 0
-924 940 0
-29 -924 0
-14 925 0
-925 941 0
-15 -925 926 0
-926 942 0
-16 -926 927 0
-927 943 0
-17 -927 928 0
-928 944 0
-18 -928 929 0
-929 945 0
-19 -929 930 0
-930 946 0
-20 -930 931 0
-931 947 0
-21 -931 932 0
-932 948 0
-22 -932 933 0
-933 949 0
-23 -933 934 0
-934 950 0
-24 -934 935 0
-935 951 0
-25 -935 936 0
-936 952 0
-26 -936 937 0
-937 953 0
-27 -937 938 0
-938 954 0
-28 -938 939 0
-939 955 0
-29 -939 940 0
-940 956 0
-30 -940 0
-15 941 0
-941 957 0
-16 -941 942 0
-942 958 0
-17 -942 943 0
-943 959 0
-18 -943 944 0
-944 960 0
-19 -944 945 0
-945 961 0
-20 -945 946 0
-946 962 0
-21 -946 947 0
-947 963 0
-22 -947 948 0
-948 964 0
-23 -948 949 0
-949 965 0
-24 -949 950 0
-950 966 0
-25 -950 951 0
-951 967 0
-26 -951 952 0
-952 968 0
-27 -952 953 0
-953 969 0
-28 -953 954 0
-954 970 0
-29 -954 955 0
-955 971 0
-30 -955 956 0
-956 972 0
-31 -956 0
-16 957 0
-957 973 0
-17 -957 958 0
-958 974 0
-18 -958 959 0
-959 975 0
-19 -959 960 0
-960 976 0
-20 -960 961 0
-961 977 0
-21 -961 962 0
-962 978 0
-22 -962 963 0
-963 979 0
-23 -963 964 0
-964 980 0
-24 -964 965 0
-965 981 0
-25 -965 966 0
-966 982 0
-26 -966 967 0
-967 983 0
-27 -967 968 0
-968 984 0
-28 -968 969 0
-969 985 0
-29 -969 970 0
-970 986 0
-30 -970 971 0
-971 987 0
-31 -971 972 0
-972 988 0
-32 -972 0
-17 973 0
-973 989 0
-18 -973 974 0
-974 990 0
-19 -974 975 0
-975 991 0
-20 -975 976 0
-976 992 0
-21 -976 977 0
-977 993 0
-22 -977 978 0
-978 994 0
-23 -978 979 0
-979 995 0
-24 -979 980 0
-980 996 0
-25 -980 981 0
-981 997 0
-26 -981 982 0
-982 998 0
-27 -982 983 0
-983 999 0
-28 -983 984 0
-984 1000 0
-29 -984 985 0
-985 1001 0
-30 -985 986 0
-986 1002 0
-31 -986 987 0
-987 1003 0
-32 -987 988 0
-988 1004 0
-33 -988 0
-18 989 0
-989 1005 0
-19 -989 990 0
-990 1006 0
-20 -990 991 0
-991 1007 0
-21 -991 992 0
-992 1008 0
-22 -992 993 0
-993 1009 0
-23 -993 994 0
-994 1010 0
-24 -994 995 0
-995 1011 0
-25 -995 996 0
-996 1012 0
-26 -996 997 0
-997 1013 0
-27 -997 998 0
-998 1014 0
-28 -998 999 0
-999 1015 0
-29 -999 1000 0
-1000 1016 0
-30 -1000 1001 0
-1001 1017 0
-31 -1001 1002 0
-1002 1018 0
-32 -1002 1003 0
-1003 1019 0
-33 -1003 1004 0
-1004 1020 0
-34 -1004 0
-19 1005 0
-1005 1021 0
-20 -1005 1006 0
-1006 1022 0
-21 -1006 1007 0
-1007 1023 0
-22 -1007 1008 0
-1008 1024 0
-23 -1008 1009 0
-1009 1025 0
-24 -1009 1010 0
-1010 1026 0
-25 -1010 1011 0
-1011 1027 0
-26 -1011 1012 0
-1012 1028 0
-27 -1012 1013 0
-1013 1029 0
-28 -1013 1014 0
-1014 1030 0
-29 -1014 1015 0
-1015 1031 0
-30 -1015 1016 0
-1016 1032 0
-31 -1016 1017 0
-1017 1033 0
-32 -1017 1018 0
-1018 1034 0
-33 -1018 1019 0
-1019 1035 0
-34 -1019 1020 0
-1020 1036 0
-35 -1020 0
-20 1021 0
-1021 1037 0
-21 -1021 1022 0
-1022 1038 0
-22 -1022 1023 0
-1023 1039 0
-23 -1023 1024 0
-1024 1040 0
-24 -1024 1025 0
-1025 1041 0
-25 -1025 1026 0
-1026 1042 0
-26 -1026 1027 0
-1027 1043 0
-27 -1027 1028 0
-1028 1044 0
-28 -1028 1029 0
-1029 1045 0
-29 -1029 1030 0
-1030 1046 0
-30 -1030 1031 0
-1031 1047 0
-31 -1031 1032 0
-1032 1048 0
-32 -1032 1033 0
-1033 1049 0
-33 -1033 1034 0
-1034 1050 0
-34 -1034 1035 0
-1035 1051 0
-35 -1035 1036 0
-1036 1052 0
-36 -1036 0
-21 1037 0
-1037 1053 0
-22 -1037 1038 0
-1038 1054 0
-23 -1038 1039 0
-1039 1055 0
-24 -1039 1040 0
-1040 1056 0
-25 -1040 1041 0
-1041 1057 0
-26 -1041 1042 0
-1042 1058 0
-27 -1042 1043 0
-1043 1059 0
-28 -1043 1044 0
-1044 1060 0
-29 -1044 1045 0
-1045 1061 0
-30 -1045 1046 0
-1046 1062 0
-31 -1046 1047 0
-1047 1063 0
-32 -1047 1048 0
-1048 1064 0
-33 -1048 1049 0
-1049 1065 0
-34 -1049 1050 0
-1050 1066 0
-35 -1050 1051 0
-1051 1067 0
-36 -1051 1052 0
-1052 1068 0
-37 -1052 0
-22 1053 0
-1053 1069 0
-23 -1053 1054 0
-1054 1070 0
-24 -1054 1055 0
-1055 1071 0
-25 -1055 1056 0
-1056 1072 0
-26 -1056 1057 0
-1057 1073 0
-27 -1057 1058 0
-1058 1074 0
-28 -1058 1059 0
-1059 1075 0
-29 -1059 1060 0
-1060 1076 0
-30 -1060 1061 0
-1061 1077 0
-31 -1061 1062 0
-1062 1078 0
-32 -1062 1063 0
-1063 1079 0
-33 -1063 1064 0
-1064 1080 0
-34 -1064 1065 0
-1065 1081 0
-35 -1065 1066 0
-1066 1082 0
-36 -1066 1067 0
-1067 1083 0
-37 -1067 1068 0
-1068 1084 0
-38 -1068 0
-23 1069 0
-1069 1085 0
-24 -1069 1070 0
-1070 1086 0
-25 -1070 1071 0
-1071 1087 0
-26 -1071 1072 0
-1072 1088 0
-27 -1072 1073 0
-1073 1089 0
-28 -1073 1074 0
-1074 1090 0
-29 -1074 1075 0
-1075 1091 0
-30 -1075 1076 0
-1076 1092 0
-31 -1076 1077 0
-1077 1093 0
-32 -1077 1078 0
-1078 1094 0
-33 -1078 1079 0
-1079 1095 0
-34 -1079 1080 0
-1080 1096 0
-35 -1080 1081 0
-1081 1097 0
-36 -1081 1082 0
-1082 1098 0
-37 -1082 1083 0
-1083 1099 0
-38 -1083 1084 0
-1084 1100 0
-39 -1084 0
-24 1085 0
-1085 1101 0
-25 -1085 1086 0
-1086 1102 0
-26 -1086 1087 0
-1087 1103 0
-27 -1087 1088 0
-1088 1104 0
-28 -1088 1089 0
-1089 1105 0
-29 -1089 1090 0
-1090 1106 0
-30 -1090 1091 0
-1091 1107 0
-31 -1091 1092 0
-1092 1108 0
-32 -1092 1093 0
-1093 1109 0
-33 -1093 1094 0
-1094 1110 0
-34 -1094 1095 0
-1095 1111 0
-35 -1095 1096 0
-1096 1112 0
-36 -1096 1097 0
-1097 1113 0
-37 -1097 1098 0
-1098 1114 0
-38 -1098 1099 0
-1099 1115 0
-39 -1099 1100 0
-1100 1116 0
-40 -1100 0
-25 1101 0
-1101 1117 0
-26 -1101 1102 0
-1102 1118 0
-27 -1102 1103 0
-1103 1119 0
-28 -1103 1104 0
-1104 1120 0
-29 -1104 1105 0
-1105 1121 0
-30 -1105 1106 0
-1106 1122 0
-31 -1106 1107 0
-1107 1123 0
-32 -1107 1108 0
-1108 1124 0
-33 -1108 1109 0
-1109 1125 0
-34 -1109 1110 0
-1110 1126 0
-35 -1110 1111 0
-1111 1127 0
-36 -1111 1112 0
-1112 1128 0
-37 -1112 1113 0
-1113 1129 0
-38 -1113 1114 0
-1114 1130 0
-39 -1114 1115 0
-1115 1131 0
-40 -1115 1116 0
-1116 1132 0
-41 -1116 0
-26 1117 0
-1117 1133 0
-27 -1117 1118 0
-1118 1134 0
-28 -1118 1119 0
-1119 1135 0
-29 -1119 1120 0
-1120 1136 0
-30 -1120 1121 0
-1121 1137 0
-31 -1121 1122 0
-1122 1138 0
-32 -1122 1123 0
-1123 1139 0
-33 -1123 1124 0
-1124 1140 0
-34 -1124 1125 0
-1125 1141 0
-35 -1125 1126 0
-1126 1142 0
-36 -1126 1127 0
-1127 1143 0
-37 -1127 1128 0
-1128 1144 0
-38 -1128 1129 0
-1129 1145 0
-39 -1129 1130 0
-1130 1146 0
-40 -1130 1131 0
-1131 1147 0
-41 -1131 1132 0
-1132 1148 0
-42 -1132 0
-27 1133 0
-1133 1149 0
-28 -1133 1134 0
-1134 1150 0
-29 -1134 1135 0
-1135 1151 0
-30 -1135 1136 0
-1136 1152 0
-31 -1136 1137 0
-1137 1153 0
-32 -1137 1138 0
-1138 1154 0
-33 -1138 1139 0
-1139 1155 0
-34 -1139 1140 0
-1140 1156 0
-35 -1140 1141 0
-1141 1157 0
-36 -1141 1142 0
-1142 1158 0
-37 -1142 1143 0
-1143 1159 0
-38 -1143 1144 0
-1144 1160 0
-39 -1144 1145 0
-1145 1161 0
-40 -1145 1146 0
-1146 1162 0
-41 -1146 1147 0
-1147 1163 0
-42 -1147 1148 0
-1148 1164 0
-43 -1148 0
-28 1149 0
-1149 1165 0
-29 -1149 1150 0
-1150 1166 0
-30 -1150 1151 0
-1151 1167 0
-31 -1151 1152 0
-1152 1168 0
-32 -1152 1153 0
-1153 1169 0
-33 -1153 1154 0
-1154 1170 0
-34 -1154 1155 0
-1155 1171 0
-35 -1155 1156 0
-1156 1172 0
-36 -1156 1157 0
-1157 1173 0
-37 -1157 1158 0
-1158 1174 0
-38 -1158 1159 0
-1159 1175 0
-39 -1159 1160 0
-1160 1176 0
-40 -1160 1161 0
-1161 1177 0
-41 -1161 1162 0
-1162 1178 0
-42 -1162 1163 0
-1163 1179 0
-43 -1163 1164 0
-1164 1180 0
-44 -1164 0
-29 1165 0
-1165 1181 0
-30 -1165 1166 0
-1166 1182 0
-31 -1166 1167 0
-1167 1183 0
-32 -1167 1168 0
-1168 1184 0
-33 -1168 1169 0
-1169 1185 0
-34 -1169 1170 0
-1170 1186 0
-35 -1170 1171 0
-1171 1187 0
-36 -1171 1172 0
-1172 1188 0
-37 -1172 1173 0
-1173 1189 0
-38 -1173 1174 0
-1174 1190 0
-39 -1174 1175 0
-1175 1191 0
-40 -1175 1176 0
-1176 1192 0
-41 -1176 1177 0
-1177 1193 0
-42 -1177 1178 0
-1178 1194 0
-43 -1178 1179 0
-1179 1195 0
-44 -1179 1180 0
-1180 1196 0
-45 -1180 0
-30 1181 0
-1181 1197 0
-31 -1181 1182 0
-1182 1198 0
-32 -1182 1183 0
-1183 1199 0
-33 -1183 1184 0
-1184 1200 0
-34 -1184 1185 0
-1185 1201 0
-35 -1185 1186 0
-1186 1202 0
-36 -1186 1187 0
-1187 1203 0
-37 -1187 1188 0
-1188 1204 0
-38 -1188 1189 0
-1189 1205 0
-39 -1189 1190 0
-1190 1206 0
-40 -1190 1191 0
-1191 1207 0
-41 -1191 1192 0
-1192 1208 0
-42 -1192 1193 0
-1193 1209 0
-43 -1193 1194 0
-1194 1210 0
-44 -1194 1195 0
-1195 1211 0
-45 -1195 1196 0
-1196 1212 0
-46 -1196 0
-31 1197 0
-1197 1213 0
-32 -1197 1198 0
-1198 1214 0
-33 -1198 1199 0
-1199 1215 0
-34 -1199 1200 0
-1200 1216 0
-35 -1200 1201 0
-1201 1217 0
-36 -1201 1202 0
-1202 1218 0
-37 -1202 1203 0
-1203 1219 0
-38 -1203 1204 0
-1204 1220 0
-39 -1204 1205 0
-1205 1221 0
-40 -1205 1206 0
-1206 1222 0
-41 -1206 1207 0
-1207 1223 0
-42 -1207 1208 0
-1208 1224 0
-43 -1208 1209 0
-1209 1225 0
-44 -1209 1210 0
-1210 1226 0
-45 -1210 1211 0
-1211 1227 0
-46 -1211 1212 0
-1212 1228 0
-47 -1212 0
-32 1213 0
-1213 1229 0
-33 -1213 1214 0
-1214 1230 0
-34 -1214 1215 0
-1215 1231 0
-35 -1215 1216 0
-1216 1232 0
-36 -1216 1217 0
-1217 1233 0
-37 -1217 1218 0
-1218 1234 0
-38 -1218 1219 0
-1219 1235 0
-39 -1219 1220 0
-1220 1236 0
-40 -1220 1221 0
-1221 1237 0
-41 -1221 1222 0
-1222 1238 0
-42 -1222 1223 0
-1223 1239 0
-43 -1223 1224 0
-1224 1240 0
-44 -1224 1225 0
-1225 1241 0
-45 -1225 1226 0
-1226 1242 0
-46 -1226 1227 0
-1227 1243 0
-47 -1227 1228 0
-1228 1244 0
-48 -1228 0
-33 1229 0
-1229 1245 0
-34 -1229 1230 0
-1230 1246 0
-35 -1230 1231 0
-1231 1247 0
-36 -1231 1232 0
-1232 1248 0
-37 -1232 1233 0
-1233 1249 0
-38 -1233 1234 0
-1234 1250 0
-39 -1234 1235 0
-1235 1251 0
-40 -1235 1236 0
-1236 1252 0
-41 -1236 1237 0
-1237 1253 0
-42 -1237 1238 0
-1238 1254 0
-43 -1238 1239 0
-1239 1255 0
-44 -1239 1240 0
-1240 1256 0
-45 -1240 1241 0
-1241 1257 0
-46 -1241 1242 0
-1242 1258 0
-47 -1242 1243 0
-1243 1259 0
-48 -1243 1244 0
-1244 1260 0
-49 -1244 0
-34 1245 0
-1245 1261 0
-35 -1245 1246 0
-1246 1262 0
-36 -1246 1247 0
-1247 1263 0
-37 -1247 1248 0
-1248 1264 0
-38 -1248 1249 0
-1249 1265 0
-39 -1249 1250 0
-1250 1266 0
-40 -1250 1251 0
-1251 1267 0
-41 -1251 1252 0
-1252 1268 0
-42 -1252 1253 0
-1253 1269 0
-43 -1253 1254 0
-1254 1270 0
-44 -1254 1255 0
-1255 1271 0
-45 -1255 1256 0
-1256 1272 0
-46 -1256 1257 0
-1257 1273 0
-47 -1257 1258 0
-1258 1274 0
-48 -1258 1259 0
-1259 1275 0
-49 -1259 1260 0
-1260 1276 0
-50 -1260 0
-35 1261 0
-1261 1277 0
-36 -1261 1262 0
-1262 1278 0
-37 -1262 1263 0
-1263 1279 0
-38 -1263 1264 0
-1264 1280 0
-39 -1264 1265 0
-1265 1281 0
-40 -1265 1266 0
-1266 1282 0
-41 -1266 1267 0
-1267 1283 0
-42 -1267 1268 0
-1268 1284 0
-43 -1268 1269 0
-1269 1285 0
-44 -1269 1270 0
-1270 1286 0
-45 -1270 1271 0
-1271 1287 0
-46 -1271 1272 0
-1272 1288 0
-47 -1272 1273 0
-1273 1289 0
-48 -1273 1274 0
-1274 1290 0
-49 -1274 1275 0
-1275 1291 0
-50 -1275 1276 0
-1276 1292 0
-51 -1276 0
-36 1277 0
-1277 1293 0
-37 -1277 1278 0
-1278 1294 0
-38 -1278 1279 0
-1279 1295 0
-39 -1279 1280 0
-1280 1296 0
-40 -1280 1281 0
-1281 1297 0
-41 -1281 1282 0
-1282 1298 0
-42 -1282 1283 0
-1283 1299 0
-43 -1283 1284 0
-1284 1300 0
-44 -1284 1285 0
-1285 1301 0
-45 -1285 1286 0
-1286 1302 0
-46 -1286 1287 0
-1287 1303 0
-47 -1287 1288 0
-1288 1304 0
-48 -1288 1289 0
-1289 1305 0
-49 -1289 1290 0
-1290 1306 0
-50 -1290 1291 0
-1291 1307 0
-51 -1291 1292 0
-1292 1308 0
-52 -1292 0
-37 1293 0
-1293 1309 0
-38 -1293 1294 0
-1294 1310 0
-39 -1294 1295 0
-1295 1311 0
-40 -1295 1296 0
-1296 1312 0
-41 -1296 1297 0
-1297 1313 0
-42 -1297 1298 0
-1298 1314 0
-43 -1298 1299 0
-1299 1315 0
-44 -1299 1300 0
-1300 1316 0
-45 -1300 1301 0
-1301 1317 0
-46 -1301 1302 0
-1302 1318 0
-47 -1302 1303 0
-1303 1319 0
-48 -1303 1304 0
-1304 1320 0
-49 -1304 1305 0
-1305 1321 0
-50 -1305 1306 0
-1306 1322 0
-51 -1306 1307 0
-1307 1323 0
-52 -1307 1308 0
-1308 1324 0
-53 -1308 0
-38 1309 0
-39 -1309 1310 0
-40 -1310 1311 0
-41 -1311 1312 0
-42 -1312 1313 0
-43 -1313 1314 0
-44 -1314 1315 0
-45 -1315 1316 0
-46 -1316 1317 0
-47 -1317 1318 0
-48 -1318 1319 0
-49 -1319 1320 0
-50 -1320 1321 0
-51 -1321 1322 0
-52 -1322 1323 0
-53 -1323 1324 0
-54 -1324 0
-55 1325 0
-1325 1326 0
-56 -1325 1327 0
-1327 1328 0
-57 -1327 1329 0
-1329 1330 0
-58 -1329 1331 0
-1331 1332 0
-59 -1331 1333 0
-1333 1334 0
-60 -1333 1335 0
-1335 1336 0
-61 -1335 1337 0
-1337 1338 0
-62 -1337 1339 0
-1339 1340 0
-63 -1339 1341 0
-1341 1342 0
-64 -1341 1343 0
-1343 1344 0
-65 -1343 1345 0
-1345 1346 0
-66 -1345 1347 0
-1347 1348 0
-67 -1347 1349 0
-1349 1350 0
-68 -1349 1351 0
-1351 1352 0
-69 -1351 1353 0
-1353 1354 0
-70 -1353 1355 0
-1355 1356 0
-71 -1355 1357 0
-1357 1358 0
-72 -1357 1359 0
-1359 1360 0
-73 -1359 1361 0
-1361 1362 0
-74 -1361 1363 0
-1363 1364 0
-75 -1363 1365 0
-1365 1366 0
-76 -1365 1367 0
-1367 1368 0
-77 -1367 1369 0
-1369 1370 0
-78 -1369 1371 0
-1371 1372 0
-79 -1371 1373 0
-1373 1374 0
-80 -1373 0
-56 1326 0
-1326 1375 0
-57 -1326 1328 0
-1328 1376 0
-58 -1328 1330 0
-1330 1377 0
-59 -1330 1332 0
-1332 1378 0
-60 -1332 1334 0
-1334 1379 0
-61 -1334 1336 0
-1336 1380 0
-62 -1336 1338 0
-1338 1381 0
-63 -1338 1340 0
-1340 1382 0
-64 -1340 1342 0
-1342 1383 0
-65 -1342 1344 0
-1344 1384 0
-66 -1344 1346 0
-1346 1385 0
-67 -1346 1348 0
-1348 1386 0
-68 -1348 1350 0
-1350 1387 0
-69 -1350 1352 0
-1352 1388 0
-70 -1352 1354 0
-1354 1389 0
-71 -1354 1356 0
-1356 1390 0
-72 -1356 1358 0
-1358 1391 0
-73 -1358 1360 0
-1360 1392 0
-74 -1360 1362 0
-1362 1393 0
-75 -1362 1364 0
-1364 1394 0
-76 -1364 1366 0
-1366 1395 0
-77 -1366 1368 0
-1368 1396 0
-78 -1368 1370 0
-1370 1397 0
-79 -1370 1372 0
-1372 1398 0
-80 -1372 1374 0
-1374 1399 0
-81 -1374 0
-57 1375 0
-1375 1400 0
-58 -1375 1376 0
-1376 1401 0
-59 -1376 1377 0
-1377 1402 0
-60 -1377 1378 0
-1378 1403 0
-61 -1378 1379 0
-1379 1404 0
-62 -1379 1380 0
-1380 1405 0
-63 -1380 1381 0
-1381 1406 0
-64 -1381 1382 0
-1382 1407 0
-65 -1382 1383 0
-1383 1408 0
-66 -1383 1384 0
-1384 1409 0
-67 -1384 1385 0
-1385 1410 0
-68 -1385 1386 0
-1386 1411 0
-69 -1386 1387 0
-1387 1412 0
-70 -1387 1388 0
-1388 1413 0
-71 -1388 1389 0
-1389 1414 0
-72 -1389 1390 0
-1390 1415 0
-73 -1390 1391 0
-1391 1416 0
-74 -1391 1392 0
-1392 1417 0
-75 -1392 1393 0
-1393 1418 0
-76 -1393 1394 0
-1394 1419 0
-77 -1394 1395 0
-1395 1420 0
-78 -1395 1396 0
-1396 1421 0
-79 -1396 1397 0
-1397 1422 0
-80 -1397 1398 0
-1398 1423 0
-81 -1398 1399 0
-1399 1424 0
-82 -1399 0
-58 1400 0
-1400 1425 0
-59 -1400 1401 0
-1401 1426 0
-60 -1401 1402 0
-1402 1427 0
-61 -1402 1403 0
-1403 1428 0
-62 -1403 1404 0
-1404 1429 0
-63 -1404 1405 0
-1405 1430 0
-64 -1405 1406 0
-1406 1431 0
-65 -1406 1407 0
-1407 1432 0
-66 -1407 1408 0
-1408 1433 0
-67 -1408 1409 0
-1409 1434 0
-68 -1409 1410 0
-1410 1435 0
-69 -1410 1411 0
-1411 1436 0
-70 -1411 1412 0
-1412 1437 0
-71 -1412 1413 0
-1413 1438 0
-72 -1413 1414 0
-1414 1439 0
-73 -1414 1415 0
-1415 1440 0
-74 -1415 1416 0
-1416 1441 0
-75 -1416 1417 0
-1417 1442 0
-76 -1417 1418 0
-1418 1443 0
-77 -1418 1419 0
-1419 1444 0
-78 -1419 1420 0
-1420 1445 0
-79 -1420 1421 0
-1421 1446 0
-80 -1421 1422 0
-1422 1447 0
-81 -1422 1423 0
-1423 1448 0
-82 -1423 1424 0
-1424 1449 0
-83 -1424 0
-59 1425 0
-1425 1450 0
-60 -1425 1426 0
-1426 1451 0
-61 -1426 1427 0
-1427 1452 0
-62 -1427 1428 0
-1428 1453 0
-63 -1428 1429 0
-1429 1454 0
-64 -1429 1430 0
-1430 1455 0
-65 -1430 1431 0
-1431 1456 0
-66 -1431 1432 0
-1432 1457 0
-67 -1432 1433 0
-1433 1458 0
-68 -1433 1434 0
-1434 1459 0
-69 -1434 1435 0
-1435 1460 0
-70 -1435 1436 0
-1436 1461 0
-71 -1436 1437 0
-1437 1462 0
-72 -1437 1438 0
-1438 1463 0
-73 -1438 1439 0
-1439 1464 0
-74 -1439 1440 0
-1440 1465 0
-75 -1440 1441 0
-1441 1466 0
-76 -1441 1442 0
-1442 1467 0
-77 -1442 1443 0
-1443 1468 0
-78 -1443 1444 0
-1444 1469 0
-79 -1444 1445 0
-1445 1470 0
-80 -1445 1446 0
-1446 1471 0
-81 -1446 1447 0
-1447 1472 0
-82 -1447 1448 0
-1448 1473 0
-83 -1448 1449 0
-1449 1474 0
-84 -1449 0
-60 1450 0
-1450 1475 0
-61 -1450 1451 0
-1451 1476 0
-62 -1451 1452 0
-1452 1477 0
-63 -1452 1453 0
-1453 1478 0
-64 -1453 1454 0
-1454 1479 0
-65 -1454 1455 0
-1455 1480 0
-66 -1455 1456 0
-1456 1481 0
-67 -1456 1457 0
-1457 1482 0
-68 -1457 1458 0
-1458 1483 0
-69 -1458 1459 0
-1459 1484 0
-70 -1459 1460 0
-1460 1485 0
-71 -1460 1461 0
-1461 1486 0
-72 -1461 1462 0
-1462 1487 0
-73 -1462 1463 0
-1463 1488 0
-74 -1463 1464 0
-1464 1489 0
-75 -1464 1465 0
-1465 1490 0
-76 -1465 1466 0
-1466 1491 0
-77 -1466 1467 0
-1467 1492 0
-78 -1467 1468 0
-1468 1493 0
-79 -1468 1469 0
-1469 1494 0
-80 -1469 1470 0
-1470 1495 0
-81 -1470 1471 0
-1471 1496 0
-82 -1471 1472 0
-1472 1497 0
-83 -1472 1473 0
-1473 1498 0
-84 -1473 1474 0
-1474 1499 0
-85 -1474 0
-61 1475 0
-1475 1500 0
-62 -1475 1476 0
-1476 1501 0
-63 -1476 1477 0
-1477 1502 0
-64 -1477 1478 0
-1478 1503 0
-65 -1478 1479 0
-1479 1504 0
-66 -1479 1480 0
-1480 1505 0
-67 -1480 1481 0
-1481 1506 0
-68 -1481 1482 0
-1482 1507 0
-69 -1482 1483 0
-1483 1508 0
-70 -1483 1484 0
-1484 1509 0
-71 -1484 1485 0
-1485 1510 0
-72 -1485 1486 0
-1486 1511 0
-73 -1486 1487 0
-1487 1512 0
-74 -1487 1488 0
-1488 1513 0
-75 -1488 1489 0
-1489 1514 0
-76 -1489 1490 0
-1490 1515 0
-77 -1490 1491 0
-1491 1516 0
-78 -1491 1492 0
-1492 1517 0
-79 -1492 1493 0
-1493 1518 0
-80 -1493 1494 0
-1494 1519 0
-81 -1494 1495 0
-1495 1520 0
-82 -1495 1496 0
-1496 1521 0
-83 -1496 1497 0
-1497 1522 0
-84 -1497 1498 0
-1498 1523 0
-85 -1498 1499 0
-1499 1524 0
-86 -1499 0
-62 1500 0
-1500 1525 0
-63 -1500 1501 0
-1501 1526 0
-64 -1501 1502 0
-1502 1527 0
-65 -1502 1503 0
-1503 1528 0
-66 -1503 1504 0
-1504 1529 0
-67 -1504 1505 0
-1505 1530 0
-68 -1505 1506 0
-1506 1531 0
-69 -1506 1507 0
-1507 1532 0
-70 -1507 1508 0
-1508 1533 0
-71 -1508 1509 0
-1509 1534 0
-72 -1509 1510 0
-1510 1535 0
-73 -1510 1511 0
-1511 1536 0
-74 -1511 1512 0
-1512 1537 0
-75 -1512 1513 0
-1513 1538 0
-76 -1513 1514 0
-1514 1539 0
-77 -1514 1515 0
-1515 1540 0
-78 -1515 1516 0
-1516 1541 0
-79 -1516 1517 0
-1517 1542 0
-80 -1517 1518 0
-1518 1543 0
-81 -1518 1519 0
-1519 1544 0
-82 -1519 1520 0
-1520 1545 0
-83 -1520 1521 0
-1521 1546 0
-84 -1521 1522 0
-1522 1547 0
-85 -1522 1523 0
-1523 1548 0
-86 -1523 1524 0
-1524 1549 0
-87 -1524 0
-63 1525 0
-1525 1550 0
-64 -1525 1526 0
-1526 1551 0
-65 -1526 1527 0
-1527 1552 0
-66 -1527 1528 0
-1528 1553 0
-67 -1528 1529 0
-1529 1554 0
-68 -1529 1530 0
-1530 1555 0
-69 -1530 1531 0
-1531 1556 0
-70 -1531 1532 0
-1532 1557 0
-71 -1532 1533 0
-1533 1558 0
-72 -1533 1534 0
-1534 1559 0
-73 -1534 1535 0
-1535 1560 0
-74 -1535 1536 0
-1536 1561 0
-75 -1536 1537 0
-1537 1562 0
-76 -1537 1538 0
-1538 1563 0
-77 -1538 1539 0
-1539 1564 0
-78 -1539 1540 0
-1540 1565 0
-79 -1540 1541 0
-1541 1566 0
-80 -1541 1542 0
-1542 1567 0
-81 -1542 1543 0
-1543 1568 0
-82 -1543 1544 0
-1544 1569 0
-83 -1544 1545 0
-1545 1570 0
-84 -1545 1546 0
-1546 1571 0
-85 -1546 1547 0
-1547 1572 0
-86 -1547 1548 0
-1548 1573 0
-87 -1548 1549 0
-1549 1574 0
-88 -1549 0
-64 1550 0
-1550 1575 0
-65 -1550 1551 0
-1551 1576 0
-66 -1551 1552 0
-1552 1577 0
-67 -1552 1553 0
-1553 1578 0
-68 -1553 1554 0
-1554 1579 0
-69 -1554 1555 0
-1555 1580 0
-70 -1555 1556 0
-1556 1581 0
-71 -1556 1557 0
-1557 1582 0
-72 -1557 1558 0
-1558 1583 0
-73 -1558 1559 0
-1559 1584 0
-74 -1559 1560 0
-1560 1585 0
-75 -1560 1561 0
-1561 1586 0
-76 -1561 1562 0
-1562 1587 0
-77 -1562 1563 0
-1563 1588 0
-78 -1563 1564 0
-1564 1589 0
-79 -1564 1565 0
-1565 1590 0
-80 -1565 1566 0
-1566 1591 0
-81 -1566 1567 0
-1567 1592 0
-82 -1567 1568 0
-1568 1593 0
-83 -1568 1569 0
-1569 1594 0
-84 -1569 1570 0
-1570 1595 0
-85 -1570 1571 0
-1571 1596 0
-86 -1571 1572 0
-1572 1597 0
-87 -1572 1573 0
-1573 1598 0
-88 -1573 1574 0
-1574 1599 0
-89 -1574 0
-65 1575 0
-1575 1600 0
-66 -1575 1576 0
-1576 1601 0
-67 -1576 1577 0
-1577 1602 0
-68 -1577 1578 0
-1578 1603 0
-69 -1578 1579 0
-1579 1604 0
-70 -1579 1580 0
-1580 1605 0
-71 -1580 1581 0
-1581 1606 0
-72 -1581 1582 0
-1582 1607 0
-73 -1582 1583 0
-1583 1608 0
-74 -1583 1584 0
-1584 1609 0
-75 -1584 1585 0
-1585 1610 0
-76 -1585 1586 0
-1586 1611 0
-77 -1586 1587 0
-1587 1612 0
-78 -1587 1588 0
-1588 1613 0
-79 -1588 1589 0
-1589 1614 0
-80 -1589 1590 0
-1590 1615 0
-81 -1590 1591 0
-1591 1616 0
-82 -1591 1592 0
-1592 1617 0
-83 -1592 1593 0
-1593 1618 0
-84 -1593 1594 0
-1594 1619 0
-85 -1594 1595 0
-1595 1620 0
-86 -1595 1596 0
-1596 1621 0
-87 -1596 1597 0
-1597 1622 0
-88 -1597 1598 0
-1598 1623 0
-89 -1598 1599 0
-1599 1624 0
-90 -1599 0
-66 1600 0
-1600 1625 0
-67 -1600 1601 0
-1601 1626 0
-68 -1601 1602 0
-1602 1627 0
-69 -1602 1603 0
-1603 1628 0
-70 -1603 1604 0
-1604 1629 0
-71 -1604 1605 0
-1605 1630 0
-72 -1605 1606 0
-1606 1631 0
-73 -1606 1607 0
-1607 1632 0
-74 -1607 1608 0
-1608 1633 0
-75 -1608 1609 0
-1609 1634 0
-76 -1609 1610 0
-1610 1635 0
-77 -1610 1611 0
-1611 1636 0
-78 -1611 1612 0
-1612 1637 0
-79 -1612 1613 0
-1613 1638 0
-80 -1613 1614 0
-1614 1639 0
-81 -1614 1615 0
-1615 1640 0
-82 -1615 1616 0
-1616 1641 0
-83 -1616 1617 0
-1617 1642 0
-84 -1617 1618 0
-1618 1643 0
-85 -1618 1619 0
-1619 1644 0
-86 -1619 1620 0
-1620 1645 0
-87 -1620 1621 0
-1621 1646 0
-88 -1621 1622 0
-1622 1647 0
-89 -1622 1623 0
-1623 1648 0
-90 -1623 1624 0
-1624 1649 0
-91 -1624 0
-67 1625 0
-1625 1650 0
-68 -1625 1626 0
-1626 1651 0
-69 -1626 1627 0
-1627 1652 0
-70 -1627 1628 0
-1628 1653 0
-71 -1628 1629 0
-1629 1654 0
-72 -1629 1630 0
-1630 1655 0
-73 -1630 1631 0
-1631 1656 0
-74 -1631 1632 0
-1632 1657 0
-75 -1632 1633 0
-1633 1658 0
-76 -1633 1634 0
-1634 1659 0
-77 -1634 1635 0
-1635 1660 0
-78 -1635 1636 0
-1636 1661 0
-79 -1636 1637 0
-1637 1662 0
-80 -1637 1638 0
-1638 1663 0
-81 -1638 1639 0
-1639 1664 0
-82 -1639 1640 0
-1640 1665 0
-83 -1640 1641 0
-1641 1666 0
-84 -1641 1642 0
-1642 1667 0
-85 -1642 1643 0
-1643 1668 0
-86 -1643 1644 0
-1644 1669 0
-87 -1644 1645 0
-1645 1670 0
-88 -1645 1646 0
-1646 1671 0
-89 -1646 1647 0
-1647 1672 0
-90 -1647 1648 0
-1648 1673 0
-91 -1648 1649 0
-1649 1674 0
-92 -1649 0
-68 1650 0
-1650 1675 0
-69 -1650 1651 0
-1651 1676 0
-70 -1651 1652 0
-1652 1677 0
-71 -1652 1653 0
-1653 1678 0
-72 -1653 1654 0
-1654 1679 0
-73 -1654 1655 0
-1655 1680 0
-74 -1655 1656 0
-1656 1681 0
-75 -1656 1657 0
-1657 1682 0
-76 -1657 1658 0
-1658 1683 0
-77 -1658 1659 0
-1659 1684 0
-78 -1659 1660 0
-1660 1685 0
-79 -1660 1661 0
-1661 1686 0
-80 -1661 1662 0
-1662 1687 0
-81 -1662 1663 0
-1663 1688 0
-82 -1663 1664 0
-1664 1689 0
-83 -1664 1665 0
-1665 1690 0
-84 -1665 1666 0
-1666 1691 0
-85 -1666 1667 0
-1667 1692 0
-86 -1667 1668 0
-1668 1693 0
-87 -1668 1669 0
-1669 1694 0
-88 -1669 1670 0
-1670 1695 0
-89 -1670 1671 0
-1671 1696 0
-90 -1671 1672 0
-1672 1697 0
-91 -1672 1673 0
-1673 1698 0
-92 -1673 1674 0
-1674 1699 0
-93 -1674 0
-69 1675 0
-1675 1700 0
-70 -1675 1676 0
-1676 1701 0
-71 -1676 1677 0
-1677 1702 0
-72 -1677 1678 0
-1678 1703 0
-73 -1678 1679 0
-1679 1704 0
-74 -1679 1680 0
-1680 1705 0
-75 -1680 1681 0
-1681 1706 0
-76 -1681 1682 0
-1682 1707 0
-77 -1682 1683 0
-1683 1708 0
-78 -1683 1684 0
-1684 1709 0
-79 -1684 1685 0
-1685 1710 0
-80 -1685 1686 0
-1686 1711 0
-81 -1686 1687 0
-1687 1712 0
-82 -1687 1688 0
-1688 1713 0
-83 -1688 1689 0
-1689 1714 0
-84 -1689 1690 0
-1690 1715 0
-85 -1690 1691 0
-1691 1716 0
-86 -1691 1692 0
-1692 1717 0
-87 -1692 1693 0
-1693 1718 0
-88 -1693 1694 0
-1694 1719 0
-89 -1694 1695 0
-1695 1720 0
-90 -1695 1696 0
-1696 1721 0
-91 -1696 1697 0
-1697 1722 0
-92 -1697 1698 0
-1698 1723 0
-93 -1698 1699 0
-1699 1724 0
-94 -1699 0
-70 1700 0
-1700 1725 0
-71 -1700 1701 0
-1701 1726 0
-72 -1701 1702 0
-1702 1727 0
-73 -1702 1703 0
-1703 1728 0
-74 -1703 1704 0
-1704 1729 0
-75 -1704 1705 0
-1705 1730 0
-76 -1705 1706 0
-1706 1731 0
-77 -1706 1707 0
-1707 1732 0
-78 -1707 1708 0
-1708 1733 0
-79 -1708 1709 0
-1709 1734 0
-80 -1709 1710 0
-1710 1735 0
-81 -1710 1711 0
-1711 1736 0
-82 -1711 1712 0
-1712 1737 0
-83 -1712 1713 0
-1713 1738 0
-84 -1713 1714 0
-1714 1739 0
-85 -1714 1715 0
-1715 1740 0
-86 -1715 1716 0
-1716 1741 0
-87 -1716 1717 0
-1717 1742 0
-88 -1717 1718 0
-1718 1743 0
-89 -1718 1719 0
-1719 1744 0
-90 -1719 1720 0
-1720 1745 0
-91 -1720 1721 0
-1721 1746 0
-92 -1721 1722 0
-1722 1747 0
-93 -1722 1723 0
-1723 1748 0
-94 -1723 1724 0
-1724 1749 0
-95 -1724 0
-71 1725 0
-1725 1750 0
-72 -1725 1726 0
-1726 1751 0
-73 -1726 1727 0
-1727 1752 0
-74 -1727 1728 0
-1728 1753 0
-75 -1728 1729 0
-1729 1754 0
-76 -1729 1730 0
-1730 1755 0
-77 -1730 1731 0
-1731 1756 0
-78 -1731 1732 0
-1732 1757 0
-79 -1732 1733 0
-1733 1758 0
-80 -1733 1734 0
-1734 1759 0
-81 -1734 1735 0
-1735 1760 0
-82 -1735 1736 0
-1736 1761 0
-83 -1736 1737 0
-1737 1762 0
-84 -1737 1738 0
-1738 1763 0
-85 -1738 1739 0
-1739 1764 0
-86 -1739 1740 0
-1740 1765 0
-87 -1740 1741 0
-1741 1766 0
-88 -1741 1742 0
-1742 1767 0
-89 -1742 1743 0
-1743 1768 0
-90 -1743 1744 0
-1744 1769 0
-91 -1744 1745 0
-1745 1770 0
-92 -1745 1746 0
-1746 1771 0
-93 -1746 1747 0
-1747 1772 0
-94 -1747 1748 0
-1748 1773 0
-95 -1748 1749 0
-1749 1774 0
-96 -1749 0
-72 1750 0
-1750 1775 0
-73 -1750 1751 0
-1751 1776 0
-74 -1751 1752 0
-1752 1777 0
-75 -1752 1753 0
-1753 1778 0
-76 -1753 1754 0
-1754 1779 0
-77 -1754 1755 0
-1755 1780 0
-78 -1755 1756 0
-1756 1781 0
-79 -1756 1757 0
-1757 1782 0
-80 -1757 1758 0
-1758 1783 0
-81 -1758 1759 0
-1759 1784 0
-82 -1759 1760 0
-1760 1785 0
-83 -1760 1761 0
-1761 1786 0
-84 -1761 1762 0
-1762 1787 0
-85 -1762 1763 0
-1763 1788 0
-86 -1763 1764 0
-1764 1789 0
-87 -1764 1765 0
-1765 1790 0
-88 -1765 1766 0
-1766 1791 0
-89 -1766 1767 0
-1767 1792 0
-90 -1767 1768 0
-1768 1793 0
-91 -1768 1769 0
-1769 1794 0
-92 -1769 1770 0
-1770 1795 0
-93 -1770 1771 0
-1771 1796 0
-94 -1771 1772 0
-1772 1797 0
-95 -1772 1773 0
-1773 1798 0
-96 -1773 1774 0
-1774 1799 0
-97 -1774 0
-73 1775 0
-1775 1800 0
-74 -1775 1776 0
-1776 1801 0
-75 -1776 1777 0
-1777 1802 0
-76 -1777 1778 0
-1778 1803 0
-77 -1778 1779 0
-1779 1804 0
-78 -1779 1780 0
-1780 1805 0
-79 -1780 1781 0
-1781 1806 0
-80 -1781 1782 0
-1782 1807 0
-81 -1782 1783 0
-1783 1808 0
-82 -1783 1784 0
-1784 1809 0
-83 -1784 1785 0
-1785 1810 0
-84 -1785 1786 0
-1786 1811 0
-85 -1786 1787 0
-1787 1812 0
-86 -1787 1788 0
-1788 1813 0
-87 -1788 1789 0
-1789 1814 0
-88 -1789 1790 0
-1790 1815 0
-89 -1790 1791 0
-1791 1816 0
-90 -1791 1792 0
-1792 1817 0
-91 -1792 1793 0
-1793 1818 0
-92 -1793 1794 0
-1794 1819 0
-93 -1794 1795 0
-1795 1820 0
-94 -1795 1796 0
-1796 1821 0
-95 -1796 1797 0
-1797 1822 0
-96 -1797 1798 0
-1798 1823 0
-97 -1798 1799 0
-1799 1824 0
-98 -1799 0
-74 1800 0
-1800 1825 0
-75 -1800 1801 0
-1801 1826 0
-76 -1801 1802 0
-1802 1827 0
-77 -1802 1803 0
-1803 1828 0
-78 -1803 1804 0
-1804 1829 0
-79 -1804 1805 0
-1805 1830 0
-80 -1805 1806 0
-1806 1831 0
-81 -1806 1807 0
-1807 1832 0
-82 -1807 1808 0
-1808 1833 0
-83 -1808 1809 0
-1809 1834 0
-84 -1809 1810 0
-1810 1835 0
-85 -1810 1811 0
-1811 1836 0
-86 -1811 1812 0
-1812 1837 0
-87 -1812 1813 0
-1813 1838 0
-88 -1813 1814 0
-1814 1839 0
-89 -1814 1815 0
-1815 1840 0
-90 -1815 1816 0
-1816 1841 0
-91 -1816 1817 0
-1817 1842 0
-92 -1817 1818 0
-1818 1843 0
-93 -1818 1819 0
-1819 1844 0
-94 -1819 1820 0
-1820 1845 0
-95 -1820 1821 0
-1821 1846 0
-96 -1821 1822 0
-1822 1847 0
-97 -1822 1823 0
-1823 1848 0
-98 -1823 1824 0
-1824 1849 0
-99 -1824 0
-75 1825 0
-1825 1850 0
-76 -1825 1826 0
-1826 1851 0
-77 -1826 1827 0
-1827 1852 0
-78 -1827 1828 0
-1828 1853 0
-79 -1828 1829 0
-1829 1854 0
-80 -1829 1830 0
-1830 1855 0
-81 -1830 1831 0
-1831 1856 0
-82 -1831 1832 0
-1832 1857 0
-83 -1832 1833 0
-1833 1858 0
-84 -1833 1834 0
-1834 1859 0
-85 -1834 1835 0
-1835 1860 0
-86 -1835 1836 0
-1836 1861 0
-87 -1836 1837 0
-1837 1862 0
-88 -1837 1838 0
-1838 1863 0
-89 -1838 1839 0
-1839 1864 0
-90 -1839 1840 0
-1840 1865 0
-91 -1840 1841 0
-1841 1866 0
-92 -1841 1842 0
-1842 1867 0
-93 -1842 1843 0
-1843 1868 0
-94 -1843 1844 0
-1844 1869 0
-95 -1844 1845 0
-1845 1870 0
-96 -1845 1846 0
-1846 1871 0
-97 -1846 1847 0
-1847 1872 0
-98 -1847 1848 0
-1848 1873 0
-99 -1848 1849 0
-1849 1874 0
-100 -1849 0
-76 1850 0
-1850 1875 0
-77 -1850 1851 0
-1851 1876 0
-78 -1851 1852 0
-1852 1877 0
-79 -1852 1853 0
-1853 1878 0
-80 -1853 1854 0
-1854 1879 0
-81 -1854 1855 0
-1855 1880 0
-82 -1855 1856 0
-1856 1881 0
-83 -1856 1857 0
-1857 1882 0
-84 -1857 1858 0
-1858 1883 0
-85 -1858 1859 0
-1859 1884 0
-86 -1859 1860 0
-1860 1885 0
-87 -1860 1861 0
-1861 1886 0
-88 -1861 1862 0
-1862 1887 0
-89 -1862 1863 0
-1863 1888 0
-90 -1863 1864 0
-1864 1889 0
-91 -1864 1865 0
-1865 1890 0
-92 -1865 1866 0
-1866 1891 0
-93 -1866 1867 0
-1867 1892 0
-94 -1867 1868 0
-1868 1893 0
-95 -1868 1869 0
-1869 1894 0
-96 -1869 1870 0
-1870 1895 0
-97 -1870 1871 0
-1871 1896 0
-98 -1871 1872 0
-1872 1897 0
-99 -1872 1873 0
-1873 1898 0
-100 -1873 1874 0
-1874 1899 0
-101 -1874 0
-77 1875 0
-1875 1900 0
-78 -1875 1876 0
-1876 1901 0
-79 -1876 1877 0
-1877 1902 0
-80 -1877 1878 0
-1878 1903 0
-81 -1878 1879 0
-1879 1904 0
-82 -1879 1880 0
-1880 1905 0
-83 -1880 1881 0
-1881 1906 0
-84 -1881 1882 0
-1882 1907 0
-85 -1882 1883 0
-1883 1908 0
-86 -1883 1884 0
-1884 1909 0
-87 -1884 1885 0
-1885 1910 0
-88 -1885 1886 0
-1886 1911 0
-89 -1886 1887 0
-1887 1912 0
-90 -1887 1888 0
-1888 1913 0
-91 -1888 1889 0
-1889 1914 0
-92 -1889 1890 0
-1890 1915 0
-93 -1890 1891 0
-1891 1916 0
-94 -1891 1892 0
-1892 1917 0
-95 -1892 1893 0
-1893 1918 0
-96 -1893 1894 0
-1894 1919 0
-97 -1894 1895 0
-1895 1920 0
-98 -1895 1896 0
-1896 1921 0
-99 -1896 1897 0
-1897 1922 0
-100 -1897 1898 0
-1898 1923 0
-101 -1898 1899 0
-1899 1924 0
-102 -1899 0
-78 1900 0
-1900 1925 0
-79 -1900 1901 0
-1901 1926 0
-80 -1901 1902 0
-1902 1927 0
-81 -1902 1903 0
-1903 1928 0
-82 -1903 1904 0
-1904 1929 0
-83 -1904 1905 0
-1905 1930 0
-84 -1905 1906 0
-1906 1931 0
-85 -1906 1907 0
-1907 1932 0
-86 -1907 1908 0
-1908 1933 0
-87 -1908 1909 0
-1909 1934 0
-88 -1909 1910 0
-1910 1935 0
-89 -1910 1911 0
-1911 1936 0
-90 -1911 1912 0
-1912 1937 0
-91 -1912 1913 0
-1913 1938 0
-92 -1913 1914 0
-1914 1939 0
-93 -1914 1915 0
-1915 1940 0
-94 -1915 1916 0
-1916 1941 0
-95 -1916 1917 0
-1917 1942 0
-96 -1917 1918 0
-1918 1943 0
-97 -1918 1919 0
-1919 1944 0
-98 -1919 1920 0
-1920 1945 0
-99 -1920 1921 0
-1921 1946 0
-100 -1921 1922 0
-1922 1947 0
-101 -1922 1923 0
-1923 1948 0
-102 -1923 1924 0
-1924 1949 0
-103 -1924 0
-79 1925 0
-1925 1950 0
-80 -1925 1926 0
-1926 1951 0
-81 -1926 1927 0
-1927 1952 0
-82 -1927 1928 0
-1928 1953 0
-83 -1928 1929 0
-1929 1954 0
-84 -1929 1930 0
-1930 1955 0
-85 -1930 1931 0
-1931 1956 0
-86 -1931 1932 0
-1932 1957 0
-87 -1932 1933 0
-1933 1958 0
-88 -1933 1934 0
-1934 1959 0
-89 -1934 1935 0
-1935 1960 0
-90 -1935 1936 0
-1936 1961 0
-91 -1936 1937 0
-1937 1962 0
-92 -1937 1938 0
-1938 1963 0
-93 -1938 1939 0
-1939 1964 0
-94 -1939 1940 0
-1940 1965 0
-95 -1940 1941 0
-1941 1966 0
-96 -1941 1942 0
-1942 1967 0
-97 -1942 1943 0
-1943 1968 0
-98 -1943 1944 0
-1944 1969 0
-99 -1944 1945 0
-1945 1970 0
-100 -1945 1946 0
-1946 1971 0
-101 -1946 1947 0
-1947 1972 0
-102 -1947 1948 0
-1948 1973 0
-103 -1948 1949 0
-1949 1974 0
-104 -1949 0
-80 1950 0
-1950 1975 0
-81 -1950 1951 0
-1951 1976 0
-82 -1951 1952 0
-1952 1977 0
-83 -1952 1953 0
-1953 1978 0
-84 -1953 1954 0
-1954 1979 0
-85 -1954 1955 0
-1955 1980 0
-86 -1955 1956 0
-1956 1981 0
-87 -1956 1957 0
-1957 1982 0
-88 -1957 1958 0
-1958 1983 0
-89 -1958 1959 0
-1959 1984 0
-90 -1959 1960 0
-1960 1985 0
-91 -1960 1961 0
-1961 1986 0
-92 -1961 1962 0
-1962 1987 0
-93 -1962 1963 0
-1963 1988 0
-94 -1963 1964 0
-1964 1989 0
-95 -1964 1965 0
-1965 1990 0
-96 -1965 1966 0
-1966 1991 0
-97 -1966 1967 0
-1967 1992 0
-98 -1967 1968 0
-1968 1993 0
-99 -1968 1969 0
-1969 1994 0
-100 -1969 1970 0
-1970 1995 0
-101 -1970 1971 0
-1971 1996 0
-102 -1971 1972 0
-1972 1997 0
-103 -1972 1973 0
-1973 1998 0
-104 -1973 1974 0
-1974 1999 0
-105 -1974 0
-81 1975 0
-1975 2000 0
-82 -1975 1976 0
-1976 2001 0
-83 -1976 1977 0
-1977 2002 0
-84 -1977 1978 0
-1978 2003 0
-85 -1978 1979 0
-1979 2004 0
-86 -1979 1980 0
-1980 2005 0
-87 -1980 1981 0
-1981 2006 0
-88 -1981 1982 0
-1982 2007 0
-89 -1982 1983 0
-1983 2008 0
-90 -1983 1984 0
-1984 2009 0
-91 -1984 1985 0
-1985 2010 0
-92 -1985 1986 0
-1986 2011 0
-93 -1986 1987 0
-1987 2012 0
-94 -1987 1988 0
-1988 2013 0
-95 -1988 1989 0
-1989 2014 0
-96 -1989 1990 0
-1990 2015 0
-97 -1990 1991 0
-1991 2016 0
-98 -1991 1992 0
-1992 2017 0
-99 -1992 1993 0
-1993 2018 0
-100 -1993 1994 0
-1994 2019 0
-101 -1994 1995 0
-1995 2020 0
-102 -1995 1996 0
-1996 2021 0
-103 -1996 1997 0
-1997 2022 0
-104 -1997 1998 0
-1998 2023 0
-105 -1998 1999 0
-1999 2024 0
-106 -1999 0
-82 2000 0
-2000 2025 0
-83 -2000 2001 0
-2001 2026 0
-84 -2001 2002 0
-2002 2027 0
-85 -2002 2003 0
-2003 2028 0
-86 -2003 2004 0
-2004 2029 0
-87 -2004 2005 0
-2005 2030 0
-88 -2005 2006 0
-2006 2031 0
-89 -2006 2007 0
-2007 2032 0
-90 -2007 2008 0
-2008 2033 0
-91 -2008 2009 0
-2009 2034 0
-92 -2009 2010 0
-2010 2035 0
-93 -2010 2011 0
-2011 2036 0
-94 -2011 2012 0
-2012 2037 0
-95 -2012 2013 0
-2013 2038 0
-96 -2013 2014 0
-2014 2039 0
-97 -2014 2015 0
-2015 2040 0
-98 -2015 2016 0
-2016 2041 0
-99 -2016 2017 0
-2017 2042 0
-100 -2017 2018 0
-2018 2043 0
-101 -2018 2019 0
-2019 2044 0
-102 -2019 2020 0
-2020 2045 0
-103 -2020 2021 0
-2021 2046 0
-104 -2021 2022 0
-2022 2047 0
-105 -2022 2023 0
-2023 2048 0
-106 -2023 2024 0
-2024 2049 0
-107 -2024 0
-83 2025 0
-84 -2025 2026 0
-85 -2026 2027 0
-86 -2027 2028 0
-87 -2028 2029 0
-88 -2029 2030 0
-89 -2030 2031 0
-90 -2031 2032 0
-91 -2032 2033 0
-92 -2033 2034 0
-93 -2034 2035 0
-94 -2035 2036 0
-95 -2036 2037 0
-96 -2037 2038 0
-97 -2038 2039 0
-98 -2039 2040 0
-99 -2040 2041 0
-100 -2041 2042 0
-101 -2042 2043 0
-102 -2043 2044 0
-103 -2044 2045 0
-104 -2045 2046 0
-105 -2046 2047 0
-106 -2047 2048 0
-107 -2048 2049 0
-108 -2049 0
1 28 0
