p cnf 1695 3437
-1 49 0
-2 49 0
-24 49 0
-25 49 0
-49 1 2 24 25 0
-2 50 0
-1 50 0
-3 50 0
-26 50 0
-50 2 1 3 26 0
-3 51 0
-2 51 0
-4 51 0
-27 51 0
-51 3 2 4 27 0
-4 52 0
-3 52 0
-5 52 0
-28 52 0
-52 4 3 5 28 0
-5 53 0
-4 53 0
-6 53 0
-29 53 0
-53 5 4 6 29 0
-6 54 0
-5 54 0
-7 54 0
-30 54 0
-54 6 5 7 30 0
-7 55 0
-6 55 0
-8 55 0
-31 55 0
-55 7 6 8 31 0
-8 56 0
-7 56 0
-9 56 0
-32 56 0
-56 8 7 9 32 0
-9 57 0
-8 57 0
-10 57 0
-33 57 0
-57 9 8 10 33 0
-10 58 0
-9 58 0
-11 58 0
-34 58 0
-58 10 9 11 34 0
-11 59 0
-10 59 0
-12 59 0
-35 59 0
-59 11 10 12 35 0
-12 60 0
-11 60 0
-13 60 0
-36 60 0
-60 12 11 13 36 0
-13 61 0
-12 61 0
-14 61 0
-37 61 0
-61 13 12 14 37 0
-14 62 0
-13 62 0
-15 62 0
-38 62 0
-62 14 13 15 38 0
-15 63 0
-14 63 0
-16 63 0
-39 63 0
-63 15 14 16 39 0
-16 64 0
-15 64 0
-17 64 0
-40 64 0
-64 16 15 17 40 0
-17 65 0
-16 65 0
-18 65 0
-41 65 0
-65 17 16 18 41 0
-18 66 0
-17 66 0
-19 66 0
-42 66 0
-66 18 17 19 42 0
-19 67 0
-18 67 0
-20 67 0
-43 67 0
-67 19 18 20 43 0
-20 68 0
-19 68 0
-21 68 0
-44 68 0
-68 20 19 21 44 0
-21 69 0
-20 69 0
-22 69 0
-45 69 0
-69 21 20 22 45 0
-22 70 0
-21 70 0
-23 70 0
-46 70 0
-70 22 21 23 46 0
-23 71 0
-22 71 0
-24 71 0
-47 71 0
-71 23 22 24 47 0
-24 72 0
-1 72 0
-23 72 0
-48 72 0
-72 24 1 23 48 0
-25 73 0
-1 73 0
-29 73 0
-45 73 0
-73 25 1 29 45 0
-26 74 0
-2 74 0
-30 74 0
-46 74 0
-74 26 2 30 46 0
-27 75 0
-3 75 0
-31 75 0
-47 75 0
-75 27 3 31 47 0
-28 76 0
-4 76 0
-32 76 0
-48 76 0
-76 28 4 32 48 0
-29 77 0
-5 77 0
-25 77 0
-33 77 0
-77 29 5 25 33 0
-30 78 0
-6 78 0
-26 78 0
-34 78 0
-78 30 6 26 34 0
-31 79 0
-7 79 0
-27 79 0
-35 79 0
-79 31 7 27 35 0
-32 80 0
-8 80 0
-28 80 0
-36 80 0
-80 32 8 28 36 0
-33 81 0
-9 81 0
-29 81 0
-37 81 0
-81 33 9 29 37 0
-34 82 0
-10 82 0
-30 82 0
-38 82 0
-82 34 10 30 38 0
-35 83 0
-11 83 0
-31 83 0
-39 83 0
-83 35 11 31 39 0
-36 84 0
-12 84 0
-32 84 0
-40 84 0
-84 36 12 32 40 0
-37 85 0
-13 85 0
-33 85 0
-41 85 0
-85 37 13 33 41 0
-38 86 0
-14 86 0
-34 86 0
-42 86 0
-86 38 14 34 42 0
-39 87 0
-15 87 0
-35 87 0
-43 87 0
-87 39 15 35 43 0
-40 88 0
-16 88 0
-36 88 0
-44 88 0
-88 40 16 36 44 0
-41 89 0
-17 89 0
-37 89 0
-45 89 0
-89 41 17 37 45 0
-42 90 0
-18 90 0
-38 90 0
-46 90 0
-90 42 18 38 46 0
-43 91 0
-19 91 0
-39 91 0
-47 91 0
-91 43 19 39 47 0
-44 92 0
-20 92 0
-40 92 0
-48 92 0
-92 44 20 40 48 0
-45 93 0
-21 93 0
-25 93 0
-41 93 0
-93 45 21 25 41 0
-46 94 0
-22 94 0
-26 94 0
-42 94 0
-94 46 22 26 42 0
-47 95 0
-23 95 0
-27 95 0
-43 95 0
-95 47 23 27 43 0
-48 96 0
-24 96 0
-28 96 0
-44 96 0
-96 48 24 28 44 0
1 97 0
-97 98 0
2 -97 99 0
-99 100 0
3 -99 101 0
-101 102 0
4 -101 103 0
-103 104 0
5 -103 105 0
-105 106 0
6 -105 107 0
-107 108 0
7 -107 109 0
-109 110 0
8 -109 111 0
-111 112 0
9 -111 113 0
-113 114 0
10 -113 115 0
-115 116 0
11 -115 117 0
-117 118 0
12 -117 119 0
-119 120 0
13 -119 121 0
-121 122 0
14 -121 123 0
-123 124 0
15 -123 125 0
-125 126 0
16 -125 127 0
-127 128 0
17 -127 129 0
-129 130 0
18 -129 131 0
-131 132 0
19 -131 133 0
-133 134 0
20 -133 135 0
-135 136 0
21 -135 137 0
-137 138 0
22 -137 139 0
-139 140 0
23 -139 141 0
-141 142 0
24 -141 143 0
-143 144 0
25 -143 145 0
-145 146 0
26 -145 147 0
-147 148 0
27 -147 149 0
-149 150 0
28 -149 151 0
-151 152 0
29 -151 153 0
-153 154 0
30 -153 155 0
-155 156 0
31 -155 157 0
-157 158 0
32 -157 159 0
-159 160 0
33 -159 0
2 98 0
-98 161 0
3 -98 100 0
-100 162 0
4 -100 102 0
-102 163 0
5 -102 104 0
-104 164 0
6 -104 106 0
-106 165 0
7 -106 108 0
-108 166 0
8 -108 110 0
-110 167 0
9 -110 112 0
-112 168 0
10 -112 114 0
-114 169 0
11 -114 116 0
-116 170 0
12 -116 118 0
-118 171 0
13 -118 120 0
-120 172 0
14 -120 122 0
-122 173 0
15 -122 124 0
-124 174 0
16 -124 126 0
-126 175 0
17 -126 128 0
-128 176 0
18 -128 130 0
-130 177 0
19 -130 132 0
-132 178 0
20 -132 134 0
-134 179 0
21 -134 136 0
-136 180 0
22 -136 138 0
-138 181 0
23 -138 140 0
-140 182 0
24 -140 142 0
-142 183 0
25 -142 144 0
-144 184 0
26 -144 146 0
-146 185 0
27 -146 148 0
-148 186 0
28 -148 150 0
-150 187 0
29 -150 152 0
-152 188 0
30 -152 154 0
-154 189 0
31 -154 156 0
-156 190 0
32 -156 158 0
-158 191 0
33 -158 160 0
-160 192 0
34 -160 0
3 161 0
-161 193 0
4 -161 162 0
-162 194 0
5 -162 163 0
-163 195 0
6 -163 164 0
-164 196 0
7 -164 165 0
-165 197 0
8 -165 166 0
-166 198 0
9 -166 167 0
-167 199 0
10 -167 168 0
-168 200 0
11 -168 169 0
-169 201 0
12 -169 170 0
-170 202 0
13 -170 171 0
-171 203 0
14 -171 172 0
-172 204 0
15 -172 173 0
-173 205 0
16 -173 174 0
-174 206 0
17 -174 175 0
-175 207 0
18 -175 176 0
-176 208 0
19 -176 177 0
-177 209 0
20 -177 178 0
-178 210 0
21 -178 179 0
-179 211 0
22 -179 180 0
-180 212 0
23 -180 181 0
-181 213 0
24 -181 182 0
-182 214 0
25 -182 183 0
-183 215 0
26 -183 184 0
-184 216 0
27 -184 185 0
-185 217 0
28 -185 186 0
-186 218 0
29 -186 187 0
-187 219 0
30 -187 188 0
-188 220 0
31 -188 189 0
-189 221 0
32 -189 190 0
-190 222 0
33 -190 191 0
-191 223 0
34 -191 192 0
-192 224 0
35 -192 0
4 193 0
-193 225 0
5 -193 194 0
-194 226 0
6 -194 195 0
-195 227 0
7 -195 196 0
-196 228 0
8 -196 197 0
-197 229 0
9 -197 198 0
-198 230 0
10 -198 199 0
-199 231 0
11 -199 200 0
-200 232 0
12 -200 201 0
-201 233 0
13 -201 202 0
-202 234 0
14 -202 203 0
-203 235 0
15 -203 204 0
-204 236 0
16 -204 205 0
-205 237 0
17 -205 206 0
-206 238 0
18 -206 207 0
-207 239 0
19 -207 208 0
-208 240 0
20 -208 209 0
-209 241 0
21 -209 210 0
-210 242 0
22 -210 211 0
-211 243 0
23 -211 212 0
-212 244 0
24 -212 213 0
-213 245 0
25 -213 214 0
-214 246 0
26 -214 215 0
-215 247 0
27 -215 216 0
-216 248 0
28 -216 217 0
-217 249 0
29 -217 218 0
-218 250 0
30 -218 219 0
-219 251 0
31 -219 220 0
-220 252 0
32 -220 221 0
-221 253 0
33 -221 222 0
-222 254 0
34 -222 223 0
-223 255 0
35 -223 224 0
-224 256 0
36 -224 0
5 225 0
-225 257 0
6 -225 226 0
-226 258 0
7 -226 227 0
-227 259 0
8 -227 228 0
-228 260 0
9 -228 229 0
-229 261 0
10 -229 230 0
-230 262 0
11 -230 231 0
-231 263 0
12 -231 232 0
-232 264 0
13 -232 233 0
-233 265 0
14 -233 234 0
-234 266 0
15 -234 235 0
-235 267 0
16 -235 236 0
-236 268 0
17 -236 237 0
-237 269 0
18 -237 238 0
-238 270 0
19 -238 239 0
-239 271 0
20 -239 240 0
-240 272 0
21 -240 241 0
-241 273 0
22 -241 242 0
-242 274 0
23 -242 243 0
-243 275 0
24 -243 244 0
-244 276 0
25 -244 245 0
-245 277 0
26 -245 246 0
-246 278 0
27 -246 247 0
-247 279 0
28 -247 248 0
-248 280 0
29 -248 249 0
-249 281 0
30 -249 250 0
-250 282 0
31 -250 251 0
-251 283 0
32 -251 252 0
-252 284 0
33 -252 253 0
-253 285 0
34 -253 254 0
-254 286 0
35 -254 255 0
-255 287 0
36 -255 256 0
-256 288 0
37 -256 0
6 257 0
-257 289 0
7 -257 258 0
-258 290 0
8 -258 259 0
-259 291 0
9 -259 260 0
-260 292 0
10 -260 261 0
-261 293 0
11 -261 262 0
-262 294 0
12 -262 263 0
-263 295 0
13 -263 264 0
-264 296 0
14 -264 265 0
-265 297 0
15 -265 266 0
-266 298 0
16 -266 267 0
-267 299 0
17 -267 268 0
-268 300 0
18 -268 269 0
-269 301 0
19 -269 270 0
-270 302 0
20 -270 271 0
-271 303 0
21 -271 272 0
-272 304 0
22 -272 273 0
-273 305 0
23 -273 274 0
-274 306 0
24 -274 275 0
-275 307 0
25 -275 276 0
-276 308 0
26 -276 277 0
-277 309 0
27 -277 278 0
-278 310 0
28 -278 279 0
-279 311 0
29 -279 280 0
-280 312 0
30 -280 281 0
-281 313 0
31 -281 282 0
-282 314 0
32 -282 283 0
-283 315 0
33 -283 284 0
-284 316 0
34 -284 285 0
-285 317 0
35 -285 286 0
-286 318 0
36 -286 287 0
-287 319 0
37 -287 288 0
-288 320 0
38 -288 0
7 289 0
-289 321 0
8 -289 290 0
-290 322 0
9 -290 291 0
-291 323 0
10 -291 292 0
-292 324 0
11 -292 293 0
-293 325 0
12 -293 294 0
-294 326 0
13 -294 295 0
-295 327 0
14 -295 296 0
-296 328 0
15 -296 297 0
-297 329 0
16 -297 298 0
-298 330 0
17 -298 299 0
-299 331 0
18 -299 300 0
-300 332 0
19 -300 301 0
-301 333 0
20 -301 302 0
-302 334 0
21 -302 303 0
-303 335 0
22 -303 304 0
-304 336 0
23 -304 305 0
-305 337 0
24 -305 306 0
-306 338 0
25 -306 307 0
-307 339 0
26 -307 308 0
-308 340 0
27 -308 309 0
-309 341 0
28 -309 310 0
-310 342 0
29 -310 311 0
-311 343 0
30 -311 312 0
-312 344 0
31 -312 313 0
-313 345 0
32 -313 314 0
-314 346 0
33 -314 315 0
-315 347 0
34 -315 316 0
-316 348 0
35 -316 317 0
-317 349 0
36 -317 318 0
-318 350 0
37 -318 319 0
-319 351 0
38 -319 320 0
-320 352 0
39 -320 0
8 321 0
-321 353 0
9 -321 322 0
-322 354 0
10 -322 323 0
-323 355 0
11 -323 324 0
-324 356 0
12 -324 325 0
-325 357 0
13 -325 326 0
-326 358 0
14 -326 327 0
-327 359 0
15 -327 328 0
-328 360 0
16 -328 329 0
-329 361 0
17 -329 330 0
-330 362 0
18 -330 331 0
-331 363 0
19 -331 332 0
-332 364 0
20 -332 333 0
-333 365 0
21 -333 334 0
-334 366 0
22 -334 335 0
-335 367 0
23 -335 336 0
-336 368 0
24 -336 337 0
-337 369 0
25 -337 338 0
-338 370 0
26 -338 339 0
-339 371 0
27 -339 340 0
-340 372 0
28 -340 341 0
-341 373 0
29 -341 342 0
-342 374 0
30 -342 343 0
-343 375 0
31 -343 344 0
-344 376 0
32 -344 345 0
-345 377 0
33 -345 346 0
-346 378 0
34 -346 347 0
-347 379 0
35 -347 348 0
-348 380 0
36 -348 349 0
-349 381 0
37 -349 350 0
-350 382 0
38 -350 351 0
-351 383 0
39 -351 352 0
-352 384 0
40 -352 0
9 353 0
-353 385 0
10 -353 354 0
-354 386 0
11 -354 355 0
-355 387 0
12 -355 356 0
-356 388 0
13 -356 357 0
-357 389 0
14 -357 358 0
-358 390 0
15 -358 359 0
-359 391 0
16 -359 360 0
-360 392 0
17 -360 361 0
-361 393 0
18 -361 362 0
-362 394 0
19 -362 363 0
-363 395 0
20 -363 364 0
-364 396 0
21 -364 365 0
-365 397 0
22 -365 366 0
-366 398 0
23 -366 367 0
-367 399 0
24 -367 368 0
-368 400 0
25 -368 369 0
-369 401 0
26 -369 370 0
-370 402 0
27 -370 371 0
-371 403 0
28 -371 372 0
-372 404 0
29 -372 373 0
-373 405 0
30 -373 374 0
-374 406 0
31 -374 375 0
-375 407 0
32 -375 376 0
-376 408 0
33 -376 377 0
-377 409 0
34 -377 378 0
-378 410 0
35 -378 379 0
-379 411 0
36 -379 380 0
-380 412 0
37 -380 381 0
-381 413 0
38 -381 382 0
-382 414 0
39 -382 383 0
-383 415 0
40 -383 384 0
-384 416 0
41 -384 0
10 385 0
-385 417 0
11 -385 386 0
-386 418 0
12 -386 387 0
-387 419 0
13 -387 388 0
-388 420 0
14 -388 389 0
-389 421 0
15 -389 390 0
-390 422 0
16 -390 391 0
-391 423 0
17 -391 392 0
-392 424 0
18 -392 393 0
-393 425 0
19 -393 394 0
-394 426 0
20 -394 395 0
-395 427 0
21 -395 396 0
-396 428 0
22 -396 397 0
-397 429 0
23 -397 398 0
-398 430 0
24 -398 399 0
-399 431 0
25 -399 400 0
-400 432 0
26 -400 401 0
-401 433 0
27 -401 402 0
-402 434 0
28 -402 403 0
-403 435 0
29 -403 404 0
-404 436 0
30 -404 405 0
-405 437 0
31 -405 406 0
-406 438 0
32 -406 407 0
-407 439 0
33 -407 408 0
-408 440 0
34 -408 409 0
-409 441 0
35 -409 410 0
-410 442 0
36 -410 411 0
-411 443 0
37 -411 412 0
-412 444 0
38 -412 413 0
-413 445 0
39 -413 414 0
-414 446 0
40 -414 415 0
-415 447 0
41 -415 416 0
-416 448 0
42 -416 0
11 417 0
-417 449 0
12 -417 418 0
-418 450 0
13 -418 419 0
-419 451 0
14 -419 420 0
-420 452 0
15 -420 421 0
-421 453 0
16 -421 422 0
-422 454 0
17 -422 423 0
-423 455 0
18 -423 424 0
-424 456 0
19 -424 425 0
-425 457 0
20 -425 426 0
-426 458 0
21 -426 427 0
-427 459 0
22 -427 428 0
-428 460 0
23 -428 429 0
-429 461 0
24 -429 430 0
-430 462 0
25 -430 431 0
-431 463 0
26 -431 432 0
-432 464 0
27 -432 433 0
-433 465 0
28 -433 434 0
-434 466 0
29 -434 435 0
-435 467 0
30 -435 436 0
-436 468 0
31 -436 437 0
-437 469 0
32 -437 438 0
-438 470 0
33 -438 439 0
-439 471 0
34 -439 440 0
-440 472 0
35 -440 441 0
-441 473 0
36 -441 442 0
-442 474 0
37 -442 443 0
-443 475 0
38 -443 444 0
-444 476 0
39 -444 445 0
-445 477 0
40 -445 446 0
-446 478 0
41 -446 447 0
-447 479 0
42 -447 448 0
-448 480 0
43 -448 0
12 449 0
-449 481 0
13 -449 450 0
-450 482 0
14 -450 451 0
-451 483 0
15 -451 452 0
-452 484 0
16 -452 453 0
-453 485 0
17 -453 454 0
-454 486 0
18 -454 455 0
-455 487 0
19 -455 456 0
-456 488 0
20 -456 457 0
-457 489 0
21 -457 458 0
-458 490 0
22 -458 459 0
-459 491 0
23 -459 460 0
-460 492 0
24 -460 461 0
-461 493 0
25 -461 462 0
-462 494 0
26 -462 463 0
-463 495 0
27 -463 464 0
-464 496 0
28 -464 465 0
-465 497 0
29 -465 466 0
-466 498 0
30 -466 467 0
-467 499 0
31 -467 468 0
-468 500 0
32 -468 469 0
-469 501 0
33 -469 470 0
-470 502 0
34 -470 471 0
-471 503 0
35 -471 472 0
-472 504 0
36 -472 473 0
-473 505 0
37 -473 474 0
-474 506 0
38 -474 475 0
-475 507 0
39 -475 476 0
-476 508 0
40 -476 477 0
-477 509 0
41 -477 478 0
-478 510 0
42 -478 479 0
-479 511 0
43 -479 480 0
-480 512 0
44 -480 0
13 481 0
-481 513 0
14 -481 482 0
-482 514 0
15 -482 483 0
-483 515 0
16 -483 484 0
-484 516 0
17 -484 485 0
-485 517 0
18 -485 486 0
-486 518 0
19 -486 487 0
-487 519 0
20 -487 488 0
-488 520 0
21 -488 489 0
-489 521 0
22 -489 490 0
-490 522 0
23 -490 491 0
-491 523 0
24 -491 492 0
-492 524 0
25 -492 493 0
-493 525 0
26 -493 494 0
-494 526 0
27 -494 495 0
-495 527 0
28 -495 496 0
-496 528 0
29 -496 497 0
-497 529 0
30 -497 498 0
-498 530 0
31 -498 499 0
-499 531 0
32 -499 500 0
-500 532 0
33 -500 501 0
-501 533 0
34 -501 502 0
-502 534 0
35 -502 503 0
-503 535 0
36 -503 504 0
-504 536 0
37 -504 505 0
-505 537 0
38 -505 506 0
-506 538 0
39 -506 507 0
-507 539 0
40 -507 508 0
-508 540 0
41 -508 509 0
-509 541 0
42 -509 510 0
-510 542 0
43 -510 511 0
-511 543 0
44 -511 512 0
-512 544 0
45 -512 0
14 513 0
-513 545 0
15 -513 514 0
-514 546 0
16 -514 515 0
-515 547 0
17 -515 516 0
-516 548 0
18 -516 517 0
-517 549 0
19 -517 518 0
-518 550 0
20 -518 519 0
-519 551 0
21 -519 520 0
-520 552 0
22 -520 521 0
-521 553 0
23 -521 522 0
-522 554 0
24 -522 523 0
-523 555 0
25 -523 524 0
-524 556 0
26 -524 525 0
-525 557 0
27 -525 526 0
-526 558 0
28 -526 527 0
-527 559 0
29 -527 528 0
-528 560 0
30 -528 529 0
-529 561 0
31 -529 530 0
-530 562 0
32 -530 531 0
-531 563 0
33 -531 532 0
-532 564 0
34 -532 533 0
-533 565 0
35 -533 534 0
-534 566 0
36 -534 535 0
-535 567 0
37 -535 536 0
-536 568 0
38 -536 537 0
-537 569 0
39 -537 538 0
-538 570 0
40 -538 539 0
-539 571 0
41 -539 540 0
-540 572 0
42 -540 541 0
-541 573 0
43 -541 542 0
-542 574 0
44 -542 543 0
-543 575 0
45 -543 544 0
-544 576 0
46 -544 0
15 545 0
-545 577 0
16 -545 546 0
-546 578 0
17 -546 547 0
-547 579 0
18 -547 548 0
-548 580 0
19 -548 549 0
-549 581 0
20 -549 550 0
-550 582 0
21 -550 551 0
-551 583 0
22 -551 552 0
-552 584 0
23 -552 553 0
-553 585 0
24 -553 554 0
-554 586 0
25 -554 555 0
-555 587 0
26 -555 556 0
-556 588 0
27 -556 557 0
-557 589 0
28 -557 558 0
-558 590 0
29 -558 559 0
-559 591 0
30 -559 560 0
-560 592 0
31 -560 561 0
-561 593 0
32 -561 562 0
-562 594 0
33 -562 563 0
-563 595 0
34 -563 564 0
-564 596 0
35 -564 565 0
-565 597 0
36 -565 566 0
-566 598 0
37 -566 567 0
-567 599 0
38 -567 568 0
-568 600 0
39 -568 569 0
-569 601 0
40 -569 570 0
-570 602 0
41 -570 571 0
-571 603 0
42 -571 572 0
-572 604 0
43 -572 573 0
-573 605 0
44 -573 574 0
-574 606 0
45 -574 575 0
-575 607 0
46 -575 576 0
-576 608 0
47 -576 0
16 577 0
17 -577 578 0
18 -578 579 0
19 -579 580 0
20 -580 581 0
21 -581 582 0
22 -582 583 0
23 -583 584 0
24 -584 585 0
25 -585 586 0
26 -586 587 0
27 -587 588 0
28 -588 589 0
29 -589 590 0
30 -590 591 0
31 -591 592 0
32 -592 593 0
33 -593 594 0
34 -594 595 0
35 -595 596 0
36 -596 597 0
37 -597 598 0
38 -598 599 0
39 -599 600 0
40 -600 601 0
41 -601 602 0
42 -602 603 0
43 -603 604 0
44 -604 605 0
45 -605 606 0
46 -606 607 0
47 -607 608 0
48 -608 0
-1 609 0
-609 610 0
-2 -609 611 0
-611 612 0
-3 -611 613 0
-613 614 0
-4 -613 615 0
-615 616 0
-5 -615 617 0
-617 618 0
-6 -617 619 0
-619 620 0
-7 -619 621 0
-621 622 0
-8 -621 623 0
-623 624 0
-9 -623 625 0
-625 626 0
-10 -625 627 0
-627 628 0
-11 -627 629 0
-629 630 0
-12 -629 631 0
-631 632 0
-13 -631 633 0
-633 634 0
-14 -633 635 0
-635 636 0
-15 -635 637 0
-637 638 0
-16 -637 639 0
-639 640 0
-17 -639 0
-2 610 0
-610 641 0
-3 -610 612 0
-612 642 0
-4 -612 614 0
-614 643 0
-5 -614 616 0
-616 644 0
-6 -616 618 0
-618 645 0
-7 -618 620 0
-620 646 0
-8 -620 622 0
-622 647 0
-9 -622 624 0
-624 648 0
-10 -624 626 0
-626 649 0
-11 -626 628 0
-628 650 0
-12 -628 630 0
-630 651 0
-13 -630 632 0
-632 652 0
-14 -632 634 0
-634 653 0
-15 -634 636 0
-636 654 0
-16 -636 638 0
-638 655 0
-17 -638 640 0
-640 656 0
-18 -640 0
-3 641 0
-641 657 0
-4 -641 642 0
-642 658 0
-5 -642 643 0
-643 659 0
-6 -643 644 0
-644 660 0
-7 -644 645 0
-645 661 0
-8 -645 646 0
-646 662 0
-9 -646 647 0
-647 663 0
-10 -647 648 0
-648 664 0
-11 -648 649 0
-649 665 0
-12 -649 650 0
-650 666 0
-13 -650 651 0
-651 667 0
-14 -651 652 0
-652 668 0
-15 -652 653 0
-653 669 0
-16 -653 654 0
-654 670 0
-17 -654 655 0
-655 671 0
-18 -655 656 0
-656 672 0
-19 -656 0
-4 657 0
-657 673 0
-5 -657 658 0
-658 674 0
-6 -658 659 0
-659 675 0
-7 -659 660 0
-660 676 0
-8 -660 661 0
-661 677 0
-9 -661 662 0
-662 678 0
-10 -662 663 0
-663 679 0
-11 -663 664 0
-664 680 0
-12 -664 665 0
-665 681 0
-13 -665 666 0
-666 682 0
-14 -666 667 0
-667 683 0
-15 -667 668 0
-668 684 0
-16 -668 669 0
-669 685 0
-17 -669 670 0
-670 686 0
-18 -670 671 0
-671 687 0
-19 -671 672 0
-672 688 0
-20 -672 0
-5 673 0
-673 689 0
-6 -673 674 0
-674 690 0
-7 -674 675 0
-675 691 0
-8 -675 676 0
-676 692 0
-9 -676 677 0
-677 693 0
-10 -677 678 0
-678 694 0
-11 -678 679 0
-679 695 0
-12 -679 680 0
-680 696 0
-13 -680 681 0
-681 697 0
-14 -681 682 0
-682 698 0
-15 -682 683 0
-683 699 0
-16 -683 684 0
-684 700 0
-17 -684 685 0
-685 701 0
-18 -685 686 0
-686 702 0
-19 -686 687 0
-687 703 0
-20 -687 688 0
-688 704 0
-21 -688 0
-6 689 0
-689 705 0
-7 -689 690 0
-690 706 0
-8 -690 691 0
-691 707 0
-9 -691 692 0
-692 708 0
-10 -692 693 0
-693 709 0
-11 -693 694 0
-694 710 0
-12 -694 695 0
-695 711 0
-13 -695 696 0
-696 712 0
-14 -696 697 0
-697 713 0
-15 -697 698 0
-698 714 0
-16 -698 699 0
-699 715 0
-17 -699 700 0
-700 716 0
-18 -700 701 0
-701 717 0
-19 -701 702 0
-702 718 0
-20 -702 703 0
-703 719 0
-21 -703 704 0
-704 720 0
-22 -704 0
-7 705 0
-705 721 0
-8 -705 706 0
-706 722 0
-9 -706 707 0
-707 723 0
-10 -707 708 0
-708 724 0
-11 -708 709 0
-709 725 0
-12 -709 710 0
-710 726 0
-13 -710 711 0
-711 727 0
-14 -711 712 0
-712 728 0
-15 -712 713 0
-713 729 0
-16 -713 714 0
-714 730 0
-17 -714 715 0
-715 731 0
-18 -715 716 0
-716 732 0
-19 -716 717 0
-717 733 0
-20 -717 718 0
-718 734 0
-21 -718 719 0
-719 735 0
-22 -719 720 0
-720 736 0
-23 -720 0
-8 721 0
-721 737 0
-9 -721 722 0
-722 738 0
-10 -722 723 0
-723 739 0
-11 -723 724 0
-724 740 0
-12 -724 725 0
-725 741 0
-13 -725 726 0
-726 742 0
-14 -726 727 0
-727 743 0
-15 -727 728 0
-728 744 0
-16 -728 729 0
-729 745 0
-17 -729 730 0
-730 746 0
-18 -730 731 0
-731 747 0
-19 -731 732 0
-732 748 0
-20 -732 733 0
-733 749 0
-21 -733 734 0
-734 750 0
-22 -734 735 0
-735 751 0
-23 -735 736 0
-736 752 0
-24 -736 0
-9 737 0
-737 753 0
-10 -737 738 0
-738 754 0
-11 -738 739 0
-739 755 0
-12 -739 740 0
-740 756 0
-13 -740 741 0
-741 757 0
-14 -741 742 0
-742 758 0
-15 -742 743 0
-743 759 0
-16 -743 744 0
-744 760 0
-17 -744 745 0
-745 761 0
-18 -745 746 0
-746 762 0
-19 -746 747 0
-747 763 0
-20 -747 748 0
-748 764 0
-21 -748 749 0
-749 765 0
-22 -749 750 0
-750 766 0
-23 -750 751 0
-751 767 0
-24 -751 752 0
-752 768 0
-25 -752 0
-10 753 0
-753 769 0
-11 -753 754 0
-754 770 0
-12 -754 755 0
-755 771 0
-13 -755 756 0
-756 772 0
-14 -756 757 0
-757 773 0
-15 -757 758 0
-758 774 0
-16 -758 759 0
-759 775 0
-17 -759 760 0
-760 776 0
-18 -760 761 0
-761 777 0
-19 -761 762 0
-762 778 0
-20 -762 763 0
-763 779 0
-21 -763 764 0
-764 780 0
-22 -764 765 0
-765 781 0
-23 -765 766 0
-766 782 0
-24 -766 767 0
-767 783 0
-25 -767 768 0
-768 784 0
-26 -768 0
-11 769 0
-769 785 0
-12 -769 770 0
-770 786 0
-13 -770 771 0
-771 787 0
-14 -771 772 0
-772 788 0
-15 -772 773 0
-773 789 0
-16 -773 774 0
-774 790 0
-17 -774 775 0
-775 791 0
-18 -775 776 0
-776 792 0
-19 -776 777 0
-777 793 0
-20 -777 778 0
-778 794 0
-21 -778 779 0
-779 795 0
-22 -779 780 0
-780 796 0
-23 -780 781 0
-781 797 0
-24 -781 782 0
-782 798 0
-25 -782 783 0
-783 799 0
-26 -783 784 0
-784 800 0
-27 -784 0
-12 785 0
-785 801 0
-13 -785 786 0
-786 802 0
-14 -786 787 0
-787 803 0
-15 -787 788 0
-788 804 0
-16 -788 789 0
-789 805 0
-17 -789 790 0
-790 806 0
-18 -790 791 0
-791 807 0
-19 -791 792 0
-792 808 0
-20 -792 793 0
-793 809 0
-21 -793 794 0
-794 810 0
-22 -794 795 0
-795 811 0
-23 -795 796 0
-796 812 0
-24 -796 797 0
-797 813 0
-25 -797 798 0
-798 814 0
-26 -798 799 0
-799 815 0
-27 -799 800 0
-800 816 0
-28 -800 0
-13 801 0
-801 817 0
-14 -801 802 0
-802 818 0
-15 -802 803 0
-803 819 0
-16 -803 804 0
-804 820 0
-17 -804 805 0
-805 821 0
-18 -805 806 0
-806 822 0
-19 -806 807 0
-807 823 0
-20 -807 808 0
-808 824 0
-21 -808 809 0
-809 825 0
-22 -809 810 0
-810 826 0
-23 -810 811 0
-811 827 0
-24 -811 812 0
-812 828 0
-25 -812 813 0
-813 829 0
-26 -813 814 0
-814 830 0
-27 -814 815 0
-815 831 0
-28 -815 816 0
-816 832 0
-29 -816 0
-14 817 0
-817 833 0
-15 -817 818 0
-818 834 0
-16 -818 819 0
-819 835 0
-17 -819 820 0
-820 836 0
-18 -820 821 0
-821 837 0
-19 -821 822 0
-822 838 0
-20 -822 823 0
-823 839 0
-21 -823 824 0
-824 840 0
-22 -824 825 0
-825 841 0
-23 -825 826 0
-826 842 0
-24 -826 827 0
-827 843 0
-25 -827 828 0
-828 844 0
-26 -828 829 0
-829 845 0
-27 -829 830 0
-830 846 0
-28 -830 831 0
-831 847 0
-29 -831 832 0
-832 848 0
-30 -832 0
-15 833 0
-833 849 0
-16 -833 834 0
-834 850 0
-17 -834 835 0
-835 851 0
-18 -835 836 0
-836 852 0
-19 -836 837 0
-837 853 0
-20 -837 838 0
-838 854 0
-21 -838 839 0
-839 855 0
-22 -839 840 0
-840 856 0
-23 -840 841 0
-841 857 0
-24 -841 842 0
-842 858 0
-25 -842 843 0
-843 859 0
-26 -843 844 0
-844 860 0
-27 -844 845 0
-845 861 0
-28 -845 846 0
-846 862 0
-29 -846 847 0
-847 863 0
-30 -847 848 0
-848 864 0
-31 -848 0
-16 849 0
-849 865 0
-17 -849 850 0
-850 866 0
-18 -850 851 0
-851 867 0
-19 -851 852 0
-852 868 0
-20 -852 853 0
-853 869 0
-21 -853 854 0
-854 870 0
-22 -854 855 0
-855 871 0
-23 -855 856 0
-856 872 0
-24 -856 857 0
-857 873 0
-25 -857 858 0
-858 874 0
-26 -858 859 0
-859 875 0
-27 -859 860 0
-860 876 0
-28 -860 861 0
-861 877 0
-29 -861 862 0
-862 878 0
-30 -862 863 0
-863 879 0
-31 -863 864 0
-864 880 0
-32 -864 0
-17 865 0
-865 881 0
-18 -865 866 0
-866 882 0
-19 -866 867 0
-867 883 0
-20 -867 868 0
-868 884 0
-21 -868 869 0
-869 885 0
-22 -869 870 0
-870 886 0
-23 -870 871 0
-871 887 0
-24 -871 872 0
-872 888 0
-25 -872 873 0
-873 889 0
-26 -873 874 0
-874 890 0
-27 -874 875 0
-875 891 0
-28 -875 876 0
-876 892 0
-29 -876 877 0
-877 893 0
-30 -877 878 0
-878 894 0
-31 -878 879 0
-879 895 0
-32 -879 880 0
-880 896 0
-33 -880 0
-18 881 0
-881 897 0
-19 -881 882 0
-882 898 0
-20 -882 883 0
-883 899 0
-21 -883 884 0
-884 900 0
-22 -884 885 0
-885 901 0
-23 -885 886 0
-886 902 0
-24 -886 887 0
-887 903 0
-25 -887 888 0
-888 904 0
-26 -888 889 0
-889 905 0
-27 -889 890 0
-890 906 0
-28 -890 891 0
-891 907 0
-29 -891 892 0
-892 908 0
-30 -892 893 0
-893 909 0
-31 -893 894 0
-894 910 0
-32 -894 895 0
-895 911 0
-33 -895 896 0
-896 912 0
-34 -896 0
-19 897 0
-897 913 0
-20 -897 898 0
-898 914 0
-21 -898 899 0
-899 915 0
-22 -899 900 0
-900 916 0
-23 -900 901 0
-901 917 0
-24 -901 902 0
-902 918 0
-25 -902 903 0
-903 919 0
-26 -903 904 0
-904 920 0
-27 -904 905 0
-905 921 0
-28 -905 906 0
-906 922 0
-29 -906 907 0
-907 923 0
-30 -907 908 0
-908 924 0
-31 -908 909 0
-909 925 0
-32 -909 910 0
-910 926 0
-33 -910 911 0
-911 927 0
-34 -911 912 0
-912 928 0
-35 -912 0
-20 913 0
-913 929 0
-21 -913 914 0
-914 930 0
-22 -914 915 0
-915 931 0
-23 -915 916 0
-916 932 0
-24 -916 917 0
-917 933 0
-25 -917 918 0
-918 934 0
-26 -918 919 0
-919 935 0
-27 -919 920 0
-920 936 0
-28 -920 921 0
-921 937 0
-29 -921 922 0
-922 938 0
-30 -922 923 0
-923 939 0
-31 -923 924 0
-924 940 0
-32 -924 925 0
-925 941 0
-33 -925 926 0
-926 942 0
-34 -926 927 0
-927 943 0
-35 -927 928 0
-928 944 0
-36 -928 0
-21 929 0
-929 945 0
-22 -929 930 0
-930 946 0
-23 -930 931 0
-931 947 0
-24 -931 932 0
-932 948 0
-25 -932 933 0
-933 949 0
-26 -933 934 0
-934 950 0
-27 -934 935 0
-935 951 0
-28 -935 936 0
-936 952 0
-29 -936 937 0
-937 953 0
-30 -937 938 0
-938 954 0
-31 -938 939 0
-939 955 0
-32 -939 940 0
-940 956 0
-33 -940 941 0
-941 957 0
-34 -941 942 0
-942 958 0
-35 -942 943 0
-943 959 0
-36 -943 944 0
-944 960 0
-37 -944 0
-22 945 0
-945 961 0
-23 -945 946 0
-946 962 0
-24 -946 947 0
-947 963 0
-25 -947 948 0
-948 964 0
-26 -948 949 0
-949 965 0
-27 -949 950 0
-950 966 0
-28 -950 951 0
-951 967 0
-29 -951 952 0
-952 968 0
-30 -952 953 0
-953 969 0
-31 -953 954 0
-954 970 0
-32 -954 955 0
-955 971 0
-33 -955 956 0
-956 972 0
-34 -956 957 0
-957 973 0
-35 -957 958 0
-958 974 0
-36 -958 959 0
-959 975 0
-37 -959 960 0
-960 976 0
-38 -960 0
-23 961 0
-961 977 0
-24 -961 962 0
-962 978 0
-25 -962 963 0
-963 979 0
-26 -963 964 0
-964 980 0
-27 -964 965 0
-965 981 0
-28 -965 966 0
-966 982 0
-29 -966 967 0
-967 983 0
-30 -967 968 0
-968 984 0
-31 -968 969 0
-969 985 0
-32 -969 970 0
-970 986 0
-33 -970 971 0
-971 987 0
-34 -971 972 0
-972 988 0
-35 -972 973 0
-973 989 0
-36 -973 974 0
-974 990 0
-37 -974 975 0
-975 991 0
-38 -975 976 0
-976 992 0
-39 -976 0
-24 977 0
-977 993 0
-25 -977 978 0
-978 994 0
-26 -978 979 0
-979 995 0
-27 -979 980 0
-980 996 0
-28 -980 981 0
-981 997 0
-29 -981 982 0
-982 998 0
-30 -982 983 0
-983 999 0
-31 -983 984 0
-984 1000 0
-32 -984 985 0
-985 1001 0
-33 -985 986 0
-986 1002 0
-34 -986 987 0
-987 1003 0
-35 -987 988 0
-988 1004 0
-36 -988 989 0
-989 1005 0
-37 -989 990 0
-990 1006 0
-38 -990 991 0
-991 1007 0
-39 -991 992 0
-992 1008 0
-40 -992 0
-25 993 0
-993 1009 0
-26 -993 994 0
-994 1010 0
-27 -994 995 0
-995 1011 0
-28 -995 996 0
-996 1012 0
-29 -996 997 0
-997 1013 0
-30 -997 998 0
-998 1014 0
-31 -998 999 0
-999 1015 0
-32 -999 1000 0
-1000 1016 0
-33 -1000 1001 0
-1001 1017 0
-34 -1001 1002 0
-1002 1018 0
-35 -1002 1003 0
-1003 1019 0
-36 -1003 1004 0
-1004 1020 0
-37 -1004 1005 0
-1005 1021 0
-38 -1005 1006 0
-1006 1022 0
-39 -1006 1007 0
-1007 1023 0
-40 -1007 1008 0
-1008 1024 0
-41 -1008 0
-26 1009 0
-1009 1025 0
-27 -1009 1010 0
-1010 1026 0
-28 -1010 1011 0
-1011 1027 0
-29 -1011 1012 0
-1012 1028 0
-30 -1012 1013 0
-1013 1029 0
-31 -1013 1014 0
-1014 1030 0
-32 -1014 1015 0
-1015 1031 0
-33 -1015 1016 0
-1016 1032 0
-34 -1016 1017 0
-1017 1033 0
-35 -1017 1018 0
-1018 1034 0
-36 -1018 1019 0
-1019 1035 0
-37 -1019 1020 0
-1020 1036 0
-38 -1020 1021 0
-1021 1037 0
-39 -1021 1022 0
-1022 1038 0
-40 -1022 1023 0
-1023 1039 0
-41 -1023 1024 0
-1024 1040 0
-42 -1024 0
-27 1025 0
-1025 1041 0
-28 -1025 1026 0
-1026 1042 0
-29 -1026 1027 0
-1027 1043 0
-30 -1027 1028 0
-1028 1044 0
-31 -1028 1029 0
-1029 1045 0
-32 -1029 1030 0
-1030 1046 0
-33 -1030 1031 0
-1031 1047 0
-34 -1031 1032 0
-1032 1048 0
-35 -1032 1033 0
-1033 1049 0
-36 -1033 1034 0
-1034 1050 0
-37 -1034 1035 0
-1035 1051 0
-38 -1035 1036 0
-1036 1052 0
-39 -1036 1037 0
-1037 1053 0
-40 -1037 1038 0
-1038 1054 0
-41 -1038 1039 0
-1039 1055 0
-42 -1039 1040 0
-1040 1056 0
-43 -1040 0
-28 1041 0
-1041 1057 0
-29 -1041 1042 0
-1042 1058 0
-30 -1042 1043 0
-1043 1059 0
-31 -1043 1044 0
-1044 1060 0
-32 -1044 1045 0
-1045 1061 0
-33 -1045 1046 0
-1046 1062 0
-34 -1046 1047 0
-1047 1063 0
-35 -1047 1048 0
-1048 1064 0
-36 -1048 1049 0
-1049 1065 0
-37 -1049 1050 0
-1050 1066 0
-38 -1050 1051 0
-1051 1067 0
-39 -1051 1052 0
-1052 1068 0
-40 -1052 1053 0
-1053 1069 0
-41 -1053 1054 0
-1054 1070 0
-42 -1054 1055 0
-1055 1071 0
-43 -1055 1056 0
-1056 1072 0
-44 -1056 0
-29 1057 0
-1057 1073 0
-30 -1057 1058 0
-1058 1074 0
-31 -1058 1059 0
-1059 1075 0
-32 -1059 1060 0
-1060 1076 0
-33 -1060 1061 0
-1061 1077 0
-34 -1061 1062 0
-1062 1078 0
-35 -1062 1063 0
-1063 1079 0
-36 -1063 1064 0
-1064 1080 0
-37 -1064 1065 0
-1065 1081 0
-38 -1065 1066 0
-1066 1082 0
-39 -1066 1067 0
-1067 1083 0
-40 -1067 1068 0
-1068 1084 0
-41 -1068 1069 0
-1069 1085 0
-42 -1069 1070 0
-1070 1086 0
-43 -1070 1071 0
-1071 1087 0
-44 -1071 1072 0
-1072 1088 0
-45 -1072 0
-30 1073 0
-1073 1089 0
-31 -1073 1074 0
-1074 1090 0
-32 -1074 1075 0
-1075 1091 0
-33 -1075 1076 0
-1076 1092 0
-34 -1076 1077 0
-1077 1093 0
-35 -1077 1078 0
-1078 1094 0
-36 -1078 1079 0
-1079 1095 0
-37 -1079 1080 0
-1080 1096 0
-38 -1080 1081 0
-1081 1097 0
-39 -1081 1082 0
-1082 1098 0
-40 -1082 1083 0
-1083 1099 0
-41 -1083 1084 0
-1084 1100 0
-42 -1084 1085 0
-1085 1101 0
-43 -1085 1086 0
-1086 1102 0
-44 -1086 1087 0
-1087 1103 0
-45 -1087 1088 0
-1088 1104 0
-46 -1088 0
-31 1089 0
-1089 1105 0
-32 -1089 1090 0
-1090 1106 0
-33 -1090 1091 0
-1091 1107 0
-34 -1091 1092 0
-1092 1108 0
-35 -1092 1093 0
-1093 1109 0
-36 -1093 1094 0
-1094 1110 0
-37 -1094 1095 0
-1095 1111 0
-38 -1095 1096 0
-1096 1112 0
-39 -1096 1097 0
-1097 1113 0
-40 -1097 1098 0
-1098 1114 0
-41 -1098 1099 0
-1099 1115 0
-42 -1099 1100 0
-1100 1116 0
-43 -1100 1101 0
-1101 1117 0
-44 -1101 1102 0
-1102 1118 0
-45 -1102 1103 0
-1103 1119 0
-46 -1103 1104 0
-1104 1120 0
-47 -1104 0
-32 1105 0
-33 -1105 1106 0
-34 -1106 1107 0
-35 -1107 1108 0
-36 -1108 1109 0
-37 -1109 1110 0
-38 -1110 1111 0
-39 -1111 1112 0
-40 -1112 1113 0
-41 -1113 1114 0
-42 -1114 1115 0
-43 -1115 1116 0
-44 -1116 1117 0
-45 -1117 1118 0
-46 -1118 1119 0
-47 -1119 1120 0
-48 -1120 0
-49 1121 0
-1121 1122 0
-50 -1121 1123 0
-1123 1124 0
-51 -1123 1125 0
-1125 1126 0
-52 -1125 1127 0
-1127 1128 0
-53 -1127 1129 0
-1129 1130 0
-54 -1129 1131 0
-1131 1132 0
-55 -1131 1133 0
-1133 1134 0
-56 -1133 1135 0
-1135 1136 0
-57 -1135 1137 0
-1137 1138 0
-58 -1137 1139 0
-1139 1140 0
-59 -1139 1141 0
-1141 1142 0
-60 -1141 1143 0
-1143 1144 0
-61 -1143 1145 0
-1145 1146 0
-62 -1145 1147 0
-1147 1148 0
-63 -1147 1149 0
-1149 1150 0
-64 -1149 1151 0
-1151 1152 0
-65 -1151 1153 0
-1153 1154 0
-66 -1153 1155 0
-1155 1156 0
-67 -1155 1157 0
-1157 1158 0
-68 -1157 1159 0
-1159 1160 0
-69 -1159 1161 0
-1161 1162 0
-70 -1161 1163 0
-1163 1164 0
-71 -1163 1165 0
-1165 1166 0
-72 -1165 1167 0
-1167 1168 0
-73 -1167 1169 0
-1169 1170 0
-74 -1169 0
-50 1122 0
-1122 1171 0
-51 -1122 1124 0
-1124 1172 0
-52 -1124 1126 0
-1126 1173 0
-53 -1126 1128 0
-1128 1174 0
-54 -1128 1130 0
-1130 1175 0
-55 -1130 1132 0
-1132 1176 0
-56 -1132 1134 0
-1134 1177 0
-57 -1134 1136 0
-1136 1178 0
-58 -1136 1138 0
-1138 1179 0
-59 -1138 1140 0
-1140 1180 0
-60 -1140 1142 0
-1142 1181 0
-61 -1142 1144 0
-1144 1182 0
-62 -1144 1146 0
-1146 1183 0
-63 -1146 1148 0
-1148 1184 0
-64 -1148 1150 0
-1150 1185 0
-65 -1150 1152 0
-1152 1186 0
-66 -1152 1154 0
-1154 1187 0
-67 -1154 1156 0
-1156 1188 0
-68 -1156 1158 0
-1158 1189 0
-69 -1158 1160 0
-1160 1190 0
-70 -1160 1162 0
-1162 1191 0
-71 -1162 1164 0
-1164 1192 0
-72 -1164 1166 0
-1166 1193 0
-73 -1166 1168 0
-1168 1194 0
-74 -1168 1170 0
-1170 1195 0
-75 -1170 0
-51 1171 0
-1171 1196 0
-52 -1171 1172 0
-1172 1197 0
-53 -1172 1173 0
-1173 1198 0
-54 -1173 1174 0
-1174 1199 0
-55 -1174 1175 0
-1175 1200 0
-56 -1175 1176 0
-1176 1201 0
-57 -1176 1177 0
-1177 1202 0
-58 -1177 1178 0
-1178 1203 0
-59 -1178 1179 0
-1179 1204 0
-60 -1179 1180 0
-1180 1205 0
-61 -1180 1181 0
-1181 1206 0
-62 -1181 1182 0
-1182 1207 0
-63 -1182 1183 0
-1183 1208 0
-64 -1183 1184 0
-1184 1209 0
-65 -1184 1185 0
-1185 1210 0
-66 -1185 1186 0
-1186 1211 0
-67 -1186 1187 0
-1187 1212 0
-68 -1187 1188 0
-1188 1213 0
-69 -1188 1189 0
-1189 1214 0
-70 -1189 1190 0
-1190 1215 0
-71 -1190 1191 0
-1191 1216 0
-72 -1191 1192 0
-1192 1217 0
-73 -1192 1193 0
-1193 1218 0
-74 -1193 1194 0
-1194 1219 0
-75 -1194 1195 0
-1195 1220 0
-76 -1195 0
-52 1196 0
-1196 1221 0
-53 -1196 1197 0
-1197 1222 0
-54 -1197 1198 0
-1198 1223 0
-55 -1198 1199 0
-1199 1224 0
-56 -1199 1200 0
-1200 1225 0
-57 -1200 1201 0
-1201 1226 0
-58 -1201 1202 0
-1202 1227 0
-59 -1202 1203 0
-1203 1228 0
-60 -1203 1204 0
-1204 1229 0
-61 -1204 1205 0
-1205 1230 0
-62 -1205 1206 0
-1206 1231 0
-63 -1206 1207 0
-1207 1232 0
-64 -1207 1208 0
-1208 1233 0
-65 -1208 1209 0
-1209 1234 0
-66 -1209 1210 0
-1210 1235 0
-67 -1210 1211 0
-1211 1236 0
-68 -1211 1212 0
-1212 1237 0
-69 -1212 1213 0
-1213 1238 0
-70 -1213 1214 0
-1214 1239 0
-71 -1214 1215 0
-1215 1240 0
-72 -1215 1216 0
-1216 1241 0
-73 -1216 1217 0
-1217 1242 0
-74 -1217 1218 0
-1218 1243 0
-75 -1218 1219 0
-1219 1244 0
-76 -1219 1220 0
-1220 1245 0
-77 -1220 0
-53 1221 0
-1221 1246 0
-54 -1221 1222 0
-1222 1247 0
-55 -1222 1223 0
-1223 1248 0
-56 -1223 1224 0
-1224 1249 0
-57 -1224 1225 0
-1225 1250 0
-58 -1225 1226 0
-1226 1251 0
-59 -1226 1227 0
-1227 1252 0
-60 -1227 1228 0
-1228 1253 0
-61 -1228 1229 0
-1229 1254 0
-62 -1229 1230 0
-1230 1255 0
-63 -1230 1231 0
-1231 1256 0
-64 -1231 1232 0
-1232 1257 0
-65 -1232 1233 0
-1233 1258 0
-66 -1233 1234 0
-1234 1259 0
-67 -1234 1235 0
-1235 1260 0
-68 -1235 1236 0
-1236 1261 0
-69 -1236 1237 0
-1237 1262 0
-70 -1237 1238 0
-1238 1263 0
-71 -1238 1239 0
-1239 1264 0
-72 -1239 1240 0
-1240 1265 0
-73 -1240 1241 0
-1241 1266 0
-74 -1241 1242 0
-1242 1267 0
-75 -1242 1243 0
-1243 1268 0
-76 -1243 1244 0
-1244 1269 0
-77 -1244 1245 0
-1245 1270 0
-78 -1245 0
-54 1246 0
-1246 1271 0
-55 -1246 1247 0
-1247 1272 0
-56 -1247 1248 0
-1248 1273 0
-57 -1248 1249 0
-1249 1274 0
-58 -1249 1250 0
-1250 1275 0
-59 -1250 1251 0
-1251 1276 0
-60 -1251 1252 0
-1252 1277 0
-61 -1252 1253 0
-1253 1278 0
-62 -1253 1254 0
-1254 1279 0
-63 -1254 1255 0
-1255 1280 0
-64 -1255 1256 0
-1256 1281 0
-65 -1256 1257 0
-1257 1282 0
-66 -1257 1258 0
-1258 1283 0
-67 -1258 1259 0
-1259 1284 0
-68 -1259 1260 0
-1260 1285 0
-69 -1260 1261 0
-1261 1286 0
-70 -1261 1262 0
-1262 1287 0
-71 -1262 1263 0
-1263 1288 0
-72 -1263 1264 0
-1264 1289 0
-73 -1264 1265 0
-1265 1290 0
-74 -1265 1266 0
-1266 1291 0
-75 -1266 1267 0
-1267 1292 0
-76 -1267 1268 0
-1268 1293 0
-77 -1268 1269 0
-1269 1294 0
-78 -1269 1270 0
-1270 1295 0
-79 -1270 0
-55 1271 0
-1271 1296 0
-56 -1271 1272 0
-1272 1297 0
-57 -1272 1273 0
-1273 1298 0
-58 -1273 1274 0
-1274 1299 0
-59 -1274 1275 0
-1275 1300 0
-60 -1275 1276 0
-1276 1301 0
-61 -1276 1277 0
-1277 1302 0
-62 -1277 1278 0
-1278 1303 0
-63 -1278 1279 0
-1279 1304 0
-64 -1279 1280 0
-1280 1305 0
-65 -1280 1281 0
-1281 1306 0
-66 -1281 1282 0
-1282 1307 0
-67 -1282 1283 0
-1283 1308 0
-68 -1283 1284 0
-1284 1309 0
-69 -1284 1285 0
-1285 1310 0
-70 -1285 1286 0
-1286 1311 0
-71 -1286 1287 0
-1287 1312 0
-72 -1287 1288 0
-1288 1313 0
-73 -1288 1289 0
-1289 1314 0
-74 -1289 1290 0
-1290 1315 0
-75 -1290 1291 0
-1291 1316 0
-76 -1291 1292 0
-1292 1317 0
-77 -1292 1293 0
-1293 1318 0
-78 -1293 1294 0
-1294 1319 0
-79 -1294 1295 0
-1295 1320 0
-80 -1295 0
-56 1296 0
-1296 1321 0
-57 -1296 1297 0
-1297 1322 0
-58 -1297 1298 0
-1298 1323 0
-59 -1298 1299 0
-1299 1324 0
-60 -1299 1300 0
-1300 1325 0
-61 -1300 1301 0
-1301 1326 0
-62 -1301 1302 0
-1302 1327 0
-63 -1302 1303 0
-1303 1328 0
-64 -1303 1304 0
-1304 1329 0
-65 -1304 1305 0
-1305 1330 0
-66 -1305 1306 0
-1306 1331 0
-67 -1306 1307 0
-1307 1332 0
-68 -1307 1308 0
-1308 1333 0
-69 -1308 1309 0
-1309 1334 0
-70 -1309 1310 0
-1310 1335 0
-71 -1310 1311 0
-1311 1336 0
-72 -1311 1312 0
-1312 1337 0
-73 -1312 1313 0
-1313 1338 0
-74 -1313 1314 0
-1314 1339 0
-75 -1314 1315 0
-1315 1340 0
-76 -1315 1316 0
-1316 1341 0
-77 -1316 1317 0
-1317 1342 0
-78 -1317 1318 0
-1318 1343 0
-79 -1318 1319 0
-1319 1344 0
-80 -1319 1320 0
-1320 1345 0
-81 -1320 0
-57 1321 0
-1321 1346 0
-58 -1321 1322 0
-1322 1347 0
-59 -1322 1323 0
-1323 1348 0
-60 -1323 1324 0
-1324 1349 0
-61 -1324 1325 0
-1325 1350 0
-62 -1325 1326 0
-1326 1351 0
-63 -1326 1327 0
-1327 1352 0
-64 -1327 1328 0
-1328 1353 0
-65 -1328 1329 0
-1329 1354 0
-66 -1329 1330 0
-1330 1355 0
-67 -1330 1331 0
-1331 1356 0
-68 -1331 1332 0
-1332 1357 0
-69 -1332 1333 0
-1333 1358 0
-70 -1333 1334 0
-1334 1359 0
-71 -1334 1335 0
-1335 1360 0
-72 -1335 1336 0
-1336 1361 0
-73 -1336 1337 0
-1337 1362 0
-74 -1337 1338 0
-1338 1363 0
-75 -1338 1339 0
-1339 1364 0
-76 -1339 1340 0
-1340 1365 0
-77 -1340 1341 0
-1341 1366 0
-78 -1341 1342 0
-1342 1367 0
-79 -1342 1343 0
-1343 1368 0
-80 -1343 1344 0
-1344 1369 0
-81 -1344 1345 0
-1345 1370 0
-82 -1345 0
-58 1346 0
-1346 1371 0
-59 -1346 1347 0
-1347 1372 0
-60 -1347 1348 0
-1348 1373 0
-61 -1348 1349 0
-1349 1374 0
-62 -1349 1350 0
-1350 1375 0
-63 -1350 1351 0
-1351 1376 0
-64 -1351 1352 0
-1352 1377 0
-65 -1352 1353 0
-1353 1378 0
-66 -1353 1354 0
-1354 1379 0
-67 -1354 1355 0
-1355 1380 0
-68 -1355 1356 0
-1356 1381 0
-69 -1356 1357 0
-1357 1382 0
-70 -1357 1358 0
-1358 1383 0
-71 -1358 1359 0
-1359 1384 0
-72 -1359 1360 0
-1360 1385 0
-73 -1360 1361 0
-1361 1386 0
-74 -1361 1362 0
-1362 1387 0
-75 -1362 1363 0
-1363 1388 0
-76 -1363 1364 0
-1364 1389 0
-77 -1364 1365 0
-1365 1390 0
-78 -1365 1366 0
-1366 1391 0
-79 -1366 1367 0
-1367 1392 0
-80 -1367 1368 0
-1368 1393 0
-81 -1368 1369 0
-1369 1394 0
-82 -1369 1370 0
-1370 1395 0
-83 -1370 0
-59 1371 0
-1371 1396 0
-60 -1371 1372 0
-1372 1397 0
-61 -1372 1373 0
-1373 1398 0
-62 -1373 1374 0
-1374 1399 0
-63 -1374 1375 0
-1375 1400 0
-64 -1375 1376 0
-1376 1401 0
-65 -1376 1377 0
-1377 1402 0
-66 -1377 1378 0
-1378 1403 0
-67 -1378 1379 0
-1379 1404 0
-68 -1379 1380 0
-1380 1405 0
-69 -1380 1381 0
-1381 1406 0
-70 -1381 1382 0
-1382 1407 0
-71 -1382 1383 0
-1383 1408 0
-72 -1383 1384 0
-1384 1409 0
-73 -1384 1385 0
-1385 1410 0
-74 -1385 1386 0
-1386 1411 0
-75 -1386 1387 0
-1387 1412 0
-76 -1387 1388 0
-1388 1413 0
-77 -1388 1389 0
-1389 1414 0
-78 -1389 1390 0
-1390 1415 0
-79 -1390 1391 0
-1391 1416 0
-80 -1391 1392 0
-1392 1417 0
-81 -1392 1393 0
-1393 1418 0
-82 -1393 1394 0
-1394 1419 0
-83 -1394 1395 0
-1395 1420 0
-84 -1395 0
-60 1396 0
-1396 1421 0
-61 -1396 1397 0
-1397 1422 0
-62 -1397 1398 0
-1398 1423 0
-63 -1398 1399 0
-1399 1424 0
-64 -1399 1400 0
-1400 1425 0
-65 -1400 1401 0
-1401 1426 0
-66 -1401 1402 0
-1402 1427 0
-67 -1402 1403 0
-1403 1428 0
-68 -1403 1404 0
-1404 1429 0
-69 -1404 1405 0
-1405 1430 0
-70 -1405 1406 0
-1406 1431 0
-71 -1406 1407 0
-1407 1432 0
-72 -1407 1408 0
-1408 1433 0
-73 -1408 1409 0
-1409 1434 0
-74 -1409 1410 0
-1410 1435 0
-75 -1410 1411 0
-1411 1436 0
-76 -1411 1412 0
-1412 1437 0
-77 -1412 1413 0
-1413 1438 0
-78 -1413 1414 0
-1414 1439 0
-79 -1414 1415 0
-1415 1440 0
-80 -1415 1416 0
-1416 1441 0
-81 -1416 1417 0
-1417 1442 0
-82 -1417 1418 0
-1418 1443 0
-83 -1418 1419 0
-1419 1444 0
-84 -1419 1420 0
-1420 1445 0
-85 -1420 0
-61 1421 0
-1421 1446 0
-62 -1421 1422 0
-1422 1447 0
-63 -1422 1423 0
-1423 1448 0
-64 -1423 1424 0
-1424 1449 0
-65 -1424 1425 0
-1425 1450 0
-66 -1425 1426 0
-1426 1451 0
-67 -1426 1427 0
-1427 1452 0
-68 -1427 1428 0
-1428 1453 0
-69 -1428 1429 0
-1429 1454 0
-70 -1429 1430 0
-1430 1455 0
-71 -1430 1431 0
-1431 1456 0
-72 -1431 1432 0
-1432 1457 0
-73 -1432 1433 0
-1433 1458 0
-74 -1433 1434 0
-1434 1459 0
-75 -1434 1435 0
-1435 1460 0
-76 -1435 1436 0
-1436 1461 0
-77 -1436 1437 0
-1437 1462 0
-78 -1437 1438 0
-1438 1463 0
-79 -1438 1439 0
-1439 1464 0
-80 -1439 1440 0
-1440 1465 0
-81 -1440 1441 0
-1441 1466 0
-82 -1441 1442 0
-1442 1467 0
-83 -1442 1443 0
-1443 1468 0
-84 -1443 1444 0
-1444 1469 0
-85 -1444 1445 0
-1445 1470 0
-86 -1445 0
-62 1446 0
-1446 1471 0
-63 -1446 1447 0
-1447 1472 0
-64 -1447 1448 0
-1448 1473 0
-65 -1448 1449 0
-1449 1474 0
-66 -1449 1450 0
-1450 1475 0
-67 -1450 1451 0
-1451 1476 0
-68 -1451 1452 0
-1452 1477 0
-69 -1452 1453 0
-1453 1478 0
-70 -1453 1454 0
-1454 1479 0
-71 -1454 1455 0
-1455 1480 0
-72 -1455 1456 0
-1456 1481 0
-73 -1456 1457 0
-1457 1482 0
-74 -1457 1458 0
-1458 1483 0
-75 -1458 1459 0
-1459 1484 0
-76 -1459 1460 0
-1460 1485 0
-77 -1460 1461 0
-1461 1486 0
-78 -1461 1462 0
-1462 1487 0
-79 -1462 1463 0
-1463 1488 0
-80 -1463 1464 0
-1464 1489 0
-81 -1464 1465 0
-1465 1490 0
-82 -1465 1466 0
-1466 1491 0
-83 -1466 1467 0
-1467 1492 0
-84 -1467 1468 0
-1468 1493 0
-85 -1468 1469 0
-1469 1494 0
-86 -1469 1470 0
-1470 1495 0
-87 -1470 0
-63 1471 0
-1471 1496 0
-64 -1471 1472 0
-1472 1497 0
-65 -1472 1473 0
-1473 1498 0
-66 -1473 1474 0
-1474 1499 0
-67 -1474 1475 0
-1475 1500 0
-68 -1475 1476 0
-1476 1501 0
-69 -1476 1477 0
-1477 1502 0
-70 -1477 1478 0
-1478 1503 0
-71 -1478 1479 0
-1479 1504 0
-72 -1479 1480 0
-1480 1505 0
-73 -1480 1481 0
-1481 1506 0
-74 -1481 1482 0
-1482 1507 0
-75 -1482 1483 0
-1483 1508 0
-76 -1483 1484 0
-1484 1509 0
-77 -1484 1485 0
-1485 1510 0
-78 -1485 1486 0
-1486 1511 0
-79 -1486 1487 0
-1487 1512 0
-80 -1487 1488 0
-1488 1513 0
-81 -1488 1489 0
-1489 1514 0
-82 -1489 1490 0
-1490 1515 0
-83 -1490 1491 0
-1491 1516 0
-84 -1491 1492 0
-1492 1517 0
-85 -1492 1493 0
-1493 1518 0
-86 -1493 1494 0
-1494 1519 0
-87 -1494 1495 0
-1495 1520 0
-88 -1495 0
-64 1496 0
-1496 1521 0
-65 -1496 1497 0
-1497 1522 0
-66 -1497 1498 0
-1498 1523 0
-67 -1498 1499 0
-1499 1524 0
-68 -1499 1500 0
-1500 1525 0
-69 -1500 1501 0
-1501 1526 0
-70 -1501 1502 0
-1502 1527 0
-71 -1502 1503 0
-1503 1528 0
-72 -1503 1504 0
-1504 1529 0
-73 -1504 1505 0
-1505 1530 0
-74 -1505 1506 0
-1506 1531 0
-75 -1506 1507 0
-1507 1532 0
-76 -1507 1508 0
-1508 1533 0
-77 -1508 1509 0
-1509 1534 0
-78 -1509 1510 0
-1510 1535 0
-79 -1510 1511 0
-1511 1536 0
-80 -1511 1512 0
-1512 1537 0
-81 -1512 1513 0
-1513 1538 0
-82 -1513 1514 0
-1514 1539 0
-83 -1514 1515 0
-1515 1540 0
-84 -1515 1516 0
-1516 1541 0
-85 -1516 1517 0
-1517 1542 0
-86 -1517 1518 0
-1518 1543 0
-87 -1518 1519 0
-1519 1544 0
-88 -1519 1520 0
-1520 1545 0
-89 -1520 0
-65 1521 0
-1521 1546 0
-66 -1521 1522 0
-1522 1547 0
-67 -1522 1523 0
-1523 1548 0
-68 -1523 1524 0
-1524 1549 0
-69 -1524 1525 0
-1525 1550 0
-70 -1525 1526 0
-1526 1551 0
-71 -1526 1527 0
-1527 1552 0
-72 -1527 1528 0
-1528 1553 0
-73 -1528 1529 0
-1529 1554 0
-74 -1529 1530 0
-1530 1555 0
-75 -1530 1531 0
-1531 1556 0
-76 -1531 1532 0
-1532 1557 0
-77 -1532 1533 0
-1533 1558 0
-78 -1533 1534 0
-1534 1559 0
-79 -1534 1535 0
-1535 1560 0
-80 -1535 1536 0
-1536 1561 0
-81 -1536 1537 0
-1537 1562 0
-82 -1537 1538 0
-1538 1563 0
-83 -1538 1539 0
-1539 1564 0
-84 -1539 1540 0
-1540 1565 0
-85 -1540 1541 0
-1541 1566 0
-86 -1541 1542 0
-1542 1567 0
-87 -1542 1543 0
-1543 1568 0
-88 -1543 1544 0
-1544 1569 0
-89 -1544 1545 0
-1545 1570 0
-90 -1545 0
-66 1546 0
-1546 1571 0
-67 -1546 1547 0
-1547 1572 0
-68 -1547 1548 0
-1548 1573 0
-69 -1548 1549 0
-1549 1574 0
-70 -1549 1550 0
-1550 1575 0
-71 -1550 1551 0
-1551 1576 0
-72 -1551 1552 0
-1552 1577 0
-73 -1552 1553 0
-1553 1578 0
-74 -1553 1554 0
-1554 1579 0
-75 -1554 1555 0
-1555 1580 0
-76 -1555 1556 0
-1556 1581 0
-77 -1556 1557 0
-1557 1582 0
-78 -1557 1558 0
-1558 1583 0
-79 -1558 1559 0
-1559 1584 0
-80 -1559 1560 0
-1560 1585 0
-81 -1560 1561 0
-1561 1586 0
-82 -1561 1562 0
-1562 1587 0
-83 -1562 1563 0
-1563 1588 0
-84 -1563 1564 0
-1564 1589 0
-85 -1564 1565 0
-1565 1590 0
-86 -1565 1566 0
-1566 1591 0
-87 -1566 1567 0
-1567 1592 0
-88 -1567 1568 0
-1568 1593 0
-89 -1568 1569 0
-1569 1594 0
-90 -1569 1570 0
-1570 1595 0
-91 -1570 0
-67 1571 0
-1571 1596 0
-68 -1571 1572 0
-1572 1597 0
-69 -1572 1573 0
-1573 1598 0
-70 -1573 1574 0
-1574 1599 0
-71 -1574 1575 0
-1575 1600 0
-72 -1575 1576 0
-1576 1601 0
-73 -1576 1577 0
-1577 1602 0
-74 -1577 1578 0
-1578 1603 0
-75 -1578 1579 0
-1579 1604 0
-76 -1579 1580 0
-1580 1605 0
-77 -1580 1581 0
-1581 1606 0
-78 -1581 1582 0
-1582 1607 0
-79 -1582 1583 0
-1583 1608 0
-80 -1583 1584 0
-1584 1609 0
-81 -1584 1585 0
-1585 1610 0
-82 -1585 1586 0
-1586 1611 0
-83 -1586 1587 0
-1587 1612 0
-84 -1587 1588 0
-1588 1613 0
-85 -1588 1589 0
-1589 1614 0
-86 -1589 1590 0
-1590 1615 0
-87 -1590 1591 0
-1591 1616 0
-88 -1591 1592 0
-1592 1617 0
-89 -1592 1593 0
-1593 1618 0
-90 -1593 1594 0
-1594 1619 0
-91 -1594 1595 0
-1595 1620 0
-92 -1595 0
-68 1596 0
-1596 1621 0
-69 -1596 1597 0
-1597 1622 0
-70 -1597 1598 0
-1598 1623 0
-71 -1598 1599 0
-1599 1624 0
-72 -1599 1600 0
-1600 1625 0
-73 -1600 1601 0
-1601 1626 0
-74 -1601 1602 0
-1602 1627 0
-75 -1602 1603 0
-1603 1628 0
-76 -1603 1604 0
-1604 1629 0
-77 -1604 1605 0
-1605 1630 0
-78 -1605 1606 0
-1606 1631 0
-79 -1606 1607 0
-1607 1632 0
-80 -1607 1608 0
-1608 1633 0
-81 -1608 1609 0
-1609 1634 0
-82 -1609 1610 0
-1610 1635 0
-83 -1610 1611 0
-1611 1636 0
-84 -1611 1612 0
-1612 1637 0
-85 -1612 1613 0
-1613 1638 0
-86 -1613 1614 0
-1614 1639 0
-87 -1614 1615 0
-1615 1640 0
-88 -1615 1616 0
-1616 1641 0
-89 -1616 1617 0
-1617 1642 0
-90 -1617 1618 0
-1618 1643 0
-91 -1618 1619 0
-1619 1644 0
-92 -1619 1620 0
-1620 1645 0
-93 -1620 0
-69 1621 0
-1621 1646 0
-70 -1621 1622 0
-1622 1647 0
-71 -1622 1623 0
-1623 1648 0
-72 -1623 1624 0
-1624 1649 0
-73 -1624 1625 0
-1625 1650 0
-74 -1625 1626 0
-1626 1651 0
-75 -1626 1627 0
-1627 1652 0
-76 -1627 1628 0
-1628 1653 0
-77 -1628 1629 0
-1629 1654 0
-78 -1629 1630 0
-1630 1655 0
-79 -1630 1631 0
-1631 1656 0
-80 -1631 1632 0
-1632 1657 0
-81 -1632 1633 0
-1633 1658 0
-82 -1633 1634 0
-1634 1659 0
-83 -1634 1635 0
-1635 1660 0
-84 -1635 1636 0
-1636 1661 0
-85 -1636 1637 0
-1637 1662 0
-86 -1637 1638 0
-1638 1663 0
-87 -1638 1639 0
-1639 1664 0
-88 -1639 1640 0
-1640 1665 0
-89 -1640 1641 0
-1641 1666 0
-90 -1641 1642 0
-1642 1667 0
-91 -1642 1643 0
-1643 1668 0
-92 -1643 1644 0
-1644 1669 0
-93 -1644 1645 0
-1645 1670 0
-94 -1645 0
-70 1646 0
-1646 1671 0
-71 -1646 1647 0
-1647 1672 0
-72 -1647 1648 0
-1648 1673 0
-73 -1648 1649 0
-1649 1674 0
-74 -1649 1650 0
-1650 1675 0
-75 -1650 1651 0
-1651 1676 0
-76 -1651 1652 0
-1652 1677 0
-77 -1652 1653 0
-1653 1678 0
-78 -1653 1654 0
-1654 1679 0
-79 -1654 1655 0
-1655 1680 0
-80 -1655 1656 0
-1656 1681 0
-81 -1656 1657 0
-1657 1682 0
-82 -1657 1658 0
-1658 1683 0
-83 -1658 1659 0
-1659 1684 0
-84 -1659 1660 0
-1660 1685 0
-85 -1660 1661 0
-1661 1686 0
-86 -1661 1662 0
-1662 1687 0
-87 -1662 1663 0
-1663 1688 0
-88 -1663 1664 0
-1664 1689 0
-89 -1664 1665 0
-1665 1690 0
-90 -1665 1666 0
-1666 1691 0
-91 -1666 1667 0
-1667 1692 0
-92 -1667 1668 0
-1668 1693 0
-93 -1668 1669 0
-1669 1694 0
-94 -1669 1670 0
-1670 1695 0
-95 -1670 0
-71 1671 0
-72 -1671 1672 0
-73 -1672 1673 0
-74 -1673 1674 0
-75 -1674 1675 0
-76 -1675 1676 0
-77 -1676 1677 0
-78 -1677 1678 0
-79 -1678 1679 0
-80 -1679 1680 0
-81 -1680 1681 0
-82 -1681 1682 0
-83 -1682 1683 0
-84 -1683 1684 0
-85 -1684 1685 0
-86 -1685 1686 0
-87 -1686 1687 0
-88 -1687 1688 0
-89 -1688 1689 0
-90 -1689 1690 0
-91 -1690 1691 0
-92 -1691 1692 0
-93 -1692 1693 0
-94 -1693 1694 0
-95 -1694 1695 0
-96 -1695 0
1 25 0
