p cnf 2521 5117
-1 63 0
-2 63 0
-31 63 0
-32 63 0
-63 1 2 31 32 0
-2 64 0
-1 64 0
-3 64 0
-33 64 0
-64 2 1 3 33 0
-3 65 0
-2 65 0
-4 65 0
-34 65 0
-65 3 2 4 34 0
-4 66 0
-3 66 0
-5 66 0
-35 66 0
-66 4 3 5 35 0
-5 67 0
-4 67 0
-6 67 0
-36 67 0
-67 5 4 6 36 0
-6 68 0
-5 68 0
-7 68 0
-37 68 0
-68 6 5 7 37 0
-7 69 0
-6 69 0
-8 69 0
-38 69 0
-69 7 6 8 38 0
-8 70 0
-7 70 0
-9 70 0
-39 70 0
-70 8 7 9 39 0
-9 71 0
-8 71 0
-10 71 0
-40 71 0
-71 9 8 10 40 0
-10 72 0
-9 72 0
-11 72 0
-41 72 0
-72 10 9 11 41 0
-11 73 0
-10 73 0
-12 73 0
-42 73 0
-73 11 10 12 42 0
-12 74 0
-11 74 0
-13 74 0
-43 74 0
-74 12 11 13 43 0
-13 75 0
-12 75 0
-14 75 0
-44 75 0
-75 13 12 14 44 0
-14 76 0
-13 76 0
-15 76 0
-45 76 0
-76 14 13 15 45 0
-15 77 0
-14 77 0
-16 77 0
-46 77 0
-77 15 14 16 46 0
-16 78 0
-15 78 0
-17 78 0
-47 78 0
-78 16 15 17 47 0
-17 79 0
-16 79 0
-18 79 0
-48 79 0
-79 17 16 18 48 0
-18 80 0
-17 80 0
-19 80 0
-49 80 0
-80 18 17 19 49 0
-19 81 0
-18 81 0
-20 81 0
-50 81 0
-81 19 18 20 50 0
-20 82 0
-19 82 0
-21 82 0
-51 82 0
-82 20 19 21 51 0
-21 83 0
-20 83 0
-22 83 0
-52 83 0
-83 21 20 22 52 0
-22 84 0
-21 84 0
-23 84 0
-53 84 0
-84 22 21 23 53 0
-23 85 0
-22 85 0
-24 85 0
-54 85 0
-85 23 22 24 54 0
-24 86 0
-23 86 0
-25 86 0
-55 86 0
-86 24 23 25 55 0
-25 87 0
-24 87 0
-26 87 0
-56 87 0
-87 25 24 26 56 0
-26 88 0
-25 88 0
-27 88 0
-57 88 0
-88 26 25 27 57 0
-27 89 0
-26 89 0
-28 89 0
-58 89 0
-89 27 26 28 58 0
-28 90 0
-27 90 0
-29 90 0
-59 90 0
-90 28 27 29 59 0
-29 91 0
-28 91 0
-30 91 0
-60 91 0
-91 29 28 30 60 0
-30 92 0
-29 92 0
-31 92 0
-61 92 0
-92 30 29 31 61 0
-31 93 0
-1 93 0
-30 93 0
-62 93 0
-93 31 1 30 62 0
-32 94 0
-1 94 0
-36 94 0
-59 94 0
-94 32 1 36 59 0
-33 95 0
-2 95 0
-37 95 0
-60 95 0
-95 33 2 37 60 0
-34 96 0
-3 96 0
-38 96 0
-61 96 0
-96 34 3 38 61 0
-35 97 0
-4 97 0
-39 97 0
-62 97 0
-97 35 4 39 62 0
-36 98 0
-5 98 0
-32 98 0
-40 98 0
-98 36 5 32 40 0
-37 99 0
-6 99 0
-33 99 0
-41 99 0
-99 37 6 33 41 0
-38 100 0
-7 100 0
-34 100 0
-42 100 0
-100 38 7 34 42 0
-39 101 0
-8 101 0
-35 101 0
-43 101 0
-101 39 8 35 43 0
-40 102 0
-9 102 0
-36 102 0
-44 102 0
-102 40 9 36 44 0
-41 103 0
-10 103 0
-37 103 0
-45 103 0
-103 41 10 37 45 0
-42 104 0
-11 104 0
-38 104 0
-46 104 0
-104 42 11 38 46 0
-43 105 0
-12 105 0
-39 105 0
-47 105 0
-105 43 12 39 47 0
-44 106 0
-13 106 0
-40 106 0
-48 106 0
-106 44 13 40 48 0
-45 107 0
-14 107 0
-41 107 0
-49 107 0
-107 45 14 41 49 0
-46 108 0
-15 108 0
-42 108 0
-50 108 0
-108 46 15 42 50 0
-47 109 0
-16 109 0
-43 109 0
-51 109 0
-109 47 16 43 51 0
-48 110 0
-17 110 0
-44 110 0
-52 110 0
-110 48 17 44 52 0
-49 111 0
-18 111 0
-45 111 0
-53 111 0
-111 49 18 45 53 0
-50 112 0
-19 112 0
-46 112 0
-54 112 0
-112 50 19 46 54 0
-51 113 0
-20 113 0
-47 113 0
-55 113 0
-113 51 20 47 55 0
-52 114 0
-21 114 0
-48 114 0
-56 114 0
-114 52 21 48 56 0
-53 115 0
-22 115 0
-49 115 0
-57 115 0
-115 53 22 49 57 0
-54 116 0
-23 116 0
-50 116 0
-58 116 0
-116 54 23 50 58 0
-55 117 0
-24 117 0
-51 117 0
-59 117 0
-117 55 24 51 59 0
-56 118 0
-25 118 0
-52 118 0
-60 118 0
-118 56 25 52 60 0
-57 119 0
-26 119 0
-53 119 0
-61 119 0
-119 57 26 53 61 0
-58 120 0
-27 120 0
-54 120 0
-62 120 0
-120 58 27 54 62 0
-59 121 0
-28 121 0
-32 121 0
-55 121 0
-121 59 28 32 55 0
-60 122 0
-29 122 0
-33 122 0
-56 122 0
-122 60 29 33 56 0
-61 123 0
-30 123 0
-34 123 0
-57 123 0
-123 61 30 34 57 0
-62 124 0
-31 124 0
-35 124 0
-58 124 0
-124 62 31 35 58 0
1 125 0
-125 126 0
2 -125 127 0
-127 128 0
3 -127 129 0
-129 130 0
4 -129 131 0
-131 132 0
5 -131 133 0
-133 134 0
6 -133 135 0
-135 136 0
7 -135 137 0
-137 138 0
8 -137 139 0
-139 140 0
9 -139 141 0
-141 142 0
10 -141 143 0
-143 144 0
11 -143 145 0
-145 146 0
12 -145 147 0
-147 148 0
13 -147 149 0
-149 150 0
14 -149 151 0
-151 152 0
15 -151 153 0
-153 154 0
16 -153 155 0
-155 156 0
17 -155 157 0
-157 158 0
18 -157 159 0
-159 160 0
19 -159 161 0
-161 162 0
20 -161 163 0
-163 164 0
21 -163 165 0
-165 166 0
22 -165 167 0
-167 168 0
23 -167 169 0
-169 170 0
24 -169 171 0
-171 172 0
25 -171 173 0
-173 174 0
26 -173 175 0
-175 176 0
27 -175 177 0
-177 178 0
28 -177 179 0
-179 180 0
29 -179 181 0
-181 182 0
30 -181 183 0
-183 184 0
31 -183 185 0
-185 186 0
32 -185 187 0
-187 188 0
33 -187 189 0
-189 190 0
34 -189 191 0
-191 192 0
35 -191 193 0
-193 194 0
36 -193 195 0
-195 196 0
37 -195 197 0
-197 198 0
38 -197 199 0
-199 200 0
39 -199 201 0
-201 202 0
40 -201 203 0
-203 204 0
41 -203 205 0
-205 206 0
42 -205 207 0
-207 208 0
43 -207 209 0
-209 210 0
44 -209 211 0
-211 212 0
45 -211 213 0
-213 214 0
46 -213 215 0
-215 216 0
47 -215 0
2 126 0
-126 217 0
3 -126 128 0
-128 218 0
4 -128 130 0
-130 219 0
5 -130 132 0
-132 220 0
6 -132 134 0
-134 221 0
7 -134 136 0
-136 222 0
8 -136 138 0
-138 223 0
9 -138 140 0
-140 224 0
10 -140 142 0
-142 225 0
11 -142 144 0
-144 226 0
12 -144 146 0
-146 227 0
13 -146 148 0
-148 228 0
14 -148 150 0
-150 229 0
15 -150 152 0
-152 230 0
16 -152 154 0
-154 231 0
17 -154 156 0
-156 232 0
18 -156 158 0
-158 233 0
19 -158 160 0
-160 234 0
20 -160 162 0
-162 235 0
21 -162 164 0
-164 236 0
22 -164 166 0
-166 237 0
23 -166 168 0
-168 238 0
24 -168 170 0
-170 239 0
25 -170 172 0
-172 240 0
26 -172 174 0
-174 241 0
27 -174 176 0
-176 242 0
28 -176 178 0
-178 243 0
29 -178 180 0
-180 244 0
30 -180 182 0
-182 245 0
31 -182 184 0
-184 246 0
32 -184 186 0
-186 247 0
33 -186 188 0
-188 248 0
34 -188 190 0
-190 249 0
35 -190 192 0
-192 250 0
36 -192 194 0
-194 251 0
37 -194 196 0
-196 252 0
38 -196 198 0
-198 253 0
39 -198 200 0
-200 254 0
40 -200 202 0
-202 255 0
41 -202 204 0
-204 256 0
42 -204 206 0
-206 257 0
43 -206 208 0
-208 258 0
44 -208 210 0
-210 259 0
45 -210 212 0
-212 260 0
46 -212 214 0
-214 261 0
47 -214 216 0
-216 262 0
48 -216 0
3 217 0
-217 263 0
4 -217 218 0
-218 264 0
5 -218 219 0
-219 265 0
6 -219 220 0
-220 266 0
7 -220 221 0
-221 267 0
8 -221 222 0
-222 268 0
9 -222 223 0
-223 269 0
10 -223 224 0
-224 270 0
11 -224 225 0
-225 271 0
12 -225 226 0
-226 272 0
13 -226 227 0
-227 273 0
14 -227 228 0
-228 274 0
15 -228 229 0
-229 275 0
16 -229 230 0
-230 276 0
17 -230 231 0
-231 277 0
18 -231 232 0
-232 278 0
19 -232 233 0
-233 279 0
20 -233 234 0
-234 280 0
21 -234 235 0
-235 281 0
22 -235 236 0
-236 282 0
23 -236 237 0
-237 283 0
24 -237 238 0
-238 284 0
25 -238 239 0
-239 285 0
26 -239 240 0
-240 286 0
27 -240 241 0
-241 287 0
28 -241 242 0
-242 288 0
29 -242 243 0
-243 289 0
30 -243 244 0
-244 290 0
31 -244 245 0
-245 291 0
32 -245 246 0
-246 292 0
33 -246 247 0
-247 293 0
34 -247 248 0
-248 294 0
35 -248 249 0
-249 295 0
36 -249 250 0
-250 296 0
37 -250 251 0
-251 297 0
38 -251 252 0
-252 298 0
39 -252 253 0
-253 299 0
40 -253 254 0
-254 300 0
41 -254 255 0
-255 301 0
42 -255 256 0
-256 302 0
43 -256 257 0
-257 303 0
44 -257 258 0
-258 304 0
45 -258 259 0
-259 305 0
46 -259 260 0
-260 306 0
47 -260 261 0
-261 307 0
48 -261 262 0
-262 308 0
49 -262 0
4 263 0
-263 309 0
5 -263 264 0
-264 310 0
6 -264 265 0
-265 311 0
7 -265 266 0
-266 312 0
8 -266 267 0
-267 313 0
9 -267 268 0
-268 314 0
10 -268 269 0
-269 315 0
11 -269 270 0
-270 316 0
12 -270 271 0
-271 317 0
13 -271 272 0
-272 318 0
14 -272 273 0
-273 319 0
15 -273 274 0
-274 320 0
16 -274 275 0
-275 321 0
17 -275 276 0
-276 322 0
18 -276 277 0
-277 323 0
19 -277 278 0
-278 324 0
20 -278 279 0
-279 325 0
21 -279 280 0
-280 326 0
22 -280 281 0
-281 327 0
23 -281 282 0
-282 328 0
24 -282 283 0
-283 329 0
25 -283 284 0
-284 330 0
26 -284 285 0
-285 331 0
27 -285 286 0
-286 332 0
28 -286 287 0
-287 333 0
29 -287 288 0
-288 334 0
30 -288 289 0
-289 335 0
31 -289 290 0
-290 336 0
32 -290 291 0
-291 337 0
33 -291 292 0
-292 338 0
34 -292 293 0
-293 339 0
35 -293 294 0
-294 340 0
36 -294 295 0
-295 341 0
37 -295 296 0
-296 342 0
38 -296 297 0
-297 343 0
39 -297 298 0
-298 344 0
40 -298 299 0
-299 345 0
41 -299 300 0
-300 346 0
42 -300 301 0
-301 347 0
43 -301 302 0
-302 348 0
44 -302 303 0
-303 349 0
45 -303 304 0
-304 350 0
46 -304 305 0
-305 351 0
47 -305 306 0
-306 352 0
48 -306 307 0
-307 353 0
49 -307 308 0
-308 354 0
50 -308 0
5 309 0
-309 355 0
6 -309 310 0
-310 356 0
7 -310 311 0
-311 357 0
8 -311 312 0
-312 358 0
9 -312 313 0
-313 359 0
10 -313 314 0
-314 360 0
11 -314 315 0
-315 361 0
12 -315 316 0
-316 362 0
13 -316 317 0
-317 363 0
14 -317 318 0
-318 364 0
15 -318 319 0
-319 365 0
16 -319 320 0
-320 366 0
17 -320 321 0
-321 367 0
18 -321 322 0
-322 368 0
19 -322 323 0
-323 369 0
20 -323 324 0
-324 370 0
21 -324 325 0
-325 371 0
22 -325 326 0
-326 372 0
23 -326 327 0
-327 373 0
24 -327 328 0
-328 374 0
25 -328 329 0
-329 375 0
26 -329 330 0
-330 376 0
27 -330 331 0
-331 377 0
28 -331 332 0
-332 378 0
29 -332 333 0
-333 379 0
30 -333 334 0
-334 380 0
31 -334 335 0
-335 381 0
32 -335 336 0
-336 382 0
33 -336 337 0
-337 383 0
34 -337 338 0
-338 384 0
35 -338 339 0
-339 385 0
36 -339 340 0
-340 386 0
37 -340 341 0
-341 387 0
38 -341 342 0
-342 388 0
39 -342 343 0
-343 389 0
40 -343 344 0
-344 390 0
41 -344 345 0
-345 391 0
42 -345 346 0
-346 392 0
43 -346 347 0
-347 393 0
44 -347 348 0
-348 394 0
45 -348 349 0
-349 395 0
46 -349 350 0
-350 396 0
47 -350 351 0
-351 397 0
48 -351 352 0
-352 398 0
49 -352 353 0
-353 399 0
50 -353 354 0
-354 400 0
51 -354 0
6 355 0
-355 401 0
7 -355 356 0
-356 402 0
8 -356 357 0
-357 403 0
9 -357 358 0
-358 404 0
10 -358 359 0
-359 405 0
11 -359 360 0
-360 406 0
12 -360 361 0
-361 407 0
13 -361 362 0
-362 408 0
14 -362 363 0
-363 409 0
15 -363 364 0
-364 410 0
16 -364 365 0
-365 411 0
17 -365 366 0
-366 412 0
18 -366 367 0
-367 413 0
19 -367 368 0
-368 414 0
20 -368 369 0
-369 415 0
21 -369 370 0
-370 416 0
22 -370 371 0
-371 417 0
23 -371 372 0
-372 418 0
24 -372 373 0
-373 419 0
25 -373 374 0
-374 420 0
26 -374 375 0
-375 421 0
27 -375 376 0
-376 422 0
28 -376 377 0
-377 423 0
29 -377 378 0
-378 424 0
30 -378 379 0
-379 425 0
31 -379 380 0
-380 426 0
32 -380 381 0
-381 427 0
33 -381 382 0
-382 428 0
34 -382 383 0
-383 429 0
35 -383 384 0
-384 430 0
36 -384 385 0
-385 431 0
37 -385 386 0
-386 432 0
38 -386 387 0
-387 433 0
39 -387 388 0
-388 434 0
40 -388 389 0
-389 435 0
41 -389 390 0
-390 436 0
42 -390 391 0
-391 437 0
43 -391 392 0
-392 438 0
44 -392 393 0
-393 439 0
45 -393 394 0
-394 440 0
46 -394 395 0
-395 441 0
47 -395 396 0
-396 442 0
48 -396 397 0
-397 443 0
49 -397 398 0
-398 444 0
50 -398 399 0
-399 445 0
51 -399 400 0
-400 446 0
52 -400 0
7 401 0
-401 447 0
8 -401 402 0
-402 448 0
9 -402 403 0
-403 449 0
10 -403 404 0
-404 450 0
11 -404 405 0
-405 451 0
12 -405 406 0
-406 452 0
13 -406 407 0
-407 453 0
14 -407 408 0
-408 454 0
15 -408 409 0
-409 455 0
16 -409 410 0
-410 456 0
17 -410 411 0
-411 457 0
18 -411 412 0
-412 458 0
19 -412 413 0
-413 459 0
20 -413 414 0
-414 460 0
21 -414 415 0
-415 461 0
22 -415 416 0
-416 462 0
23 -416 417 0
-417 463 0
24 -417 418 0
-418 464 0
25 -418 419 0
-419 465 0
26 -419 420 0
-420 466 0
27 -420 421 0
-421 467 0
28 -421 422 0
-422 468 0
29 -422 423 0
-423 469 0
30 -423 424 0
-424 470 0
31 -424 425 0
-425 471 0
32 -425 426 0
-426 472 0
33 -426 427 0
-427 473 0
34 -427 428 0
-428 474 0
35 -428 429 0
-429 475 0
36 -429 430 0
-430 476 0
37 -430 431 0
-431 477 0
38 -431 432 0
-432 478 0
39 -432 433 0
-433 479 0
40 -433 434 0
-434 480 0
41 -434 435 0
-435 481 0
42 -435 436 0
-436 482 0
43 -436 437 0
-437 483 0
44 -437 438 0
-438 484 0
45 -438 439 0
-439 485 0
46 -439 440 0
-440 486 0
47 -440 441 0
-441 487 0
48 -441 442 0
-442 488 0
49 -442 443 0
-443 489 0
50 -443 444 0
-444 490 0
51 -444 445 0
-445 491 0
52 -445 446 0
-446 492 0
53 -446 0
8 447 0
-447 493 0
9 -447 448 0
-448 494 0
10 -448 449 0
-449 495 0
11 -449 450 0
-450 496 0
12 -450 451 0
-451 497 0
13 -451 452 0
-452 498 0
14 -452 453 0
-453 499 0
15 -453 454 0
-454 500 0
16 -454 455 0
-455 501 0
17 -455 456 0
-456 502 0
18 -456 457 0
-457 503 0
19 -457 458 0
-458 504 0
20 -458 459 0
-459 505 0
21 -459 460 0
-460 506 0
22 -460 461 0
-461 507 0
23 -461 462 0
-462 508 0
24 -462 463 0
-463 509 0
25 -463 464 0
-464 510 0
26 -464 465 0
-465 511 0
27 -465 466 0
-466 512 0
28 -466 467 0
-467 513 0
29 -467 468 0
-468 514 0
30 -468 469 0
-469 515 0
31 -469 470 0
-470 516 0
32 -470 471 0
-471 517 0
33 -471 472 0
-472 518 0
34 -472 473 0
-473 519 0
35 -473 474 0
-474 520 0
36 -474 475 0
-475 521 0
37 -475 476 0
-476 522 0
38 -476 477 0
-477 523 0
39 -477 478 0
-478 524 0
40 -478 479 0
-479 525 0
41 -479 480 0
-480 526 0
42 -480 481 0
-481 527 0
43 -481 482 0
-482 528 0
44 -482 483 0
-483 529 0
45 -483 484 0
-484 530 0
46 -484 485 0
-485 531 0
47 -485 486 0
-486 532 0
48 -486 487 0
-487 533 0
49 -487 488 0
-488 534 0
50 -488 489 0
-489 535 0
51 -489 490 0
-490 536 0
52 -490 491 0
-491 537 0
53 -491 492 0
-492 538 0
54 -492 0
9 493 0
-493 539 0
10 -493 494 0
-494 540 0
11 -494 495 0
-495 541 0
12 -495 496 0
-496 542 0
13 -496 497 0
-497 543 0
14 -497 498 0
-498 544 0
15 -498 499 0
-499 545 0
16 -499 500 0
-500 546 0
17 -500 501 0
-501 547 0
18 -501 502 0
-502 548 0
19 -502 503 0
-503 549 0
20 -503 504 0
-504 550 0
21 -504 505 0
-505 551 0
22 -505 506 0
-506 552 0
23 -506 507 0
-507 553 0
24 -507 508 0
-508 554 0
25 -508 509 0
-509 555 0
26 -509 510 0
-510 556 0
27 -510 511 0
-511 557 0
28 -511 512 0
-512 558 0
29 -512 513 0
-513 559 0
30 -513 514 0
-514 560 0
31 -514 515 0
-515 561 0
32 -515 516 0
-516 562 0
33 -516 517 0
-517 563 0
34 -517 518 0
-518 564 0
35 -518 519 0
-519 565 0
36 -519 520 0
-520 566 0
37 -520 521 0
-521 567 0
38 -521 522 0
-522 568 0
39 -522 523 0
-523 569 0
40 -523 524 0
-524 570 0
41 -524 525 0
-525 571 0
42 -525 526 0
-526 572 0
43 -526 527 0
-527 573 0
44 -527 528 0
-528 574 0
45 -528 529 0
-529 575 0
46 -529 530 0
-530 576 0
47 -530 531 0
-531 577 0
48 -531 532 0
-532 578 0
49 -532 533 0
-533 579 0
50 -533 534 0
-534 580 0
51 -534 535 0
-535 581 0
52 -535 536 0
-536 582 0
53 -536 537 0
-537 583 0
54 -537 538 0
-538 584 0
55 -538 0
10 539 0
-539 585 0
11 -539 540 0
-540 586 0
12 -540 541 0
-541 587 0
13 -541 542 0
-542 588 0
14 -542 543 0
-543 589 0
15 -543 544 0
-544 590 0
16 -544 545 0
-545 591 0
17 -545 546 0
-546 592 0
18 -546 547 0
-547 593 0
19 -547 548 0
-548 594 0
20 -548 549 0
-549 595 0
21 -549 550 0
-550 596 0
22 -550 551 0
-551 597 0
23 -551 552 0
-552 598 0
24 -552 553 0
-553 599 0
25 -553 554 0
-554 600 0
26 -554 555 0
-555 601 0
27 -555 556 0
-556 602 0
28 -556 557 0
-557 603 0
29 -557 558 0
-558 604 0
30 -558 559 0
-559 605 0
31 -559 560 0
-560 606 0
32 -560 561 0
-561 607 0
33 -561 562 0
-562 608 0
34 -562 563 0
-563 609 0
35 -563 564 0
-564 610 0
36 -564 565 0
-565 611 0
37 -565 566 0
-566 612 0
38 -566 567 0
-567 613 0
39 -567 568 0
-568 614 0
40 -568 569 0
-569 615 0
41 -569 570 0
-570 616 0
42 -570 571 0
-571 617 0
43 -571 572 0
-572 618 0
44 -572 573 0
-573 619 0
45 -573 574 0
-574 620 0
46 -574 575 0
-575 621 0
47 -575 576 0
-576 622 0
48 -576 577 0
-577 623 0
49 -577 578 0
-578 624 0
50 -578 579 0
-579 625 0
51 -579 580 0
-580 626 0
52 -580 581 0
-581 627 0
53 -581 582 0
-582 628 0
54 -582 583 0
-583 629 0
55 -583 584 0
-584 630 0
56 -584 0
11 585 0
-585 631 0
12 -585 586 0
-586 632 0
13 -586 587 0
-587 633 0
14 -587 588 0
-588 634 0
15 -588 589 0
-589 635 0
16 -589 590 0
-590 636 0
17 -590 591 0
-591 637 0
18 -591 592 0
-592 638 0
19 -592 593 0
-593 639 0
20 -593 594 0
-594 640 0
21 -594 595 0
-595 641 0
22 -595 596 0
-596 642 0
23 -596 597 0
-597 643 0
24 -597 598 0
-598 644 0
25 -598 599 0
-599 645 0
26 -599 600 0
-600 646 0
27 -600 601 0
-601 647 0
28 -601 602 0
-602 648 0
29 -602 603 0
-603 649 0
30 -603 604 0
-604 650 0
31 -604 605 0
-605 651 0
32 -605 606 0
-606 652 0
33 -606 607 0
-607 653 0
34 -607 608 0
-608 654 0
35 -608 609 0
-609 655 0
36 -609 610 0
-610 656 0
37 -610 611 0
-611 657 0
38 -611 612 0
-612 658 0
39 -612 613 0
-613 659 0
40 -613 614 0
-614 660 0
41 -614 615 0
-615 661 0
42 -615 616 0
-616 662 0
43 -616 617 0
-617 663 0
44 -617 618 0
-618 664 0
45 -618 619 0
-619 665 0
46 -619 620 0
-620 666 0
47 -620 621 0
-621 667 0
48 -621 622 0
-622 668 0
49 -622 623 0
-623 669 0
50 -623 624 0
-624 670 0
51 -624 625 0
-625 671 0
52 -625 626 0
-626 672 0
53 -626 627 0
-627 673 0
54 -627 628 0
-628 674 0
55 -628 629 0
-629 675 0
56 -629 630 0
-630 676 0
57 -630 0
12 631 0
-631 677 0
13 -631 632 0
-632 678 0
14 -632 633 0
-633 679 0
15 -633 634 0
-634 680 0
16 -634 635 0
-635 681 0
17 -635 636 0
-636 682 0
18 -636 637 0
-637 683 0
19 -637 638 0
-638 684 0
20 -638 639 0
-639 685 0
21 -639 640 0
-640 686 0
22 -640 641 0
-641 687 0
23 -641 642 0
-642 688 0
24 -642 643 0
-643 689 0
25 -643 644 0
-644 690 0
26 -644 645 0
-645 691 0
27 -645 646 0
-646 692 0
28 -646 647 0
-647 693 0
29 -647 648 0
-648 694 0
30 -648 649 0
-649 695 0
31 -649 650 0
-650 696 0
32 -650 651 0
-651 697 0
33 -651 652 0
-652 698 0
34 -652 653 0
-653 699 0
35 -653 654 0
-654 700 0
36 -654 655 0
-655 701 0
37 -655 656 0
-656 702 0
38 -656 657 0
-657 703 0
39 -657 658 0
-658 704 0
40 -658 659 0
-659 705 0
41 -659 660 0
-660 706 0
42 -660 661 0
-661 707 0
43 -661 662 0
-662 708 0
44 -662 663 0
-663 709 0
45 -663 664 0
-664 710 0
46 -664 665 0
-665 711 0
47 -665 666 0
-666 712 0
48 -666 667 0
-667 713 0
49 -667 668 0
-668 714 0
50 -668 669 0
-669 715 0
51 -669 670 0
-670 716 0
52 -670 671 0
-671 717 0
53 -671 672 0
-672 718 0
54 -672 673 0
-673 719 0
55 -673 674 0
-674 720 0
56 -674 675 0
-675 721 0
57 -675 676 0
-676 722 0
58 -676 0
13 677 0
-677 723 0
14 -677 678 0
-678 724 0
15 -678 679 0
-679 725 0
16 -679 680 0
-680 726 0
17 -680 681 0
-681 727 0
18 -681 682 0
-682 728 0
19 -682 683 0
-683 729 0
20 -683 684 0
-684 730 0
21 -684 685 0
-685 731 0
22 -685 686 0
-686 732 0
23 -686 687 0
-687 733 0
24 -687 688 0
-688 734 0
25 -688 689 0
-689 735 0
26 -689 690 0
-690 736 0
27 -690 691 0
-691 737 0
28 -691 692 0
-692 738 0
29 -692 693 0
-693 739 0
30 -693 694 0
-694 740 0
31 -694 695 0
-695 741 0
32 -695 696 0
-696 742 0
33 -696 697 0
-697 743 0
34 -697 698 0
-698 744 0
35 -698 699 0
-699 745 0
36 -699 700 0
-700 746 0
37 -700 701 0
-701 747 0
38 -701 702 0
-702 748 0
39 -702 703 0
-703 749 0
40 -703 704 0
-704 750 0
41 -704 705 0
-705 751 0
42 -705 706 0
-706 752 0
43 -706 707 0
-707 753 0
44 -707 708 0
-708 754 0
45 -708 709 0
-709 755 0
46 -709 710 0
-710 756 0
47 -710 711 0
-711 757 0
48 -711 712 0
-712 758 0
49 -712 713 0
-713 759 0
50 -713 714 0
-714 760 0
51 -714 715 0
-715 761 0
52 -715 716 0
-716 762 0
53 -716 717 0
-717 763 0
54 -717 718 0
-718 764 0
55 -718 719 0
-719 765 0
56 -719 720 0
-720 766 0
57 -720 721 0
-721 767 0
58 -721 722 0
-722 768 0
59 -722 0
14 723 0
-723 769 0
15 -723 724 0
-724 770 0
16 -724 725 0
-725 771 0
17 -725 726 0
-726 772 0
18 -726 727 0
-727 773 0
19 -727 728 0
-728 774 0
20 -728 729 0
-729 775 0
21 -729 730 0
-730 776 0
22 -730 731 0
-731 777 0
23 -731 732 0
-732 778 0
24 -732 733 0
-733 779 0
25 -733 734 0
-734 780 0
26 -734 735 0
-735 781 0
27 -735 736 0
-736 782 0
28 -736 737 0
-737 783 0
29 -737 738 0
-738 784 0
30 -738 739 0
-739 785 0
31 -739 740 0
-740 786 0
32 -740 741 0
-741 787 0
33 -741 742 0
-742 788 0
34 -742 743 0
-743 789 0
35 -743 744 0
-744 790 0
36 -744 745 0
-745 791 0
37 -745 746 0
-746 792 0
38 -746 747 0
-747 793 0
39 -747 748 0
-748 794 0
40 -748 749 0
-749 795 0
41 -749 750 0
-750 796 0
42 -750 751 0
-751 797 0
43 -751 752 0
-752 798 0
44 -752 753 0
-753 799 0
45 -753 754 0
-754 800 0
46 -754 755 0
-755 801 0
47 -755 756 0
-756 802 0
48 -756 757 0
-757 803 0
49 -757 758 0
-758 804 0
50 -758 759 0
-759 805 0
51 -759 760 0
-760 806 0
52 -760 761 0
-761 807 0
53 -761 762 0
-762 808 0
54 -762 763 0
-763 809 0
55 -763 764 0
-764 810 0
56 -764 765 0
-765 811 0
57 -765 766 0
-766 812 0
58 -766 767 0
-767 813 0
59 -767 768 0
-768 814 0
60 -768 0
15 769 0
-769 815 0
16 -769 770 0
-770 816 0
17 -770 771 0
-771 817 0
18 -771 772 0
-772 818 0
19 -772 773 0
-773 819 0
20 -773 774 0
-774 820 0
21 -774 775 0
-775 821 0
22 -775 776 0
-776 822 0
23 -776 777 0
-777 823 0
24 -777 778 0
-778 824 0
25 -778 779 0
-779 825 0
26 -779 780 0
-780 826 0
27 -780 781 0
-781 827 0
28 -781 782 0
-782 828 0
29 -782 783 0
-783 829 0
30 -783 784 0
-784 830 0
31 -784 785 0
-785 831 0
32 -785 786 0
-786 832 0
33 -786 787 0
-787 833 0
34 -787 788 0
-788 834 0
35 -788 789 0
-789 835 0
36 -789 790 0
-790 836 0
37 -790 791 0
-791 837 0
38 -791 792 0
-792 838 0
39 -792 793 0
-793 839 0
40 -793 794 0
-794 840 0
41 -794 795 0
-795 841 0
42 -795 796 0
-796 842 0
43 -796 797 0
-797 843 0
44 -797 798 0
-798 844 0
45 -798 799 0
-799 845 0
46 -799 800 0
-800 846 0
47 -800 801 0
-801 847 0
48 -801 802 0
-802 848 0
49 -802 803 0
-803 849 0
50 -803 804 0
-804 850 0
51 -804 805 0
-805 851 0
52 -805 806 0
-806 852 0
53 -806 807 0
-807 853 0
54 -807 808 0
-808 854 0
55 -808 809 0
-809 855 0
56 -809 810 0
-810 856 0
57 -810 811 0
-811 857 0
58 -811 812 0
-812 858 0
59 -812 813 0
-813 859 0
60 -813 814 0
-814 860 0
61 -814 0
16 815 0
17 -815 816 0
18 -816 817 0
19 -817 818 0
20 -818 819 0
21 -819 820 0
22 -820 821 0
23 -821 822 0
24 -822 823 0
25 -823 824 0
26 -824 825 0
27 -825 826 0
28 -826 827 0
29 -827 828 0
30 -828 829 0
31 -829 830 0
32 -830 831 0
33 -831 832 0
34 -832 833 0
35 -833 834 0
36 -834 835 0
37 -835 836 0
38 -836 837 0
39 -837 838 0
40 -838 839 0
41 -839 840 0
42 -840 841 0
43 -841 842 0
44 -842 843 0
45 -843 844 0
46 -844 845 0
47 -845 846 0
48 -846 847 0
49 -847 848 0
50 -848 849 0
51 -849 850 0
52 -850 851 0
53 -851 852 0
54 -852 853 0
55 -853 854 0
56 -854 855 0
57 -855 856 0
58 -856 857 0
59 -857 858 0
60 -858 859 0
61 -859 860 0
62 -860 0
-1 861 0
-861 862 0
-2 -861 863 0
-863 864 0
-3 -863 865 0
-865 866 0
-4 -865 867 0
-867 868 0
-5 -867 869 0
-869 870 0
-6 -869 871 0
-871 872 0
-7 -871 873 0
-873 874 0
-8 -873 875 0
-875 876 0
-9 -875 877 0
-877 878 0
-10 -877 879 0
-879 880 0
-11 -879 881 0
-881 882 0
-12 -881 883 0
-883 884 0
-13 -883 885 0
-885 886 0
-14 -885 887 0
-887 888 0
-15 -887 889 0
-889 890 0
-16 -889 891 0
-891 892 0
-17 -891 0
-2 862 0
-862 893 0
-3 -862 864 0
-864 894 0
-4 -864 866 0
-866 895 0
-5 -866 868 0
-868 896 0
-6 -868 870 0
-870 897 0
-7 -870 872 0
-872 898 0
-8 -872 874 0
-874 899 0
-9 -874 876 0
-876 900 0
-10 -876 878 0
-878 901 0
-11 -878 880 0
-880 902 0
-12 -880 882 0
-882 903 0
-13 -882 884 0
-884 904 0
-14 -884 886 0
-886 905 0
-15 -886 888 0
-888 906 0
-16 -888 890 0
-890 907 0
-17 -890 892 0
-892 908 0
-18 -892 0
-3 893 0
-893 909 0
-4 -893 894 0
-894 910 0
-5 -894 895 0
-895 911 0
-6 -895 896 0
-896 912 0
-7 -896 897 0
-897 913 0
-8 -897 898 0
-898 914 0
-9 -898 899 0
-899 915 0
-10 -899 900 0
-900 916 0
-11 -900 901 0
-901 917 0
-12 -901 902 0
-902 918 0
-13 -902 903 0
-903 919 0
-14 -903 904 0
-904 920 0
-15 -904 905 0
-905 921 0
-16 -905 906 0
-906 922 0
-17 -906 907 0
-907 923 0
-18 -907 908 0
-908 924 0
-19 -908 0
-4 909 0
-909 925 0
-5 -909 910 0
-910 926 0
-6 -910 911 0
-911 927 0
-7 -911 912 0
-912 928 0
-8 -912 913 0
-913 929 0
-9 -913 914 0
-914 930 0
-10 -914 915 0
-915 931 0
-11 -915 916 0
-916 932 0
-12 -916 917 0
-917 933 0
-13 -917 918 0
-918 934 0
-14 -918 919 0
-919 935 0
-15 -919 920 0
-920 936 0
-16 -920 921 0
-921 937 0
-17 -921 922 0
-922 938 0
-18 -922 923 0
-923 939 0
-19 -923 924 0
-924 940 0
-20 -924 0
-5 925 0
-925 941 0
-6 -925 926 0
-926 942 0
-7 -926 927 0
-927 943 0
-8 -927 928 0
-928 944 0
-9 -928 929 0
-929 945 0
-10 -929 930 0
-930 946 0
-11 -930 931 0
-931 947 0
-12 -931 932 0
-932 948 0
-13 -932 933 0
-933 949 0
-14 -933 934 0
-934 950 0
-15 -934 935 0
-935 951 0
-16 -935 936 0
-936 952 0
-17 -936 937 0
-937 953 0
-18 -937 938 0
-938 954 0
-19 -938 939 0
-939 955 0
-20 -939 940 0
-940 956 0
-21 -940 0
-6 941 0
-941 957 0
-7 -941 942 0
-942 958 0
-8 -942 943 0
-943 959 0
-9 -943 944 0
-944 960 0
-10 -944 945 0
-945 961 0
-11 -945 946 0
-946 962 0
-12 -946 947 0
-947 963 0
-13 -947 948 0
-948 964 0
-14 -948 949 0
-949 965 0
-15 -949 950 0
-950 966 0
-16 -950 951 0
-951 967 0
-17 -951 952 0
-952 968 0
-18 -952 953 0
-953 969 0
-19 -953 954 0
-954 970 0
-20 -954 955 0
-955 971 0
-21 -955 956 0
-956 972 0
-22 -956 0
-7 957 0
-957 973 0
-8 -957 958 0
-958 974 0
-9 -958 959 0
-959 975 0
-10 -959 960 0
-960 976 0
-11 -960 961 0
-961 977 0
-12 -961 962 0
-962 978 0
-13 -962 963 0
-963 979 0
-14 -963 964 0
-964 980 0
-15 -964 965 0
-965 981 0
-16 -965 966 0
-966 982 0
-17 -966 967 0
-967 983 0
-18 -967 968 0
-968 984 0
-19 -968 969 0
-969 985 0
-20 -969 970 0
-970 986 0
-21 -970 971 0
-971 987 0
-22 -971 972 0
-972 988 0
-23 -972 0
-8 973 0
-973 989 0
-9 -973 974 0
-974 990 0
-10 -974 975 0
-975 991 0
-11 -975 976 0
-976 992 0
-12 -976 977 0
-977 993 0
-13 -977 978 0
-978 994 0
-14 -978 979 0
-979 995 0
-15 -979 980 0
-980 996 0
-16 -980 981 0
-981 997 0
-17 -981 982 0
-982 998 0
-18 -982 983 0
-983 999 0
-19 -983 984 0
-984 1000 0
-20 -984 985 0
-985 1001 0
-21 -985 986 0
-986 1002 0
-22 -986 987 0
-987 1003 0
-23 -987 988 0
-988 1004 0
-24 -988 0
-9 989 0
-989 1005 0
-10 -989 990 0
-990 1006 0
-11 -990 991 0
-991 1007 0
-12 -991 992 0
-992 1008 0
-13 -992 993 0
-993 1009 0
-14 -993 994 0
-994 1010 0
-15 -994 995 0
-995 1011 0
-16 -995 996 0
-996 1012 0
-17 -996 997 0
-997 1013 0
-18 -997 998 0
-998 1014 0
-19 -998 999 0
-999 1015 0
-20 -999 1000 0
-1000 1016 0
-21 -1000 1001 0
-1001 1017 0
-22 -1001 1002 0
-1002 1018 0
-23 -1002 1003 0
-1003 1019 0
-24 -1003 1004 0
-1004 1020 0
-25 -1004 0
-10 1005 0
-1005 1021 0
-11 -1005 1006 0
-1006 1022 0
-12 -1006 1007 0
-1007 1023 0
-13 -1007 1008 0
-1008 1024 0
-14 -1008 1009 0
-1009 1025 0
-15 -1009 1010 0
-1010 1026 0
-16 -1010 1011 0
-1011 1027 0
-17 -1011 1012 0
-1012 1028 0
-18 -1012 1013 0
-1013 1029 0
-19 -1013 1014 0
-1014 1030 0
-20 -1014 1015 0
-1015 1031 0
-21 -1015 1016 0
-1016 1032 0
-22 -1016 1017 0
-1017 1033 0
-23 -1017 1018 0
-1018 1034 0
-24 -1018 1019 0
-1019 1035 0
-25 -1019 1020 0
-1020 1036 0
-26 -1020 0
-11 1021 0
-1021 1037 0
-12 -1021 1022 0
-1022 1038 0
-13 -1022 1023 0
-1023 1039 0
-14 -1023 1024 0
-1024 1040 0
-15 -1024 1025 0
-1025 1041 0
-16 -1025 1026 0
-1026 1042 0
-17 -1026 1027 0
-1027 1043 0
-18 -1027 1028 0
-1028 1044 0
-19 -1028 1029 0
-1029 1045 0
-20 -1029 1030 0
-1030 1046 0
-21 -1030 1031 0
-1031 1047 0
-22 -1031 1032 0
-1032 1048 0
-23 -1032 1033 0
-1033 1049 0
-24 -1033 1034 0
-1034 1050 0
-25 -1034 1035 0
-1035 1051 0
-26 -1035 1036 0
-1036 1052 0
-27 -1036 0
-12 1037 0
-1037 1053 0
-13 -1037 1038 0
-1038 1054 0
-14 -1038 1039 0
-1039 1055 0
-15 -1039 1040 0
-1040 1056 0
-16 -1040 1041 0
-1041 1057 0
-17 -1041 1042 0
-1042 1058 0
-18 -1042 1043 0
-1043 1059 0
-19 -1043 1044 0
-1044 1060 0
-20 -1044 1045 0
-1045 1061 0
-21 -1045 1046 0
-1046 1062 0
-22 -1046 1047 0
-1047 1063 0
-23 -1047 1048 0
-1048 1064 0
-24 -1048 1049 0
-1049 1065 0
-25 -1049 1050 0
-1050 1066 0
-26 -1050 1051 0
-1051 1067 0
-27 -1051 1052 0
-1052 1068 0
-28 -1052 0
-13 1053 0
-1053 1069 0
-14 -1053 1054 0
-1054 1070 0
-15 -1054 1055 0
-1055 1071 0
-16 -1055 1056 0
-1056 1072 0
-17 -1056 1057 0
-1057 1073 0
-18 -1057 1058 0
-1058 1074 0
-19 -1058 1059 0
-1059 1075 0
-20 -1059 1060 0
-1060 1076 0
-21 -1060 1061 0
-1061 1077 0
-22 -1061 1062 0
-1062 1078 0
-23 -1062 1063 0
-1063 1079 0
-24 -1063 1064 0
-1064 1080 0
-25 -1064 1065 0
-1065 1081 0
-26 -1065 1066 0
-1066 1082 0
-27 -1066 1067 0
-1067 1083 0
-28 -1067 1068 0
-1068 1084 0
-29 -1068 0
-14 1069 0
-1069 1085 0
-15 -1069 1070 0
-1070 1086 0
-16 -1070 1071 0
-1071 1087 0
-17 -1071 1072 0
-1072 1088 0
-18 -1072 1073 0
-1073 1089 0
-19 -1073 1074 0
-1074 1090 0
-20 -1074 1075 0
-1075 1091 0
-21 -1075 1076 0
-1076 1092 0
-22 -1076 1077 0
-1077 1093 0
-23 -1077 1078 0
-1078 1094 0
-24 -1078 1079 0
-1079 1095 0
-25 -1079 1080 0
-1080 1096 0
-26 -1080 1081 0
-1081 1097 0
-27 -1081 1082 0
-1082 1098 0
-28 -1082 1083 0
-1083 1099 0
-29 -1083 1084 0
-1084 1100 0
-30 -1084 0
-15 1085 0
-1085 1101 0
-16 -1085 1086 0
-1086 1102 0
-17 -1086 1087 0
-1087 1103 0
-18 -1087 1088 0
-1088 1104 0
-19 -1088 1089 0
-1089 1105 0
-20 -1089 1090 0
-1090 1106 0
-21 -1090 1091 0
-1091 1107 0
-22 -1091 1092 0
-1092 1108 0
-23 -1092 1093 0
-1093 1109 0
-24 -1093 1094 0
-1094 1110 0
-25 -1094 1095 0
-1095 1111 0
-26 -1095 1096 0
-1096 1112 0
-27 -1096 1097 0
-1097 1113 0
-28 -1097 1098 0
-1098 1114 0
-29 -1098 1099 0
-1099 1115 0
-30 -1099 1100 0
-1100 1116 0
-31 -1100 0
-16 1101 0
-1101 1117 0
-17 -1101 1102 0
-1102 1118 0
-18 -1102 1103 0
-1103 1119 0
-19 -1103 1104 0
-1104 1120 0
-20 -1104 1105 0
-1105 1121 0
-21 -1105 1106 0
-1106 1122 0
-22 -1106 1107 0
-1107 1123 0
-23 -1107 1108 0
-1108 1124 0
-24 -1108 1109 0
-1109 1125 0
-25 -1109 1110 0
-1110 1126 0
-26 -1110 1111 0
-1111 1127 0
-27 -1111 1112 0
-1112 1128 0
-28 -1112 1113 0
-1113 1129 0
-29 -1113 1114 0
-1114 1130 0
-30 -1114 1115 0
-1115 1131 0
-31 -1115 1116 0
-1116 1132 0
-32 -1116 0
-17 1117 0
-1117 1133 0
-18 -1117 1118 0
-1118 1134 0
-19 -1118 1119 0
-1119 1135 0
-20 -1119 1120 0
-1120 1136 0
-21 -1120 1121 0
-1121 1137 0
-22 -1121 1122 0
-1122 1138 0
-23 -1122 1123 0
-1123 1139 0
-24 -1123 1124 0
-1124 1140 0
-25 -1124 1125 0
-1125 1141 0
-26 -1125 1126 0
-1126 1142 0
-27 -1126 1127 0
-1127 1143 0
-28 -1127 1128 0
-1128 1144 0
-29 -1128 1129 0
-1129 1145 0
-30 -1129 1130 0
-1130 1146 0
-31 -1130 1131 0
-1131 1147 0
-32 -1131 1132 0
-1132 1148 0
-33 -1132 0
-18 1133 0
-1133 1149 0
-19 -1133 1134 0
-1134 1150 0
-20 -1134 1135 0
-1135 1151 0
-21 -1135 1136 0
-1136 1152 0
-22 -1136 1137 0
-1137 1153 0
-23 -1137 1138 0
-1138 1154 0
-24 -1138 1139 0
-1139 1155 0
-25 -1139 1140 0
-1140 1156 0
-26 -1140 1141 0
-1141 1157 0
-27 -1141 1142 0
-1142 1158 0
-28 -1142 1143 0
-1143 1159 0
-29 -1143 1144 0
-1144 1160 0
-30 -1144 1145 0
-1145 1161 0
-31 -1145 1146 0
-1146 1162 0
-32 -1146 1147 0
-1147 1163 0
-33 -1147 1148 0
-1148 1164 0
-34 -1148 0
-19 1149 0
-1149 1165 0
-20 -1149 1150 0
-1150 1166 0
-21 -1150 1151 0
-1151 1167 0
-22 -1151 1152 0
-1152 1168 0
-23 -1152 1153 0
-1153 1169 0
-24 -1153 1154 0
-1154 1170 0
-25 -1154 1155 0
-1155 1171 0
-26 -1155 1156 0
-1156 1172 0
-27 -1156 1157 0
-1157 1173 0
-28 -1157 1158 0
-1158 1174 0
-29 -1158 1159 0
-1159 1175 0
-30 -1159 1160 0
-1160 1176 0
-31 -1160 1161 0
-1161 1177 0
-32 -1161 1162 0
-1162 1178 0
-33 -1162 1163 0
-1163 1179 0
-34 -1163 1164 0
-1164 1180 0
-35 -1164 0
-20 1165 0
-1165 1181 0
-21 -1165 1166 0
-1166 1182 0
-22 -1166 1167 0
-1167 1183 0
-23 -1167 1168 0
-1168 1184 0
-24 -1168 1169 0
-1169 1185 0
-25 -1169 1170 0
-1170 1186 0
-26 -1170 1171 0
-1171 1187 0
-27 -1171 1172 0
-1172 1188 0
-28 -1172 1173 0
-1173 1189 0
-29 -1173 1174 0
-1174 1190 0
-30 -1174 1175 0
-1175 1191 0
-31 -1175 1176 0
-1176 1192 0
-32 -1176 1177 0
-1177 1193 0
-33 -1177 1178 0
-1178 1194 0
-34 -1178 1179 0
-1179 1195 0
-35 -1179 1180 0
-1180 1196 0
-36 -1180 0
-21 1181 0
-1181 1197 0
-22 -1181 1182 0
-1182 1198 0
-23 -1182 1183 0
-1183 1199 0
-24 -1183 1184 0
-1184 1200 0
-25 -1184 1185 0
-1185 1201 0
-26 -1185 1186 0
-1186 1202 0
-27 -1186 1187 0
-1187 1203 0
-28 -1187 1188 0
-1188 1204 0
-29 -1188 1189 0
-1189 1205 0
-30 -1189 1190 0
-1190 1206 0
-31 -1190 1191 0
-1191 1207 0
-32 -1191 1192 0
-1192 1208 0
-33 -1192 1193 0
-1193 1209 0
-34 -1193 1194 0
-1194 1210 0
-35 -1194 1195 0
-1195 1211 0
-36 -1195 1196 0
-1196 1212 0
-37 -1196 0
-22 1197 0
-1197 1213 0
-23 -1197 1198 0
-1198 1214 0
-24 -1198 1199 0
-1199 1215 0
-25 -1199 1200 0
-1200 1216 0
-26 -1200 1201 0
-1201 1217 0
-27 -1201 1202 0
-1202 1218 0
-28 -1202 1203 0
-1203 1219 0
-29 -1203 1204 0
-1204 1220 0
-30 -1204 1205 0
-1205 1221 0
-31 -1205 1206 0
-1206 1222 0
-32 -1206 1207 0
-1207 1223 0
-33 -1207 1208 0
-1208 1224 0
-34 -1208 1209 0
-1209 1225 0
-35 -1209 1210 0
-1210 1226 0
-36 -1210 1211 0
-1211 1227 0
-37 -1211 1212 0
-1212 1228 0
-38 -1212 0
-23 1213 0
-1213 1229 0
-24 -1213 1214 0
-1214 1230 0
-25 -1214 1215 0
-1215 1231 0
-26 -1215 1216 0
-1216 1232 0
-27 -1216 1217 0
-1217 1233 0
-28 -1217 1218 0
-1218 1234 0
-29 -1218 1219 0
-1219 1235 0
-30 -1219 1220 0
-1220 1236 0
-31 -1220 1221 0
-1221 1237 0
-32 -1221 1222 0
-1222 1238 0
-33 -1222 1223 0
-1223 1239 0
-34 -1223 1224 0
-1224 1240 0
-35 -1224 1225 0
-1225 1241 0
-36 -1225 1226 0
-1226 1242 0
-37 -1226 1227 0
-1227 1243 0
-38 -1227 1228 0
-1228 1244 0
-39 -1228 0
-24 1229 0
-1229 1245 0
-25 -1229 1230 0
-1230 1246 0
-26 -1230 1231 0
-1231 1247 0
-27 -1231 1232 0
-1232 1248 0
-28 -1232 1233 0
-1233 1249 0
-29 -1233 1234 0
-1234 1250 0
-30 -1234 1235 0
-1235 1251 0
-31 -1235 1236 0
-1236 1252 0
-32 -1236 1237 0
-1237 1253 0
-33 -1237 1238 0
-1238 1254 0
-34 -1238 1239 0
-1239 1255 0
-35 -1239 1240 0
-1240 1256 0
-36 -1240 1241 0
-1241 1257 0
-37 -1241 1242 0
-1242 1258 0
-38 -1242 1243 0
-1243 1259 0
-39 -1243 1244 0
-1244 1260 0
-40 -1244 0
-25 1245 0
-1245 1261 0
-26 -1245 1246 0
-1246 1262 0
-27 -1246 1247 0
-1247 1263 0
-28 -1247 1248 0
-1248 1264 0
-29 -1248 1249 0
-1249 1265 0
-30 -1249 1250 0
-1250 1266 0
-31 -1250 1251 0
-1251 1267 0
-32 -1251 1252 0
-1252 1268 0
-33 -1252 1253 0
-1253 1269 0
-34 -1253 1254 0
-1254 1270 0
-35 -1254 1255 0
-1255 1271 0
-36 -1255 1256 0
-1256 1272 0
-37 -1256 1257 0
-1257 1273 0
-38 -1257 1258 0
-1258 1274 0
-39 -1258 1259 0
-1259 1275 0
-40 -1259 1260 0
-1260 1276 0
-41 -1260 0
-26 1261 0
-1261 1277 0
-27 -1261 1262 0
-1262 1278 0
-28 -1262 1263 0
-1263 1279 0
-29 -1263 1264 0
-1264 1280 0
-30 -1264 1265 0
-1265 1281 0
-31 -1265 1266 0
-1266 1282 0
-32 -1266 1267 0
-1267 1283 0
-33 -1267 1268 0
-1268 1284 0
-34 -1268 1269 0
-1269 1285 0
-35 -1269 1270 0
-1270 1286 0
-36 -1270 1271 0
-1271 1287 0
-37 -1271 1272 0
-1272 1288 0
-38 -1272 1273 0
-1273 1289 0
-39 -1273 1274 0
-1274 1290 0
-40 -1274 1275 0
-1275 1291 0
-41 -1275 1276 0
-1276 1292 0
-42 -1276 0
-27 1277 0
-1277 1293 0
-28 -1277 1278 0
-1278 1294 0
-29 -1278 1279 0
-1279 1295 0
-30 -1279 1280 0
-1280 1296 0
-31 -1280 1281 0
-1281 1297 0
-32 -1281 1282 0
-1282 1298 0
-33 -1282 1283 0
-1283 1299 0
-34 -1283 1284 0
-1284 1300 0
-35 -1284 1285 0
-1285 1301 0
-36 -1285 1286 0
-1286 1302 0
-37 -1286 1287 0
-1287 1303 0
-38 -1287 1288 0
-1288 1304 0
-39 -1288 1289 0
-1289 1305 0
-40 -1289 1290 0
-1290 1306 0
-41 -1290 1291 0
-1291 1307 0
-42 -1291 1292 0
-1292 1308 0
-43 -1292 0
-28 1293 0
-1293 1309 0
-29 -1293 1294 0
-1294 1310 0
-30 -1294 1295 0
-1295 1311 0
-31 -1295 1296 0
-1296 1312 0
-32 -1296 1297 0
-1297 1313 0
-33 -1297 1298 0
-1298 1314 0
-34 -1298 1299 0
-1299 1315 0
-35 -1299 1300 0
-1300 1316 0
-36 -1300 1301 0
-1301 1317 0
-37 -1301 1302 0
-1302 1318 0
-38 -1302 1303 0
-1303 1319 0
-39 -1303 1304 0
-1304 1320 0
-40 -1304 1305 0
-1305 1321 0
-41 -1305 1306 0
-1306 1322 0
-42 -1306 1307 0
-1307 1323 0
-43 -1307 1308 0
-1308 1324 0
-44 -1308 0
-29 1309 0
-1309 1325 0
-30 -1309 1310 0
-1310 1326 0
-31 -1310 1311 0
-1311 1327 0
-32 -1311 1312 0
-1312 1328 0
-33 -1312 1313 0
-1313 1329 0
-34 -1313 1314 0
-1314 1330 0
-35 -1314 1315 0
-1315 1331 0
-36 -1315 1316 0
-1316 1332 0
-37 -1316 1317 0
-1317 1333 0
-38 -1317 1318 0
-1318 1334 0
-39 -1318 1319 0
-1319 1335 0
-40 -1319 1320 0
-1320 1336 0
-41 -1320 1321 0
-1321 1337 0
-42 -1321 1322 0
-1322 1338 0
-43 -1322 1323 0
-1323 1339 0
-44 -1323 1324 0
-1324 1340 0
-45 -1324 0
-30 1325 0
-1325 1341 0
-31 -1325 1326 0
-1326 1342 0
-32 -1326 1327 0
-1327 1343 0
-33 -1327 1328 0
-1328 1344 0
-34 -1328 1329 0
-1329 1345 0
-35 -1329 1330 0
-1330 1346 0
-36 -1330 1331 0
-1331 1347 0
-37 -1331 1332 0
-1332 1348 0
-38 -1332 1333 0
-1333 1349 0
-39 -1333 1334 0
-1334 1350 0
-40 -1334 1335 0
-1335 1351 0
-41 -1335 1336 0
-1336 1352 0
-42 -1336 1337 0
-1337 1353 0
-43 -1337 1338 0
-1338 1354 0
-44 -1338 1339 0
-1339 1355 0
-45 -1339 1340 0
-1340 1356 0
-46 -1340 0
-31 1341 0
-1341 1357 0
-32 -1341 1342 0
-1342 1358 0
-33 -1342 1343 0
-1343 1359 0
-34 -1343 1344 0
-1344 1360 0
-35 -1344 1345 0
-1345 1361 0
-36 -1345 1346 0
-1346 1362 0
-37 -1346 1347 0
-1347 1363 0
-38 -1347 1348 0
-1348 1364 0
-39 -1348 1349 0
-1349 1365 0
-40 -1349 1350 0
-1350 1366 0
-41 -1350 1351 0
-1351 1367 0
-42 -1351 1352 0
-1352 1368 0
-43 -1352 1353 0
-1353 1369 0
-44 -1353 1354 0
-1354 1370 0
-45 -1354 1355 0
-1355 1371 0
-46 -1355 1356 0
-1356 1372 0
-47 -1356 0
-32 1357 0
-1357 1373 0
-33 -1357 1358 0
-1358 1374 0
-34 -1358 1359 0
-1359 1375 0
-35 -1359 1360 0
-1360 1376 0
-36 -1360 1361 0
-1361 1377 0
-37 -1361 1362 0
-1362 1378 0
-38 -1362 1363 0
-1363 1379 0
-39 -1363 1364 0
-1364 1380 0
-40 -1364 1365 0
-1365 1381 0
-41 -1365 1366 0
-1366 1382 0
-42 -1366 1367 0
-1367 1383 0
-43 -1367 1368 0
-1368 1384 0
-44 -1368 1369 0
-1369 1385 0
-45 -1369 1370 0
-1370 1386 0
-46 -1370 1371 0
-1371 1387 0
-47 -1371 1372 0
-1372 1388 0
-48 -1372 0
-33 1373 0
-1373 1389 0
-34 -1373 1374 0
-1374 1390 0
-35 -1374 1375 0
-1375 1391 0
-36 -1375 1376 0
-1376 1392 0
-37 -1376 1377 0
-1377 1393 0
-38 -1377 1378 0
-1378 1394 0
-39 -1378 1379 0
-1379 1395 0
-40 -1379 1380 0
-1380 1396 0
-41 -1380 1381 0
-1381 1397 0
-42 -1381 1382 0
-1382 1398 0
-43 -1382 1383 0
-1383 1399 0
-44 -1383 1384 0
-1384 1400 0
-45 -1384 1385 0
-1385 1401 0
-46 -1385 1386 0
-1386 1402 0
-47 -1386 1387 0
-1387 1403 0
-48 -1387 1388 0
-1388 1404 0
-49 -1388 0
-34 1389 0
-1389 1405 0
-35 -1389 1390 0
-1390 1406 0
-36 -1390 1391 0
-1391 1407 0
-37 -1391 1392 0
-1392 1408 0
-38 -1392 1393 0
-1393 1409 0
-39 -1393 1394 0
-1394 1410 0
-40 -1394 1395 0
-1395 1411 0
-41 -1395 1396 0
-1396 1412 0
-42 -1396 1397 0
-1397 1413 0
-43 -1397 1398 0
-1398 1414 0
-44 -1398 1399 0
-1399 1415 0
-45 -1399 1400 0
-1400 1416 0
-46 -1400 1401 0
-1401 1417 0
-47 -1401 1402 0
-1402 1418 0
-48 -1402 1403 0
-1403 1419 0
-49 -1403 1404 0
-1404 1420 0
-50 -1404 0
-35 1405 0
-1405 1421 0
-36 -1405 1406 0
-1406 1422 0
-37 -1406 1407 0
-1407 1423 0
-38 -1407 1408 0
-1408 1424 0
-39 -1408 1409 0
-1409 1425 0
-40 -1409 1410 0
-1410 1426 0
-41 -1410 1411 0
-1411 1427 0
-42 -1411 1412 0
-1412 1428 0
-43 -1412 1413 0
-1413 1429 0
-44 -1413 1414 0
-1414 1430 0
-45 -1414 1415 0
-1415 1431 0
-46 -1415 1416 0
-1416 1432 0
-47 -1416 1417 0
-1417 1433 0
-48 -1417 1418 0
-1418 1434 0
-49 -1418 1419 0
-1419 1435 0
-50 -1419 1420 0
-1420 1436 0
-51 -1420 0
-36 1421 0
-1421 1437 0
-37 -1421 1422 0
-1422 1438 0
-38 -1422 1423 0
-1423 1439 0
-39 -1423 1424 0
-1424 1440 0
-40 -1424 1425 0
-1425 1441 0
-41 -1425 1426 0
-1426 1442 0
-42 -1426 1427 0
-1427 1443 0
-43 -1427 1428 0
-1428 1444 0
-44 -1428 1429 0
-1429 1445 0
-45 -1429 1430 0
-1430 1446 0
-46 -1430 1431 0
-1431 1447 0
-47 -1431 1432 0
-1432 1448 0
-48 -1432 1433 0
-1433 1449 0
-49 -1433 1434 0
-1434 1450 0
-50 -1434 1435 0
-1435 1451 0
-51 -1435 1436 0
-1436 1452 0
-52 -1436 0
-37 1437 0
-1437 1453 0
-38 -1437 1438 0
-1438 1454 0
-39 -1438 1439 0
-1439 1455 0
-40 -1439 1440 0
-1440 1456 0
-41 -1440 1441 0
-1441 1457 0
-42 -1441 1442 0
-1442 1458 0
-43 -1442 1443 0
-1443 1459 0
-44 -1443 1444 0
-1444 1460 0
-45 -1444 1445 0
-1445 1461 0
-46 -1445 1446 0
-1446 1462 0
-47 -1446 1447 0
-1447 1463 0
-48 -1447 1448 0
-1448 1464 0
-49 -1448 1449 0
-1449 1465 0
-50 -1449 1450 0
-1450 1466 0
-51 -1450 1451 0
-1451 1467 0
-52 -1451 1452 0
-1452 1468 0
-53 -1452 0
-38 1453 0
-1453 1469 0
-39 -1453 1454 0
-1454 1470 0
-40 -1454 1455 0
-1455 1471 0
-41 -1455 1456 0
-1456 1472 0
-42 -1456 1457 0
-1457 1473 0
-43 -1457 1458 0
-1458 1474 0
-44 -1458 1459 0
-1459 1475 0
-45 -1459 1460 0
-1460 1476 0
-46 -1460 1461 0
-1461 1477 0
-47 -1461 1462 0
-1462 1478 0
-48 -1462 1463 0
-1463 1479 0
-49 -1463 1464 0
-1464 1480 0
-50 -1464 1465 0
-1465 1481 0
-51 -1465 1466 0
-1466 1482 0
-52 -1466 1467 0
-1467 1483 0
-53 -1467 1468 0
-1468 1484 0
-54 -1468 0
-39 1469 0
-1469 1485 0
-40 -1469 1470 0
-1470 1486 0
-41 -1470 1471 0
-1471 1487 0
-42 -1471 1472 0
-1472 1488 0
-43 -1472 1473 0
-1473 1489 0
-44 -1473 1474 0
-1474 1490 0
-45 -1474 1475 0
-1475 1491 0
-46 -1475 1476 0
-1476 1492 0
-47 -1476 1477 0
-1477 1493 0
-48 -1477 1478 0
-1478 1494 0
-49 -1478 1479 0
-1479 1495 0
-50 -1479 1480 0
-1480 1496 0
-51 -1480 1481 0
-1481 1497 0
-52 -1481 1482 0
-1482 1498 0
-53 -1482 1483 0
-1483 1499 0
-54 -1483 1484 0
-1484 1500 0
-55 -1484 0
-40 1485 0
-1485 1501 0
-41 -1485 1486 0
-1486 1502 0
-42 -1486 1487 0
-1487 1503 0
-43 -1487 1488 0
-1488 1504 0
-44 -1488 1489 0
-1489 1505 0
-45 -1489 1490 0
-1490 1506 0
-46 -1490 1491 0
-1491 1507 0
-47 -1491 1492 0
-1492 1508 0
-48 -1492 1493 0
-1493 1509 0
-49 -1493 1494 0
-1494 1510 0
-50 -1494 1495 0
-1495 1511 0
-51 -1495 1496 0
-1496 1512 0
-52 -1496 1497 0
-1497 1513 0
-53 -1497 1498 0
-1498 1514 0
-54 -1498 1499 0
-1499 1515 0
-55 -1499 1500 0
-1500 1516 0
-56 -1500 0
-41 1501 0
-1501 1517 0
-42 -1501 1502 0
-1502 1518 0
-43 -1502 1503 0
-1503 1519 0
-44 -1503 1504 0
-1504 1520 0
-45 -1504 1505 0
-1505 1521 0
-46 -1505 1506 0
-1506 1522 0
-47 -1506 1507 0
-1507 1523 0
-48 -1507 1508 0
-1508 1524 0
-49 -1508 1509 0
-1509 1525 0
-50 -1509 1510 0
-1510 1526 0
-51 -1510 1511 0
-1511 1527 0
-52 -1511 1512 0
-1512 1528 0
-53 -1512 1513 0
-1513 1529 0
-54 -1513 1514 0
-1514 1530 0
-55 -1514 1515 0
-1515 1531 0
-56 -1515 1516 0
-1516 1532 0
-57 -1516 0
-42 1517 0
-1517 1533 0
-43 -1517 1518 0
-1518 1534 0
-44 -1518 1519 0
-1519 1535 0
-45 -1519 1520 0
-1520 1536 0
-46 -1520 1521 0
-1521 1537 0
-47 -1521 1522 0
-1522 1538 0
-48 -1522 1523 0
-1523 1539 0
-49 -1523 1524 0
-1524 1540 0
-50 -1524 1525 0
-1525 1541 0
-51 -1525 1526 0
-1526 1542 0
-52 -1526 1527 0
-1527 1543 0
-53 -1527 1528 0
-1528 1544 0
-54 -1528 1529 0
-1529 1545 0
-55 -1529 1530 0
-1530 1546 0
-56 -1530 1531 0
-1531 1547 0
-57 -1531 1532 0
-1532 1548 0
-58 -1532 0
-43 1533 0
-1533 1549 0
-44 -1533 1534 0
-1534 1550 0
-45 -1534 1535 0
-1535 1551 0
-46 -1535 1536 0
-1536 1552 0
-47 -1536 1537 0
-1537 1553 0
-48 -1537 1538 0
-1538 1554 0
-49 -1538 1539 0
-1539 1555 0
-50 -1539 1540 0
-1540 1556 0
-51 -1540 1541 0
-1541 1557 0
-52 -1541 1542 0
-1542 1558 0
-53 -1542 1543 0
-1543 1559 0
-54 -1543 1544 0
-1544 1560 0
-55 -1544 1545 0
-1545 1561 0
-56 -1545 1546 0
-1546 1562 0
-57 -1546 1547 0
-1547 1563 0
-58 -1547 1548 0
-1548 1564 0
-59 -1548 0
-44 1549 0
-1549 1565 0
-45 -1549 1550 0
-1550 1566 0
-46 -1550 1551 0
-1551 1567 0
-47 -1551 1552 0
-1552 1568 0
-48 -1552 1553 0
-1553 1569 0
-49 -1553 1554 0
-1554 1570 0
-50 -1554 1555 0
-1555 1571 0
-51 -1555 1556 0
-1556 1572 0
-52 -1556 1557 0
-1557 1573 0
-53 -1557 1558 0
-1558 1574 0
-54 -1558 1559 0
-1559 1575 0
-55 -1559 1560 0
-1560 1576 0
-56 -1560 1561 0
-1561 1577 0
-57 -1561 1562 0
-1562 1578 0
-58 -1562 1563 0
-1563 1579 0
-59 -1563 1564 0
-1564 1580 0
-60 -1564 0
-45 1565 0
-1565 1581 0
-46 -1565 1566 0
-1566 1582 0
-47 -1566 1567 0
-1567 1583 0
-48 -1567 1568 0
-1568 1584 0
-49 -1568 1569 0
-1569 1585 0
-50 -1569 1570 0
-1570 1586 0
-51 -1570 1571 0
-1571 1587 0
-52 -1571 1572 0
-1572 1588 0
-53 -1572 1573 0
-1573 1589 0
-54 -1573 1574 0
-1574 1590 0
-55 -1574 1575 0
-1575 1591 0
-56 -1575 1576 0
-1576 1592 0
-57 -1576 1577 0
-1577 1593 0
-58 -1577 1578 0
-1578 1594 0
-59 -1578 1579 0
-1579 1595 0
-60 -1579 1580 0
-1580 1596 0
-61 -1580 0
-46 1581 0
-47 -1581 1582 0
-48 -1582 1583 0
-49 -1583 1584 0
-50 -1584 1585 0
-51 -1585 1586 0
-52 -1586 1587 0
-53 -1587 1588 0
-54 -1588 1589 0
-55 -1589 1590 0
-56 -1590 1591 0
-57 -1591 1592 0
-58 -1592 1593 0
-59 -1593 1594 0
-60 -1594 1595 0
-61 -1595 1596 0
-62 -1596 0
-63 1597 0
-1597 1598 0
-64 -1597 1599 0
-1599 1600 0
-65 -1599 1601 0
-1601 1602 0
-66 -1601 1603 0
-1603 1604 0
-67 -1603 1605 0
-1605 1606 0
-68 -1605 1607 0
-1607 1608 0
-69 -1607 1609 0
-1609 1610 0
-70 -1609 1611 0
-1611 1612 0
-71 -1611 1613 0
-1613 1614 0
-72 -1613 1615 0
-1615 1616 0
-73 -1615 1617 0
-1617 1618 0
-74 -1617 1619 0
-1619 1620 0
-75 -1619 1621 0
-1621 1622 0
-76 -1621 1623 0
-1623 1624 0
-77 -1623 1625 0
-1625 1626 0
-78 -1625 1627 0
-1627 1628 0
-79 -1627 1629 0
-1629 1630 0
-80 -1629 1631 0
-1631 1632 0
-81 -1631 1633 0
-1633 1634 0
-82 -1633 1635 0
-1635 1636 0
-83 -1635 1637 0
-1637 1638 0
-84 -1637 1639 0
-1639 1640 0
-85 -1639 1641 0
-1641 1642 0
-86 -1641 1643 0
-1643 1644 0
-87 -1643 1645 0
-1645 1646 0
-88 -1645 0
-64 1598 0
-1598 1647 0
-65 -1598 1600 0
-1600 1648 0
-66 -1600 1602 0
-1602 1649 0
-67 -1602 1604 0
-1604 1650 0
-68 -1604 1606 0
-1606 1651 0
-69 -1606 1608 0
-1608 1652 0
-70 -1608 1610 0
-1610 1653 0
-71 -1610 1612 0
-1612 1654 0
-72 -1612 1614 0
-1614 1655 0
-73 -1614 1616 0
-1616 1656 0
-74 -1616 1618 0
-1618 1657 0
-75 -1618 1620 0
-1620 1658 0
-76 -1620 1622 0
-1622 1659 0
-77 -1622 1624 0
-1624 1660 0
-78 -1624 1626 0
-1626 1661 0
-79 -1626 1628 0
-1628 1662 0
-80 -1628 1630 0
-1630 1663 0
-81 -1630 1632 0
-1632 1664 0
-82 -1632 1634 0
-1634 1665 0
-83 -1634 1636 0
-1636 1666 0
-84 -1636 1638 0
-1638 1667 0
-85 -1638 1640 0
-1640 1668 0
-86 -1640 1642 0
-1642 1669 0
-87 -1642 1644 0
-1644 1670 0
-88 -1644 1646 0
-1646 1671 0
-89 -1646 0
-65 1647 0
-1647 1672 0
-66 -1647 1648 0
-1648 1673 0
-67 -1648 1649 0
-1649 1674 0
-68 -1649 1650 0
-1650 1675 0
-69 -1650 1651 0
-1651 1676 0
-70 -1651 1652 0
-1652 1677 0
-71 -1652 1653 0
-1653 1678 0
-72 -1653 1654 0
-1654 1679 0
-73 -1654 1655 0
-1655 1680 0
-74 -1655 1656 0
-1656 1681 0
-75 -1656 1657 0
-1657 1682 0
-76 -1657 1658 0
-1658 1683 0
-77 -1658 1659 0
-1659 1684 0
-78 -1659 1660 0
-1660 1685 0
-79 -1660 1661 0
-1661 1686 0
-80 -1661 1662 0
-1662 1687 0
-81 -1662 1663 0
-1663 1688 0
-82 -1663 1664 0
-1664 1689 0
-83 -1664 1665 0
-1665 1690 0
-84 -1665 1666 0
-1666 1691 0
-85 -1666 1667 0
-1667 1692 0
-86 -1667 1668 0
-1668 1693 0
-87 -1668 1669 0
-1669 1694 0
-88 -1669 1670 0
-1670 1695 0
-89 -1670 1671 0
-1671 1696 0
-90 -1671 0
-66 1672 0
-1672 1697 0
-67 -1672 1673 0
-1673 1698 0
-68 -1673 1674 0
-1674 1699 0
-69 -1674 1675 0
-1675 1700 0
-70 -1675 1676 0
-1676 1701 0
-71 -1676 1677 0
-1677 1702 0
-72 -1677 1678 0
-1678 1703 0
-73 -1678 1679 0
-1679 1704 0
-74 -1679 1680 0
-1680 1705 0
-75 -1680 1681 0
-1681 1706 0
-76 -1681 1682 0
-1682 1707 0
-77 -1682 1683 0
-1683 1708 0
-78 -1683 1684 0
-1684 1709 0
-79 -1684 1685 0
-1685 1710 0
-80 -1685 1686 0
-1686 1711 0
-81 -1686 1687 0
-1687 1712 0
-82 -1687 1688 0
-1688 1713 0
-83 -1688 1689 0
-1689 1714 0
-84 -1689 1690 0
-1690 1715 0
-85 -1690 1691 0
-1691 1716 0
-86 -1691 1692 0
-1692 1717 0
-87 -1692 1693 0
-1693 1718 0
-88 -1693 1694 0
-1694 1719 0
-89 -1694 1695 0
-1695 1720 0
-90 -1695 1696 0
-1696 1721 0
-91 -1696 0
-67 1697 0
-1697 1722 0
-68 -1697 1698 0
-1698 1723 0
-69 -1698 1699 0
-1699 1724 0
-70 -1699 1700 0
-1700 1725 0
-71 -1700 1701 0
-1701 1726 0
-72 -1701 1702 0
-1702 1727 0
-73 -1702 1703 0
-1703 1728 0
-74 -1703 1704 0
-1704 1729 0
-75 -1704 1705 0
-1705 1730 0
-76 -1705 1706 0
-1706 1731 0
-77 -1706 1707 0
-1707 1732 0
-78 -1707 1708 0
-1708 1733 0
-79 -1708 1709 0
-1709 1734 0
-80 -1709 1710 0
-1710 1735 0
-81 -1710 1711 0
-1711 1736 0
-82 -1711 1712 0
-1712 1737 0
-83 -1712 1713 0
-1713 1738 0
-84 -1713 1714 0
-1714 1739 0
-85 -1714 1715 0
-1715 1740 0
-86 -1715 1716 0
-1716 1741 0
-87 -1716 1717 0
-1717 1742 0
-88 -1717 1718 0
-1718 1743 0
-89 -1718 1719 0
-1719 1744 0
-90 -1719 1720 0
-1720 1745 0
-91 -1720 1721 0
-1721 1746 0
-92 -1721 0
-68 1722 0
-1722 1747 0
-69 -1722 1723 0
-1723 1748 0
-70 -1723 1724 0
-1724 1749 0
-71 -1724 1725 0
-1725 1750 0
-72 -1725 1726 0
-1726 1751 0
-73 -1726 1727 0
-1727 1752 0
-74 -1727 1728 0
-1728 1753 0
-75 -1728 1729 0
-1729 1754 0
-76 -1729 1730 0
-1730 1755 0
-77 -1730 1731 0
-1731 1756 0
-78 -1731 1732 0
-1732 1757 0
-79 -1732 1733 0
-1733 1758 0
-80 -1733 1734 0
-1734 1759 0
-81 -1734 1735 0
-1735 1760 0
-82 -1735 1736 0
-1736 1761 0
-83 -1736 1737 0
-1737 1762 0
-84 -1737 1738 0
-1738 1763 0
-85 -1738 1739 0
-1739 1764 0
-86 -1739 1740 0
-1740 1765 0
-87 -1740 1741 0
-1741 1766 0
-88 -1741 1742 0
-1742 1767 0
-89 -1742 1743 0
-1743 1768 0
-90 -1743 1744 0
-1744 1769 0
-91 -1744 1745 0
-1745 1770 0
-92 -1745 1746 0
-1746 1771 0
-93 -1746 0
-69 1747 0
-1747 1772 0
-70 -1747 1748 0
-1748 1773 0
-71 -1748 1749 0
-1749 1774 0
-72 -1749 1750 0
-1750 1775 0
-73 -1750 1751 0
-1751 1776 0
-74 -1751 1752 0
-1752 1777 0
-75 -1752 1753 0
-1753 1778 0
-76 -1753 1754 0
-1754 1779 0
-77 -1754 1755 0
-1755 1780 0
-78 -1755 1756 0
-1756 1781 0
-79 -1756 1757 0
-1757 1782 0
-80 -1757 1758 0
-1758 1783 0
-81 -1758 1759 0
-1759 1784 0
-82 -1759 1760 0
-1760 1785 0
-83 -1760 1761 0
-1761 1786 0
-84 -1761 1762 0
-1762 1787 0
-85 -1762 1763 0
-1763 1788 0
-86 -1763 1764 0
-1764 1789 0
-87 -1764 1765 0
-1765 1790 0
-88 -1765 1766 0
-1766 1791 0
-89 -1766 1767 0
-1767 1792 0
-90 -1767 1768 0
-1768 1793 0
-91 -1768 1769 0
-1769 1794 0
-92 -1769 1770 0
-1770 1795 0
-93 -1770 1771 0
-1771 1796 0
-94 -1771 0
-70 1772 0
-1772 1797 0
-71 -1772 1773 0
-1773 1798 0
-72 -1773 1774 0
-1774 1799 0
-73 -1774 1775 0
-1775 1800 0
-74 -1775 1776 0
-1776 1801 0
-75 -1776 1777 0
-1777 1802 0
-76 -1777 1778 0
-1778 1803 0
-77 -1778 1779 0
-1779 1804 0
-78 -1779 1780 0
-1780 1805 0
-79 -1780 1781 0
-1781 1806 0
-80 -1781 1782 0
-1782 1807 0
-81 -1782 1783 0
-1783 1808 0
-82 -1783 1784 0
-1784 1809 0
-83 -1784 1785 0
-1785 1810 0
-84 -1785 1786 0
-1786 1811 0
-85 -1786 1787 0
-1787 1812 0
-86 -1787 1788 0
-1788 1813 0
-87 -1788 1789 0
-1789 1814 0
-88 -1789 1790 0
-1790 1815 0
-89 -1790 1791 0
-1791 1816 0
-90 -1791 1792 0
-1792 1817 0
-91 -1792 1793 0
-1793 1818 0
-92 -1793 1794 0
-1794 1819 0
-93 -1794 1795 0
-1795 1820 0
-94 -1795 1796 0
-1796 1821 0
-95 -1796 0
-71 1797 0
-1797 1822 0
-72 -1797 1798 0
-1798 1823 0
-73 -1798 1799 0
-1799 1824 0
-74 -1799 1800 0
-1800 1825 0
-75 -1800 1801 0
-1801 1826 0
-76 -1801 1802 0
-1802 1827 0
-77 -1802 1803 0
-1803 1828 0
-78 -1803 1804 0
-1804 1829 0
-79 -1804 1805 0
-1805 1830 0
-80 -1805 1806 0
-1806 1831 0
-81 -1806 1807 0
-1807 1832 0
-82 -1807 1808 0
-1808 1833 0
-83 -1808 1809 0
-1809 1834 0
-84 -1809 1810 0
-1810 1835 0
-85 -1810 1811 0
-1811 1836 0
-86 -1811 1812 0
-1812 1837 0
-87 -1812 1813 0
-1813 1838 0
-88 -1813 1814 0
-1814 1839 0
-89 -1814 1815 0
-1815 1840 0
-90 -1815 1816 0
-1816 1841 0
-91 -1816 1817 0
-1817 1842 0
-92 -1817 1818 0
-1818 1843 0
-93 -1818 1819 0
-1819 1844 0
-94 -1819 1820 0
-1820 1845 0
-95 -1820 1821 0
-1821 1846 0
-96 -1821 0
-72 1822 0
-1822 1847 0
-73 -1822 1823 0
-1823 1848 0
-74 -1823 1824 0
-1824 1849 0
-75 -1824 1825 0
-1825 1850 0
-76 -1825 1826 0
-1826 1851 0
-77 -1826 1827 0
-1827 1852 0
-78 -1827 1828 0
-1828 1853 0
-79 -1828 1829 0
-1829 1854 0
-80 -1829 1830 0
-1830 1855 0
-81 -1830 1831 0
-1831 1856 0
-82 -1831 1832 0
-1832 1857 0
-83 -1832 1833 0
-1833 1858 0
-84 -1833 1834 0
-1834 1859 0
-85 -1834 1835 0
-1835 1860 0
-86 -1835 1836 0
-1836 1861 0
-87 -1836 1837 0
-1837 1862 0
-88 -1837 1838 0
-1838 1863 0
-89 -1838 1839 0
-1839 1864 0
-90 -1839 1840 0
-1840 1865 0
-91 -1840 1841 0
-1841 1866 0
-92 -1841 1842 0
-1842 1867 0
-93 -1842 1843 0
-1843 1868 0
-94 -1843 1844 0
-1844 1869 0
-95 -1844 1845 0
-1845 1870 0
-96 -1845 1846 0
-1846 1871 0
-97 -1846 0
-73 1847 0
-1847 1872 0
-74 -1847 1848 0
-1848 1873 0
-75 -1848 1849 0
-1849 1874 0
-76 -1849 1850 0
-1850 1875 0
-77 -1850 1851 0
-1851 1876 0
-78 -1851 1852 0
-1852 1877 0
-79 -1852 1853 0
-1853 1878 0
-80 -1853 1854 0
-1854 1879 0
-81 -1854 1855 0
-1855 1880 0
-82 -1855 1856 0
-1856 1881 0
-83 -1856 1857 0
-1857 1882 0
-84 -1857 1858 0
-1858 1883 0
-85 -1858 1859 0
-1859 1884 0
-86 -1859 1860 0
-1860 1885 0
-87 -1860 1861 0
-1861 1886 0
-88 -1861 1862 0
-1862 1887 0
-89 -1862 1863 0
-1863 1888 0
-90 -1863 1864 0
-1864 1889 0
-91 -1864 1865 0
-1865 1890 0
-92 -1865 1866 0
-1866 1891 0
-93 -1866 1867 0
-1867 1892 0
-94 -1867 1868 0
-1868 1893 0
-95 -1868 1869 0
-1869 1894 0
-96 -1869 1870 0
-1870 1895 0
-97 -1870 1871 0
-1871 1896 0
-98 -1871 0
-74 1872 0
-1872 1897 0
-75 -1872 1873 0
-1873 1898 0
-76 -1873 1874 0
-1874 1899 0
-77 -1874 1875 0
-1875 1900 0
-78 -1875 1876 0
-1876 1901 0
-79 -1876 1877 0
-1877 1902 0
-80 -1877 1878 0
-1878 1903 0
-81 -1878 1879 0
-1879 1904 0
-82 -1879 1880 0
-1880 1905 0
-83 -1880 1881 0
-1881 1906 0
-84 -1881 1882 0
-1882 1907 0
-85 -1882 1883 0
-1883 1908 0
-86 -1883 1884 0
-1884 1909 0
-87 -1884 1885 0
-1885 1910 0
-88 -1885 1886 0
-1886 1911 0
-89 -1886 1887 0
-1887 1912 0
-90 -1887 1888 0
-1888 1913 0
-91 -1888 1889 0
-1889 1914 0
-92 -1889 1890 0
-1890 1915 0
-93 -1890 1891 0
-1891 1916 0
-94 -1891 1892 0
-1892 1917 0
-95 -1892 1893 0
-1893 1918 0
-96 -1893 1894 0
-1894 1919 0
-97 -1894 1895 0
-1895 1920 0
-98 -1895 1896 0
-1896 1921 0
-99 -1896 0
-75 1897 0
-1897 1922 0
-76 -1897 1898 0
-1898 1923 0
-77 -1898 1899 0
-1899 1924 0
-78 -1899 1900 0
-1900 1925 0
-79 -1900 1901 0
-1901 1926 0
-80 -1901 1902 0
-1902 1927 0
-81 -1902 1903 0
-1903 1928 0
-82 -1903 1904 0
-1904 1929 0
-83 -1904 1905 0
-1905 1930 0
-84 -1905 1906 0
-1906 1931 0
-85 -1906 1907 0
-1907 1932 0
-86 -1907 1908 0
-1908 1933 0
-87 -1908 1909 0
-1909 1934 0
-88 -1909 1910 0
-1910 1935 0
-89 -1910 1911 0
-1911 1936 0
-90 -1911 1912 0
-1912 1937 0
-91 -1912 1913 0
-1913 1938 0
-92 -1913 1914 0
-1914 1939 0
-93 -1914 1915 0
-1915 1940 0
-94 -1915 1916 0
-1916 1941 0
-95 -1916 1917 0
-1917 1942 0
-96 -1917 1918 0
-1918 1943 0
-97 -1918 1919 0
-1919 1944 0
-98 -1919 1920 0
-1920 1945 0
-99 -1920 1921 0
-1921 1946 0
-100 -1921 0
-76 1922 0
-1922 1947 0
-77 -1922 1923 0
-1923 1948 0
-78 -1923 1924 0
-1924 1949 0
-79 -1924 1925 0
-1925 1950 0
-80 -1925 1926 0
-1926 1951 0
-81 -1926 1927 0
-1927 1952 0
-82 -1927 1928 0
-1928 1953 0
-83 -1928 1929 0
-1929 1954 0
-84 -1929 1930 0
-1930 1955 0
-85 -1930 1931 0
-1931 1956 0
-86 -1931 1932 0
-1932 1957 0
-87 -1932 1933 0
-1933 1958 0
-88 -1933 1934 0
-1934 1959 0
-89 -1934 1935 0
-1935 1960 0
-90 -1935 1936 0
-1936 1961 0
-91 -1936 1937 0
-1937 1962 0
-92 -1937 1938 0
-1938 1963 0
-93 -1938 1939 0
-1939 1964 0
-94 -1939 1940 0
-1940 1965 0
-95 -1940 1941 0
-1941 1966 0
-96 -1941 1942 0
-1942 1967 0
-97 -1942 1943 0
-1943 1968 0
-98 -1943 1944 0
-1944 1969 0
-99 -1944 1945 0
-1945 1970 0
-100 -1945 1946 0
-1946 1971 0
-101 -1946 0
-77 1947 0
-1947 1972 0
-78 -1947 1948 0
-1948 1973 0
-79 -1948 1949 0
-1949 1974 0
-80 -1949 1950 0
-1950 1975 0
-81 -1950 1951 0
-1951 1976 0
-82 -1951 1952 0
-1952 1977 0
-83 -1952 1953 0
-1953 1978 0
-84 -1953 1954 0
-1954 1979 0
-85 -1954 1955 0
-1955 1980 0
-86 -1955 1956 0
-1956 1981 0
-87 -1956 1957 0
-1957 1982 0
-88 -1957 1958 0
-1958 1983 0
-89 -1958 1959 0
-1959 1984 0
-90 -1959 1960 0
-1960 1985 0
-91 -1960 1961 0
-1961 1986 0
-92 -1961 1962 0
-1962 1987 0
-93 -1962 1963 0
-1963 1988 0
-94 -1963 1964 0
-1964 1989 0
-95 -1964 1965 0
-1965 1990 0
-96 -1965 1966 0
-1966 1991 0
-97 -1966 1967 0
-1967 1992 0
-98 -1967 1968 0
-1968 1993 0
-99 -1968 1969 0
-1969 1994 0
-100 -1969 1970 0
-1970 1995 0
-101 -1970 1971 0
-1971 1996 0
-102 -1971 0
-78 1972 0
-1972 1997 0
-79 -1972 1973 0
-1973 1998 0
-80 -1973 1974 0
-1974 1999 0
-81 -1974 1975 0
-1975 2000 0
-82 -1975 1976 0
-1976 2001 0
-83 -1976 1977 0
-1977 2002 0
-84 -1977 1978 0
-1978 2003 0
-85 -1978 1979 0
-1979 2004 0
-86 -1979 1980 0
-1980 2005 0
-87 -1980 1981 0
-1981 2006 0
-88 -1981 1982 0
-1982 2007 0
-89 -1982 1983 0
-1983 2008 0
-90 -1983 1984 0
-1984 2009 0
-91 -1984 1985 0
-1985 2010 0
-92 -1985 1986 0
-1986 2011 0
-93 -1986 1987 0
-1987 2012 0
-94 -1987 1988 0
-1988 2013 0
-95 -1988 1989 0
-1989 2014 0
-96 -1989 1990 0
-1990 2015 0
-97 -1990 1991 0
-1991 2016 0
-98 -1991 1992 0
-1992 2017 0
-99 -1992 1993 0
-1993 2018 0
-100 -1993 1994 0
-1994 2019 0
-101 -1994 1995 0
-1995 2020 0
-102 -1995 1996 0
-1996 2021 0
-103 -1996 0
-79 1997 0
-1997 2022 0
-80 -1997 1998 0
-1998 2023 0
-81 -1998 1999 0
-1999 2024 0
-82 -1999 2000 0
-2000 2025 0
-83 -2000 2001 0
-2001 2026 0
-84 -2001 2002 0
-2002 2027 0
-85 -2002 2003 0
-2003 2028 0
-86 -2003 2004 0
-2004 2029 0
-87 -2004 2005 0
-2005 2030 0
-88 -2005 2006 0
-2006 2031 0
-89 -2006 2007 0
-2007 2032 0
-90 -2007 2008 0
-2008 2033 0
-91 -2008 2009 0
-2009 2034 0
-92 -2009 2010 0
-2010 2035 0
-93 -2010 2011 0
-2011 2036 0
-94 -2011 2012 0
-2012 2037 0
-95 -2012 2013 0
-2013 2038 0
-96 -2013 2014 0
-2014 2039 0
-97 -2014 2015 0
-2015 2040 0
-98 -2015 2016 0
-2016 2041 0
-99 -2016 2017 0
-2017 2042 0
-100 -2017 2018 0
-2018 2043 0
-101 -2018 2019 0
-2019 2044 0
-102 -2019 2020 0
-2020 2045 0
-103 -2020 2021 0
-2021 2046 0
-104 -2021 0
-80 2022 0
-2022 2047 0
-81 -2022 2023 0
-2023 2048 0
-82 -2023 2024 0
-2024 2049 0
-83 -2024 2025 0
-2025 2050 0
-84 -2025 2026 0
-2026 2051 0
-85 -2026 2027 0
-2027 2052 0
-86 -2027 2028 0
-2028 2053 0
-87 -2028 2029 0
-2029 2054 0
-88 -2029 2030 0
-2030 2055 0
-89 -2030 2031 0
-2031 2056 0
-90 -2031 2032 0
-2032 2057 0
-91 -2032 2033 0
-2033 2058 0
-92 -2033 2034 0
-2034 2059 0
-93 -2034 2035 0
-2035 2060 0
-94 -2035 2036 0
-2036 2061 0
-95 -2036 2037 0
-2037 2062 0
-96 -2037 2038 0
-2038 2063 0
-97 -2038 2039 0
-2039 2064 0
-98 -2039 2040 0
-2040 2065 0
-99 -2040 2041 0
-2041 2066 0
-100 -2041 2042 0
-2042 2067 0
-101 -2042 2043 0
-2043 2068 0
-102 -2043 2044 0
-2044 2069 0
-103 -2044 2045 0
-2045 2070 0
-104 -2045 2046 0
-2046 2071 0
-105 -2046 0
-81 2047 0
-2047 2072 0
-82 -2047 2048 0
-2048 2073 0
-83 -2048 2049 0
-2049 2074 0
-84 -2049 2050 0
-2050 2075 0
-85 -2050 2051 0
-2051 2076 0
-86 -2051 2052 0
-2052 2077 0
-87 -2052 2053 0
-2053 2078 0
-88 -2053 2054 0
-2054 2079 0
-89 -2054 2055 0
-2055 2080 0
-90 -2055 2056 0
-2056 2081 0
-91 -2056 2057 0
-2057 2082 0
-92 -2057 2058 0
-2058 2083 0
-93 -2058 2059 0
-2059 2084 0
-94 -2059 2060 0
-2060 2085 0
-95 -2060 2061 0
-2061 2086 0
-96 -2061 2062 0
-2062 2087 0
-97 -2062 2063 0
-2063 2088 0
-98 -2063 2064 0
-2064 2089 0
-99 -2064 2065 0
-2065 2090 0
-100 -2065 2066 0
-2066 2091 0
-101 -2066 2067 0
-2067 2092 0
-102 -2067 2068 0
-2068 2093 0
-103 -2068 2069 0
-2069 2094 0
-104 -2069 2070 0
-2070 2095 0
-105 -2070 2071 0
-2071 2096 0
-106 -2071 0
-82 2072 0
-2072 2097 0
-83 -2072 2073 0
-2073 2098 0
-84 -2073 2074 0
-2074 2099 0
-85 -2074 2075 0
-2075 2100 0
-86 -2075 2076 0
-2076 2101 0
-87 -2076 2077 0
-2077 2102 0
-88 -2077 2078 0
-2078 2103 0
-89 -2078 2079 0
-2079 2104 0
-90 -2079 2080 0
-2080 2105 0
-91 -2080 2081 0
-2081 2106 0
-92 -2081 2082 0
-2082 2107 0
-93 -2082 2083 0
-2083 2108 0
-94 -2083 2084 0
-2084 2109 0
-95 -2084 2085 0
-2085 2110 0
-96 -2085 2086 0
-2086 2111 0
-97 -2086 2087 0
-2087 2112 0
-98 -2087 2088 0
-2088 2113 0
-99 -2088 2089 0
-2089 2114 0
-100 -2089 2090 0
-2090 2115 0
-101 -2090 2091 0
-2091 2116 0
-102 -2091 2092 0
-2092 2117 0
-103 -2092 2093 0
-2093 2118 0
-104 -2093 2094 0
-2094 2119 0
-105 -2094 2095 0
-2095 2120 0
-106 -2095 2096 0
-2096 2121 0
-107 -2096 0
-83 2097 0
-2097 2122 0
-84 -2097 2098 0
-2098 2123 0
-85 -2098 2099 0
-2099 2124 0
-86 -2099 2100 0
-2100 2125 0
-87 -2100 2101 0
-2101 2126 0
-88 -2101 2102 0
-2102 2127 0
-89 -2102 2103 0
-2103 2128 0
-90 -2103 2104 0
-2104 2129 0
-91 -2104 2105 0
-2105 2130 0
-92 -2105 2106 0
-2106 2131 0
-93 -2106 2107 0
-2107 2132 0
-94 -2107 2108 0
-2108 2133 0
-95 -2108 2109 0
-2109 2134 0
-96 -2109 2110 0
-2110 2135 0
-97 -2110 2111 0
-2111 2136 0
-98 -2111 2112 0
-2112 2137 0
-99 -2112 2113 0
-2113 2138 0
-100 -2113 2114 0
-2114 2139 0
-101 -2114 2115 0
-2115 2140 0
-102 -2115 2116 0
-2116 2141 0
-103 -2116 2117 0
-2117 2142 0
-104 -2117 2118 0
-2118 2143 0
-105 -2118 2119 0
-2119 2144 0
-106 -2119 2120 0
-2120 2145 0
-107 -2120 2121 0
-2121 2146 0
-108 -2121 0
-84 2122 0
-2122 2147 0
-85 -2122 2123 0
-2123 2148 0
-86 -2123 2124 0
-2124 2149 0
-87 -2124 2125 0
-2125 2150 0
-88 -2125 2126 0
-2126 2151 0
-89 -2126 2127 0
-2127 2152 0
-90 -2127 2128 0
-2128 2153 0
-91 -2128 2129 0
-2129 2154 0
-92 -2129 2130 0
-2130 2155 0
-93 -2130 2131 0
-2131 2156 0
-94 -2131 2132 0
-2132 2157 0
-95 -2132 2133 0
-2133 2158 0
-96 -2133 2134 0
-2134 2159 0
-97 -2134 2135 0
-2135 2160 0
-98 -2135 2136 0
-2136 2161 0
-99 -2136 2137 0
-2137 2162 0
-100 -2137 2138 0
-2138 2163 0
-101 -2138 2139 0
-2139 2164 0
-102 -2139 2140 0
-2140 2165 0
-103 -2140 2141 0
-2141 2166 0
-104 -2141 2142 0
-2142 2167 0
-105 -2142 2143 0
-2143 2168 0
-106 -2143 2144 0
-2144 2169 0
-107 -2144 2145 0
-2145 2170 0
-108 -2145 2146 0
-2146 2171 0
-109 -2146 0
-85 2147 0
-2147 2172 0
-86 -2147 2148 0
-2148 2173 0
-87 -2148 2149 0
-2149 2174 0
-88 -2149 2150 0
-2150 2175 0
-89 -2150 2151 0
-2151 2176 0
-90 -2151 2152 0
-2152 2177 0
-91 -2152 2153 0
-2153 2178 0
-92 -2153 2154 0
-2154 2179 0
-93 -2154 2155 0
-2155 2180 0
-94 -2155 2156 0
-2156 2181 0
-95 -2156 2157 0
-2157 2182 0
-96 -2157 2158 0
-2158 2183 0
-97 -2158 2159 0
-2159 2184 0
-98 -2159 2160 0
-2160 2185 0
-99 -2160 2161 0
-2161 2186 0
-100 -2161 2162 0
-2162 2187 0
-101 -2162 2163 0
-2163 2188 0
-102 -2163 2164 0
-2164 2189 0
-103 -2164 2165 0
-2165 2190 0
-104 -2165 2166 0
-2166 2191 0
-105 -2166 2167 0
-2167 2192 0
-106 -2167 2168 0
-2168 2193 0
-107 -2168 2169 0
-2169 2194 0
-108 -2169 2170 0
-2170 2195 0
-109 -2170 2171 0
-2171 2196 0
-110 -2171 0
-86 2172 0
-2172 2197 0
-87 -2172 2173 0
-2173 2198 0
-88 -2173 2174 0
-2174 2199 0
-89 -2174 2175 0
-2175 2200 0
-90 -2175 2176 0
-2176 2201 0
-91 -2176 2177 0
-2177 2202 0
-92 -2177 2178 0
-2178 2203 0
-93 -2178 2179 0
-2179 2204 0
-94 -2179 2180 0
-2180 2205 0
-95 -2180 2181 0
-2181 2206 0
-96 -2181 2182 0
-2182 2207 0
-97 -2182 2183 0
-2183 2208 0
-98 -2183 2184 0
-2184 2209 0
-99 -2184 2185 0
-2185 2210 0
-100 -2185 2186 0
-2186 2211 0
-101 -2186 2187 0
-2187 2212 0
-102 -2187 2188 0
-2188 2213 0
-103 -2188 2189 0
-2189 2214 0
-104 -2189 2190 0
-2190 2215 0
-105 -2190 2191 0
-2191 2216 0
-106 -2191 2192 0
-2192 2217 0
-107 -2192 2193 0
-2193 2218 0
-108 -2193 2194 0
-2194 2219 0
-109 -2194 2195 0
-2195 2220 0
-110 -2195 2196 0
-2196 2221 0
-111 -2196 0
-87 2197 0
-2197 2222 0
-88 -2197 2198 0
-2198 2223 0
-89 -2198 2199 0
-2199 2224 0
-90 -2199 2200 0
-2200 2225 0
-91 -2200 2201 0
-2201 2226 0
-92 -2201 2202 0
-2202 2227 0
-93 -2202 2203 0
-2203 2228 0
-94 -2203 2204 0
-2204 2229 0
-95 -2204 2205 0
-2205 2230 0
-96 -2205 2206 0
-2206 2231 0
-97 -2206 2207 0
-2207 2232 0
-98 -2207 2208 0
-2208 2233 0
-99 -2208 2209 0
-2209 2234 0
-100 -2209 2210 0
-2210 2235 0
-101 -2210 2211 0
-2211 2236 0
-102 -2211 2212 0
-2212 2237 0
-103 -2212 2213 0
-2213 2238 0
-104 -2213 2214 0
-2214 2239 0
-105 -2214 2215 0
-2215 2240 0
-106 -2215 2216 0
-2216 2241 0
-107 -2216 2217 0
-2217 2242 0
-108 -2217 2218 0
-2218 2243 0
-109 -2218 2219 0
-2219 2244 0
-110 -2219 2220 0
-2220 2245 0
-111 -2220 2221 0
-2221 2246 0
-112 -2221 0
-88 2222 0
-2222 2247 0
-89 -2222 2223 0
-2223 2248 0
-90 -2223 2224 0
-2224 2249 0
-91 -2224 2225 0
-2225 2250 0
-92 -2225 2226 0
-2226 2251 0
-93 -2226 2227 0
-2227 2252 0
-94 -2227 2228 0
-2228 2253 0
-95 -2228 2229 0
-2229 2254 0
-96 -2229 2230 0
-2230 2255 0
-97 -2230 2231 0
-2231 2256 0
-98 -2231 2232 0
-2232 2257 0
-99 -2232 2233 0
-2233 2258 0
-100 -2233 2234 0
-2234 2259 0
-101 -2234 2235 0
-2235 2260 0
-102 -2235 2236 0
-2236 2261 0
-103 -2236 2237 0
-2237 2262 0
-104 -2237 2238 0
-2238 2263 0
-105 -2238 2239 0
-2239 2264 0
-106 -2239 2240 0
-2240 2265 0
-107 -2240 2241 0
-2241 2266 0
-108 -2241 2242 0
-2242 2267 0
-109 -2242 2243 0
-2243 2268 0
-110 -2243 2244 0
-2244 2269 0
-111 -2244 2245 0
-2245 2270 0
-112 -2245 2246 0
-2246 2271 0
-113 -2246 0
-89 2247 0
-2247 2272 0
-90 -2247 2248 0
-2248 2273 0
-91 -2248 2249 0
-2249 2274 0
-92 -2249 2250 0
-2250 2275 0
-93 -2250 2251 0
-2251 2276 0
-94 -2251 2252 0
-2252 2277 0
-95 -2252 2253 0
-2253 2278 0
-96 -2253 2254 0
-2254 2279 0
-97 -2254 2255 0
-2255 2280 0
-98 -2255 2256 0
-2256 2281 0
-99 -2256 2257 0
-2257 2282 0
-100 -2257 2258 0
-2258 2283 0
-101 -2258 2259 0
-2259 2284 0
-102 -2259 2260 0
-2260 2285 0
-103 -2260 2261 0
-2261 2286 0
-104 -2261 2262 0
-2262 2287 0
-105 -2262 2263 0
-2263 2288 0
-106 -2263 2264 0
-2264 2289 0
-107 -2264 2265 0
-2265 2290 0
-108 -2265 2266 0
-2266 2291 0
-109 -2266 2267 0
-2267 2292 0
-110 -2267 2268 0
-2268 2293 0
-111 -2268 2269 0
-2269 2294 0
-112 -2269 2270 0
-2270 2295 0
-113 -2270 2271 0
-2271 2296 0
-114 -2271 0
-90 2272 0
-2272 2297 0
-91 -2272 2273 0
-2273 2298 0
-92 -2273 2274 0
-2274 2299 0
-93 -2274 2275 0
-2275 2300 0
-94 -2275 2276 0
-2276 2301 0
-95 -2276 2277 0
-2277 2302 0
-96 -2277 2278 0
-2278 2303 0
-97 -2278 2279 0
-2279 2304 0
-98 -2279 2280 0
-2280 2305 0
-99 -2280 2281 0
-2281 2306 0
-100 -2281 2282 0
-2282 2307 0
-101 -2282 2283 0
-2283 2308 0
-102 -2283 2284 0
-2284 2309 0
-103 -2284 2285 0
-2285 2310 0
-104 -2285 2286 0
-2286 2311 0
-105 -2286 2287 0
-2287 2312 0
-106 -2287 2288 0
-2288 2313 0
-107 -2288 2289 0
-2289 2314 0
-108 -2289 2290 0
-2290 2315 0
-109 -2290 2291 0
-2291 2316 0
-110 -2291 2292 0
-2292 2317 0
-111 -2292 2293 0
-2293 2318 0
-112 -2293 2294 0
-2294 2319 0
-113 -2294 2295 0
-2295 2320 0
-114 -2295 2296 0
-2296 2321 0
-115 -2296 0
-91 2297 0
-2297 2322 0
-92 -2297 2298 0
-2298 2323 0
-93 -2298 2299 0
-2299 2324 0
-94 -2299 2300 0
-2300 2325 0
-95 -2300 2301 0
-2301 2326 0
-96 -2301 2302 0
-2302 2327 0
-97 -2302 2303 0
-2303 2328 0
-98 -2303 2304 0
-2304 2329 0
-99 -2304 2305 0
-2305 2330 0
-100 -2305 2306 0
-2306 2331 0
-101 -2306 2307 0
-2307 2332 0
-102 -2307 2308 0
-2308 2333 0
-103 -2308 2309 0
-2309 2334 0
-104 -2309 2310 0
-2310 2335 0
-105 -2310 2311 0
-2311 2336 0
-106 -2311 2312 0
-2312 2337 0
-107 -2312 2313 0
-2313 2338 0
-108 -2313 2314 0
-2314 2339 0
-109 -2314 2315 0
-2315 2340 0
-110 -2315 2316 0
-2316 2341 0
-111 -2316 2317 0
-2317 2342 0
-112 -2317 2318 0
-2318 2343 0
-113 -2318 2319 0
-2319 2344 0
-114 -2319 2320 0
-2320 2345 0
-115 -2320 2321 0
-2321 2346 0
-116 -2321 0
-92 2322 0
-2322 2347 0
-93 -2322 2323 0
-2323 2348 0
-94 -2323 2324 0
-2324 2349 0
-95 -2324 2325 0
-2325 2350 0
-96 -2325 2326 0
-2326 2351 0
-97 -2326 2327 0
-2327 2352 0
-98 -2327 2328 0
-2328 2353 0
-99 -2328 2329 0
-2329 2354 0
-100 -2329 2330 0
-2330 2355 0
-101 -2330 2331 0
-2331 2356 0
-102 -2331 2332 0
-2332 2357 0
-103 -2332 2333 0
-2333 2358 0
-104 -2333 2334 0
-2334 2359 0
-105 -2334 2335 0
-2335 2360 0
-106 -2335 2336 0
-2336 2361 0
-107 -2336 2337 0
-2337 2362 0
-108 -2337 2338 0
-2338 2363 0
-109 -2338 2339 0
-2339 2364 0
-110 -2339 2340 0
-2340 2365 0
-111 -2340 2341 0
-2341 2366 0
-112 -2341 2342 0
-2342 2367 0
-113 -2342 2343 0
-2343 2368 0
-114 -2343 2344 0
-2344 2369 0
-115 -2344 2345 0
-2345 2370 0
-116 -2345 2346 0
-2346 2371 0
-117 -2346 0
-93 2347 0
-2347 2372 0
-94 -2347 2348 0
-2348 2373 0
-95 -2348 2349 0
-2349 2374 0
-96 -2349 2350 0
-2350 2375 0
-97 -2350 2351 0
-2351 2376 0
-98 -2351 2352 0
-2352 2377 0
-99 -2352 2353 0
-2353 2378 0
-100 -2353 2354 0
-2354 2379 0
-101 -2354 2355 0
-2355 2380 0
-102 -2355 2356 0
-2356 2381 0
-103 -2356 2357 0
-2357 2382 0
-104 -2357 2358 0
-2358 2383 0
-105 -2358 2359 0
-2359 2384 0
-106 -2359 2360 0
-2360 2385 0
-107 -2360 2361 0
-2361 2386 0
-108 -2361 2362 0
-2362 2387 0
-109 -2362 2363 0
-2363 2388 0
-110 -2363 2364 0
-2364 2389 0
-111 -2364 2365 0
-2365 2390 0
-112 -2365 2366 0
-2366 2391 0
-113 -2366 2367 0
-2367 2392 0
-114 -2367 2368 0
-2368 2393 0
-115 -2368 2369 0
-2369 2394 0
-116 -2369 2370 0
-2370 2395 0
-117 -2370 2371 0
-2371 2396 0
-118 -2371 0
-94 2372 0
-2372 2397 0
-95 -2372 2373 0
-2373 2398 0
-96 -2373 2374 0
-2374 2399 0
-97 -2374 2375 0
-2375 2400 0
-98 -2375 2376 0
-2376 2401 0
-99 -2376 2377 0
-2377 2402 0
-100 -2377 2378 0
-2378 2403 0
-101 -2378 2379 0
-2379 2404 0
-102 -2379 2380 0
-2380 2405 0
-103 -2380 2381 0
-2381 2406 0
-104 -2381 2382 0
-2382 2407 0
-105 -2382 2383 0
-2383 2408 0
-106 -2383 2384 0
-2384 2409 0
-107 -2384 2385 0
-2385 2410 0
-108 -2385 2386 0
-2386 2411 0
-109 -2386 2387 0
-2387 2412 0
-110 -2387 2388 0
-2388 2413 0
-111 -2388 2389 0
-2389 2414 0
-112 -2389 2390 0
-2390 2415 0
-113 -2390 2391 0
-2391 2416 0
-114 -2391 2392 0
-2392 2417 0
-115 -2392 2393 0
-2393 2418 0
-116 -2393 2394 0
-2394 2419 0
-117 -2394 2395 0
-2395 2420 0
-118 -2395 2396 0
-2396 2421 0
-119 -2396 0
-95 2397 0
-2397 2422 0
-96 -2397 2398 0
-2398 2423 0
-97 -2398 2399 0
-2399 2424 0
-98 -2399 2400 0
-2400 2425 0
-99 -2400 2401 0
-2401 2426 0
-100 -2401 2402 0
-2402 2427 0
-101 -2402 2403 0
-2403 2428 0
-102 -2403 2404 0
-2404 2429 0
-103 -2404 2405 0
-2405 2430 0
-104 -2405 2406 0
-2406 2431 0
-105 -2406 2407 0
-2407 2432 0
-106 -2407 2408 0
-2408 2433 0
-107 -2408 2409 0
-2409 2434 0
-108 -2409 2410 0
-2410 2435 0
-109 -2410 2411 0
-2411 2436 0
-110 -2411 2412 0
-2412 2437 0
-111 -2412 2413 0
-2413 2438 0
-112 -2413 2414 0
-2414 2439 0
-113 -2414 2415 0
-2415 2440 0
-114 -2415 2416 0
-2416 2441 0
-115 -2416 2417 0
-2417 2442 0
-116 -2417 2418 0
-2418 2443 0
-117 -2418 2419 0
-2419 2444 0
-118 -2419 2420 0
-2420 2445 0
-119 -2420 2421 0
-2421 2446 0
-120 -2421 0
-96 2422 0
-2422 2447 0
-97 -2422 2423 0
-2423 2448 0
-98 -2423 2424 0
-2424 2449 0
-99 -2424 2425 0
-2425 2450 0
-100 -2425 2426 0
-2426 2451 0
-101 -2426 2427 0
-2427 2452 0
-102 -2427 2428 0
-2428 2453 0
-103 -2428 2429 0
-2429 2454 0
-104 -2429 2430 0
-2430 2455 0
-105 -2430 2431 0
-2431 2456 0
-106 -2431 2432 0
-2432 2457 0
-107 -2432 2433 0
-2433 2458 0
-108 -2433 2434 0
-2434 2459 0
-109 -2434 2435 0
-2435 2460 0
-110 -2435 2436 0
-2436 2461 0
-111 -2436 2437 0
-2437 2462 0
-112 -2437 2438 0
-2438 2463 0
-113 -2438 2439 0
-2439 2464 0
-114 -2439 2440 0
-2440 2465 0
-115 -2440 2441 0
-2441 2466 0
-116 -2441 2442 0
-2442 2467 0
-117 -2442 2443 0
-2443 2468 0
-118 -2443 2444 0
-2444 2469 0
-119 -2444 2445 0
-2445 2470 0
-120 -2445 2446 0
-2446 2471 0
-121 -2446 0
-97 2447 0
-2447 2472 0
-98 -2447 2448 0
-2448 2473 0
-99 -2448 2449 0
-2449 2474 0
-100 -2449 2450 0
-2450 2475 0
-101 -2450 2451 0
-2451 2476 0
-102 -2451 2452 0
-2452 2477 0
-103 -2452 2453 0
-2453 2478 0
-104 -2453 2454 0
-2454 2479 0
-105 -2454 2455 0
-2455 2480 0
-106 -2455 2456 0
-2456 2481 0
-107 -2456 2457 0
-2457 2482 0
-108 -2457 2458 0
-2458 2483 0
-109 -2458 2459 0
-2459 2484 0
-110 -2459 2460 0
-2460 2485 0
-111 -2460 2461 0
-2461 2486 0
-112 -2461 2462 0
-2462 2487 0
-113 -2462 2463 0
-2463 2488 0
-114 -2463 2464 0
-2464 2489 0
-115 -2464 2465 0
-2465 2490 0
-116 -2465 2466 0
-2466 2491 0
-117 -2466 2467 0
-2467 2492 0
-118 -2467 2468 0
-2468 2493 0
-119 -2468 2469 0
-2469 2494 0
-120 -2469 2470 0
-2470 2495 0
-121 -2470 2471 0
-2471 2496 0
-122 -2471 0
-98 2472 0
-2472 2497 0
-99 -2472 2473 0
-2473 2498 0
-100 -2473 2474 0
-2474 2499 0
-101 -2474 2475 0
-2475 2500 0
-102 -2475 2476 0
-2476 2501 0
-103 -2476 2477 0
-2477 2502 0
-104 -2477 2478 0
-2478 2503 0
-105 -2478 2479 0
-2479 2504 0
-106 -2479 2480 0
-2480 2505 0
-107 -2480 2481 0
-2481 2506 0
-108 -2481 2482 0
-2482 2507 0
-109 -2482 2483 0
-2483 2508 0
-110 -2483 2484 0
-2484 2509 0
-111 -2484 2485 0
-2485 2510 0
-112 -2485 2486 0
-2486 2511 0
-113 -2486 2487 0
-2487 2512 0
-114 -2487 2488 0
-2488 2513 0
-115 -2488 2489 0
-2489 2514 0
-116 -2489 2490 0
-2490 2515 0
-117 -2490 2491 0
-2491 2516 0
-118 -2491 2492 0
-2492 2517 0
-119 -2492 2493 0
-2493 2518 0
-120 -2493 2494 0
-2494 2519 0
-121 -2494 2495 0
-2495 2520 0
-122 -2495 2496 0
-2496 2521 0
-123 -2496 0
-99 2497 0
-100 -2497 2498 0
-101 -2498 2499 0
-102 -2499 2500 0
-103 -2500 2501 0
-104 -2501 2502 0
-105 -2502 2503 0
-106 -2503 2504 0
-107 -2504 2505 0
-108 -2505 2506 0
-109 -2506 2507 0
-110 -2507 2508 0
-111 -2508 2509 0
-112 -2509 2510 0
-113 -2510 2511 0
-114 -2511 2512 0
-115 -2512 2513 0
-116 -2513 2514 0
-117 -2514 2515 0
-118 -2515 2516 0
-119 -2516 2517 0
-120 -2517 2518 0
-121 -2518 2519 0
-122 -2519 2520 0
-123 -2520 2521 0
-124 -2521 0
1 32 0
