p cnf 2761 5661
-79 -1 0
-79 2 39 40 0
-2 1 79 0
-39 1 79 0
-40 1 79 0
-80 -2 0
-80 1 3 41 0
-1 2 80 0
-3 2 80 0
-41 2 80 0
-81 -3 0
-81 2 4 42 0
-2 3 81 0
-4 3 81 0
-42 3 81 0
-82 -4 0
-82 3 5 43 0
-3 4 82 0
-5 4 82 0
-43 4 82 0
-83 -5 0
-83 4 6 44 0
-4 5 83 0
-6 5 83 0
-44 5 83 0
-84 -6 0
-84 5 7 45 0
-5 6 84 0
-7 6 84 0
-45 6 84 0
-85 -7 0
-85 6 8 46 0
-6 7 85 0
-8 7 85 0
-46 7 85 0
-86 -8 0
-86 7 9 47 0
-7 8 86 0
-9 8 86 0
-47 8 86 0
-87 -9 0
-87 8 10 48 0
-8 9 87 0
-10 9 87 0
-48 9 87 0
-88 -10 0
-88 9 11 49 0
-9 10 88 0
-11 10 88 0
-49 10 88 0
-89 -11 0
-89 10 12 50 0
-10 11 89 0
-12 11 89 0
-50 11 89 0
-90 -12 0
-90 11 13 51 0
-11 12 90 0
-13 12 90 0
-51 12 90 0
-91 -13 0
-91 12 14 52 0
-12 13 91 0
-14 13 91 0
-52 13 91 0
-92 -14 0
-92 13 15 53 0
-13 14 92 0
-15 14 92 0
-53 14 92 0
-93 -15 0
-93 14 16 54 0
-14 15 93 0
-16 15 93 0
-54 15 93 0
-94 -16 0
-94 15 17 55 0
-15 16 94 0
-17 16 94 0
-55 16 94 0
-95 -17 0
-95 16 18 56 0
-16 17 95 0
-18 17 95 0
-56 17 95 0
-96 -18 0
-96 17 19 57 0
-17 18 96 0
-19 18 96 0
-57 18 96 0
-97 -19 0
-97 18 20 58 0
-18 19 97 0
-20 19 97 0
-58 19 97 0
-98 -20 0
-98 19 21 59 0
-19 20 98 0
-21 20 98 0
-59 20 98 0
-99 -21 0
-99 20 22 60 0
-20 21 99 0
-22 21 99 0
-60 21 99 0
-100 -22 0
-100 21 23 61 0
-21 22 100 0
-23 22 100 0
-61 22 100 0
-101 -23 0
-101 22 24 62 0
-22 23 101 0
-24 23 101 0
-62 23 101 0
-102 -24 0
-102 23 25 63 0
-23 24 102 0
-25 24 102 0
-63 24 102 0
-103 -25 0
-103 24 26 64 0
-24 25 103 0
-26 25 103 0
-64 25 103 0
-104 -26 0
-104 25 27 65 0
-25 26 104 0
-27 26 104 0
-65 26 104 0
-105 -27 0
-105 26 28 66 0
-26 27 105 0
-28 27 105 0
-66 27 105 0
-106 -28 0
-106 27 29 67 0
-27 28 106 0
-29 28 106 0
-67 28 106 0
-107 -29 0
-107 28 30 68 0
-28 29 107 0
-30 29 107 0
-68 29 107 0
-108 -30 0
-108 29 31 69 0
-29 30 108 0
-31 30 108 0
-69 30 108 0
-109 -31 0
-109 30 32 70 0
-30 31 109 0
-32 31 109 0
-70 31 109 0
-110 -32 0
-110 31 33 71 0
-31 32 110 0
-33 32 110 0
-71 32 110 0
-111 -33 0
-111 32 34 72 0
-32 33 111 0
-34 33 111 0
-72 33 111 0
-112 -34 0
-112 33 35 73 0
-33 34 112 0
-35 34 112 0
-73 34 112 0
-113 -35 0
-113 34 36 74 0
-34 35 113 0
-36 35 113 0
-74 35 113 0
-114 -36 0
-114 35 37 75 0
-35 36 114 0
-37 36 114 0
-75 36 114 0
-115 -37 0
-115 36 38 76 0
-36 37 115 0
-38 37 115 0
-76 37 115 0
-116 -38 0
-116 37 39 77 0
-37 38 116 0
-39 38 116 0
-77 38 116 0
-117 -39 0
-117 1 38 78 0
-1 39 117 0
-38 39 117 0
-78 39 117 0
-118 -40 0
-118 1 44 75 0
-1 40 118 0
-44 40 118 0
-75 40 118 0
-119 -41 0
-119 2 45 76 0
-2 41 119 0
-45 41 119 0
-76 41 119 0
-120 -42 0
-120 3 46 77 0
-3 42 120 0
-46 42 120 0
-77 42 120 0
-121 -43 0
-121 4 47 78 0
-4 43 121 0
-47 43 121 0
-78 43 121 0
-122 -44 0
-122 5 40 48 0
-5 44 122 0
-40 44 122 0
-48 44 122 0
-123 -45 0
-123 6 41 49 0
-6 45 123 0
-41 45 123 0
-49 45 123 0
-124 -46 0
-124 7 42 50 0
-7 46 124 0
-42 46 124 0
-50 46 124 0
-125 -47 0
-125 8 43 51 0
-8 47 125 0
-43 47 125 0
-51 47 125 0
-126 -48 0
-126 9 44 52 0
-9 48 126 0
-44 48 126 0
-52 48 126 0
-127 -49 0
-127 10 45 53 0
-10 49 127 0
-45 49 127 0
-53 49 127 0
-128 -50 0
-128 11 46 54 0
-11 50 128 0
-46 50 128 0
-54 50 128 0
-129 -51 0
-129 12 47 55 0
-12 51 129 0
-47 51 129 0
-55 51 129 0
-130 -52 0
-130 13 48 56 0
-13 52 130 0
-48 52 130 0
-56 52 130 0
-131 -53 0
-131 14 49 57 0
-14 53 131 0
-49 53 131 0
-57 53 131 0
-132 -54 0
-132 15 50 58 0
-15 54 132 0
-50 54 132 0
-58 54 132 0
-133 -55 0
-133 16 51 59 0
-16 55 133 0
-51 55 133 0
-59 55 133 0
-134 -56 0
-134 17 52 60 0
-17 56 134 0
-52 56 134 0
-60 56 134 0
-135 -57 0
-135 18 53 61 0
-18 57 135 0
-53 57 135 0
-61 57 135 0
-136 -58 0
-136 19 54 62 0
-19 58 136 0
-54 58 136 0
-62 58 136 0
-137 -59 0
-137 20 55 63 0
-20 59 137 0
-55 59 137 0
-63 59 137 0
-138 -60 0
-138 21 56 64 0
-21 60 138 0
-56 60 138 0
-64 60 138 0
-139 -61 0
-139 22 57 65 0
-22 61 139 0
-57 61 139 0
-65 61 139 0
-140 -62 0
-140 23 58 66 0
-23 62 140 0
-58 62 140 0
-66 62 140 0
-141 -63 0
-141 24 59 67 0
-24 63 141 0
-59 63 141 0
-67 63 141 0
-142 -64 0
-142 25 60 68 0
-25 64 142 0
-60 64 142 0
-68 64 142 0
-143 -65 0
-143 26 61 69 0
-26 65 143 0
-61 65 143 0
-69 65 143 0
-144 -66 0
-144 27 62 70 0
-27 66 144 0
-62 66 144 0
-70 66 144 0
-145 -67 0
-145 28 63 71 0
-28 67 145 0
-63 67 145 0
-71 67 145 0
-146 -68 0
-146 29 64 72 0
-29 68 146 0
-64 68 146 0
-72 68 146 0
-147 -69 0
-147 30 65 73 0
-30 69 147 0
-65 69 147 0
-73 69 147 0
-148 -70 0
-148 31 66 74 0
-31 70 148 0
-66 70 148 0
-74 70 148 0
-149 -71 0
-149 32 67 75 0
-32 71 149 0
-67 71 149 0
-75 71 149 0
-150 -72 0
-150 33 68 76 0
-33 72 150 0
-68 72 150 0
-76 72 150 0
-151 -73 0
-151 34 69 77 0
-34 73 151 0
-69 73 151 0
-77 73 151 0
-152 -74 0
-152 35 70 78 0
-35 74 152 0
-70 74 152 0
-78 74 152 0
-153 -75 0
-153 36 40 71 0
-36 75 153 0
-40 75 153 0
-71 75 153 0
-154 -76 0
-154 37 41 72 0
-37 76 154 0
-41 76 154 0
-72 76 154 0
-155 -77 0
-155 38 42 73 0
-38 77 155 0
-42 77 155 0
-73 77 155 0
-156 -78 0
-156 39 43 74 0
-39 78 156 0
-43 78 156 0
-74 78 156 0
1 157 0
-157 158 0
2 -157 159 0
-159 160 0
3 -159 161 0
-161 162 0
4 -161 163 0
-163 164 0
5 -163 165 0
-165 166 0
6 -165 167 0
-167 168 0
7 -167 169 0
-169 170 0
8 -169 171 0
-171 172 0
9 -171 173 0
-173 174 0
10 -173 175 0
-175 176 0
11 -175 177 0
-177 178 0
12 -177 179 0
-179 180 0
13 -179 181 0
-181 182 0
14 -181 183 0
-183 184 0
15 -183 185 0
-185 186 0
16 -185 187 0
-187 188 0
17 -187 189 0
-189 190 0
18 -189 191 0
-191 192 0
19 -191 193 0
-193 194 0
20 -193 195 0
-195 196 0
21 -195 197 0
-197 198 0
22 -197 199 0
-199 200 0
23 -199 201 0
-201 202 0
24 -201 203 0
-203 204 0
25 -203 205 0
-205 206 0
26 -205 207 0
-207 208 0
27 -207 209 0
-209 210 0
28 -209 211 0
-211 212 0
29 -211 213 0
-213 214 0
30 -213 215 0
-215 216 0
31 -215 217 0
-217 218 0
32 -217 219 0
-219 220 0
33 -219 221 0
-221 222 0
34 -221 223 0
-223 224 0
35 -223 225 0
-225 226 0
36 -225 227 0
-227 228 0
37 -227 229 0
-229 230 0
38 -229 231 0
-231 232 0
39 -231 233 0
-233 234 0
40 -233 235 0
-235 236 0
41 -235 237 0
-237 238 0
42 -237 239 0
-239 240 0
43 -239 241 0
-241 242 0
44 -241 243 0
-243 244 0
45 -243 245 0
-245 246 0
46 -245 247 0
-247 248 0
47 -247 249 0
-249 250 0
48 -249 251 0
-251 252 0
49 -251 253 0
-253 254 0
50 -253 255 0
-255 256 0
51 -255 257 0
-257 258 0
52 -257 259 0
-259 260 0
53 -259 261 0
-261 262 0
54 -261 263 0
-263 264 0
55 -263 265 0
-265 266 0
56 -265 267 0
-267 268 0
57 -267 269 0
-269 270 0
58 -269 271 0
-271 272 0
59 -271 273 0
-273 274 0
60 -273 275 0
-275 276 0
61 -275 277 0
-277 278 0
62 -277 279 0
-279 280 0
63 -279 0
2 158 0
-158 281 0
3 -158 160 0
-160 282 0
4 -160 162 0
-162 283 0
5 -162 164 0
-164 284 0
6 -164 166 0
-166 285 0
7 -166 168 0
-168 286 0
8 -168 170 0
-170 287 0
9 -170 172 0
-172 288 0
10 -172 174 0
-174 289 0
11 -174 176 0
-176 290 0
12 -176 178 0
-178 291 0
13 -178 180 0
-180 292 0
14 -180 182 0
-182 293 0
15 -182 184 0
-184 294 0
16 -184 186 0
-186 295 0
17 -186 188 0
-188 296 0
18 -188 190 0
-190 297 0
19 -190 192 0
-192 298 0
20 -192 194 0
-194 299 0
21 -194 196 0
-196 300 0
22 -196 198 0
-198 301 0
23 -198 200 0
-200 302 0
24 -200 202 0
-202 303 0
25 -202 204 0
-204 304 0
26 -204 206 0
-206 305 0
27 -206 208 0
-208 306 0
28 -208 210 0
-210 307 0
29 -210 212 0
-212 308 0
30 -212 214 0
-214 309 0
31 -214 216 0
-216 310 0
32 -216 218 0
-218 311 0
33 -218 220 0
-220 312 0
34 -220 222 0
-222 313 0
35 -222 224 0
-224 314 0
36 -224 226 0
-226 315 0
37 -226 228 0
-228 316 0
38 -228 230 0
-230 317 0
39 -230 232 0
-232 318 0
40 -232 234 0
-234 319 0
41 -234 236 0
-236 320 0
42 -236 238 0
-238 321 0
43 -238 240 0
-240 322 0
44 -240 242 0
-242 323 0
45 -242 244 0
-244 324 0
46 -244 246 0
-246 325 0
47 -246 248 0
-248 326 0
48 -248 250 0
-250 327 0
49 -250 252 0
-252 328 0
50 -252 254 0
-254 329 0
51 -254 256 0
-256 330 0
52 -256 258 0
-258 331 0
53 -258 260 0
-260 332 0
54 -260 262 0
-262 333 0
55 -262 264 0
-264 334 0
56 -264 266 0
-266 335 0
57 -266 268 0
-268 336 0
58 -268 270 0
-270 337 0
59 -270 272 0
-272 338 0
60 -272 274 0
-274 339 0
61 -274 276 0
-276 340 0
62 -276 278 0
-278 341 0
63 -278 280 0
-280 342 0
64 -280 0
3 281 0
-281 343 0
4 -281 282 0
-282 344 0
5 -282 283 0
-283 345 0
6 -283 284 0
-284 346 0
7 -284 285 0
-285 347 0
8 -285 286 0
-286 348 0
9 -286 287 0
-287 349 0
10 -287 288 0
-288 350 0
11 -288 289 0
-289 351 0
12 -289 290 0
-290 352 0
13 -290 291 0
-291 353 0
14 -291 292 0
-292 354 0
15 -292 293 0
-293 355 0
16 -293 294 0
-294 356 0
17 -294 295 0
-295 357 0
18 -295 296 0
-296 358 0
19 -296 297 0
-297 359 0
20 -297 298 0
-298 360 0
21 -298 299 0
-299 361 0
22 -299 300 0
-300 362 0
23 -300 301 0
-301 363 0
24 -301 302 0
-302 364 0
25 -302 303 0
-303 365 0
26 -303 304 0
-304 366 0
27 -304 305 0
-305 367 0
28 -305 306 0
-306 368 0
29 -306 307 0
-307 369 0
30 -307 308 0
-308 370 0
31 -308 309 0
-309 371 0
32 -309 310 0
-310 372 0
33 -310 311 0
-311 373 0
34 -311 312 0
-312 374 0
35 -312 313 0
-313 375 0
36 -313 314 0
-314 376 0
37 -314 315 0
-315 377 0
38 -315 316 0
-316 378 0
39 -316 317 0
-317 379 0
40 -317 318 0
-318 380 0
41 -318 319 0
-319 381 0
42 -319 320 0
-320 382 0
43 -320 321 0
-321 383 0
44 -321 322 0
-322 384 0
45 -322 323 0
-323 385 0
46 -323 324 0
-324 386 0
47 -324 325 0
-325 387 0
48 -325 326 0
-326 388 0
49 -326 327 0
-327 389 0
50 -327 328 0
-328 390 0
51 -328 329 0
-329 391 0
52 -329 330 0
-330 392 0
53 -330 331 0
-331 393 0
54 -331 332 0
-332 394 0
55 -332 333 0
-333 395 0
56 -333 334 0
-334 396 0
57 -334 335 0
-335 397 0
58 -335 336 0
-336 398 0
59 -336 337 0
-337 399 0
60 -337 338 0
-338 400 0
61 -338 339 0
-339 401 0
62 -339 340 0
-340 402 0
63 -340 341 0
-341 403 0
64 -341 342 0
-342 404 0
65 -342 0
4 343 0
-343 405 0
5 -343 344 0
-344 406 0
6 -344 345 0
-345 407 0
7 -345 346 0
-346 408 0
8 -346 347 0
-347 409 0
9 -347 348 0
-348 410 0
10 -348 349 0
-349 411 0
11 -349 350 0
-350 412 0
12 -350 351 0
-351 413 0
13 -351 352 0
-352 414 0
14 -352 353 0
-353 415 0
15 -353 354 0
-354 416 0
16 -354 355 0
-355 417 0
17 -355 356 0
-356 418 0
18 -356 357 0
-357 419 0
19 -357 358 0
-358 420 0
20 -358 359 0
-359 421 0
21 -359 360 0
-360 422 0
22 -360 361 0
-361 423 0
23 -361 362 0
-362 424 0
24 -362 363 0
-363 425 0
25 -363 364 0
-364 426 0
26 -364 365 0
-365 427 0
27 -365 366 0
-366 428 0
28 -366 367 0
-367 429 0
29 -367 368 0
-368 430 0
30 -368 369 0
-369 431 0
31 -369 370 0
-370 432 0
32 -370 371 0
-371 433 0
33 -371 372 0
-372 434 0
34 -372 373 0
-373 435 0
35 -373 374 0
-374 436 0
36 -374 375 0
-375 437 0
37 -375 376 0
-376 438 0
38 -376 377 0
-377 439 0
39 -377 378 0
-378 440 0
40 -378 379 0
-379 441 0
41 -379 380 0
-380 442 0
42 -380 381 0
-381 443 0
43 -381 382 0
-382 444 0
44 -382 383 0
-383 445 0
45 -383 384 0
-384 446 0
46 -384 385 0
-385 447 0
47 -385 386 0
-386 448 0
48 -386 387 0
-387 449 0
49 -387 388 0
-388 450 0
50 -388 389 0
-389 451 0
51 -389 390 0
-390 452 0
52 -390 391 0
-391 453 0
53 -391 392 0
-392 454 0
54 -392 393 0
-393 455 0
55 -393 394 0
-394 456 0
56 -394 395 0
-395 457 0
57 -395 396 0
-396 458 0
58 -396 397 0
-397 459 0
59 -397 398 0
-398 460 0
60 -398 399 0
-399 461 0
61 -399 400 0
-400 462 0
62 -400 401 0
-401 463 0
63 -401 402 0
-402 464 0
64 -402 403 0
-403 465 0
65 -403 404 0
-404 466 0
66 -404 0
5 405 0
-405 467 0
6 -405 406 0
-406 468 0
7 -406 407 0
-407 469 0
8 -407 408 0
-408 470 0
9 -408 409 0
-409 471 0
10 -409 410 0
-410 472 0
11 -410 411 0
-411 473 0
12 -411 412 0
-412 474 0
13 -412 413 0
-413 475 0
14 -413 414 0
-414 476 0
15 -414 415 0
-415 477 0
16 -415 416 0
-416 478 0
17 -416 417 0
-417 479 0
18 -417 418 0
-418 480 0
19 -418 419 0
-419 481 0
20 -419 420 0
-420 482 0
21 -420 421 0
-421 483 0
22 -421 422 0
-422 484 0
23 -422 423 0
-423 485 0
24 -423 424 0
-424 486 0
25 -424 425 0
-425 487 0
26 -425 426 0
-426 488 0
27 -426 427 0
-427 489 0
28 -427 428 0
-428 490 0
29 -428 429 0
-429 491 0
30 -429 430 0
-430 492 0
31 -430 431 0
-431 493 0
32 -431 432 0
-432 494 0
33 -432 433 0
-433 495 0
34 -433 434 0
-434 496 0
35 -434 435 0
-435 497 0
36 -435 436 0
-436 498 0
37 -436 437 0
-437 499 0
38 -437 438 0
-438 500 0
39 -438 439 0
-439 501 0
40 -439 440 0
-440 502 0
41 -440 441 0
-441 503 0
42 -441 442 0
-442 504 0
43 -442 443 0
-443 505 0
44 -443 444 0
-444 506 0
45 -444 445 0
-445 507 0
46 -445 446 0
-446 508 0
47 -446 447 0
-447 509 0
48 -447 448 0
-448 510 0
49 -448 449 0
-449 511 0
50 -449 450 0
-450 512 0
51 -450 451 0
-451 513 0
52 -451 452 0
-452 514 0
53 -452 453 0
-453 515 0
54 -453 454 0
-454 516 0
55 -454 455 0
-455 517 0
56 -455 456 0
-456 518 0
57 -456 457 0
-457 519 0
58 -457 458 0
-458 520 0
59 -458 459 0
-459 521 0
60 -459 460 0
-460 522 0
61 -460 461 0
-461 523 0
62 -461 462 0
-462 524 0
63 -462 463 0
-463 525 0
64 -463 464 0
-464 526 0
65 -464 465 0
-465 527 0
66 -465 466 0
-466 528 0
67 -466 0
6 467 0
-467 529 0
7 -467 468 0
-468 530 0
8 -468 469 0
-469 531 0
9 -469 470 0
-470 532 0
10 -470 471 0
-471 533 0
11 -471 472 0
-472 534 0
12 -472 473 0
-473 535 0
13 -473 474 0
-474 536 0
14 -474 475 0
-475 537 0
15 -475 476 0
-476 538 0
16 -476 477 0
-477 539 0
17 -477 478 0
-478 540 0
18 -478 479 0
-479 541 0
19 -479 480 0
-480 542 0
20 -480 481 0
-481 543 0
21 -481 482 0
-482 544 0
22 -482 483 0
-483 545 0
23 -483 484 0
-484 546 0
24 -484 485 0
-485 547 0
25 -485 486 0
-486 548 0
26 -486 487 0
-487 549 0
27 -487 488 0
-488 550 0
28 -488 489 0
-489 551 0
29 -489 490 0
-490 552 0
30 -490 491 0
-491 553 0
31 -491 492 0
-492 554 0
32 -492 493 0
-493 555 0
33 -493 494 0
-494 556 0
34 -494 495 0
-495 557 0
35 -495 496 0
-496 558 0
36 -496 497 0
-497 559 0
37 -497 498 0
-498 560 0
38 -498 499 0
-499 561 0
39 -499 500 0
-500 562 0
40 -500 501 0
-501 563 0
41 -501 502 0
-502 564 0
42 -502 503 0
-503 565 0
43 -503 504 0
-504 566 0
44 -504 505 0
-505 567 0
45 -505 506 0
-506 568 0
46 -506 507 0
-507 569 0
47 -507 508 0
-508 570 0
48 -508 509 0
-509 571 0
49 -509 510 0
-510 572 0
50 -510 511 0
-511 573 0
51 -511 512 0
-512 574 0
52 -512 513 0
-513 575 0
53 -513 514 0
-514 576 0
54 -514 515 0
-515 577 0
55 -515 516 0
-516 578 0
56 -516 517 0
-517 579 0
57 -517 518 0
-518 580 0
58 -518 519 0
-519 581 0
59 -519 520 0
-520 582 0
60 -520 521 0
-521 583 0
61 -521 522 0
-522 584 0
62 -522 523 0
-523 585 0
63 -523 524 0
-524 586 0
64 -524 525 0
-525 587 0
65 -525 526 0
-526 588 0
66 -526 527 0
-527 589 0
67 -527 528 0
-528 590 0
68 -528 0
7 529 0
-529 591 0
8 -529 530 0
-530 592 0
9 -530 531 0
-531 593 0
10 -531 532 0
-532 594 0
11 -532 533 0
-533 595 0
12 -533 534 0
-534 596 0
13 -534 535 0
-535 597 0
14 -535 536 0
-536 598 0
15 -536 537 0
-537 599 0
16 -537 538 0
-538 600 0
17 -538 539 0
-539 601 0
18 -539 540 0
-540 602 0
19 -540 541 0
-541 603 0
20 -541 542 0
-542 604 0
21 -542 543 0
-543 605 0
22 -543 544 0
-544 606 0
23 -544 545 0
-545 607 0
24 -545 546 0
-546 608 0
25 -546 547 0
-547 609 0
26 -547 548 0
-548 610 0
27 -548 549 0
-549 611 0
28 -549 550 0
-550 612 0
29 -550 551 0
-551 613 0
30 -551 552 0
-552 614 0
31 -552 553 0
-553 615 0
32 -553 554 0
-554 616 0
33 -554 555 0
-555 617 0
34 -555 556 0
-556 618 0
35 -556 557 0
-557 619 0
36 -557 558 0
-558 620 0
37 -558 559 0
-559 621 0
38 -559 560 0
-560 622 0
39 -560 561 0
-561 623 0
40 -561 562 0
-562 624 0
41 -562 563 0
-563 625 0
42 -563 564 0
-564 626 0
43 -564 565 0
-565 627 0
44 -565 566 0
-566 628 0
45 -566 567 0
-567 629 0
46 -567 568 0
-568 630 0
47 -568 569 0
-569 631 0
48 -569 570 0
-570 632 0
49 -570 571 0
-571 633 0
50 -571 572 0
-572 634 0
51 -572 573 0
-573 635 0
52 -573 574 0
-574 636 0
53 -574 575 0
-575 637 0
54 -575 576 0
-576 638 0
55 -576 577 0
-577 639 0
56 -577 578 0
-578 640 0
57 -578 579 0
-579 641 0
58 -579 580 0
-580 642 0
59 -580 581 0
-581 643 0
60 -581 582 0
-582 644 0
61 -582 583 0
-583 645 0
62 -583 584 0
-584 646 0
63 -584 585 0
-585 647 0
64 -585 586 0
-586 648 0
65 -586 587 0
-587 649 0
66 -587 588 0
-588 650 0
67 -588 589 0
-589 651 0
68 -589 590 0
-590 652 0
69 -590 0
8 591 0
-591 653 0
9 -591 592 0
-592 654 0
10 -592 593 0
-593 655 0
11 -593 594 0
-594 656 0
12 -594 595 0
-595 657 0
13 -595 596 0
-596 658 0
14 -596 597 0
-597 659 0
15 -597 598 0
-598 660 0
16 -598 599 0
-599 661 0
17 -599 600 0
-600 662 0
18 -600 601 0
-601 663 0
19 -601 602 0
-602 664 0
20 -602 603 0
-603 665 0
21 -603 604 0
-604 666 0
22 -604 605 0
-605 667 0
23 -605 606 0
-606 668 0
24 -606 607 0
-607 669 0
25 -607 608 0
-608 670 0
26 -608 609 0
-609 671 0
27 -609 610 0
-610 672 0
28 -610 611 0
-611 673 0
29 -611 612 0
-612 674 0
30 -612 613 0
-613 675 0
31 -613 614 0
-614 676 0
32 -614 615 0
-615 677 0
33 -615 616 0
-616 678 0
34 -616 617 0
-617 679 0
35 -617 618 0
-618 680 0
36 -618 619 0
-619 681 0
37 -619 620 0
-620 682 0
38 -620 621 0
-621 683 0
39 -621 622 0
-622 684 0
40 -622 623 0
-623 685 0
41 -623 624 0
-624 686 0
42 -624 625 0
-625 687 0
43 -625 626 0
-626 688 0
44 -626 627 0
-627 689 0
45 -627 628 0
-628 690 0
46 -628 629 0
-629 691 0
47 -629 630 0
-630 692 0
48 -630 631 0
-631 693 0
49 -631 632 0
-632 694 0
50 -632 633 0
-633 695 0
51 -633 634 0
-634 696 0
52 -634 635 0
-635 697 0
53 -635 636 0
-636 698 0
54 -636 637 0
-637 699 0
55 -637 638 0
-638 700 0
56 -638 639 0
-639 701 0
57 -639 640 0
-640 702 0
58 -640 641 0
-641 703 0
59 -641 642 0
-642 704 0
60 -642 643 0
-643 705 0
61 -643 644 0
-644 706 0
62 -644 645 0
-645 707 0
63 -645 646 0
-646 708 0
64 -646 647 0
-647 709 0
65 -647 648 0
-648 710 0
66 -648 649 0
-649 711 0
67 -649 650 0
-650 712 0
68 -650 651 0
-651 713 0
69 -651 652 0
-652 714 0
70 -652 0
9 653 0
-653 715 0
10 -653 654 0
-654 716 0
11 -654 655 0
-655 717 0
12 -655 656 0
-656 718 0
13 -656 657 0
-657 719 0
14 -657 658 0
-658 720 0
15 -658 659 0
-659 721 0
16 -659 660 0
-660 722 0
17 -660 661 0
-661 723 0
18 -661 662 0
-662 724 0
19 -662 663 0
-663 725 0
20 -663 664 0
-664 726 0
21 -664 665 0
-665 727 0
22 -665 666 0
-666 728 0
23 -666 667 0
-667 729 0
24 -667 668 0
-668 730 0
25 -668 669 0
-669 731 0
26 -669 670 0
-670 732 0
27 -670 671 0
-671 733 0
28 -671 672 0
-672 734 0
29 -672 673 0
-673 735 0
30 -673 674 0
-674 736 0
31 -674 675 0
-675 737 0
32 -675 676 0
-676 738 0
33 -676 677 0
-677 739 0
34 -677 678 0
-678 740 0
35 -678 679 0
-679 741 0
36 -679 680 0
-680 742 0
37 -680 681 0
-681 743 0
38 -681 682 0
-682 744 0
39 -682 683 0
-683 745 0
40 -683 684 0
-684 746 0
41 -684 685 0
-685 747 0
42 -685 686 0
-686 748 0
43 -686 687 0
-687 749 0
44 -687 688 0
-688 750 0
45 -688 689 0
-689 751 0
46 -689 690 0
-690 752 0
47 -690 691 0
-691 753 0
48 -691 692 0
-692 754 0
49 -692 693 0
-693 755 0
50 -693 694 0
-694 756 0
51 -694 695 0
-695 757 0
52 -695 696 0
-696 758 0
53 -696 697 0
-697 759 0
54 -697 698 0
-698 760 0
55 -698 699 0
-699 761 0
56 -699 700 0
-700 762 0
57 -700 701 0
-701 763 0
58 -701 702 0
-702 764 0
59 -702 703 0
-703 765 0
60 -703 704 0
-704 766 0
61 -704 705 0
-705 767 0
62 -705 706 0
-706 768 0
63 -706 707 0
-707 769 0
64 -707 708 0
-708 770 0
65 -708 709 0
-709 771 0
66 -709 710 0
-710 772 0
67 -710 711 0
-711 773 0
68 -711 712 0
-712 774 0
69 -712 713 0
-713 775 0
70 -713 714 0
-714 776 0
71 -714 0
10 715 0
-715 777 0
11 -715 716 0
-716 778 0
12 -716 717 0
-717 779 0
13 -717 718 0
-718 780 0
14 -718 719 0
-719 781 0
15 -719 720 0
-720 782 0
16 -720 721 0
-721 783 0
17 -721 722 0
-722 784 0
18 -722 723 0
-723 785 0
19 -723 724 0
-724 786 0
20 -724 725 0
-725 787 0
21 -725 726 0
-726 788 0
22 -726 727 0
-727 789 0
23 -727 728 0
-728 790 0
24 -728 729 0
-729 791 0
25 -729 730 0
-730 792 0
26 -730 731 0
-731 793 0
27 -731 732 0
-732 794 0
28 -732 733 0
-733 795 0
29 -733 734 0
-734 796 0
30 -734 735 0
-735 797 0
31 -735 736 0
-736 798 0
32 -736 737 0
-737 799 0
33 -737 738 0
-738 800 0
34 -738 739 0
-739 801 0
35 -739 740 0
-740 802 0
36 -740 741 0
-741 803 0
37 -741 742 0
-742 804 0
38 -742 743 0
-743 805 0
39 -743 744 0
-744 806 0
40 -744 745 0
-745 807 0
41 -745 746 0
-746 808 0
42 -746 747 0
-747 809 0
43 -747 748 0
-748 810 0
44 -748 749 0
-749 811 0
45 -749 750 0
-750 812 0
46 -750 751 0
-751 813 0
47 -751 752 0
-752 814 0
48 -752 753 0
-753 815 0
49 -753 754 0
-754 816 0
50 -754 755 0
-755 817 0
51 -755 756 0
-756 818 0
52 -756 757 0
-757 819 0
53 -757 758 0
-758 820 0
54 -758 759 0
-759 821 0
55 -759 760 0
-760 822 0
56 -760 761 0
-761 823 0
57 -761 762 0
-762 824 0
58 -762 763 0
-763 825 0
59 -763 764 0
-764 826 0
60 -764 765 0
-765 827 0
61 -765 766 0
-766 828 0
62 -766 767 0
-767 829 0
63 -767 768 0
-768 830 0
64 -768 769 0
-769 831 0
65 -769 770 0
-770 832 0
66 -770 771 0
-771 833 0
67 -771 772 0
-772 834 0
68 -772 773 0
-773 835 0
69 -773 774 0
-774 836 0
70 -774 775 0
-775 837 0
71 -775 776 0
-776 838 0
72 -776 0
11 777 0
-777 839 0
12 -777 778 0
-778 840 0
13 -778 779 0
-779 841 0
14 -779 780 0
-780 842 0
15 -780 781 0
-781 843 0
16 -781 782 0
-782 844 0
17 -782 783 0
-783 845 0
18 -783 784 0
-784 846 0
19 -784 785 0
-785 847 0
20 -785 786 0
-786 848 0
21 -786 787 0
-787 849 0
22 -787 788 0
-788 850 0
23 -788 789 0
-789 851 0
24 -789 790 0
-790 852 0
25 -790 791 0
-791 853 0
26 -791 792 0
-792 854 0
27 -792 793 0
-793 855 0
28 -793 794 0
-794 856 0
29 -794 795 0
-795 857 0
30 -795 796 0
-796 858 0
31 -796 797 0
-797 859 0
32 -797 798 0
-798 860 0
33 -798 799 0
-799 861 0
34 -799 800 0
-800 862 0
35 -800 801 0
-801 863 0
36 -801 802 0
-802 864 0
37 -802 803 0
-803 865 0
38 -803 804 0
-804 866 0
39 -804 805 0
-805 867 0
40 -805 806 0
-806 868 0
41 -806 807 0
-807 869 0
42 -807 808 0
-808 870 0
43 -808 809 0
-809 871 0
44 -809 810 0
-810 872 0
45 -810 811 0
-811 873 0
46 -811 812 0
-812 874 0
47 -812 813 0
-813 875 0
48 -813 814 0
-814 876 0
49 -814 815 0
-815 877 0
50 -815 816 0
-816 878 0
51 -816 817 0
-817 879 0
52 -817 818 0
-818 880 0
53 -818 819 0
-819 881 0
54 -819 820 0
-820 882 0
55 -820 821 0
-821 883 0
56 -821 822 0
-822 884 0
57 -822 823 0
-823 885 0
58 -823 824 0
-824 886 0
59 -824 825 0
-825 887 0
60 -825 826 0
-826 888 0
61 -826 827 0
-827 889 0
62 -827 828 0
-828 890 0
63 -828 829 0
-829 891 0
64 -829 830 0
-830 892 0
65 -830 831 0
-831 893 0
66 -831 832 0
-832 894 0
67 -832 833 0
-833 895 0
68 -833 834 0
-834 896 0
69 -834 835 0
-835 897 0
70 -835 836 0
-836 898 0
71 -836 837 0
-837 899 0
72 -837 838 0
-838 900 0
73 -838 0
12 839 0
-839 901 0
13 -839 840 0
-840 902 0
14 -840 841 0
-841 903 0
15 -841 842 0
-842 904 0
16 -842 843 0
-843 905 0
17 -843 844 0
-844 906 0
18 -844 845 0
-845 907 0
19 -845 846 0
-846 908 0
20 -846 847 0
-847 909 0
21 -847 848 0
-848 910 0
22 -848 849 0
-849 911 0
23 -849 850 0
-850 912 0
24 -850 851 0
-851 913 0
25 -851 852 0
-852 914 0
26 -852 853 0
-853 915 0
27 -853 854 0
-854 916 0
28 -854 855 0
-855 917 0
29 -855 856 0
-856 918 0
30 -856 857 0
-857 919 0
31 -857 858 0
-858 920 0
32 -858 859 0
-859 921 0
33 -859 860 0
-860 922 0
34 -860 861 0
-861 923 0
35 -861 862 0
-862 924 0
36 -862 863 0
-863 925 0
37 -863 864 0
-864 926 0
38 -864 865 0
-865 927 0
39 -865 866 0
-866 928 0
40 -866 867 0
-867 929 0
41 -867 868 0
-868 930 0
42 -868 869 0
-869 931 0
43 -869 870 0
-870 932 0
44 -870 871 0
-871 933 0
45 -871 872 0
-872 934 0
46 -872 873 0
-873 935 0
47 -873 874 0
-874 936 0
48 -874 875 0
-875 937 0
49 -875 876 0
-876 938 0
50 -876 877 0
-877 939 0
51 -877 878 0
-878 940 0
52 -878 879 0
-879 941 0
53 -879 880 0
-880 942 0
54 -880 881 0
-881 943 0
55 -881 882 0
-882 944 0
56 -882 883 0
-883 945 0
57 -883 884 0
-884 946 0
58 -884 885 0
-885 947 0
59 -885 886 0
-886 948 0
60 -886 887 0
-887 949 0
61 -887 888 0
-888 950 0
62 -888 889 0
-889 951 0
63 -889 890 0
-890 952 0
64 -890 891 0
-891 953 0
65 -891 892 0
-892 954 0
66 -892 893 0
-893 955 0
67 -893 894 0
-894 956 0
68 -894 895 0
-895 957 0
69 -895 896 0
-896 958 0
70 -896 897 0
-897 959 0
71 -897 898 0
-898 960 0
72 -898 899 0
-899 961 0
73 -899 900 0
-900 962 0
74 -900 0
13 901 0
-901 963 0
14 -901 902 0
-902 964 0
15 -902 903 0
-903 965 0
16 -903 904 0
-904 966 0
17 -904 905 0
-905 967 0
18 -905 906 0
-906 968 0
19 -906 907 0
-907 969 0
20 -907 908 0
-908 970 0
21 -908 909 0
-909 971 0
22 -909 910 0
-910 972 0
23 -910 911 0
-911 973 0
24 -911 912 0
-912 974 0
25 -912 913 0
-913 975 0
26 -913 914 0
-914 976 0
27 -914 915 0
-915 977 0
28 -915 916 0
-916 978 0
29 -916 917 0
-917 979 0
30 -917 918 0
-918 980 0
31 -918 919 0
-919 981 0
32 -919 920 0
-920 982 0
33 -920 921 0
-921 983 0
34 -921 922 0
-922 984 0
35 -922 923 0
-923 985 0
36 -923 924 0
-924 986 0
37 -924 925 0
-925 987 0
38 -925 926 0
-926 988 0
39 -926 927 0
-927 989 0
40 -927 928 0
-928 990 0
41 -928 929 0
-929 991 0
42 -929 930 0
-930 992 0
43 -930 931 0
-931 993 0
44 -931 932 0
-932 994 0
45 -932 933 0
-933 995 0
46 -933 934 0
-934 996 0
47 -934 935 0
-935 997 0
48 -935 936 0
-936 998 0
49 -936 937 0
-937 999 0
50 -937 938 0
-938 1000 0
51 -938 939 0
-939 1001 0
52 -939 940 0
-940 1002 0
53 -940 941 0
-941 1003 0
54 -941 942 0
-942 1004 0
55 -942 943 0
-943 1005 0
56 -943 944 0
-944 1006 0
57 -944 945 0
-945 1007 0
58 -945 946 0
-946 1008 0
59 -946 947 0
-947 1009 0
60 -947 948 0
-948 1010 0
61 -948 949 0
-949 1011 0
62 -949 950 0
-950 1012 0
63 -950 951 0
-951 1013 0
64 -951 952 0
-952 1014 0
65 -952 953 0
-953 1015 0
66 -953 954 0
-954 1016 0
67 -954 955 0
-955 1017 0
68 -955 956 0
-956 1018 0
69 -956 957 0
-957 1019 0
70 -957 958 0
-958 1020 0
71 -958 959 0
-959 1021 0
72 -959 960 0
-960 1022 0
73 -960 961 0
-961 1023 0
74 -961 962 0
-962 1024 0
75 -962 0
14 963 0
-963 1025 0
15 -963 964 0
-964 1026 0
16 -964 965 0
-965 1027 0
17 -965 966 0
-966 1028 0
18 -966 967 0
-967 1029 0
19 -967 968 0
-968 1030 0
20 -968 969 0
-969 1031 0
21 -969 970 0
-970 1032 0
22 -970 971 0
-971 1033 0
23 -971 972 0
-972 1034 0
24 -972 973 0
-973 1035 0
25 -973 974 0
-974 1036 0
26 -974 975 0
-975 1037 0
27 -975 976 0
-976 1038 0
28 -976 977 0
-977 1039 0
29 -977 978 0
-978 1040 0
30 -978 979 0
-979 1041 0
31 -979 980 0
-980 1042 0
32 -980 981 0
-981 1043 0
33 -981 982 0
-982 1044 0
34 -982 983 0
-983 1045 0
35 -983 984 0
-984 1046 0
36 -984 985 0
-985 1047 0
37 -985 986 0
-986 1048 0
38 -986 987 0
-987 1049 0
39 -987 988 0
-988 1050 0
40 -988 989 0
-989 1051 0
41 -989 990 0
-990 1052 0
42 -990 991 0
-991 1053 0
43 -991 992 0
-992 1054 0
44 -992 993 0
-993 1055 0
45 -993 994 0
-994 1056 0
46 -994 995 0
-995 1057 0
47 -995 996 0
-996 1058 0
48 -996 997 0
-997 1059 0
49 -997 998 0
-998 1060 0
50 -998 999 0
-999 1061 0
51 -999 1000 0
-1000 1062 0
52 -1000 1001 0
-1001 1063 0
53 -1001 1002 0
-1002 1064 0
54 -1002 1003 0
-1003 1065 0
55 -1003 1004 0
-1004 1066 0
56 -1004 1005 0
-1005 1067 0
57 -1005 1006 0
-1006 1068 0
58 -1006 1007 0
-1007 1069 0
59 -1007 1008 0
-1008 1070 0
60 -1008 1009 0
-1009 1071 0
61 -1009 1010 0
-1010 1072 0
62 -1010 1011 0
-1011 1073 0
63 -1011 1012 0
-1012 1074 0
64 -1012 1013 0
-1013 1075 0
65 -1013 1014 0
-1014 1076 0
66 -1014 1015 0
-1015 1077 0
67 -1015 1016 0
-1016 1078 0
68 -1016 1017 0
-1017 1079 0
69 -1017 1018 0
-1018 1080 0
70 -1018 1019 0
-1019 1081 0
71 -1019 1020 0
-1020 1082 0
72 -1020 1021 0
-1021 1083 0
73 -1021 1022 0
-1022 1084 0
74 -1022 1023 0
-1023 1085 0
75 -1023 1024 0
-1024 1086 0
76 -1024 0
15 1025 0
-1025 1087 0
16 -1025 1026 0
-1026 1088 0
17 -1026 1027 0
-1027 1089 0
18 -1027 1028 0
-1028 1090 0
19 -1028 1029 0
-1029 1091 0
20 -1029 1030 0
-1030 1092 0
21 -1030 1031 0
-1031 1093 0
22 -1031 1032 0
-1032 1094 0
23 -1032 1033 0
-1033 1095 0
24 -1033 1034 0
-1034 1096 0
25 -1034 1035 0
-1035 1097 0
26 -1035 1036 0
-1036 1098 0
27 -1036 1037 0
-1037 1099 0
28 -1037 1038 0
-1038 1100 0
29 -1038 1039 0
-1039 1101 0
30 -1039 1040 0
-1040 1102 0
31 -1040 1041 0
-1041 1103 0
32 -1041 1042 0
-1042 1104 0
33 -1042 1043 0
-1043 1105 0
34 -1043 1044 0
-1044 1106 0
35 -1044 1045 0
-1045 1107 0
36 -1045 1046 0
-1046 1108 0
37 -1046 1047 0
-1047 1109 0
38 -1047 1048 0
-1048 1110 0
39 -1048 1049 0
-1049 1111 0
40 -1049 1050 0
-1050 1112 0
41 -1050 1051 0
-1051 1113 0
42 -1051 1052 0
-1052 1114 0
43 -1052 1053 0
-1053 1115 0
44 -1053 1054 0
-1054 1116 0
45 -1054 1055 0
-1055 1117 0
46 -1055 1056 0
-1056 1118 0
47 -1056 1057 0
-1057 1119 0
48 -1057 1058 0
-1058 1120 0
49 -1058 1059 0
-1059 1121 0
50 -1059 1060 0
-1060 1122 0
51 -1060 1061 0
-1061 1123 0
52 -1061 1062 0
-1062 1124 0
53 -1062 1063 0
-1063 1125 0
54 -1063 1064 0
-1064 1126 0
55 -1064 1065 0
-1065 1127 0
56 -1065 1066 0
-1066 1128 0
57 -1066 1067 0
-1067 1129 0
58 -1067 1068 0
-1068 1130 0
59 -1068 1069 0
-1069 1131 0
60 -1069 1070 0
-1070 1132 0
61 -1070 1071 0
-1071 1133 0
62 -1071 1072 0
-1072 1134 0
63 -1072 1073 0
-1073 1135 0
64 -1073 1074 0
-1074 1136 0
65 -1074 1075 0
-1075 1137 0
66 -1075 1076 0
-1076 1138 0
67 -1076 1077 0
-1077 1139 0
68 -1077 1078 0
-1078 1140 0
69 -1078 1079 0
-1079 1141 0
70 -1079 1080 0
-1080 1142 0
71 -1080 1081 0
-1081 1143 0
72 -1081 1082 0
-1082 1144 0
73 -1082 1083 0
-1083 1145 0
74 -1083 1084 0
-1084 1146 0
75 -1084 1085 0
-1085 1147 0
76 -1085 1086 0
-1086 1148 0
77 -1086 0
16 1087 0
17 -1087 1088 0
18 -1088 1089 0
19 -1089 1090 0
20 -1090 1091 0
21 -1091 1092 0
22 -1092 1093 0
23 -1093 1094 0
24 -1094 1095 0
25 -1095 1096 0
26 -1096 1097 0
27 -1097 1098 0
28 -1098 1099 0
29 -1099 1100 0
30 -1100 1101 0
31 -1101 1102 0
32 -1102 1103 0
33 -1103 1104 0
34 -1104 1105 0
35 -1105 1106 0
36 -1106 1107 0
37 -1107 1108 0
38 -1108 1109 0
39 -1109 1110 0
40 -1110 1111 0
41 -1111 1112 0
42 -1112 1113 0
43 -1113 1114 0
44 -1114 1115 0
45 -1115 1116 0
46 -1116 1117 0
47 -1117 1118 0
48 -1118 1119 0
49 -1119 1120 0
50 -1120 1121 0
51 -1121 1122 0
52 -1122 1123 0
53 -1123 1124 0
54 -1124 1125 0
55 -1125 1126 0
56 -1126 1127 0
57 -1127 1128 0
58 -1128 1129 0
59 -1129 1130 0
60 -1130 1131 0
61 -1131 1132 0
62 -1132 1133 0
63 -1133 1134 0
64 -1134 1135 0
65 -1135 1136 0
66 -1136 1137 0
67 -1137 1138 0
68 -1138 1139 0
69 -1139 1140 0
70 -1140 1141 0
71 -1141 1142 0
72 -1142 1143 0
73 -1143 1144 0
74 -1144 1145 0
75 -1145 1146 0
76 -1146 1147 0
77 -1147 1148 0
78 -1148 0
-1 1149 0
-1149 1150 0
-2 -1149 1151 0
-1151 1152 0
-3 -1151 1153 0
-1153 1154 0
-4 -1153 1155 0
-1155 1156 0
-5 -1155 1157 0
-1157 1158 0
-6 -1157 1159 0
-1159 1160 0
-7 -1159 1161 0
-1161 1162 0
-8 -1161 1163 0
-1163 1164 0
-9 -1163 1165 0
-1165 1166 0
-10 -1165 1167 0
-1167 1168 0
-11 -1167 1169 0
-1169 1170 0
-12 -1169 1171 0
-1171 1172 0
-13 -1171 1173 0
-1173 1174 0
-14 -1173 1175 0
-1175 1176 0
-15 -1175 1177 0
-1177 1178 0
-16 -1177 1179 0
-1179 1180 0
-17 -1179 0
-2 1150 0
-1150 1181 0
-3 -1150 1152 0
-1152 1182 0
-4 -1152 1154 0
-1154 1183 0
-5 -1154 1156 0
-1156 1184 0
-6 -1156 1158 0
-1158 1185 0
-7 -1158 1160 0
-1160 1186 0
-8 -1160 1162 0
-1162 1187 0
-9 -1162 1164 0
-1164 1188 0
-10 -1164 1166 0
-1166 1189 0
-11 -1166 1168 0
-1168 1190 0
-12 -1168 1170 0
-1170 1191 0
-13 -1170 1172 0
-1172 1192 0
-14 -1172 1174 0
-1174 1193 0
-15 -1174 1176 0
-1176 1194 0
-16 -1176 1178 0
-1178 1195 0
-17 -1178 1180 0
-1180 1196 0
-18 -1180 0
-3 1181 0
-1181 1197 0
-4 -1181 1182 0
-1182 1198 0
-5 -1182 1183 0
-1183 1199 0
-6 -1183 1184 0
-1184 1200 0
-7 -1184 1185 0
-1185 1201 0
-8 -1185 1186 0
-1186 1202 0
-9 -1186 1187 0
-1187 1203 0
-10 -1187 1188 0
-1188 1204 0
-11 -1188 1189 0
-1189 1205 0
-12 -1189 1190 0
-1190 1206 0
-13 -1190 1191 0
-1191 1207 0
-14 -1191 1192 0
-1192 1208 0
-15 -1192 1193 0
-1193 1209 0
-16 -1193 1194 0
-1194 1210 0
-17 -1194 1195 0
-1195 1211 0
-18 -1195 1196 0
-1196 1212 0
-19 -1196 0
-4 1197 0
-1197 1213 0
-5 -1197 1198 0
-1198 1214 0
-6 -1198 1199 0
-1199 1215 0
-7 -1199 1200 0
-1200 1216 0
-8 -1200 1201 0
-1201 1217 0
-9 -1201 1202 0
-1202 1218 0
-10 -1202 1203 0
-1203 1219 0
-11 -1203 1204 0
-1204 1220 0
-12 -1204 1205 0
-1205 1221 0
-13 -1205 1206 0
-1206 1222 0
-14 -1206 1207 0
-1207 1223 0
-15 -1207 1208 0
-1208 1224 0
-16 -1208 1209 0
-1209 1225 0
-17 -1209 1210 0
-1210 1226 0
-18 -1210 1211 0
-1211 1227 0
-19 -1211 1212 0
-1212 1228 0
-20 -1212 0
-5 1213 0
-1213 1229 0
-6 -1213 1214 0
-1214 1230 0
-7 -1214 1215 0
-1215 1231 0
-8 -1215 1216 0
-1216 1232 0
-9 -1216 1217 0
-1217 1233 0
-10 -1217 1218 0
-1218 1234 0
-11 -1218 1219 0
-1219 1235 0
-12 -1219 1220 0
-1220 1236 0
-13 -1220 1221 0
-1221 1237 0
-14 -1221 1222 0
-1222 1238 0
-15 -1222 1223 0
-1223 1239 0
-16 -1223 1224 0
-1224 1240 0
-17 -1224 1225 0
-1225 1241 0
-18 -1225 1226 0
-1226 1242 0
-19 -1226 1227 0
-1227 1243 0
-20 -1227 1228 0
-1228 1244 0
-21 -1228 0
-6 1229 0
-1229 1245 0
-7 -1229 1230 0
-1230 1246 0
-8 -1230 1231 0
-1231 1247 0
-9 -1231 1232 0
-1232 1248 0
-10 -1232 1233 0
-1233 1249 0
-11 -1233 1234 0
-1234 1250 0
-12 -1234 1235 0
-1235 1251 0
-13 -1235 1236 0
-1236 1252 0
-14 -1236 1237 0
-1237 1253 0
-15 -1237 1238 0
-1238 1254 0
-16 -1238 1239 0
-1239 1255 0
-17 -1239 1240 0
-1240 1256 0
-18 -1240 1241 0
-1241 1257 0
-19 -1241 1242 0
-1242 1258 0
-20 -1242 1243 0
-1243 1259 0
-21 -1243 1244 0
-1244 1260 0
-22 -1244 0
-7 1245 0
-1245 1261 0
-8 -1245 1246 0
-1246 1262 0
-9 -1246 1247 0
-1247 1263 0
-10 -1247 1248 0
-1248 1264 0
-11 -1248 1249 0
-1249 1265 0
-12 -1249 1250 0
-1250 1266 0
-13 -1250 1251 0
-1251 1267 0
-14 -1251 1252 0
-1252 1268 0
-15 -1252 1253 0
-1253 1269 0
-16 -1253 1254 0
-1254 1270 0
-17 -1254 1255 0
-1255 1271 0
-18 -1255 1256 0
-1256 1272 0
-19 -1256 1257 0
-1257 1273 0
-20 -1257 1258 0
-1258 1274 0
-21 -1258 1259 0
-1259 1275 0
-22 -1259 1260 0
-1260 1276 0
-23 -1260 0
-8 1261 0
-1261 1277 0
-9 -1261 1262 0
-1262 1278 0
-10 -1262 1263 0
-1263 1279 0
-11 -1263 1264 0
-1264 1280 0
-12 -1264 1265 0
-1265 1281 0
-13 -1265 1266 0
-1266 1282 0
-14 -1266 1267 0
-1267 1283 0
-15 -1267 1268 0
-1268 1284 0
-16 -1268 1269 0
-1269 1285 0
-17 -1269 1270 0
-1270 1286 0
-18 -1270 1271 0
-1271 1287 0
-19 -1271 1272 0
-1272 1288 0
-20 -1272 1273 0
-1273 1289 0
-21 -1273 1274 0
-1274 1290 0
-22 -1274 1275 0
-1275 1291 0
-23 -1275 1276 0
-1276 1292 0
-24 -1276 0
-9 1277 0
-1277 1293 0
-10 -1277 1278 0
-1278 1294 0
-11 -1278 1279 0
-1279 1295 0
-12 -1279 1280 0
-1280 1296 0
-13 -1280 1281 0
-1281 1297 0
-14 -1281 1282 0
-1282 1298 0
-15 -1282 1283 0
-1283 1299 0
-16 -1283 1284 0
-1284 1300 0
-17 -1284 1285 0
-1285 1301 0
-18 -1285 1286 0
-1286 1302 0
-19 -1286 1287 0
-1287 1303 0
-20 -1287 1288 0
-1288 1304 0
-21 -1288 1289 0
-1289 1305 0
-22 -1289 1290 0
-1290 1306 0
-23 -1290 1291 0
-1291 1307 0
-24 -1291 1292 0
-1292 1308 0
-25 -1292 0
-10 1293 0
-1293 1309 0
-11 -1293 1294 0
-1294 1310 0
-12 -1294 1295 0
-1295 1311 0
-13 -1295 1296 0
-1296 1312 0
-14 -1296 1297 0
-1297 1313 0
-15 -1297 1298 0
-1298 1314 0
-16 -1298 1299 0
-1299 1315 0
-17 -1299 1300 0
-1300 1316 0
-18 -1300 1301 0
-1301 1317 0
-19 -1301 1302 0
-1302 1318 0
-20 -1302 1303 0
-1303 1319 0
-21 -1303 1304 0
-1304 1320 0
-22 -1304 1305 0
-1305 1321 0
-23 -1305 1306 0
-1306 1322 0
-24 -1306 1307 0
-1307 1323 0
-25 -1307 1308 0
-1308 1324 0
-26 -1308 0
-11 1309 0
-1309 1325 0
-12 -1309 1310 0
-1310 1326 0
-13 -1310 1311 0
-1311 1327 0
-14 -1311 1312 0
-1312 1328 0
-15 -1312 1313 0
-1313 1329 0
-16 -1313 1314 0
-1314 1330 0
-17 -1314 1315 0
-1315 1331 0
-18 -1315 1316 0
-1316 1332 0
-19 -1316 1317 0
-1317 1333 0
-20 -1317 1318 0
-1318 1334 0
-21 -1318 1319 0
-1319 1335 0
-22 -1319 1320 0
-1320 1336 0
-23 -1320 1321 0
-1321 1337 0
-24 -1321 1322 0
-1322 1338 0
-25 -1322 1323 0
-1323 1339 0
-26 -1323 1324 0
-1324 1340 0
-27 -1324 0
-12 1325 0
-1325 1341 0
-13 -1325 1326 0
-1326 1342 0
-14 -1326 1327 0
-1327 1343 0
-15 -1327 1328 0
-1328 1344 0
-16 -1328 1329 0
-1329 1345 0
-17 -1329 1330 0
-1330 1346 0
-18 -1330 1331 0
-1331 1347 0
-19 -1331 1332 0
-1332 1348 0
-20 -1332 1333 0
-1333 1349 0
-21 -1333 1334 0
-1334 1350 0
-22 -1334 1335 0
-1335 1351 0
-23 -1335 1336 0
-1336 1352 0
-24 -1336 1337 0
-1337 1353 0
-25 -1337 1338 0
-1338 1354 0
-26 -1338 1339 0
-1339 1355 0
-27 -1339 1340 0
-1340 1356 0
-28 -1340 0
-13 1341 0
-1341 1357 0
-14 -1341 1342 0
-1342 1358 0
-15 -1342 1343 0
-1343 1359 0
-16 -1343 1344 0
-1344 1360 0
-17 -1344 1345 0
-1345 1361 0
-18 -1345 1346 0
-1346 1362 0
-19 -1346 1347 0
-1347 1363 0
-20 -1347 1348 0
-1348 1364 0
-21 -1348 1349 0
-1349 1365 0
-22 -1349 1350 0
-1350 1366 0
-23 -1350 1351 0
-1351 1367 0
-24 -1351 1352 0
-1352 1368 0
-25 -1352 1353 0
-1353 1369 0
-26 -1353 1354 0
-1354 1370 0
-27 -1354 1355 0
-1355 1371 0
-28 -1355 1356 0
-1356 1372 0
-29 -1356 0
-14 1357 0
-1357 1373 0
-15 -1357 1358 0
-1358 1374 0
-16 -1358 1359 0
-1359 1375 0
-17 -1359 1360 0
-1360 1376 0
-18 -1360 1361 0
-1361 1377 0
-19 -1361 1362 0
-1362 1378 0
-20 -1362 1363 0
-1363 1379 0
-21 -1363 1364 0
-1364 1380 0
-22 -1364 1365 0
-1365 1381 0
-23 -1365 1366 0
-1366 1382 0
-24 -1366 1367 0
-1367 1383 0
-25 -1367 1368 0
-1368 1384 0
-26 -1368 1369 0
-1369 1385 0
-27 -1369 1370 0
-1370 1386 0
-28 -1370 1371 0
-1371 1387 0
-29 -1371 1372 0
-1372 1388 0
-30 -1372 0
-15 1373 0
-1373 1389 0
-16 -1373 1374 0
-1374 1390 0
-17 -1374 1375 0
-1375 1391 0
-18 -1375 1376 0
-1376 1392 0
-19 -1376 1377 0
-1377 1393 0
-20 -1377 1378 0
-1378 1394 0
-21 -1378 1379 0
-1379 1395 0
-22 -1379 1380 0
-1380 1396 0
-23 -1380 1381 0
-1381 1397 0
-24 -1381 1382 0
-1382 1398 0
-25 -1382 1383 0
-1383 1399 0
-26 -1383 1384 0
-1384 1400 0
-27 -1384 1385 0
-1385 1401 0
-28 -1385 1386 0
-1386 1402 0
-29 -1386 1387 0
-1387 1403 0
-30 -1387 1388 0
-1388 1404 0
-31 -1388 0
-16 1389 0
-1389 1405 0
-17 -1389 1390 0
-1390 1406 0
-18 -1390 1391 0
-1391 1407 0
-19 -1391 1392 0
-1392 1408 0
-20 -1392 1393 0
-1393 1409 0
-21 -1393 1394 0
-1394 1410 0
-22 -1394 1395 0
-1395 1411 0
-23 -1395 1396 0
-1396 1412 0
-24 -1396 1397 0
-1397 1413 0
-25 -1397 1398 0
-1398 1414 0
-26 -1398 1399 0
-1399 1415 0
-27 -1399 1400 0
-1400 1416 0
-28 -1400 1401 0
-1401 1417 0
-29 -1401 1402 0
-1402 1418 0
-30 -1402 1403 0
-1403 1419 0
-31 -1403 1404 0
-1404 1420 0
-32 -1404 0
-17 1405 0
-1405 1421 0
-18 -1405 1406 0
-1406 1422 0
-19 -1406 1407 0
-1407 1423 0
-20 -1407 1408 0
-1408 1424 0
-21 -1408 1409 0
-1409 1425 0
-22 -1409 1410 0
-1410 1426 0
-23 -1410 1411 0
-1411 1427 0
-24 -1411 1412 0
-1412 1428 0
-25 -1412 1413 0
-1413 1429 0
-26 -1413 1414 0
-1414 1430 0
-27 -1414 1415 0
-1415 1431 0
-28 -1415 1416 0
-1416 1432 0
-29 -1416 1417 0
-1417 1433 0
-30 -1417 1418 0
-1418 1434 0
-31 -1418 1419 0
-1419 1435 0
-32 -1419 1420 0
-1420 1436 0
-33 -1420 0
-18 1421 0
-1421 1437 0
-19 -1421 1422 0
-1422 1438 0
-20 -1422 1423 0
-1423 1439 0
-21 -1423 1424 0
-1424 1440 0
-22 -1424 1425 0
-1425 1441 0
-23 -1425 1426 0
-1426 1442 0
-24 -1426 1427 0
-1427 1443 0
-25 -1427 1428 0
-1428 1444 0
-26 -1428 1429 0
-1429 1445 0
-27 -1429 1430 0
-1430 1446 0
-28 -1430 1431 0
-1431 1447 0
-29 -1431 1432 0
-1432 1448 0
-30 -1432 1433 0
-1433 1449 0
-31 -1433 1434 0
-1434 1450 0
-32 -1434 1435 0
-1435 1451 0
-33 -1435 1436 0
-1436 1452 0
-34 -1436 0
-19 1437 0
-1437 1453 0
-20 -1437 1438 0
-1438 1454 0
-21 -1438 1439 0
-1439 1455 0
-22 -1439 1440 0
-1440 1456 0
-23 -1440 1441 0
-1441 1457 0
-24 -1441 1442 0
-1442 1458 0
-25 -1442 1443 0
-1443 1459 0
-26 -1443 1444 0
-1444 1460 0
-27 -1444 1445 0
-1445 1461 0
-28 -1445 1446 0
-1446 1462 0
-29 -1446 1447 0
-1447 1463 0
-30 -1447 1448 0
-1448 1464 0
-31 -1448 1449 0
-1449 1465 0
-32 -1449 1450 0
-1450 1466 0
-33 -1450 1451 0
-1451 1467 0
-34 -1451 1452 0
-1452 1468 0
-35 -1452 0
-20 1453 0
-1453 1469 0
-21 -1453 1454 0
-1454 1470 0
-22 -1454 1455 0
-1455 1471 0
-23 -1455 1456 0
-1456 1472 0
-24 -1456 1457 0
-1457 1473 0
-25 -1457 1458 0
-1458 1474 0
-26 -1458 1459 0
-1459 1475 0
-27 -1459 1460 0
-1460 1476 0
-28 -1460 1461 0
-1461 1477 0
-29 -1461 1462 0
-1462 1478 0
-30 -1462 1463 0
-1463 1479 0
-31 -1463 1464 0
-1464 1480 0
-32 -1464 1465 0
-1465 1481 0
-33 -1465 1466 0
-1466 1482 0
-34 -1466 1467 0
-1467 1483 0
-35 -1467 1468 0
-1468 1484 0
-36 -1468 0
-21 1469 0
-1469 1485 0
-22 -1469 1470 0
-1470 1486 0
-23 -1470 1471 0
-1471 1487 0
-24 -1471 1472 0
-1472 1488 0
-25 -1472 1473 0
-1473 1489 0
-26 -1473 1474 0
-1474 1490 0
-27 -1474 1475 0
-1475 1491 0
-28 -1475 1476 0
-1476 1492 0
-29 -1476 1477 0
-1477 1493 0
-30 -1477 1478 0
-1478 1494 0
-31 -1478 1479 0
-1479 1495 0
-32 -1479 1480 0
-1480 1496 0
-33 -1480 1481 0
-1481 1497 0
-34 -1481 1482 0
-1482 1498 0
-35 -1482 1483 0
-1483 1499 0
-36 -1483 1484 0
-1484 1500 0
-37 -1484 0
-22 1485 0
-1485 1501 0
-23 -1485 1486 0
-1486 1502 0
-24 -1486 1487 0
-1487 1503 0
-25 -1487 1488 0
-1488 1504 0
-26 -1488 1489 0
-1489 1505 0
-27 -1489 1490 0
-1490 1506 0
-28 -1490 1491 0
-1491 1507 0
-29 -1491 1492 0
-1492 1508 0
-30 -1492 1493 0
-1493 1509 0
-31 -1493 1494 0
-1494 1510 0
-32 -1494 1495 0
-1495 1511 0
-33 -1495 1496 0
-1496 1512 0
-34 -1496 1497 0
-1497 1513 0
-35 -1497 1498 0
-1498 1514 0
-36 -1498 1499 0
-1499 1515 0
-37 -1499 1500 0
-1500 1516 0
-38 -1500 0
-23 1501 0
-1501 1517 0
-24 -1501 1502 0
-1502 1518 0
-25 -1502 1503 0
-1503 1519 0
-26 -1503 1504 0
-1504 1520 0
-27 -1504 1505 0
-1505 1521 0
-28 -1505 1506 0
-1506 1522 0
-29 -1506 1507 0
-1507 1523 0
-30 -1507 1508 0
-1508 1524 0
-31 -1508 1509 0
-1509 1525 0
-32 -1509 1510 0
-1510 1526 0
-33 -1510 1511 0
-1511 1527 0
-34 -1511 1512 0
-1512 1528 0
-35 -1512 1513 0
-1513 1529 0
-36 -1513 1514 0
-1514 1530 0
-37 -1514 1515 0
-1515 1531 0
-38 -1515 1516 0
-1516 1532 0
-39 -1516 0
-24 1517 0
-1517 1533 0
-25 -1517 1518 0
-1518 1534 0
-26 -1518 1519 0
-1519 1535 0
-27 -1519 1520 0
-1520 1536 0
-28 -1520 1521 0
-1521 1537 0
-29 -1521 1522 0
-1522 1538 0
-30 -1522 1523 0
-1523 1539 0
-31 -1523 1524 0
-1524 1540 0
-32 -1524 1525 0
-1525 1541 0
-33 -1525 1526 0
-1526 1542 0
-34 -1526 1527 0
-1527 1543 0
-35 -1527 1528 0
-1528 1544 0
-36 -1528 1529 0
-1529 1545 0
-37 -1529 1530 0
-1530 1546 0
-38 -1530 1531 0
-1531 1547 0
-39 -1531 1532 0
-1532 1548 0
-40 -1532 0
-25 1533 0
-1533 1549 0
-26 -1533 1534 0
-1534 1550 0
-27 -1534 1535 0
-1535 1551 0
-28 -1535 1536 0
-1536 1552 0
-29 -1536 1537 0
-1537 1553 0
-30 -1537 1538 0
-1538 1554 0
-31 -1538 1539 0
-1539 1555 0
-32 -1539 1540 0
-1540 1556 0
-33 -1540 1541 0
-1541 1557 0
-34 -1541 1542 0
-1542 1558 0
-35 -1542 1543 0
-1543 1559 0
-36 -1543 1544 0
-1544 1560 0
-37 -1544 1545 0
-1545 1561 0
-38 -1545 1546 0
-1546 1562 0
-39 -1546 1547 0
-1547 1563 0
-40 -1547 1548 0
-1548 1564 0
-41 -1548 0
-26 1549 0
-1549 1565 0
-27 -1549 1550 0
-1550 1566 0
-28 -1550 1551 0
-1551 1567 0
-29 -1551 1552 0
-1552 1568 0
-30 -1552 1553 0
-1553 1569 0
-31 -1553 1554 0
-1554 1570 0
-32 -1554 1555 0
-1555 1571 0
-33 -1555 1556 0
-1556 1572 0
-34 -1556 1557 0
-1557 1573 0
-35 -1557 1558 0
-1558 1574 0
-36 -1558 1559 0
-1559 1575 0
-37 -1559 1560 0
-1560 1576 0
-38 -1560 1561 0
-1561 1577 0
-39 -1561 1562 0
-1562 1578 0
-40 -1562 1563 0
-1563 1579 0
-41 -1563 1564 0
-1564 1580 0
-42 -1564 0
-27 1565 0
-1565 1581 0
-28 -1565 1566 0
-1566 1582 0
-29 -1566 1567 0
-1567 1583 0
-30 -1567 1568 0
-1568 1584 0
-31 -1568 1569 0
-1569 1585 0
-32 -1569 1570 0
-1570 1586 0
-33 -1570 1571 0
-1571 1587 0
-34 -1571 1572 0
-1572 1588 0
-35 -1572 1573 0
-1573 1589 0
-36 -1573 1574 0
-1574 1590 0
-37 -1574 1575 0
-1575 1591 0
-38 -1575 1576 0
-1576 1592 0
-39 -1576 1577 0
-1577 1593 0
-40 -1577 1578 0
-1578 1594 0
-41 -1578 1579 0
-1579 1595 0
-42 -1579 1580 0
-1580 1596 0
-43 -1580 0
-28 1581 0
-1581 1597 0
-29 -1581 1582 0
-1582 1598 0
-30 -1582 1583 0
-1583 1599 0
-31 -1583 1584 0
-1584 1600 0
-32 -1584 1585 0
-1585 1601 0
-33 -1585 1586 0
-1586 1602 0
-34 -1586 1587 0
-1587 1603 0
-35 -1587 1588 0
-1588 1604 0
-36 -1588 1589 0
-1589 1605 0
-37 -1589 1590 0
-1590 1606 0
-38 -1590 1591 0
-1591 1607 0
-39 -1591 1592 0
-1592 1608 0
-40 -1592 1593 0
-1593 1609 0
-41 -1593 1594 0
-1594 1610 0
-42 -1594 1595 0
-1595 1611 0
-43 -1595 1596 0
-1596 1612 0
-44 -1596 0
-29 1597 0
-1597 1613 0
-30 -1597 1598 0
-1598 1614 0
-31 -1598 1599 0
-1599 1615 0
-32 -1599 1600 0
-1600 1616 0
-33 -1600 1601 0
-1601 1617 0
-34 -1601 1602 0
-1602 1618 0
-35 -1602 1603 0
-1603 1619 0
-36 -1603 1604 0
-1604 1620 0
-37 -1604 1605 0
-1605 1621 0
-38 -1605 1606 0
-1606 1622 0
-39 -1606 1607 0
-1607 1623 0
-40 -1607 1608 0
-1608 1624 0
-41 -1608 1609 0
-1609 1625 0
-42 -1609 1610 0
-1610 1626 0
-43 -1610 1611 0
-1611 1627 0
-44 -1611 1612 0
-1612 1628 0
-45 -1612 0
-30 1613 0
-1613 1629 0
-31 -1613 1614 0
-1614 1630 0
-32 -1614 1615 0
-1615 1631 0
-33 -1615 1616 0
-1616 1632 0
-34 -1616 1617 0
-1617 1633 0
-35 -1617 1618 0
-1618 1634 0
-36 -1618 1619 0
-1619 1635 0
-37 -1619 1620 0
-1620 1636 0
-38 -1620 1621 0
-1621 1637 0
-39 -1621 1622 0
-1622 1638 0
-40 -1622 1623 0
-1623 1639 0
-41 -1623 1624 0
-1624 1640 0
-42 -1624 1625 0
-1625 1641 0
-43 -1625 1626 0
-1626 1642 0
-44 -1626 1627 0
-1627 1643 0
-45 -1627 1628 0
-1628 1644 0
-46 -1628 0
-31 1629 0
-1629 1645 0
-32 -1629 1630 0
-1630 1646 0
-33 -1630 1631 0
-1631 1647 0
-34 -1631 1632 0
-1632 1648 0
-35 -1632 1633 0
-1633 1649 0
-36 -1633 1634 0
-1634 1650 0
-37 -1634 1635 0
-1635 1651 0
-38 -1635 1636 0
-1636 1652 0
-39 -1636 1637 0
-1637 1653 0
-40 -1637 1638 0
-1638 1654 0
-41 -1638 1639 0
-1639 1655 0
-42 -1639 1640 0
-1640 1656 0
-43 -1640 1641 0
-1641 1657 0
-44 -1641 1642 0
-1642 1658 0
-45 -1642 1643 0
-1643 1659 0
-46 -1643 1644 0
-1644 1660 0
-47 -1644 0
-32 1645 0
-1645 1661 0
-33 -1645 1646 0
-1646 1662 0
-34 -1646 1647 0
-1647 1663 0
-35 -1647 1648 0
-1648 1664 0
-36 -1648 1649 0
-1649 1665 0
-37 -1649 1650 0
-1650 1666 0
-38 -1650 1651 0
-1651 1667 0
-39 -1651 1652 0
-1652 1668 0
-40 -1652 1653 0
-1653 1669 0
-41 -1653 1654 0
-1654 1670 0
-42 -1654 1655 0
-1655 1671 0
-43 -1655 1656 0
-1656 1672 0
-44 -1656 1657 0
-1657 1673 0
-45 -1657 1658 0
-1658 1674 0
-46 -1658 1659 0
-1659 1675 0
-47 -1659 1660 0
-1660 1676 0
-48 -1660 0
-33 1661 0
-1661 1677 0
-34 -1661 1662 0
-1662 1678 0
-35 -1662 1663 0
-1663 1679 0
-36 -1663 1664 0
-1664 1680 0
-37 -1664 1665 0
-1665 1681 0
-38 -1665 1666 0
-1666 1682 0
-39 -1666 1667 0
-1667 1683 0
-40 -1667 1668 0
-1668 1684 0
-41 -1668 1669 0
-1669 1685 0
-42 -1669 1670 0
-1670 1686 0
-43 -1670 1671 0
-1671 1687 0
-44 -1671 1672 0
-1672 1688 0
-45 -1672 1673 0
-1673 1689 0
-46 -1673 1674 0
-1674 1690 0
-47 -1674 1675 0
-1675 1691 0
-48 -1675 1676 0
-1676 1692 0
-49 -1676 0
-34 1677 0
-1677 1693 0
-35 -1677 1678 0
-1678 1694 0
-36 -1678 1679 0
-1679 1695 0
-37 -1679 1680 0
-1680 1696 0
-38 -1680 1681 0
-1681 1697 0
-39 -1681 1682 0
-1682 1698 0
-40 -1682 1683 0
-1683 1699 0
-41 -1683 1684 0
-1684 1700 0
-42 -1684 1685 0
-1685 1701 0
-43 -1685 1686 0
-1686 1702 0
-44 -1686 1687 0
-1687 1703 0
-45 -1687 1688 0
-1688 1704 0
-46 -1688 1689 0
-1689 1705 0
-47 -1689 1690 0
-1690 1706 0
-48 -1690 1691 0
-1691 1707 0
-49 -1691 1692 0
-1692 1708 0
-50 -1692 0
-35 1693 0
-1693 1709 0
-36 -1693 1694 0
-1694 1710 0
-37 -1694 1695 0
-1695 1711 0
-38 -1695 1696 0
-1696 1712 0
-39 -1696 1697 0
-1697 1713 0
-40 -1697 1698 0
-1698 1714 0
-41 -1698 1699 0
-1699 1715 0
-42 -1699 1700 0
-1700 1716 0
-43 -1700 1701 0
-1701 1717 0
-44 -1701 1702 0
-1702 1718 0
-45 -1702 1703 0
-1703 1719 0
-46 -1703 1704 0
-1704 1720 0
-47 -1704 1705 0
-1705 1721 0
-48 -1705 1706 0
-1706 1722 0
-49 -1706 1707 0
-1707 1723 0
-50 -1707 1708 0
-1708 1724 0
-51 -1708 0
-36 1709 0
-1709 1725 0
-37 -1709 1710 0
-1710 1726 0
-38 -1710 1711 0
-1711 1727 0
-39 -1711 1712 0
-1712 1728 0
-40 -1712 1713 0
-1713 1729 0
-41 -1713 1714 0
-1714 1730 0
-42 -1714 1715 0
-1715 1731 0
-43 -1715 1716 0
-1716 1732 0
-44 -1716 1717 0
-1717 1733 0
-45 -1717 1718 0
-1718 1734 0
-46 -1718 1719 0
-1719 1735 0
-47 -1719 1720 0
-1720 1736 0
-48 -1720 1721 0
-1721 1737 0
-49 -1721 1722 0
-1722 1738 0
-50 -1722 1723 0
-1723 1739 0
-51 -1723 1724 0
-1724 1740 0
-52 -1724 0
-37 1725 0
-1725 1741 0
-38 -1725 1726 0
-1726 1742 0
-39 -1726 1727 0
-1727 1743 0
-40 -1727 1728 0
-1728 1744 0
-41 -1728 1729 0
-1729 1745 0
-42 -1729 1730 0
-1730 1746 0
-43 -1730 1731 0
-1731 1747 0
-44 -1731 1732 0
-1732 1748 0
-45 -1732 1733 0
-1733 1749 0
-46 -1733 1734 0
-1734 1750 0
-47 -1734 1735 0
-1735 1751 0
-48 -1735 1736 0
-1736 1752 0
-49 -1736 1737 0
-1737 1753 0
-50 -1737 1738 0
-1738 1754 0
-51 -1738 1739 0
-1739 1755 0
-52 -1739 1740 0
-1740 1756 0
-53 -1740 0
-38 1741 0
-1741 1757 0
-39 -1741 1742 0
-1742 1758 0
-40 -1742 1743 0
-1743 1759 0
-41 -1743 1744 0
-1744 1760 0
-42 -1744 1745 0
-1745 1761 0
-43 -1745 1746 0
-1746 1762 0
-44 -1746 1747 0
-1747 1763 0
-45 -1747 1748 0
-1748 1764 0
-46 -1748 1749 0
-1749 1765 0
-47 -1749 1750 0
-1750 1766 0
-48 -1750 1751 0
-1751 1767 0
-49 -1751 1752 0
-1752 1768 0
-50 -1752 1753 0
-1753 1769 0
-51 -1753 1754 0
-1754 1770 0
-52 -1754 1755 0
-1755 1771 0
-53 -1755 1756 0
-1756 1772 0
-54 -1756 0
-39 1757 0
-1757 1773 0
-40 -1757 1758 0
-1758 1774 0
-41 -1758 1759 0
-1759 1775 0
-42 -1759 1760 0
-1760 1776 0
-43 -1760 1761 0
-1761 1777 0
-44 -1761 1762 0
-1762 1778 0
-45 -1762 1763 0
-1763 1779 0
-46 -1763 1764 0
-1764 1780 0
-47 -1764 1765 0
-1765 1781 0
-48 -1765 1766 0
-1766 1782 0
-49 -1766 1767 0
-1767 1783 0
-50 -1767 1768 0
-1768 1784 0
-51 -1768 1769 0
-1769 1785 0
-52 -1769 1770 0
-1770 1786 0
-53 -1770 1771 0
-1771 1787 0
-54 -1771 1772 0
-1772 1788 0
-55 -1772 0
-40 1773 0
-1773 1789 0
-41 -1773 1774 0
-1774 1790 0
-42 -1774 1775 0
-1775 1791 0
-43 -1775 1776 0
-1776 1792 0
-44 -1776 1777 0
-1777 1793 0
-45 -1777 1778 0
-1778 1794 0
-46 -1778 1779 0
-1779 1795 0
-47 -1779 1780 0
-1780 1796 0
-48 -1780 1781 0
-1781 1797 0
-49 -1781 1782 0
-1782 1798 0
-50 -1782 1783 0
-1783 1799 0
-51 -1783 1784 0
-1784 1800 0
-52 -1784 1785 0
-1785 1801 0
-53 -1785 1786 0
-1786 1802 0
-54 -1786 1787 0
-1787 1803 0
-55 -1787 1788 0
-1788 1804 0
-56 -1788 0
-41 1789 0
-1789 1805 0
-42 -1789 1790 0
-1790 1806 0
-43 -1790 1791 0
-1791 1807 0
-44 -1791 1792 0
-1792 1808 0
-45 -1792 1793 0
-1793 1809 0
-46 -1793 1794 0
-1794 1810 0
-47 -1794 1795 0
-1795 1811 0
-48 -1795 1796 0
-1796 1812 0
-49 -1796 1797 0
-1797 1813 0
-50 -1797 1798 0
-1798 1814 0
-51 -1798 1799 0
-1799 1815 0
-52 -1799 1800 0
-1800 1816 0
-53 -1800 1801 0
-1801 1817 0
-54 -1801 1802 0
-1802 1818 0
-55 -1802 1803 0
-1803 1819 0
-56 -1803 1804 0
-1804 1820 0
-57 -1804 0
-42 1805 0
-1805 1821 0
-43 -1805 1806 0
-1806 1822 0
-44 -1806 1807 0
-1807 1823 0
-45 -1807 1808 0
-1808 1824 0
-46 -1808 1809 0
-1809 1825 0
-47 -1809 1810 0
-1810 1826 0
-48 -1810 1811 0
-1811 1827 0
-49 -1811 1812 0
-1812 1828 0
-50 -1812 1813 0
-1813 1829 0
-51 -1813 1814 0
-1814 1830 0
-52 -1814 1815 0
-1815 1831 0
-53 -1815 1816 0
-1816 1832 0
-54 -1816 1817 0
-1817 1833 0
-55 -1817 1818 0
-1818 1834 0
-56 -1818 1819 0
-1819 1835 0
-57 -1819 1820 0
-1820 1836 0
-58 -1820 0
-43 1821 0
-1821 1837 0
-44 -1821 1822 0
-1822 1838 0
-45 -1822 1823 0
-1823 1839 0
-46 -1823 1824 0
-1824 1840 0
-47 -1824 1825 0
-1825 1841 0
-48 -1825 1826 0
-1826 1842 0
-49 -1826 1827 0
-1827 1843 0
-50 -1827 1828 0
-1828 1844 0
-51 -1828 1829 0
-1829 1845 0
-52 -1829 1830 0
-1830 1846 0
-53 -1830 1831 0
-1831 1847 0
-54 -1831 1832 0
-1832 1848 0
-55 -1832 1833 0
-1833 1849 0
-56 -1833 1834 0
-1834 1850 0
-57 -1834 1835 0
-1835 1851 0
-58 -1835 1836 0
-1836 1852 0
-59 -1836 0
-44 1837 0
-1837 1853 0
-45 -1837 1838 0
-1838 1854 0
-46 -1838 1839 0
-1839 1855 0
-47 -1839 1840 0
-1840 1856 0
-48 -1840 1841 0
-1841 1857 0
-49 -1841 1842 0
-1842 1858 0
-50 -1842 1843 0
-1843 1859 0
-51 -1843 1844 0
-1844 1860 0
-52 -1844 1845 0
-1845 1861 0
-53 -1845 1846 0
-1846 1862 0
-54 -1846 1847 0
-1847 1863 0
-55 -1847 1848 0
-1848 1864 0
-56 -1848 1849 0
-1849 1865 0
-57 -1849 1850 0
-1850 1866 0
-58 -1850 1851 0
-1851 1867 0
-59 -1851 1852 0
-1852 1868 0
-60 -1852 0
-45 1853 0
-1853 1869 0
-46 -1853 1854 0
-1854 1870 0
-47 -1854 1855 0
-1855 1871 0
-48 -1855 1856 0
-1856 1872 0
-49 -1856 1857 0
-1857 1873 0
-50 -1857 1858 0
-1858 1874 0
-51 -1858 1859 0
-1859 1875 0
-52 -1859 1860 0
-1860 1876 0
-53 -1860 1861 0
-1861 1877 0
-54 -1861 1862 0
-1862 1878 0
-55 -1862 1863 0
-1863 1879 0
-56 -1863 1864 0
-1864 1880 0
-57 -1864 1865 0
-1865 1881 0
-58 -1865 1866 0
-1866 1882 0
-59 -1866 1867 0
-1867 1883 0
-60 -1867 1868 0
-1868 1884 0
-61 -1868 0
-46 1869 0
-1869 1885 0
-47 -1869 1870 0
-1870 1886 0
-48 -1870 1871 0
-1871 1887 0
-49 -1871 1872 0
-1872 1888 0
-50 -1872 1873 0
-1873 1889 0
-51 -1873 1874 0
-1874 1890 0
-52 -1874 1875 0
-1875 1891 0
-53 -1875 1876 0
-1876 1892 0
-54 -1876 1877 0
-1877 1893 0
-55 -1877 1878 0
-1878 1894 0
-56 -1878 1879 0
-1879 1895 0
-57 -1879 1880 0
-1880 1896 0
-58 -1880 1881 0
-1881 1897 0
-59 -1881 1882 0
-1882 1898 0
-60 -1882 1883 0
-1883 1899 0
-61 -1883 1884 0
-1884 1900 0
-62 -1884 0
-47 1885 0
-1885 1901 0
-48 -1885 1886 0
-1886 1902 0
-49 -1886 1887 0
-1887 1903 0
-50 -1887 1888 0
-1888 1904 0
-51 -1888 1889 0
-1889 1905 0
-52 -1889 1890 0
-1890 1906 0
-53 -1890 1891 0
-1891 1907 0
-54 -1891 1892 0
-1892 1908 0
-55 -1892 1893 0
-1893 1909 0
-56 -1893 1894 0
-1894 1910 0
-57 -1894 1895 0
-1895 1911 0
-58 -1895 1896 0
-1896 1912 0
-59 -1896 1897 0
-1897 1913 0
-60 -1897 1898 0
-1898 1914 0
-61 -1898 1899 0
-1899 1915 0
-62 -1899 1900 0
-1900 1916 0
-63 -1900 0
-48 1901 0
-1901 1917 0
-49 -1901 1902 0
-1902 1918 0
-50 -1902 1903 0
-1903 1919 0
-51 -1903 1904 0
-1904 1920 0
-52 -1904 1905 0
-1905 1921 0
-53 -1905 1906 0
-1906 1922 0
-54 -1906 1907 0
-1907 1923 0
-55 -1907 1908 0
-1908 1924 0
-56 -1908 1909 0
-1909 1925 0
-57 -1909 1910 0
-1910 1926 0
-58 -1910 1911 0
-1911 1927 0
-59 -1911 1912 0
-1912 1928 0
-60 -1912 1913 0
-1913 1929 0
-61 -1913 1914 0
-1914 1930 0
-62 -1914 1915 0
-1915 1931 0
-63 -1915 1916 0
-1916 1932 0
-64 -1916 0
-49 1917 0
-1917 1933 0
-50 -1917 1918 0
-1918 1934 0
-51 -1918 1919 0
-1919 1935 0
-52 -1919 1920 0
-1920 1936 0
-53 -1920 1921 0
-1921 1937 0
-54 -1921 1922 0
-1922 1938 0
-55 -1922 1923 0
-1923 1939 0
-56 -1923 1924 0
-1924 1940 0
-57 -1924 1925 0
-1925 1941 0
-58 -1925 1926 0
-1926 1942 0
-59 -1926 1927 0
-1927 1943 0
-60 -1927 1928 0
-1928 1944 0
-61 -1928 1929 0
-1929 1945 0
-62 -1929 1930 0
-1930 1946 0
-63 -1930 1931 0
-1931 1947 0
-64 -1931 1932 0
-1932 1948 0
-65 -1932 0
-50 1933 0
-1933 1949 0
-51 -1933 1934 0
-1934 1950 0
-52 -1934 1935 0
-1935 1951 0
-53 -1935 1936 0
-1936 1952 0
-54 -1936 1937 0
-1937 1953 0
-55 -1937 1938 0
-1938 1954 0
-56 -1938 1939 0
-1939 1955 0
-57 -1939 1940 0
-1940 1956 0
-58 -1940 1941 0
-1941 1957 0
-59 -1941 1942 0
-1942 1958 0
-60 -1942 1943 0
-1943 1959 0
-61 -1943 1944 0
-1944 1960 0
-62 -1944 1945 0
-1945 1961 0
-63 -1945 1946 0
-1946 1962 0
-64 -1946 1947 0
-1947 1963 0
-65 -1947 1948 0
-1948 1964 0
-66 -1948 0
-51 1949 0
-1949 1965 0
-52 -1949 1950 0
-1950 1966 0
-53 -1950 1951 0
-1951 1967 0
-54 -1951 1952 0
-1952 1968 0
-55 -1952 1953 0
-1953 1969 0
-56 -1953 1954 0
-1954 1970 0
-57 -1954 1955 0
-1955 1971 0
-58 -1955 1956 0
-1956 1972 0
-59 -1956 1957 0
-1957 1973 0
-60 -1957 1958 0
-1958 1974 0
-61 -1958 1959 0
-1959 1975 0
-62 -1959 1960 0
-1960 1976 0
-63 -1960 1961 0
-1961 1977 0
-64 -1961 1962 0
-1962 1978 0
-65 -1962 1963 0
-1963 1979 0
-66 -1963 1964 0
-1964 1980 0
-67 -1964 0
-52 1965 0
-1965 1981 0
-53 -1965 1966 0
-1966 1982 0
-54 -1966 1967 0
-1967 1983 0
-55 -1967 1968 0
-1968 1984 0
-56 -1968 1969 0
-1969 1985 0
-57 -1969 1970 0
-1970 1986 0
-58 -1970 1971 0
-1971 1987 0
-59 -1971 1972 0
-1972 1988 0
-60 -1972 1973 0
-1973 1989 0
-61 -1973 1974 0
-1974 1990 0
-62 -1974 1975 0
-1975 1991 0
-63 -1975 1976 0
-1976 1992 0
-64 -1976 1977 0
-1977 1993 0
-65 -1977 1978 0
-1978 1994 0
-66 -1978 1979 0
-1979 1995 0
-67 -1979 1980 0
-1980 1996 0
-68 -1980 0
-53 1981 0
-1981 1997 0
-54 -1981 1982 0
-1982 1998 0
-55 -1982 1983 0
-1983 1999 0
-56 -1983 1984 0
-1984 2000 0
-57 -1984 1985 0
-1985 2001 0
-58 -1985 1986 0
-1986 2002 0
-59 -1986 1987 0
-1987 2003 0
-60 -1987 1988 0
-1988 2004 0
-61 -1988 1989 0
-1989 2005 0
-62 -1989 1990 0
-1990 2006 0
-63 -1990 1991 0
-1991 2007 0
-64 -1991 1992 0
-1992 2008 0
-65 -1992 1993 0
-1993 2009 0
-66 -1993 1994 0
-1994 2010 0
-67 -1994 1995 0
-1995 2011 0
-68 -1995 1996 0
-1996 2012 0
-69 -1996 0
-54 1997 0
-1997 2013 0
-55 -1997 1998 0
-1998 2014 0
-56 -1998 1999 0
-1999 2015 0
-57 -1999 2000 0
-2000 2016 0
-58 -2000 2001 0
-2001 2017 0
-59 -2001 2002 0
-2002 2018 0
-60 -2002 2003 0
-2003 2019 0
-61 -2003 2004 0
-2004 2020 0
-62 -2004 2005 0
-2005 2021 0
-63 -2005 2006 0
-2006 2022 0
-64 -2006 2007 0
-2007 2023 0
-65 -2007 2008 0
-2008 2024 0
-66 -2008 2009 0
-2009 2025 0
-67 -2009 2010 0
-2010 2026 0
-68 -2010 2011 0
-2011 2027 0
-69 -2011 2012 0
-2012 2028 0
-70 -2012 0
-55 2013 0
-2013 2029 0
-56 -2013 2014 0
-2014 2030 0
-57 -2014 2015 0
-2015 2031 0
-58 -2015 2016 0
-2016 2032 0
-59 -2016 2017 0
-2017 2033 0
-60 -2017 2018 0
-2018 2034 0
-61 -2018 2019 0
-2019 2035 0
-62 -2019 2020 0
-2020 2036 0
-63 -2020 2021 0
-2021 2037 0
-64 -2021 2022 0
-2022 2038 0
-65 -2022 2023 0
-2023 2039 0
-66 -2023 2024 0
-2024 2040 0
-67 -2024 2025 0
-2025 2041 0
-68 -2025 2026 0
-2026 2042 0
-69 -2026 2027 0
-2027 2043 0
-70 -2027 2028 0
-2028 2044 0
-71 -2028 0
-56 2029 0
-2029 2045 0
-57 -2029 2030 0
-2030 2046 0
-58 -2030 2031 0
-2031 2047 0
-59 -2031 2032 0
-2032 2048 0
-60 -2032 2033 0
-2033 2049 0
-61 -2033 2034 0
-2034 2050 0
-62 -2034 2035 0
-2035 2051 0
-63 -2035 2036 0
-2036 2052 0
-64 -2036 2037 0
-2037 2053 0
-65 -2037 2038 0
-2038 2054 0
-66 -2038 2039 0
-2039 2055 0
-67 -2039 2040 0
-2040 2056 0
-68 -2040 2041 0
-2041 2057 0
-69 -2041 2042 0
-2042 2058 0
-70 -2042 2043 0
-2043 2059 0
-71 -2043 2044 0
-2044 2060 0
-72 -2044 0
-57 2045 0
-2045 2061 0
-58 -2045 2046 0
-2046 2062 0
-59 -2046 2047 0
-2047 2063 0
-60 -2047 2048 0
-2048 2064 0
-61 -2048 2049 0
-2049 2065 0
-62 -2049 2050 0
-2050 2066 0
-63 -2050 2051 0
-2051 2067 0
-64 -2051 2052 0
-2052 2068 0
-65 -2052 2053 0
-2053 2069 0
-66 -2053 2054 0
-2054 2070 0
-67 -2054 2055 0
-2055 2071 0
-68 -2055 2056 0
-2056 2072 0
-69 -2056 2057 0
-2057 2073 0
-70 -2057 2058 0
-2058 2074 0
-71 -2058 2059 0
-2059 2075 0
-72 -2059 2060 0
-2060 2076 0
-73 -2060 0
-58 2061 0
-2061 2077 0
-59 -2061 2062 0
-2062 2078 0
-60 -2062 2063 0
-2063 2079 0
-61 -2063 2064 0
-2064 2080 0
-62 -2064 2065 0
-2065 2081 0
-63 -2065 2066 0
-2066 2082 0
-64 -2066 2067 0
-2067 2083 0
-65 -2067 2068 0
-2068 2084 0
-66 -2068 2069 0
-2069 2085 0
-67 -2069 2070 0
-2070 2086 0
-68 -2070 2071 0
-2071 2087 0
-69 -2071 2072 0
-2072 2088 0
-70 -2072 2073 0
-2073 2089 0
-71 -2073 2074 0
-2074 2090 0
-72 -2074 2075 0
-2075 2091 0
-73 -2075 2076 0
-2076 2092 0
-74 -2076 0
-59 2077 0
-2077 2093 0
-60 -2077 2078 0
-2078 2094 0
-61 -2078 2079 0
-2079 2095 0
-62 -2079 2080 0
-2080 2096 0
-63 -2080 2081 0
-2081 2097 0
-64 -2081 2082 0
-2082 2098 0
-65 -2082 2083 0
-2083 2099 0
-66 -2083 2084 0
-2084 2100 0
-67 -2084 2085 0
-2085 2101 0
-68 -2085 2086 0
-2086 2102 0
-69 -2086 2087 0
-2087 2103 0
-70 -2087 2088 0
-2088 2104 0
-71 -2088 2089 0
-2089 2105 0
-72 -2089 2090 0
-2090 2106 0
-73 -2090 2091 0
-2091 2107 0
-74 -2091 2092 0
-2092 2108 0
-75 -2092 0
-60 2093 0
-2093 2109 0
-61 -2093 2094 0
-2094 2110 0
-62 -2094 2095 0
-2095 2111 0
-63 -2095 2096 0
-2096 2112 0
-64 -2096 2097 0
-2097 2113 0
-65 -2097 2098 0
-2098 2114 0
-66 -2098 2099 0
-2099 2115 0
-67 -2099 2100 0
-2100 2116 0
-68 -2100 2101 0
-2101 2117 0
-69 -2101 2102 0
-2102 2118 0
-70 -2102 2103 0
-2103 2119 0
-71 -2103 2104 0
-2104 2120 0
-72 -2104 2105 0
-2105 2121 0
-73 -2105 2106 0
-2106 2122 0
-74 -2106 2107 0
-2107 2123 0
-75 -2107 2108 0
-2108 2124 0
-76 -2108 0
-61 2109 0
-2109 2125 0
-62 -2109 2110 0
-2110 2126 0
-63 -2110 2111 0
-2111 2127 0
-64 -2111 2112 0
-2112 2128 0
-65 -2112 2113 0
-2113 2129 0
-66 -2113 2114 0
-2114 2130 0
-67 -2114 2115 0
-2115 2131 0
-68 -2115 2116 0
-2116 2132 0
-69 -2116 2117 0
-2117 2133 0
-70 -2117 2118 0
-2118 2134 0
-71 -2118 2119 0
-2119 2135 0
-72 -2119 2120 0
-2120 2136 0
-73 -2120 2121 0
-2121 2137 0
-74 -2121 2122 0
-2122 2138 0
-75 -2122 2123 0
-2123 2139 0
-76 -2123 2124 0
-2124 2140 0
-77 -2124 0
-62 2125 0
-63 -2125 2126 0
-64 -2126 2127 0
-65 -2127 2128 0
-66 -2128 2129 0
-67 -2129 2130 0
-68 -2130 2131 0
-69 -2131 2132 0
-70 -2132 2133 0
-71 -2133 2134 0
-72 -2134 2135 0
-73 -2135 2136 0
-74 -2136 2137 0
-75 -2137 2138 0
-76 -2138 2139 0
-77 -2139 2140 0
-78 -2140 0
-79 2141 0
-2141 2142 0
-80 -2141 2143 0
-2143 2144 0
-81 -2143 2145 0
-2145 2146 0
-82 -2145 2147 0
-2147 2148 0
-83 -2147 2149 0
-2149 2150 0
-84 -2149 2151 0
-2151 2152 0
-85 -2151 2153 0
-2153 2154 0
-86 -2153 2155 0
-2155 2156 0
-87 -2155 2157 0
-2157 2158 0
-88 -2157 0
-80 2142 0
-2142 2159 0
-81 -2142 2144 0
-2144 2160 0
-82 -2144 2146 0
-2146 2161 0
-83 -2146 2148 0
-2148 2162 0
-84 -2148 2150 0
-2150 2163 0
-85 -2150 2152 0
-2152 2164 0
-86 -2152 2154 0
-2154 2165 0
-87 -2154 2156 0
-2156 2166 0
-88 -2156 2158 0
-2158 2167 0
-89 -2158 0
-81 2159 0
-2159 2168 0
-82 -2159 2160 0
-2160 2169 0
-83 -2160 2161 0
-2161 2170 0
-84 -2161 2162 0
-2162 2171 0
-85 -2162 2163 0
-2163 2172 0
-86 -2163 2164 0
-2164 2173 0
-87 -2164 2165 0
-2165 2174 0
-88 -2165 2166 0
-2166 2175 0
-89 -2166 2167 0
-2167 2176 0
-90 -2167 0
-82 2168 0
-2168 2177 0
-83 -2168 2169 0
-2169 2178 0
-84 -2169 2170 0
-2170 2179 0
-85 -2170 2171 0
-2171 2180 0
-86 -2171 2172 0
-2172 2181 0
-87 -2172 2173 0
-2173 2182 0
-88 -2173 2174 0
-2174 2183 0
-89 -2174 2175 0
-2175 2184 0
-90 -2175 2176 0
-2176 2185 0
-91 -2176 0
-83 2177 0
-2177 2186 0
-84 -2177 2178 0
-2178 2187 0
-85 -2178 2179 0
-2179 2188 0
-86 -2179 2180 0
-2180 2189 0
-87 -2180 2181 0
-2181 2190 0
-88 -2181 2182 0
-2182 2191 0
-89 -2182 2183 0
-2183 2192 0
-90 -2183 2184 0
-2184 2193 0
-91 -2184 2185 0
-2185 2194 0
-92 -2185 0
-84 2186 0
-2186 2195 0
-85 -2186 2187 0
-2187 2196 0
-86 -2187 2188 0
-2188 2197 0
-87 -2188 2189 0
-2189 2198 0
-88 -2189 2190 0
-2190 2199 0
-89 -2190 2191 0
-2191 2200 0
-90 -2191 2192 0
-2192 2201 0
-91 -2192 2193 0
-2193 2202 0
-92 -2193 2194 0
-2194 2203 0
-93 -2194 0
-85 2195 0
-2195 2204 0
-86 -2195 2196 0
-2196 2205 0
-87 -2196 2197 0
-2197 2206 0
-88 -2197 2198 0
-2198 2207 0
-89 -2198 2199 0
-2199 2208 0
-90 -2199 2200 0
-2200 2209 0
-91 -2200 2201 0
-2201 2210 0
-92 -2201 2202 0
-2202 2211 0
-93 -2202 2203 0
-2203 2212 0
-94 -2203 0
-86 2204 0
-2204 2213 0
-87 -2204 2205 0
-2205 2214 0
-88 -2205 2206 0
-2206 2215 0
-89 -2206 2207 0
-2207 2216 0
-90 -2207 2208 0
-2208 2217 0
-91 -2208 2209 0
-2209 2218 0
-92 -2209 2210 0
-2210 2219 0
-93 -2210 2211 0
-2211 2220 0
-94 -2211 2212 0
-2212 2221 0
-95 -2212 0
-87 2213 0
-2213 2222 0
-88 -2213 2214 0
-2214 2223 0
-89 -2214 2215 0
-2215 2224 0
-90 -2215 2216 0
-2216 2225 0
-91 -2216 2217 0
-2217 2226 0
-92 -2217 2218 0
-2218 2227 0
-93 -2218 2219 0
-2219 2228 0
-94 -2219 2220 0
-2220 2229 0
-95 -2220 2221 0
-2221 2230 0
-96 -2221 0
-88 2222 0
-2222 2231 0
-89 -2222 2223 0
-2223 2232 0
-90 -2223 2224 0
-2224 2233 0
-91 -2224 2225 0
-2225 2234 0
-92 -2225 2226 0
-2226 2235 0
-93 -2226 2227 0
-2227 2236 0
-94 -2227 2228 0
-2228 2237 0
-95 -2228 2229 0
-2229 2238 0
-96 -2229 2230 0
-2230 2239 0
-97 -2230 0
-89 2231 0
-2231 2240 0
-90 -2231 2232 0
-2232 2241 0
-91 -2232 2233 0
-2233 2242 0
-92 -2233 2234 0
-2234 2243 0
-93 -2234 2235 0
-2235 2244 0
-94 -2235 2236 0
-2236 2245 0
-95 -2236 2237 0
-2237 2246 0
-96 -2237 2238 0
-2238 2247 0
-97 -2238 2239 0
-2239 2248 0
-98 -2239 0
-90 2240 0
-2240 2249 0
-91 -2240 2241 0
-2241 2250 0
-92 -2241 2242 0
-2242 2251 0
-93 -2242 2243 0
-2243 2252 0
-94 -2243 2244 0
-2244 2253 0
-95 -2244 2245 0
-2245 2254 0
-96 -2245 2246 0
-2246 2255 0
-97 -2246 2247 0
-2247 2256 0
-98 -2247 2248 0
-2248 2257 0
-99 -2248 0
-91 2249 0
-2249 2258 0
-92 -2249 2250 0
-2250 2259 0
-93 -2250 2251 0
-2251 2260 0
-94 -2251 2252 0
-2252 2261 0
-95 -2252 2253 0
-2253 2262 0
-96 -2253 2254 0
-2254 2263 0
-97 -2254 2255 0
-2255 2264 0
-98 -2255 2256 0
-2256 2265 0
-99 -2256 2257 0
-2257 2266 0
-100 -2257 0
-92 2258 0
-2258 2267 0
-93 -2258 2259 0
-2259 2268 0
-94 -2259 2260 0
-2260 2269 0
-95 -2260 2261 0
-2261 2270 0
-96 -2261 2262 0
-2262 2271 0
-97 -2262 2263 0
-2263 2272 0
-98 -2263 2264 0
-2264 2273 0
-99 -2264 2265 0
-2265 2274 0
-100 -2265 2266 0
-2266 2275 0
-101 -2266 0
-93 2267 0
-2267 2276 0
-94 -2267 2268 0
-2268 2277 0
-95 -2268 2269 0
-2269 2278 0
-96 -2269 2270 0
-2270 2279 0
-97 -2270 2271 0
-2271 2280 0
-98 -2271 2272 0
-2272 2281 0
-99 -2272 2273 0
-2273 2282 0
-100 -2273 2274 0
-2274 2283 0
-101 -2274 2275 0
-2275 2284 0
-102 -2275 0
-94 2276 0
-2276 2285 0
-95 -2276 2277 0
-2277 2286 0
-96 -2277 2278 0
-2278 2287 0
-97 -2278 2279 0
-2279 2288 0
-98 -2279 2280 0
-2280 2289 0
-99 -2280 2281 0
-2281 2290 0
-100 -2281 2282 0
-2282 2291 0
-101 -2282 2283 0
-2283 2292 0
-102 -2283 2284 0
-2284 2293 0
-103 -2284 0
-95 2285 0
-2285 2294 0
-96 -2285 2286 0
-2286 2295 0
-97 -2286 2287 0
-2287 2296 0
-98 -2287 2288 0
-2288 2297 0
-99 -2288 2289 0
-2289 2298 0
-100 -2289 2290 0
-2290 2299 0
-101 -2290 2291 0
-2291 2300 0
-102 -2291 2292 0
-2292 2301 0
-103 -2292 2293 0
-2293 2302 0
-104 -2293 0
-96 2294 0
-2294 2303 0
-97 -2294 2295 0
-2295 2304 0
-98 -2295 2296 0
-2296 2305 0
-99 -2296 2297 0
-2297 2306 0
-100 -2297 2298 0
-2298 2307 0
-101 -2298 2299 0
-2299 2308 0
-102 -2299 2300 0
-2300 2309 0
-103 -2300 2301 0
-2301 2310 0
-104 -2301 2302 0
-2302 2311 0
-105 -2302 0
-97 2303 0
-2303 2312 0
-98 -2303 2304 0
-2304 2313 0
-99 -2304 2305 0
-2305 2314 0
-100 -2305 2306 0
-2306 2315 0
-101 -2306 2307 0
-2307 2316 0
-102 -2307 2308 0
-2308 2317 0
-103 -2308 2309 0
-2309 2318 0
-104 -2309 2310 0
-2310 2319 0
-105 -2310 2311 0
-2311 2320 0
-106 -2311 0
-98 2312 0
-2312 2321 0
-99 -2312 2313 0
-2313 2322 0
-100 -2313 2314 0
-2314 2323 0
-101 -2314 2315 0
-2315 2324 0
-102 -2315 2316 0
-2316 2325 0
-103 -2316 2317 0
-2317 2326 0
-104 -2317 2318 0
-2318 2327 0
-105 -2318 2319 0
-2319 2328 0
-106 -2319 2320 0
-2320 2329 0
-107 -2320 0
-99 2321 0
-2321 2330 0
-100 -2321 2322 0
-2322 2331 0
-101 -2322 2323 0
-2323 2332 0
-102 -2323 2324 0
-2324 2333 0
-103 -2324 2325 0
-2325 2334 0
-104 -2325 2326 0
-2326 2335 0
-105 -2326 2327 0
-2327 2336 0
-106 -2327 2328 0
-2328 2337 0
-107 -2328 2329 0
-2329 2338 0
-108 -2329 0
-100 2330 0
-2330 2339 0
-101 -2330 2331 0
-2331 2340 0
-102 -2331 2332 0
-2332 2341 0
-103 -2332 2333 0
-2333 2342 0
-104 -2333 2334 0
-2334 2343 0
-105 -2334 2335 0
-2335 2344 0
-106 -2335 2336 0
-2336 2345 0
-107 -2336 2337 0
-2337 2346 0
-108 -2337 2338 0
-2338 2347 0
-109 -2338 0
-101 2339 0
-2339 2348 0
-102 -2339 2340 0
-2340 2349 0
-103 -2340 2341 0
-2341 2350 0
-104 -2341 2342 0
-2342 2351 0
-105 -2342 2343 0
-2343 2352 0
-106 -2343 2344 0
-2344 2353 0
-107 -2344 2345 0
-2345 2354 0
-108 -2345 2346 0
-2346 2355 0
-109 -2346 2347 0
-2347 2356 0
-110 -2347 0
-102 2348 0
-2348 2357 0
-103 -2348 2349 0
-2349 2358 0
-104 -2349 2350 0
-2350 2359 0
-105 -2350 2351 0
-2351 2360 0
-106 -2351 2352 0
-2352 2361 0
-107 -2352 2353 0
-2353 2362 0
-108 -2353 2354 0
-2354 2363 0
-109 -2354 2355 0
-2355 2364 0
-110 -2355 2356 0
-2356 2365 0
-111 -2356 0
-103 2357 0
-2357 2366 0
-104 -2357 2358 0
-2358 2367 0
-105 -2358 2359 0
-2359 2368 0
-106 -2359 2360 0
-2360 2369 0
-107 -2360 2361 0
-2361 2370 0
-108 -2361 2362 0
-2362 2371 0
-109 -2362 2363 0
-2363 2372 0
-110 -2363 2364 0
-2364 2373 0
-111 -2364 2365 0
-2365 2374 0
-112 -2365 0
-104 2366 0
-2366 2375 0
-105 -2366 2367 0
-2367 2376 0
-106 -2367 2368 0
-2368 2377 0
-107 -2368 2369 0
-2369 2378 0
-108 -2369 2370 0
-2370 2379 0
-109 -2370 2371 0
-2371 2380 0
-110 -2371 2372 0
-2372 2381 0
-111 -2372 2373 0
-2373 2382 0
-112 -2373 2374 0
-2374 2383 0
-113 -2374 0
-105 2375 0
-2375 2384 0
-106 -2375 2376 0
-2376 2385 0
-107 -2376 2377 0
-2377 2386 0
-108 -2377 2378 0
-2378 2387 0
-109 -2378 2379 0
-2379 2388 0
-110 -2379 2380 0
-2380 2389 0
-111 -2380 2381 0
-2381 2390 0
-112 -2381 2382 0
-2382 2391 0
-113 -2382 2383 0
-2383 2392 0
-114 -2383 0
-106 2384 0
-2384 2393 0
-107 -2384 2385 0
-2385 2394 0
-108 -2385 2386 0
-2386 2395 0
-109 -2386 2387 0
-2387 2396 0
-110 -2387 2388 0
-2388 2397 0
-111 -2388 2389 0
-2389 2398 0
-112 -2389 2390 0
-2390 2399 0
-113 -2390 2391 0
-2391 2400 0
-114 -2391 2392 0
-2392 2401 0
-115 -2392 0
-107 2393 0
-2393 2402 0
-108 -2393 2394 0
-2394 2403 0
-109 -2394 2395 0
-2395 2404 0
-110 -2395 2396 0
-2396 2405 0
-111 -2396 2397 0
-2397 2406 0
-112 -2397 2398 0
-2398 2407 0
-113 -2398 2399 0
-2399 2408 0
-114 -2399 2400 0
-2400 2409 0
-115 -2400 2401 0
-2401 2410 0
-116 -2401 0
-108 2402 0
-2402 2411 0
-109 -2402 2403 0
-2403 2412 0
-110 -2403 2404 0
-2404 2413 0
-111 -2404 2405 0
-2405 2414 0
-112 -2405 2406 0
-2406 2415 0
-113 -2406 2407 0
-2407 2416 0
-114 -2407 2408 0
-2408 2417 0
-115 -2408 2409 0
-2409 2418 0
-116 -2409 2410 0
-2410 2419 0
-117 -2410 0
-109 2411 0
-2411 2420 0
-110 -2411 2412 0
-2412 2421 0
-111 -2412 2413 0
-2413 2422 0
-112 -2413 2414 0
-2414 2423 0
-113 -2414 2415 0
-2415 2424 0
-114 -2415 2416 0
-2416 2425 0
-115 -2416 2417 0
-2417 2426 0
-116 -2417 2418 0
-2418 2427 0
-117 -2418 2419 0
-2419 2428 0
-118 -2419 0
-110 2420 0
-2420 2429 0
-111 -2420 2421 0
-2421 2430 0
-112 -2421 2422 0
-2422 2431 0
-113 -2422 2423 0
-2423 2432 0
-114 -2423 2424 0
-2424 2433 0
-115 -2424 2425 0
-2425 2434 0
-116 -2425 2426 0
-2426 2435 0
-117 -2426 2427 0
-2427 2436 0
-118 -2427 2428 0
-2428 2437 0
-119 -2428 0
-111 2429 0
-2429 2438 0
-112 -2429 2430 0
-2430 2439 0
-113 -2430 2431 0
-2431 2440 0
-114 -2431 2432 0
-2432 2441 0
-115 -2432 2433 0
-2433 2442 0
-116 -2433 2434 0
-2434 2443 0
-117 -2434 2435 0
-2435 2444 0
-118 -2435 2436 0
-2436 2445 0
-119 -2436 2437 0
-2437 2446 0
-120 -2437 0
-112 2438 0
-2438 2447 0
-113 -2438 2439 0
-2439 2448 0
-114 -2439 2440 0
-2440 2449 0
-115 -2440 2441 0
-2441 2450 0
-116 -2441 2442 0
-2442 2451 0
-117 -2442 2443 0
-2443 2452 0
-118 -2443 2444 0
-2444 2453 0
-119 -2444 2445 0
-2445 2454 0
-120 -2445 2446 0
-2446 2455 0
-121 -2446 0
-113 2447 0
-2447 2456 0
-114 -2447 2448 0
-2448 2457 0
-115 -2448 2449 0
-2449 2458 0
-116 -2449 2450 0
-2450 2459 0
-117 -2450 2451 0
-2451 2460 0
-118 -2451 2452 0
-2452 2461 0
-119 -2452 2453 0
-2453 2462 0
-120 -2453 2454 0
-2454 2463 0
-121 -2454 2455 0
-2455 2464 0
-122 -2455 0
-114 2456 0
-2456 2465 0
-115 -2456 2457 0
-2457 2466 0
-116 -2457 2458 0
-2458 2467 0
-117 -2458 2459 0
-2459 2468 0
-118 -2459 2460 0
-2460 2469 0
-119 -2460 2461 0
-2461 2470 0
-120 -2461 2462 0
-2462 2471 0
-121 -2462 2463 0
-2463 2472 0
-122 -2463 2464 0
-2464 2473 0
-123 -2464 0
-115 2465 0
-2465 2474 0
-116 -2465 2466 0
-2466 2475 0
-117 -2466 2467 0
-2467 2476 0
-118 -2467 2468 0
-2468 2477 0
-119 -2468 2469 0
-2469 2478 0
-120 -2469 2470 0
-2470 2479 0
-121 -2470 2471 0
-2471 2480 0
-122 -2471 2472 0
-2472 2481 0
-123 -2472 2473 0
-2473 2482 0
-124 -2473 0
-116 2474 0
-2474 2483 0
-117 -2474 2475 0
-2475 2484 0
-118 -2475 2476 0
-2476 2485 0
-119 -2476 2477 0
-2477 2486 0
-120 -2477 2478 0
-2478 2487 0
-121 -2478 2479 0
-2479 2488 0
-122 -2479 2480 0
-2480 2489 0
-123 -2480 2481 0
-2481 2490 0
-124 -2481 2482 0
-2482 2491 0
-125 -2482 0
-117 2483 0
-2483 2492 0
-118 -2483 2484 0
-2484 2493 0
-119 -2484 2485 0
-2485 2494 0
-120 -2485 2486 0
-2486 2495 0
-121 -2486 2487 0
-2487 2496 0
-122 -2487 2488 0
-2488 2497 0
-123 -2488 2489 0
-2489 2498 0
-124 -2489 2490 0
-2490 2499 0
-125 -2490 2491 0
-2491 2500 0
-126 -2491 0
-118 2492 0
-2492 2501 0
-119 -2492 2493 0
-2493 2502 0
-120 -2493 2494 0
-2494 2503 0
-121 -2494 2495 0
-2495 2504 0
-122 -2495 2496 0
-2496 2505 0
-123 -2496 2497 0
-2497 2506 0
-124 -2497 2498 0
-2498 2507 0
-125 -2498 2499 0
-2499 2508 0
-126 -2499 2500 0
-2500 2509 0
-127 -2500 0
-119 2501 0
-2501 2510 0
-120 -2501 2502 0
-2502 2511 0
-121 -2502 2503 0
-2503 2512 0
-122 -2503 2504 0
-2504 2513 0
-123 -2504 2505 0
-2505 2514 0
-124 -2505 2506 0
-2506 2515 0
-125 -2506 2507 0
-2507 2516 0
-126 -2507 2508 0
-2508 2517 0
-127 -2508 2509 0
-2509 2518 0
-128 -2509 0
-120 2510 0
-2510 2519 0
-121 -2510 2511 0
-2511 2520 0
-122 -2511 2512 0
-2512 2521 0
-123 -2512 2513 0
-2513 2522 0
-124 -2513 2514 0
-2514 2523 0
-125 -2514 2515 0
-2515 2524 0
-126 -2515 2516 0
-2516 2525 0
-127 -2516 2517 0
-2517 2526 0
-128 -2517 2518 0
-2518 2527 0
-129 -2518 0
-121 2519 0
-2519 2528 0
-122 -2519 2520 0
-2520 2529 0
-123 -2520 2521 0
-2521 2530 0
-124 -2521 2522 0
-2522 2531 0
-125 -2522 2523 0
-2523 2532 0
-126 -2523 2524 0
-2524 2533 0
-127 -2524 2525 0
-2525 2534 0
-128 -2525 2526 0
-2526 2535 0
-129 -2526 2527 0
-2527 2536 0
-130 -2527 0
-122 2528 0
-2528 2537 0
-123 -2528 2529 0
-2529 2538 0
-124 -2529 2530 0
-2530 2539 0
-125 -2530 2531 0
-2531 2540 0
-126 -2531 2532 0
-2532 2541 0
-127 -2532 2533 0
-2533 2542 0
-128 -2533 2534 0
-2534 2543 0
-129 -2534 2535 0
-2535 2544 0
-130 -2535 2536 0
-2536 2545 0
-131 -2536 0
-123 2537 0
-2537 2546 0
-124 -2537 2538 0
-2538 2547 0
-125 -2538 2539 0
-2539 2548 0
-126 -2539 2540 0
-2540 2549 0
-127 -2540 2541 0
-2541 2550 0
-128 -2541 2542 0
-2542 2551 0
-129 -2542 2543 0
-2543 2552 0
-130 -2543 2544 0
-2544 2553 0
-131 -2544 2545 0
-2545 2554 0
-132 -2545 0
-124 2546 0
-2546 2555 0
-125 -2546 2547 0
-2547 2556 0
-126 -2547 2548 0
-2548 2557 0
-127 -2548 2549 0
-2549 2558 0
-128 -2549 2550 0
-2550 2559 0
-129 -2550 2551 0
-2551 2560 0
-130 -2551 2552 0
-2552 2561 0
-131 -2552 2553 0
-2553 2562 0
-132 -2553 2554 0
-2554 2563 0
-133 -2554 0
-125 2555 0
-2555 2564 0
-126 -2555 2556 0
-2556 2565 0
-127 -2556 2557 0
-2557 2566 0
-128 -2557 2558 0
-2558 2567 0
-129 -2558 2559 0
-2559 2568 0
-130 -2559 2560 0
-2560 2569 0
-131 -2560 2561 0
-2561 2570 0
-132 -2561 2562 0
-2562 2571 0
-133 -2562 2563 0
-2563 2572 0
-134 -2563 0
-126 2564 0
-2564 2573 0
-127 -2564 2565 0
-2565 2574 0
-128 -2565 2566 0
-2566 2575 0
-129 -2566 2567 0
-2567 2576 0
-130 -2567 2568 0
-2568 2577 0
-131 -2568 2569 0
-2569 2578 0
-132 -2569 2570 0
-2570 2579 0
-133 -2570 2571 0
-2571 2580 0
-134 -2571 2572 0
-2572 2581 0
-135 -2572 0
-127 2573 0
-2573 2582 0
-128 -2573 2574 0
-2574 2583 0
-129 -2574 2575 0
-2575 2584 0
-130 -2575 2576 0
-2576 2585 0
-131 -2576 2577 0
-2577 2586 0
-132 -2577 2578 0
-2578 2587 0
-133 -2578 2579 0
-2579 2588 0
-134 -2579 2580 0
-2580 2589 0
-135 -2580 2581 0
-2581 2590 0
-136 -2581 0
-128 2582 0
-2582 2591 0
-129 -2582 2583 0
-2583 2592 0
-130 -2583 2584 0
-2584 2593 0
-131 -2584 2585 0
-2585 2594 0
-132 -2585 2586 0
-2586 2595 0
-133 -2586 2587 0
-2587 2596 0
-134 -2587 2588 0
-2588 2597 0
-135 -2588 2589 0
-2589 2598 0
-136 -2589 2590 0
-2590 2599 0
-137 -2590 0
-129 2591 0
-2591 2600 0
-130 -2591 2592 0
-2592 2601 0
-131 -2592 2593 0
-2593 2602 0
-132 -2593 2594 0
-2594 2603 0
-133 -2594 2595 0
-2595 2604 0
-134 -2595 2596 0
-2596 2605 0
-135 -2596 2597 0
-2597 2606 0
-136 -2597 2598 0
-2598 2607 0
-137 -2598 2599 0
-2599 2608 0
-138 -2599 0
-130 2600 0
-2600 2609 0
-131 -2600 2601 0
-2601 2610 0
-132 -2601 2602 0
-2602 2611 0
-133 -2602 2603 0
-2603 2612 0
-134 -2603 2604 0
-2604 2613 0
-135 -2604 2605 0
-2605 2614 0
-136 -2605 2606 0
-2606 2615 0
-137 -2606 2607 0
-2607 2616 0
-138 -2607 2608 0
-2608 2617 0
-139 -2608 0
-131 2609 0
-2609 2618 0
-132 -2609 2610 0
-2610 2619 0
-133 -2610 2611 0
-2611 2620 0
-134 -2611 2612 0
-2612 2621 0
-135 -2612 2613 0
-2613 2622 0
-136 -2613 2614 0
-2614 2623 0
-137 -2614 2615 0
-2615 2624 0
-138 -2615 2616 0
-2616 2625 0
-139 -2616 2617 0
-2617 2626 0
-140 -2617 0
-132 2618 0
-2618 2627 0
-133 -2618 2619 0
-2619 2628 0
-134 -2619 2620 0
-2620 2629 0
-135 -2620 2621 0
-2621 2630 0
-136 -2621 2622 0
-2622 2631 0
-137 -2622 2623 0
-2623 2632 0
-138 -2623 2624 0
-2624 2633 0
-139 -2624 2625 0
-2625 2634 0
-140 -2625 2626 0
-2626 2635 0
-141 -2626 0
-133 2627 0
-2627 2636 0
-134 -2627 2628 0
-2628 2637 0
-135 -2628 2629 0
-2629 2638 0
-136 -2629 2630 0
-2630 2639 0
-137 -2630 2631 0
-2631 2640 0
-138 -2631 2632 0
-2632 2641 0
-139 -2632 2633 0
-2633 2642 0
-140 -2633 2634 0
-2634 2643 0
-141 -2634 2635 0
-2635 2644 0
-142 -2635 0
-134 2636 0
-2636 2645 0
-135 -2636 2637 0
-2637 2646 0
-136 -2637 2638 0
-2638 2647 0
-137 -2638 2639 0
-2639 2648 0
-138 -2639 2640 0
-2640 2649 0
-139 -2640 2641 0
-2641 2650 0
-140 -2641 2642 0
-2642 2651 0
-141 -2642 2643 0
-2643 2652 0
-142 -2643 2644 0
-2644 2653 0
-143 -2644 0
-135 2645 0
-2645 2654 0
-136 -2645 2646 0
-2646 2655 0
-137 -2646 2647 0
-2647 2656 0
-138 -2647 2648 0
-2648 2657 0
-139 -2648 2649 0
-2649 2658 0
-140 -2649 2650 0
-2650 2659 0
-141 -2650 2651 0
-2651 2660 0
-142 -2651 2652 0
-2652 2661 0
-143 -2652 2653 0
-2653 2662 0
-144 -2653 0
-136 2654 0
-2654 2663 0
-137 -2654 2655 0
-2655 2664 0
-138 -2655 2656 0
-2656 2665 0
-139 -2656 2657 0
-2657 2666 0
-140 -2657 2658 0
-2658 2667 0
-141 -2658 2659 0
-2659 2668 0
-142 -2659 2660 0
-2660 2669 0
-143 -2660 2661 0
-2661 2670 0
-144 -2661 2662 0
-2662 2671 0
-145 -2662 0
-137 2663 0
-2663 2672 0
-138 -2663 2664 0
-2664 2673 0
-139 -2664 2665 0
-2665 2674 0
-140 -2665 2666 0
-2666 2675 0
-141 -2666 2667 0
-2667 2676 0
-142 -2667 2668 0
-2668 2677 0
-143 -2668 2669 0
-2669 2678 0
-144 -2669 2670 0
-2670 2679 0
-145 -2670 2671 0
-2671 2680 0
-146 -2671 0
-138 2672 0
-2672 2681 0
-139 -2672 2673 0
-2673 2682 0
-140 -2673 2674 0
-2674 2683 0
-141 -2674 2675 0
-2675 2684 0
-142 -2675 2676 0
-2676 2685 0
-143 -2676 2677 0
-2677 2686 0
-144 -2677 2678 0
-2678 2687 0
-145 -2678 2679 0
-2679 2688 0
-146 -2679 2680 0
-2680 2689 0
-147 -2680 0
-139 2681 0
-2681 2690 0
-140 -2681 2682 0
-2682 2691 0
-141 -2682 2683 0
-2683 2692 0
-142 -2683 2684 0
-2684 2693 0
-143 -2684 2685 0
-2685 2694 0
-144 -2685 2686 0
-2686 2695 0
-145 -2686 2687 0
-2687 2696 0
-146 -2687 2688 0
-2688 2697 0
-147 -2688 2689 0
-2689 2698 0
-148 -2689 0
-140 2690 0
-2690 2699 0
-141 -2690 2691 0
-2691 2700 0
-142 -2691 2692 0
-2692 2701 0
-143 -2692 2693 0
-2693 2702 0
-144 -2693 2694 0
-2694 2703 0
-145 -2694 2695 0
-2695 2704 0
-146 -2695 2696 0
-2696 2705 0
-147 -2696 2697 0
-2697 2706 0
-148 -2697 2698 0
-2698 2707 0
-149 -2698 0
-141 2699 0
-2699 2708 0
-142 -2699 2700 0
-2700 2709 0
-143 -2700 2701 0
-2701 2710 0
-144 -2701 2702 0
-2702 2711 0
-145 -2702 2703 0
-2703 2712 0
-146 -2703 2704 0
-2704 2713 0
-147 -2704 2705 0
-2705 2714 0
-148 -2705 2706 0
-2706 2715 0
-149 -2706 2707 0
-2707 2716 0
-150 -2707 0
-142 2708 0
-2708 2717 0
-143 -2708 2709 0
-2709 2718 0
-144 -2709 2710 0
-2710 2719 0
-145 -2710 2711 0
-2711 2720 0
-146 -2711 2712 0
-2712 2721 0
-147 -2712 2713 0
-2713 2722 0
-148 -2713 2714 0
-2714 2723 0
-149 -2714 2715 0
-2715 2724 0
-150 -2715 2716 0
-2716 2725 0
-151 -2716 0
-143 2717 0
-2717 2726 0
-144 -2717 2718 0
-2718 2727 0
-145 -2718 2719 0
-2719 2728 0
-146 -2719 2720 0
-2720 2729 0
-147 -2720 2721 0
-2721 2730 0
-148 -2721 2722 0
-2722 2731 0
-149 -2722 2723 0
-2723 2732 0
-150 -2723 2724 0
-2724 2733 0
-151 -2724 2725 0
-2725 2734 0
-152 -2725 0
-144 2726 0
-2726 2735 0
-145 -2726 2727 0
-2727 2736 0
-146 -2727 2728 0
-2728 2737 0
-147 -2728 2729 0
-2729 2738 0
-148 -2729 2730 0
-2730 2739 0
-149 -2730 2731 0
-2731 2740 0
-150 -2731 2732 0
-2732 2741 0
-151 -2732 2733 0
-2733 2742 0
-152 -2733 2734 0
-2734 2743 0
-153 -2734 0
-145 2735 0
-2735 2744 0
-146 -2735 2736 0
-2736 2745 0
-147 -2736 2737 0
-2737 2746 0
-148 -2737 2738 0
-2738 2747 0
-149 -2738 2739 0
-2739 2748 0
-150 -2739 2740 0
-2740 2749 0
-151 -2740 2741 0
-2741 2750 0
-152 -2741 2742 0
-2742 2751 0
-153 -2742 2743 0
-2743 2752 0
-154 -2743 0
-146 2744 0
-2744 2753 0
-147 -2744 2745 0
-2745 2754 0
-148 -2745 2746 0
-2746 2755 0
-149 -2746 2747 0
-2747 2756 0
-150 -2747 2748 0
-2748 2757 0
-151 -2748 2749 0
-2749 2758 0
-152 -2749 2750 0
-2750 2759 0
-153 -2750 2751 0
-2751 2760 0
-154 -2751 2752 0
-2752 2761 0
-155 -2752 0
-147 2753 0
-148 -2753 2754 0
-149 -2754 2755 0
-150 -2755 2756 0
-151 -2756 2757 0
-152 -2757 2758 0
-153 -2758 2759 0
-154 -2759 2760 0
-155 -2760 2761 0
-156 -2761 0
1 40 0
