p cnf 2503 5133
-73 -1 0
-73 2 36 37 0
-2 1 73 0
-36 1 73 0
-37 1 73 0
-74 -2 0
-74 1 3 38 0
-1 2 74 0
-3 2 74 0
-38 2 74 0
-75 -3 0
-75 2 4 39 0
-2 3 75 0
-4 3 75 0
-39 3 75 0
-76 -4 0
-76 3 5 40 0
-3 4 76 0
-5 4 76 0
-40 4 76 0
-77 -5 0
-77 4 6 41 0
-4 5 77 0
-6 5 77 0
-41 5 77 0
-78 -6 0
-78 5 7 42 0
-5 6 78 0
-7 6 78 0
-42 6 78 0
-79 -7 0
-79 6 8 43 0
-6 7 79 0
-8 7 79 0
-43 7 79 0
-80 -8 0
-80 7 9 44 0
-7 8 80 0
-9 8 80 0
-44 8 80 0
-81 -9 0
-81 8 10 45 0
-8 9 81 0
-10 9 81 0
-45 9 81 0
-82 -10 0
-82 9 11 46 0
-9 10 82 0
-11 10 82 0
-46 10 82 0
-83 -11 0
-83 10 12 47 0
-10 11 83 0
-12 11 83 0
-47 11 83 0
-84 -12 0
-84 11 13 48 0
-11 12 84 0
-13 12 84 0
-48 12 84 0
-85 -13 0
-85 12 14 49 0
-12 13 85 0
-14 13 85 0
-49 13 85 0
-86 -14 0
-86 13 15 50 0
-13 14 86 0
-15 14 86 0
-50 14 86 0
-87 -15 0
-87 14 16 51 0
-14 15 87 0
-16 15 87 0
-51 15 87 0
-88 -16 0
-88 15 17 52 0
-15 16 88 0
-17 16 88 0
-52 16 88 0
-89 -17 0
-89 16 18 53 0
-16 17 89 0
-18 17 89 0
-53 17 89 0
-90 -18 0
-90 17 19 54 0
-17 18 90 0
-19 18 90 0
-54 18 90 0
-91 -19 0
-91 18 20 55 0
-18 19 91 0
-20 19 91 0
-55 19 91 0
-92 -20 0
-92 19 21 56 0
-19 20 92 0
-21 20 92 0
-56 20 92 0
-93 -21 0
-93 20 22 57 0
-20 21 93 0
-22 21 93 0
-57 21 93 0
-94 -22 0
-94 21 23 58 0
-21 22 94 0
-23 22 94 0
-58 22 94 0
-95 -23 0
-95 22 24 59 0
-22 23 95 0
-24 23 95 0
-59 23 95 0
-96 -24 0
-96 23 25 60 0
-23 24 96 0
-25 24 96 0
-60 24 96 0
-97 -25 0
-97 24 26 61 0
-24 25 97 0
-26 25 97 0
-61 25 97 0
-98 -26 0
-98 25 27 62 0
-25 26 98 0
-27 26 98 0
-62 26 98 0
-99 -27 0
-99 26 28 63 0
-26 27 99 0
-28 27 99 0
-63 27 99 0
-100 -28 0
-100 27 29 64 0
-27 28 100 0
-29 28 100 0
-64 28 100 0
-101 -29 0
-101 28 30 65 0
-28 29 101 0
-30 29 101 0
-65 29 101 0
-102 -30 0
-102 29 31 66 0
-29 30 102 0
-31 30 102 0
-66 30 102 0
-103 -31 0
-103 30 32 67 0
-30 31 103 0
-32 31 103 0
-67 31 103 0
-104 -32 0
-104 31 33 68 0
-31 32 104 0
-33 32 104 0
-68 32 104 0
-105 -33 0
-105 32 34 69 0
-32 33 105 0
-34 33 105 0
-69 33 105 0
-106 -34 0
-106 33 35 70 0
-33 34 106 0
-35 34 106 0
-70 34 106 0
-107 -35 0
-107 34 36 71 0
-34 35 107 0
-36 35 107 0
-71 35 107 0
-108 -36 0
-108 1 35 72 0
-1 36 108 0
-35 36 108 0
-72 36 108 0
-109 -37 0
-109 1 41 69 0
-1 37 109 0
-41 37 109 0
-69 37 109 0
-110 -38 0
-110 2 42 70 0
-2 38 110 0
-42 38 110 0
-70 38 110 0
-111 -39 0
-111 3 43 71 0
-3 39 111 0
-43 39 111 0
-71 39 111 0
-112 -40 0
-112 4 44 72 0
-4 40 112 0
-44 40 112 0
-72 40 112 0
-113 -41 0
-113 5 37 45 0
-5 41 113 0
-37 41 113 0
-45 41 113 0
-114 -42 0
-114 6 38 46 0
-6 42 114 0
-38 42 114 0
-46 42 114 0
-115 -43 0
-115 7 39 47 0
-7 43 115 0
-39 43 115 0
-47 43 115 0
-116 -44 0
-116 8 40 48 0
-8 44 116 0
-40 44 116 0
-48 44 116 0
-117 -45 0
-117 9 41 49 0
-9 45 117 0
-41 45 117 0
-49 45 117 0
-118 -46 0
-118 10 42 50 0
-10 46 118 0
-42 46 118 0
-50 46 118 0
-119 -47 0
-119 11 43 51 0
-11 47 119 0
-43 47 119 0
-51 47 119 0
-120 -48 0
-120 12 44 52 0
-12 48 120 0
-44 48 120 0
-52 48 120 0
-121 -49 0
-121 13 45 53 0
-13 49 121 0
-45 49 121 0
-53 49 121 0
-122 -50 0
-122 14 46 54 0
-14 50 122 0
-46 50 122 0
-54 50 122 0
-123 -51 0
-123 15 47 55 0
-15 51 123 0
-47 51 123 0
-55 51 123 0
-124 -52 0
-124 16 48 56 0
-16 52 124 0
-48 52 124 0
-56 52 124 0
-125 -53 0
-125 17 49 57 0
-17 53 125 0
-49 53 125 0
-57 53 125 0
-126 -54 0
-126 18 50 58 0
-18 54 126 0
-50 54 126 0
-58 54 126 0
-127 -55 0
-127 19 51 59 0
-19 55 127 0
-51 55 127 0
-59 55 127 0
-128 -56 0
-128 20 52 60 0
-20 56 128 0
-52 56 128 0
-60 56 128 0
-129 -57 0
-129 21 53 61 0
-21 57 129 0
-53 57 129 0
-61 57 129 0
-130 -58 0
-130 22 54 62 0
-22 58 130 0
-54 58 130 0
-62 58 130 0
-131 -59 0
-131 23 55 63 0
-23 59 131 0
-55 59 131 0
-63 59 131 0
-132 -60 0
-132 24 56 64 0
-24 60 132 0
-56 60 132 0
-64 60 132 0
-133 -61 0
-133 25 57 65 0
-25 61 133 0
-57 61 133 0
-65 61 133 0
-134 -62 0
-134 26 58 66 0
-26 62 134 0
-58 62 134 0
-66 62 134 0
-135 -63 0
-135 27 59 67 0
-27 63 135 0
-59 63 135 0
-67 63 135 0
-136 -64 0
-136 28 60 68 0
-28 64 136 0
-60 64 136 0
-68 64 136 0
-137 -65 0
-137 29 61 69 0
-29 65 137 0
-61 65 137 0
-69 65 137 0
-138 -66 0
-138 30 62 70 0
-30 66 138 0
-62 66 138 0
-70 66 138 0
-139 -67 0
-139 31 63 71 0
-31 67 139 0
-63 67 139 0
-71 67 139 0
-140 -68 0
-140 32 64 72 0
-32 68 140 0
-64 68 140 0
-72 68 140 0
-141 -69 0
-141 33 37 65 0
-33 69 141 0
-37 69 141 0
-65 69 141 0
-142 -70 0
-142 34 38 66 0
-34 70 142 0
-38 70 142 0
-66 70 142 0
-143 -71 0
-143 35 39 67 0
-35 71 143 0
-39 71 143 0
-67 71 143 0
-144 -72 0
-144 36 40 68 0
-36 72 144 0
-40 72 144 0
-68 72 144 0
1 145 0
-145 146 0
2 -145 147 0
-147 148 0
3 -147 149 0
-149 150 0
4 -149 151 0
-151 152 0
5 -151 153 0
-153 154 0
6 -153 155 0
-155 156 0
7 -155 157 0
-157 158 0
8 -157 159 0
-159 160 0
9 -159 161 0
-161 162 0
10 -161 163 0
-163 164 0
11 -163 165 0
-165 166 0
12 -165 167 0
-167 168 0
13 -167 169 0
-169 170 0
14 -169 171 0
-171 172 0
15 -171 173 0
-173 174 0
16 -173 175 0
-175 176 0
17 -175 177 0
-177 178 0
18 -177 179 0
-179 180 0
19 -179 181 0
-181 182 0
20 -181 183 0
-183 184 0
21 -183 185 0
-185 186 0
22 -185 187 0
-187 188 0
23 -187 189 0
-189 190 0
24 -189 191 0
-191 192 0
25 -191 193 0
-193 194 0
26 -193 195 0
-195 196 0
27 -195 197 0
-197 198 0
28 -197 199 0
-199 200 0
29 -199 201 0
-201 202 0
30 -201 203 0
-203 204 0
31 -203 205 0
-205 206 0
32 -205 207 0
-207 208 0
33 -207 209 0
-209 210 0
34 -209 211 0
-211 212 0
35 -211 213 0
-213 214 0
36 -213 215 0
-215 216 0
37 -215 217 0
-217 218 0
38 -217 219 0
-219 220 0
39 -219 221 0
-221 222 0
40 -221 223 0
-223 224 0
41 -223 225 0
-225 226 0
42 -225 227 0
-227 228 0
43 -227 229 0
-229 230 0
44 -229 231 0
-231 232 0
45 -231 233 0
-233 234 0
46 -233 235 0
-235 236 0
47 -235 237 0
-237 238 0
48 -237 239 0
-239 240 0
49 -239 241 0
-241 242 0
50 -241 243 0
-243 244 0
51 -243 245 0
-245 246 0
52 -245 247 0
-247 248 0
53 -247 249 0
-249 250 0
54 -249 251 0
-251 252 0
55 -251 253 0
-253 254 0
56 -253 255 0
-255 256 0
57 -255 0
2 146 0
-146 257 0
3 -146 148 0
-148 258 0
4 -148 150 0
-150 259 0
5 -150 152 0
-152 260 0
6 -152 154 0
-154 261 0
7 -154 156 0
-156 262 0
8 -156 158 0
-158 263 0
9 -158 160 0
-160 264 0
10 -160 162 0
-162 265 0
11 -162 164 0
-164 266 0
12 -164 166 0
-166 267 0
13 -166 168 0
-168 268 0
14 -168 170 0
-170 269 0
15 -170 172 0
-172 270 0
16 -172 174 0
-174 271 0
17 -174 176 0
-176 272 0
18 -176 178 0
-178 273 0
19 -178 180 0
-180 274 0
20 -180 182 0
-182 275 0
21 -182 184 0
-184 276 0
22 -184 186 0
-186 277 0
23 -186 188 0
-188 278 0
24 -188 190 0
-190 279 0
25 -190 192 0
-192 280 0
26 -192 194 0
-194 281 0
27 -194 196 0
-196 282 0
28 -196 198 0
-198 283 0
29 -198 200 0
-200 284 0
30 -200 202 0
-202 285 0
31 -202 204 0
-204 286 0
32 -204 206 0
-206 287 0
33 -206 208 0
-208 288 0
34 -208 210 0
-210 289 0
35 -210 212 0
-212 290 0
36 -212 214 0
-214 291 0
37 -214 216 0
-216 292 0
38 -216 218 0
-218 293 0
39 -218 220 0
-220 294 0
40 -220 222 0
-222 295 0
41 -222 224 0
-224 296 0
42 -224 226 0
-226 297 0
43 -226 228 0
-228 298 0
44 -228 230 0
-230 299 0
45 -230 232 0
-232 300 0
46 -232 234 0
-234 301 0
47 -234 236 0
-236 302 0
48 -236 238 0
-238 303 0
49 -238 240 0
-240 304 0
50 -240 242 0
-242 305 0
51 -242 244 0
-244 306 0
52 -244 246 0
-246 307 0
53 -246 248 0
-248 308 0
54 -248 250 0
-250 309 0
55 -250 252 0
-252 310 0
56 -252 254 0
-254 311 0
57 -254 256 0
-256 312 0
58 -256 0
3 257 0
-257 313 0
4 -257 258 0
-258 314 0
5 -258 259 0
-259 315 0
6 -259 260 0
-260 316 0
7 -260 261 0
-261 317 0
8 -261 262 0
-262 318 0
9 -262 263 0
-263 319 0
10 -263 264 0
-264 320 0
11 -264 265 0
-265 321 0
12 -265 266 0
-266 322 0
13 -266 267 0
-267 323 0
14 -267 268 0
-268 324 0
15 -268 269 0
-269 325 0
16 -269 270 0
-270 326 0
17 -270 271 0
-271 327 0
18 -271 272 0
-272 328 0
19 -272 273 0
-273 329 0
20 -273 274 0
-274 330 0
21 -274 275 0
-275 331 0
22 -275 276 0
-276 332 0
23 -276 277 0
-277 333 0
24 -277 278 0
-278 334 0
25 -278 279 0
-279 335 0
26 -279 280 0
-280 336 0
27 -280 281 0
-281 337 0
28 -281 282 0
-282 338 0
29 -282 283 0
-283 339 0
30 -283 284 0
-284 340 0
31 -284 285 0
-285 341 0
32 -285 286 0
-286 342 0
33 -286 287 0
-287 343 0
34 -287 288 0
-288 344 0
35 -288 289 0
-289 345 0
36 -289 290 0
-290 346 0
37 -290 291 0
-291 347 0
38 -291 292 0
-292 348 0
39 -292 293 0
-293 349 0
40 -293 294 0
-294 350 0
41 -294 295 0
-295 351 0
42 -295 296 0
-296 352 0
43 -296 297 0
-297 353 0
44 -297 298 0
-298 354 0
45 -298 299 0
-299 355 0
46 -299 300 0
-300 356 0
47 -300 301 0
-301 357 0
48 -301 302 0
-302 358 0
49 -302 303 0
-303 359 0
50 -303 304 0
-304 360 0
51 -304 305 0
-305 361 0
52 -305 306 0
-306 362 0
53 -306 307 0
-307 363 0
54 -307 308 0
-308 364 0
55 -308 309 0
-309 365 0
56 -309 310 0
-310 366 0
57 -310 311 0
-311 367 0
58 -311 312 0
-312 368 0
59 -312 0
4 313 0
-313 369 0
5 -313 314 0
-314 370 0
6 -314 315 0
-315 371 0
7 -315 316 0
-316 372 0
8 -316 317 0
-317 373 0
9 -317 318 0
-318 374 0
10 -318 319 0
-319 375 0
11 -319 320 0
-320 376 0
12 -320 321 0
-321 377 0
13 -321 322 0
-322 378 0
14 -322 323 0
-323 379 0
15 -323 324 0
-324 380 0
16 -324 325 0
-325 381 0
17 -325 326 0
-326 382 0
18 -326 327 0
-327 383 0
19 -327 328 0
-328 384 0
20 -328 329 0
-329 385 0
21 -329 330 0
-330 386 0
22 -330 331 0
-331 387 0
23 -331 332 0
-332 388 0
24 -332 333 0
-333 389 0
25 -333 334 0
-334 390 0
26 -334 335 0
-335 391 0
27 -335 336 0
-336 392 0
28 -336 337 0
-337 393 0
29 -337 338 0
-338 394 0
30 -338 339 0
-339 395 0
31 -339 340 0
-340 396 0
32 -340 341 0
-341 397 0
33 -341 342 0
-342 398 0
34 -342 343 0
-343 399 0
35 -343 344 0
-344 400 0
36 -344 345 0
-345 401 0
37 -345 346 0
-346 402 0
38 -346 347 0
-347 403 0
39 -347 348 0
-348 404 0
40 -348 349 0
-349 405 0
41 -349 350 0
-350 406 0
42 -350 351 0
-351 407 0
43 -351 352 0
-352 408 0
44 -352 353 0
-353 409 0
45 -353 354 0
-354 410 0
46 -354 355 0
-355 411 0
47 -355 356 0
-356 412 0
48 -356 357 0
-357 413 0
49 -357 358 0
-358 414 0
50 -358 359 0
-359 415 0
51 -359 360 0
-360 416 0
52 -360 361 0
-361 417 0
53 -361 362 0
-362 418 0
54 -362 363 0
-363 419 0
55 -363 364 0
-364 420 0
56 -364 365 0
-365 421 0
57 -365 366 0
-366 422 0
58 -366 367 0
-367 423 0
59 -367 368 0
-368 424 0
60 -368 0
5 369 0
-369 425 0
6 -369 370 0
-370 426 0
7 -370 371 0
-371 427 0
8 -371 372 0
-372 428 0
9 -372 373 0
-373 429 0
10 -373 374 0
-374 430 0
11 -374 375 0
-375 431 0
12 -375 376 0
-376 432 0
13 -376 377 0
-377 433 0
14 -377 378 0
-378 434 0
15 -378 379 0
-379 435 0
16 -379 380 0
-380 436 0
17 -380 381 0
-381 437 0
18 -381 382 0
-382 438 0
19 -382 383 0
-383 439 0
20 -383 384 0
-384 440 0
21 -384 385 0
-385 441 0
22 -385 386 0
-386 442 0
23 -386 387 0
-387 443 0
24 -387 388 0
-388 444 0
25 -388 389 0
-389 445 0
26 -389 390 0
-390 446 0
27 -390 391 0
-391 447 0
28 -391 392 0
-392 448 0
29 -392 393 0
-393 449 0
30 -393 394 0
-394 450 0
31 -394 395 0
-395 451 0
32 -395 396 0
-396 452 0
33 -396 397 0
-397 453 0
34 -397 398 0
-398 454 0
35 -398 399 0
-399 455 0
36 -399 400 0
-400 456 0
37 -400 401 0
-401 457 0
38 -401 402 0
-402 458 0
39 -402 403 0
-403 459 0
40 -403 404 0
-404 460 0
41 -404 405 0
-405 461 0
42 -405 406 0
-406 462 0
43 -406 407 0
-407 463 0
44 -407 408 0
-408 464 0
45 -408 409 0
-409 465 0
46 -409 410 0
-410 466 0
47 -410 411 0
-411 467 0
48 -411 412 0
-412 468 0
49 -412 413 0
-413 469 0
50 -413 414 0
-414 470 0
51 -414 415 0
-415 471 0
52 -415 416 0
-416 472 0
53 -416 417 0
-417 473 0
54 -417 418 0
-418 474 0
55 -418 419 0
-419 475 0
56 -419 420 0
-420 476 0
57 -420 421 0
-421 477 0
58 -421 422 0
-422 478 0
59 -422 423 0
-423 479 0
60 -423 424 0
-424 480 0
61 -424 0
6 425 0
-425 481 0
7 -425 426 0
-426 482 0
8 -426 427 0
-427 483 0
9 -427 428 0
-428 484 0
10 -428 429 0
-429 485 0
11 -429 430 0
-430 486 0
12 -430 431 0
-431 487 0
13 -431 432 0
-432 488 0
14 -432 433 0
-433 489 0
15 -433 434 0
-434 490 0
16 -434 435 0
-435 491 0
17 -435 436 0
-436 492 0
18 -436 437 0
-437 493 0
19 -437 438 0
-438 494 0
20 -438 439 0
-439 495 0
21 -439 440 0
-440 496 0
22 -440 441 0
-441 497 0
23 -441 442 0
-442 498 0
24 -442 443 0
-443 499 0
25 -443 444 0
-444 500 0
26 -444 445 0
-445 501 0
27 -445 446 0
-446 502 0
28 -446 447 0
-447 503 0
29 -447 448 0
-448 504 0
30 -448 449 0
-449 505 0
31 -449 450 0
-450 506 0
32 -450 451 0
-451 507 0
33 -451 452 0
-452 508 0
34 -452 453 0
-453 509 0
35 -453 454 0
-454 510 0
36 -454 455 0
-455 511 0
37 -455 456 0
-456 512 0
38 -456 457 0
-457 513 0
39 -457 458 0
-458 514 0
40 -458 459 0
-459 515 0
41 -459 460 0
-460 516 0
42 -460 461 0
-461 517 0
43 -461 462 0
-462 518 0
44 -462 463 0
-463 519 0
45 -463 464 0
-464 520 0
46 -464 465 0
-465 521 0
47 -465 466 0
-466 522 0
48 -466 467 0
-467 523 0
49 -467 468 0
-468 524 0
50 -468 469 0
-469 525 0
51 -469 470 0
-470 526 0
52 -470 471 0
-471 527 0
53 -471 472 0
-472 528 0
54 -472 473 0
-473 529 0
55 -473 474 0
-474 530 0
56 -474 475 0
-475 531 0
57 -475 476 0
-476 532 0
58 -476 477 0
-477 533 0
59 -477 478 0
-478 534 0
60 -478 479 0
-479 535 0
61 -479 480 0
-480 536 0
62 -480 0
7 481 0
-481 537 0
8 -481 482 0
-482 538 0
9 -482 483 0
-483 539 0
10 -483 484 0
-484 540 0
11 -484 485 0
-485 541 0
12 -485 486 0
-486 542 0
13 -486 487 0
-487 543 0
14 -487 488 0
-488 544 0
15 -488 489 0
-489 545 0
16 -489 490 0
-490 546 0
17 -490 491 0
-491 547 0
18 -491 492 0
-492 548 0
19 -492 493 0
-493 549 0
20 -493 494 0
-494 550 0
21 -494 495 0
-495 551 0
22 -495 496 0
-496 552 0
23 -496 497 0
-497 553 0
24 -497 498 0
-498 554 0
25 -498 499 0
-499 555 0
26 -499 500 0
-500 556 0
27 -500 501 0
-501 557 0
28 -501 502 0
-502 558 0
29 -502 503 0
-503 559 0
30 -503 504 0
-504 560 0
31 -504 505 0
-505 561 0
32 -505 506 0
-506 562 0
33 -506 507 0
-507 563 0
34 -507 508 0
-508 564 0
35 -508 509 0
-509 565 0
36 -509 510 0
-510 566 0
37 -510 511 0
-511 567 0
38 -511 512 0
-512 568 0
39 -512 513 0
-513 569 0
40 -513 514 0
-514 570 0
41 -514 515 0
-515 571 0
42 -515 516 0
-516 572 0
43 -516 517 0
-517 573 0
44 -517 518 0
-518 574 0
45 -518 519 0
-519 575 0
46 -519 520 0
-520 576 0
47 -520 521 0
-521 577 0
48 -521 522 0
-522 578 0
49 -522 523 0
-523 579 0
50 -523 524 0
-524 580 0
51 -524 525 0
-525 581 0
52 -525 526 0
-526 582 0
53 -526 527 0
-527 583 0
54 -527 528 0
-528 584 0
55 -528 529 0
-529 585 0
56 -529 530 0
-530 586 0
57 -530 531 0
-531 587 0
58 -531 532 0
-532 588 0
59 -532 533 0
-533 589 0
60 -533 534 0
-534 590 0
61 -534 535 0
-535 591 0
62 -535 536 0
-536 592 0
63 -536 0
8 537 0
-537 593 0
9 -537 538 0
-538 594 0
10 -538 539 0
-539 595 0
11 -539 540 0
-540 596 0
12 -540 541 0
-541 597 0
13 -541 542 0
-542 598 0
14 -542 543 0
-543 599 0
15 -543 544 0
-544 600 0
16 -544 545 0
-545 601 0
17 -545 546 0
-546 602 0
18 -546 547 0
-547 603 0
19 -547 548 0
-548 604 0
20 -548 549 0
-549 605 0
21 -549 550 0
-550 606 0
22 -550 551 0
-551 607 0
23 -551 552 0
-552 608 0
24 -552 553 0
-553 609 0
25 -553 554 0
-554 610 0
26 -554 555 0
-555 611 0
27 -555 556 0
-556 612 0
28 -556 557 0
-557 613 0
29 -557 558 0
-558 614 0
30 -558 559 0
-559 615 0
31 -559 560 0
-560 616 0
32 -560 561 0
-561 617 0
33 -561 562 0
-562 618 0
34 -562 563 0
-563 619 0
35 -563 564 0
-564 620 0
36 -564 565 0
-565 621 0
37 -565 566 0
-566 622 0
38 -566 567 0
-567 623 0
39 -567 568 0
-568 624 0
40 -568 569 0
-569 625 0
41 -569 570 0
-570 626 0
42 -570 571 0
-571 627 0
43 -571 572 0
-572 628 0
44 -572 573 0
-573 629 0
45 -573 574 0
-574 630 0
46 -574 575 0
-575 631 0
47 -575 576 0
-576 632 0
48 -576 577 0
-577 633 0
49 -577 578 0
-578 634 0
50 -578 579 0
-579 635 0
51 -579 580 0
-580 636 0
52 -580 581 0
-581 637 0
53 -581 582 0
-582 638 0
54 -582 583 0
-583 639 0
55 -583 584 0
-584 640 0
56 -584 585 0
-585 641 0
57 -585 586 0
-586 642 0
58 -586 587 0
-587 643 0
59 -587 588 0
-588 644 0
60 -588 589 0
-589 645 0
61 -589 590 0
-590 646 0
62 -590 591 0
-591 647 0
63 -591 592 0
-592 648 0
64 -592 0
9 593 0
-593 649 0
10 -593 594 0
-594 650 0
11 -594 595 0
-595 651 0
12 -595 596 0
-596 652 0
13 -596 597 0
-597 653 0
14 -597 598 0
-598 654 0
15 -598 599 0
-599 655 0
16 -599 600 0
-600 656 0
17 -600 601 0
-601 657 0
18 -601 602 0
-602 658 0
19 -602 603 0
-603 659 0
20 -603 604 0
-604 660 0
21 -604 605 0
-605 661 0
22 -605 606 0
-606 662 0
23 -606 607 0
-607 663 0
24 -607 608 0
-608 664 0
25 -608 609 0
-609 665 0
26 -609 610 0
-610 666 0
27 -610 611 0
-611 667 0
28 -611 612 0
-612 668 0
29 -612 613 0
-613 669 0
30 -613 614 0
-614 670 0
31 -614 615 0
-615 671 0
32 -615 616 0
-616 672 0
33 -616 617 0
-617 673 0
34 -617 618 0
-618 674 0
35 -618 619 0
-619 675 0
36 -619 620 0
-620 676 0
37 -620 621 0
-621 677 0
38 -621 622 0
-622 678 0
39 -622 623 0
-623 679 0
40 -623 624 0
-624 680 0
41 -624 625 0
-625 681 0
42 -625 626 0
-626 682 0
43 -626 627 0
-627 683 0
44 -627 628 0
-628 684 0
45 -628 629 0
-629 685 0
46 -629 630 0
-630 686 0
47 -630 631 0
-631 687 0
48 -631 632 0
-632 688 0
49 -632 633 0
-633 689 0
50 -633 634 0
-634 690 0
51 -634 635 0
-635 691 0
52 -635 636 0
-636 692 0
53 -636 637 0
-637 693 0
54 -637 638 0
-638 694 0
55 -638 639 0
-639 695 0
56 -639 640 0
-640 696 0
57 -640 641 0
-641 697 0
58 -641 642 0
-642 698 0
59 -642 643 0
-643 699 0
60 -643 644 0
-644 700 0
61 -644 645 0
-645 701 0
62 -645 646 0
-646 702 0
63 -646 647 0
-647 703 0
64 -647 648 0
-648 704 0
65 -648 0
10 649 0
-649 705 0
11 -649 650 0
-650 706 0
12 -650 651 0
-651 707 0
13 -651 652 0
-652 708 0
14 -652 653 0
-653 709 0
15 -653 654 0
-654 710 0
16 -654 655 0
-655 711 0
17 -655 656 0
-656 712 0
18 -656 657 0
-657 713 0
19 -657 658 0
-658 714 0
20 -658 659 0
-659 715 0
21 -659 660 0
-660 716 0
22 -660 661 0
-661 717 0
23 -661 662 0
-662 718 0
24 -662 663 0
-663 719 0
25 -663 664 0
-664 720 0
26 -664 665 0
-665 721 0
27 -665 666 0
-666 722 0
28 -666 667 0
-667 723 0
29 -667 668 0
-668 724 0
30 -668 669 0
-669 725 0
31 -669 670 0
-670 726 0
32 -670 671 0
-671 727 0
33 -671 672 0
-672 728 0
34 -672 673 0
-673 729 0
35 -673 674 0
-674 730 0
36 -674 675 0
-675 731 0
37 -675 676 0
-676 732 0
38 -676 677 0
-677 733 0
39 -677 678 0
-678 734 0
40 -678 679 0
-679 735 0
41 -679 680 0
-680 736 0
42 -680 681 0
-681 737 0
43 -681 682 0
-682 738 0
44 -682 683 0
-683 739 0
45 -683 684 0
-684 740 0
46 -684 685 0
-685 741 0
47 -685 686 0
-686 742 0
48 -686 687 0
-687 743 0
49 -687 688 0
-688 744 0
50 -688 689 0
-689 745 0
51 -689 690 0
-690 746 0
52 -690 691 0
-691 747 0
53 -691 692 0
-692 748 0
54 -692 693 0
-693 749 0
55 -693 694 0
-694 750 0
56 -694 695 0
-695 751 0
57 -695 696 0
-696 752 0
58 -696 697 0
-697 753 0
59 -697 698 0
-698 754 0
60 -698 699 0
-699 755 0
61 -699 700 0
-700 756 0
62 -700 701 0
-701 757 0
63 -701 702 0
-702 758 0
64 -702 703 0
-703 759 0
65 -703 704 0
-704 760 0
66 -704 0
11 705 0
-705 761 0
12 -705 706 0
-706 762 0
13 -706 707 0
-707 763 0
14 -707 708 0
-708 764 0
15 -708 709 0
-709 765 0
16 -709 710 0
-710 766 0
17 -710 711 0
-711 767 0
18 -711 712 0
-712 768 0
19 -712 713 0
-713 769 0
20 -713 714 0
-714 770 0
21 -714 715 0
-715 771 0
22 -715 716 0
-716 772 0
23 -716 717 0
-717 773 0
24 -717 718 0
-718 774 0
25 -718 719 0
-719 775 0
26 -719 720 0
-720 776 0
27 -720 721 0
-721 777 0
28 -721 722 0
-722 778 0
29 -722 723 0
-723 779 0
30 -723 724 0
-724 780 0
31 -724 725 0
-725 781 0
32 -725 726 0
-726 782 0
33 -726 727 0
-727 783 0
34 -727 728 0
-728 784 0
35 -728 729 0
-729 785 0
36 -729 730 0
-730 786 0
37 -730 731 0
-731 787 0
38 -731 732 0
-732 788 0
39 -732 733 0
-733 789 0
40 -733 734 0
-734 790 0
41 -734 735 0
-735 791 0
42 -735 736 0
-736 792 0
43 -736 737 0
-737 793 0
44 -737 738 0
-738 794 0
45 -738 739 0
-739 795 0
46 -739 740 0
-740 796 0
47 -740 741 0
-741 797 0
48 -741 742 0
-742 798 0
49 -742 743 0
-743 799 0
50 -743 744 0
-744 800 0
51 -744 745 0
-745 801 0
52 -745 746 0
-746 802 0
53 -746 747 0
-747 803 0
54 -747 748 0
-748 804 0
55 -748 749 0
-749 805 0
56 -749 750 0
-750 806 0
57 -750 751 0
-751 807 0
58 -751 752 0
-752 808 0
59 -752 753 0
-753 809 0
60 -753 754 0
-754 810 0
61 -754 755 0
-755 811 0
62 -755 756 0
-756 812 0
63 -756 757 0
-757 813 0
64 -757 758 0
-758 814 0
65 -758 759 0
-759 815 0
66 -759 760 0
-760 816 0
67 -760 0
12 761 0
-761 817 0
13 -761 762 0
-762 818 0
14 -762 763 0
-763 819 0
15 -763 764 0
-764 820 0
16 -764 765 0
-765 821 0
17 -765 766 0
-766 822 0
18 -766 767 0
-767 823 0
19 -767 768 0
-768 824 0
20 -768 769 0
-769 825 0
21 -769 770 0
-770 826 0
22 -770 771 0
-771 827 0
23 -771 772 0
-772 828 0
24 -772 773 0
-773 829 0
25 -773 774 0
-774 830 0
26 -774 775 0
-775 831 0
27 -775 776 0
-776 832 0
28 -776 777 0
-777 833 0
29 -777 778 0
-778 834 0
30 -778 779 0
-779 835 0
31 -779 780 0
-780 836 0
32 -780 781 0
-781 837 0
33 -781 782 0
-782 838 0
34 -782 783 0
-783 839 0
35 -783 784 0
-784 840 0
36 -784 785 0
-785 841 0
37 -785 786 0
-786 842 0
38 -786 787 0
-787 843 0
39 -787 788 0
-788 844 0
40 -788 789 0
-789 845 0
41 -789 790 0
-790 846 0
42 -790 791 0
-791 847 0
43 -791 792 0
-792 848 0
44 -792 793 0
-793 849 0
45 -793 794 0
-794 850 0
46 -794 795 0
-795 851 0
47 -795 796 0
-796 852 0
48 -796 797 0
-797 853 0
49 -797 798 0
-798 854 0
50 -798 799 0
-799 855 0
51 -799 800 0
-800 856 0
52 -800 801 0
-801 857 0
53 -801 802 0
-802 858 0
54 -802 803 0
-803 859 0
55 -803 804 0
-804 860 0
56 -804 805 0
-805 861 0
57 -805 806 0
-806 862 0
58 -806 807 0
-807 863 0
59 -807 808 0
-808 864 0
60 -808 809 0
-809 865 0
61 -809 810 0
-810 866 0
62 -810 811 0
-811 867 0
63 -811 812 0
-812 868 0
64 -812 813 0
-813 869 0
65 -813 814 0
-814 870 0
66 -814 815 0
-815 871 0
67 -815 816 0
-816 872 0
68 -816 0
13 817 0
-817 873 0
14 -817 818 0
-818 874 0
15 -818 819 0
-819 875 0
16 -819 820 0
-820 876 0
17 -820 821 0
-821 877 0
18 -821 822 0
-822 878 0
19 -822 823 0
-823 879 0
20 -823 824 0
-824 880 0
21 -824 825 0
-825 881 0
22 -825 826 0
-826 882 0
23 -826 827 0
-827 883 0
24 -827 828 0
-828 884 0
25 -828 829 0
-829 885 0
26 -829 830 0
-830 886 0
27 -830 831 0
-831 887 0
28 -831 832 0
-832 888 0
29 -832 833 0
-833 889 0
30 -833 834 0
-834 890 0
31 -834 835 0
-835 891 0
32 -835 836 0
-836 892 0
33 -836 837 0
-837 893 0
34 -837 838 0
-838 894 0
35 -838 839 0
-839 895 0
36 -839 840 0
-840 896 0
37 -840 841 0
-841 897 0
38 -841 842 0
-842 898 0
39 -842 843 0
-843 899 0
40 -843 844 0
-844 900 0
41 -844 845 0
-845 901 0
42 -845 846 0
-846 902 0
43 -846 847 0
-847 903 0
44 -847 848 0
-848 904 0
45 -848 849 0
-849 905 0
46 -849 850 0
-850 906 0
47 -850 851 0
-851 907 0
48 -851 852 0
-852 908 0
49 -852 853 0
-853 909 0
50 -853 854 0
-854 910 0
51 -854 855 0
-855 911 0
52 -855 856 0
-856 912 0
53 -856 857 0
-857 913 0
54 -857 858 0
-858 914 0
55 -858 859 0
-859 915 0
56 -859 860 0
-860 916 0
57 -860 861 0
-861 917 0
58 -861 862 0
-862 918 0
59 -862 863 0
-863 919 0
60 -863 864 0
-864 920 0
61 -864 865 0
-865 921 0
62 -865 866 0
-866 922 0
63 -866 867 0
-867 923 0
64 -867 868 0
-868 924 0
65 -868 869 0
-869 925 0
66 -869 870 0
-870 926 0
67 -870 871 0
-871 927 0
68 -871 872 0
-872 928 0
69 -872 0
14 873 0
-873 929 0
15 -873 874 0
-874 930 0
16 -874 875 0
-875 931 0
17 -875 876 0
-876 932 0
18 -876 877 0
-877 933 0
19 -877 878 0
-878 934 0
20 -878 879 0
-879 935 0
21 -879 880 0
-880 936 0
22 -880 881 0
-881 937 0
23 -881 882 0
-882 938 0
24 -882 883 0
-883 939 0
25 -883 884 0
-884 940 0
26 -884 885 0
-885 941 0
27 -885 886 0
-886 942 0
28 -886 887 0
-887 943 0
29 -887 888 0
-888 944 0
30 -888 889 0
-889 945 0
31 -889 890 0
-890 946 0
32 -890 891 0
-891 947 0
33 -891 892 0
-892 948 0
34 -892 893 0
-893 949 0
35 -893 894 0
-894 950 0
36 -894 895 0
-895 951 0
37 -895 896 0
-896 952 0
38 -896 897 0
-897 953 0
39 -897 898 0
-898 954 0
40 -898 899 0
-899 955 0
41 -899 900 0
-900 956 0
42 -900 901 0
-901 957 0
43 -901 902 0
-902 958 0
44 -902 903 0
-903 959 0
45 -903 904 0
-904 960 0
46 -904 905 0
-905 961 0
47 -905 906 0
-906 962 0
48 -906 907 0
-907 963 0
49 -907 908 0
-908 964 0
50 -908 909 0
-909 965 0
51 -909 910 0
-910 966 0
52 -910 911 0
-911 967 0
53 -911 912 0
-912 968 0
54 -912 913 0
-913 969 0
55 -913 914 0
-914 970 0
56 -914 915 0
-915 971 0
57 -915 916 0
-916 972 0
58 -916 917 0
-917 973 0
59 -917 918 0
-918 974 0
60 -918 919 0
-919 975 0
61 -919 920 0
-920 976 0
62 -920 921 0
-921 977 0
63 -921 922 0
-922 978 0
64 -922 923 0
-923 979 0
65 -923 924 0
-924 980 0
66 -924 925 0
-925 981 0
67 -925 926 0
-926 982 0
68 -926 927 0
-927 983 0
69 -927 928 0
-928 984 0
70 -928 0
15 929 0
-929 985 0
16 -929 930 0
-930 986 0
17 -930 931 0
-931 987 0
18 -931 932 0
-932 988 0
19 -932 933 0
-933 989 0
20 -933 934 0
-934 990 0
21 -934 935 0
-935 991 0
22 -935 936 0
-936 992 0
23 -936 937 0
-937 993 0
24 -937 938 0
-938 994 0
25 -938 939 0
-939 995 0
26 -939 940 0
-940 996 0
27 -940 941 0
-941 997 0
28 -941 942 0
-942 998 0
29 -942 943 0
-943 999 0
30 -943 944 0
-944 1000 0
31 -944 945 0
-945 1001 0
32 -945 946 0
-946 1002 0
33 -946 947 0
-947 1003 0
34 -947 948 0
-948 1004 0
35 -948 949 0
-949 1005 0
36 -949 950 0
-950 1006 0
37 -950 951 0
-951 1007 0
38 -951 952 0
-952 1008 0
39 -952 953 0
-953 1009 0
40 -953 954 0
-954 1010 0
41 -954 955 0
-955 1011 0
42 -955 956 0
-956 1012 0
43 -956 957 0
-957 1013 0
44 -957 958 0
-958 1014 0
45 -958 959 0
-959 1015 0
46 -959 960 0
-960 1016 0
47 -960 961 0
-961 1017 0
48 -961 962 0
-962 1018 0
49 -962 963 0
-963 1019 0
50 -963 964 0
-964 1020 0
51 -964 965 0
-965 1021 0
52 -965 966 0
-966 1022 0
53 -966 967 0
-967 1023 0
54 -967 968 0
-968 1024 0
55 -968 969 0
-969 1025 0
56 -969 970 0
-970 1026 0
57 -970 971 0
-971 1027 0
58 -971 972 0
-972 1028 0
59 -972 973 0
-973 1029 0
60 -973 974 0
-974 1030 0
61 -974 975 0
-975 1031 0
62 -975 976 0
-976 1032 0
63 -976 977 0
-977 1033 0
64 -977 978 0
-978 1034 0
65 -978 979 0
-979 1035 0
66 -979 980 0
-980 1036 0
67 -980 981 0
-981 1037 0
68 -981 982 0
-982 1038 0
69 -982 983 0
-983 1039 0
70 -983 984 0
-984 1040 0
71 -984 0
16 985 0
17 -985 986 0
18 -986 987 0
19 -987 988 0
20 -988 989 0
21 -989 990 0
22 -990 991 0
23 -991 992 0
24 -992 993 0
25 -993 994 0
26 -994 995 0
27 -995 996 0
28 -996 997 0
29 -997 998 0
30 -998 999 0
31 -999 1000 0
32 -1000 1001 0
33 -1001 1002 0
34 -1002 1003 0
35 -1003 1004 0
36 -1004 1005 0
37 -1005 1006 0
38 -1006 1007 0
39 -1007 1008 0
40 -1008 1009 0
41 -1009 1010 0
42 -1010 1011 0
43 -1011 1012 0
44 -1012 1013 0
45 -1013 1014 0
46 -1014 1015 0
47 -1015 1016 0
48 -1016 1017 0
49 -1017 1018 0
50 -1018 1019 0
51 -1019 1020 0
52 -1020 1021 0
53 -1021 1022 0
54 -1022 1023 0
55 -1023 1024 0
56 -1024 1025 0
57 -1025 1026 0
58 -1026 1027 0
59 -1027 1028 0
60 -1028 1029 0
61 -1029 1030 0
62 -1030 1031 0
63 -1031 1032 0
64 -1032 1033 0
65 -1033 1034 0
66 -1034 1035 0
67 -1035 1036 0
68 -1036 1037 0
69 -1037 1038 0
70 -1038 1039 0
71 -1039 1040 0
72 -1040 0
-1 1041 0
-1041 1042 0
-2 -1041 1043 0
-1043 1044 0
-3 -1043 1045 0
-1045 1046 0
-4 -1045 1047 0
-1047 1048 0
-5 -1047 1049 0
-1049 1050 0
-6 -1049 1051 0
-1051 1052 0
-7 -1051 1053 0
-1053 1054 0
-8 -1053 1055 0
-1055 1056 0
-9 -1055 1057 0
-1057 1058 0
-10 -1057 1059 0
-1059 1060 0
-11 -1059 1061 0
-1061 1062 0
-12 -1061 1063 0
-1063 1064 0
-13 -1063 1065 0
-1065 1066 0
-14 -1065 1067 0
-1067 1068 0
-15 -1067 1069 0
-1069 1070 0
-16 -1069 1071 0
-1071 1072 0
-17 -1071 0
-2 1042 0
-1042 1073 0
-3 -1042 1044 0
-1044 1074 0
-4 -1044 1046 0
-1046 1075 0
-5 -1046 1048 0
-1048 1076 0
-6 -1048 1050 0
-1050 1077 0
-7 -1050 1052 0
-1052 1078 0
-8 -1052 1054 0
-1054 1079 0
-9 -1054 1056 0
-1056 1080 0
-10 -1056 1058 0
-1058 1081 0
-11 -1058 1060 0
-1060 1082 0
-12 -1060 1062 0
-1062 1083 0
-13 -1062 1064 0
-1064 1084 0
-14 -1064 1066 0
-1066 1085 0
-15 -1066 1068 0
-1068 1086 0
-16 -1068 1070 0
-1070 1087 0
-17 -1070 1072 0
-1072 1088 0
-18 -1072 0
-3 1073 0
-1073 1089 0
-4 -1073 1074 0
-1074 1090 0
-5 -1074 1075 0
-1075 1091 0
-6 -1075 1076 0
-1076 1092 0
-7 -1076 1077 0
-1077 1093 0
-8 -1077 1078 0
-1078 1094 0
-9 -1078 1079 0
-1079 1095 0
-10 -1079 1080 0
-1080 1096 0
-11 -1080 1081 0
-1081 1097 0
-12 -1081 1082 0
-1082 1098 0
-13 -1082 1083 0
-1083 1099 0
-14 -1083 1084 0
-1084 1100 0
-15 -1084 1085 0
-1085 1101 0
-16 -1085 1086 0
-1086 1102 0
-17 -1086 1087 0
-1087 1103 0
-18 -1087 1088 0
-1088 1104 0
-19 -1088 0
-4 1089 0
-1089 1105 0
-5 -1089 1090 0
-1090 1106 0
-6 -1090 1091 0
-1091 1107 0
-7 -1091 1092 0
-1092 1108 0
-8 -1092 1093 0
-1093 1109 0
-9 -1093 1094 0
-1094 1110 0
-10 -1094 1095 0
-1095 1111 0
-11 -1095 1096 0
-1096 1112 0
-12 -1096 1097 0
-1097 1113 0
-13 -1097 1098 0
-1098 1114 0
-14 -1098 1099 0
-1099 1115 0
-15 -1099 1100 0
-1100 1116 0
-16 -1100 1101 0
-1101 1117 0
-17 -1101 1102 0
-1102 1118 0
-18 -1102 1103 0
-1103 1119 0
-19 -1103 1104 0
-1104 1120 0
-20 -1104 0
-5 1105 0
-1105 1121 0
-6 -1105 1106 0
-1106 1122 0
-7 -1106 1107 0
-1107 1123 0
-8 -1107 1108 0
-1108 1124 0
-9 -1108 1109 0
-1109 1125 0
-10 -1109 1110 0
-1110 1126 0
-11 -1110 1111 0
-1111 1127 0
-12 -1111 1112 0
-1112 1128 0
-13 -1112 1113 0
-1113 1129 0
-14 -1113 1114 0
-1114 1130 0
-15 -1114 1115 0
-1115 1131 0
-16 -1115 1116 0
-1116 1132 0
-17 -1116 1117 0
-1117 1133 0
-18 -1117 1118 0
-1118 1134 0
-19 -1118 1119 0
-1119 1135 0
-20 -1119 1120 0
-1120 1136 0
-21 -1120 0
-6 1121 0
-1121 1137 0
-7 -1121 1122 0
-1122 1138 0
-8 -1122 1123 0
-1123 1139 0
-9 -1123 1124 0
-1124 1140 0
-10 -1124 1125 0
-1125 1141 0
-11 -1125 1126 0
-1126 1142 0
-12 -1126 1127 0
-1127 1143 0
-13 -1127 1128 0
-1128 1144 0
-14 -1128 1129 0
-1129 1145 0
-15 -1129 1130 0
-1130 1146 0
-16 -1130 1131 0
-1131 1147 0
-17 -1131 1132 0
-1132 1148 0
-18 -1132 1133 0
-1133 1149 0
-19 -1133 1134 0
-1134 1150 0
-20 -1134 1135 0
-1135 1151 0
-21 -1135 1136 0
-1136 1152 0
-22 -1136 0
-7 1137 0
-1137 1153 0
-8 -1137 1138 0
-1138 1154 0
-9 -1138 1139 0
-1139 1155 0
-10 -1139 1140 0
-1140 1156 0
-11 -1140 1141 0
-1141 1157 0
-12 -1141 1142 0
-1142 1158 0
-13 -1142 1143 0
-1143 1159 0
-14 -1143 1144 0
-1144 1160 0
-15 -1144 1145 0
-1145 1161 0
-16 -1145 1146 0
-1146 1162 0
-17 -1146 1147 0
-1147 1163 0
-18 -1147 1148 0
-1148 1164 0
-19 -1148 1149 0
-1149 1165 0
-20 -1149 1150 0
-1150 1166 0
-21 -1150 1151 0
-1151 1167 0
-22 -1151 1152 0
-1152 1168 0
-23 -1152 0
-8 1153 0
-1153 1169 0
-9 -1153 1154 0
-1154 1170 0
-10 -1154 1155 0
-1155 1171 0
-11 -1155 1156 0
-1156 1172 0
-12 -1156 1157 0
-1157 1173 0
-13 -1157 1158 0
-1158 1174 0
-14 -1158 1159 0
-1159 1175 0
-15 -1159 1160 0
-1160 1176 0
-16 -1160 1161 0
-1161 1177 0
-17 -1161 1162 0
-1162 1178 0
-18 -1162 1163 0
-1163 1179 0
-19 -1163 1164 0
-1164 1180 0
-20 -1164 1165 0
-1165 1181 0
-21 -1165 1166 0
-1166 1182 0
-22 -1166 1167 0
-1167 1183 0
-23 -1167 1168 0
-1168 1184 0
-24 -1168 0
-9 1169 0
-1169 1185 0
-10 -1169 1170 0
-1170 1186 0
-11 -1170 1171 0
-1171 1187 0
-12 -1171 1172 0
-1172 1188 0
-13 -1172 1173 0
-1173 1189 0
-14 -1173 1174 0
-1174 1190 0
-15 -1174 1175 0
-1175 1191 0
-16 -1175 1176 0
-1176 1192 0
-17 -1176 1177 0
-1177 1193 0
-18 -1177 1178 0
-1178 1194 0
-19 -1178 1179 0
-1179 1195 0
-20 -1179 1180 0
-1180 1196 0
-21 -1180 1181 0
-1181 1197 0
-22 -1181 1182 0
-1182 1198 0
-23 -1182 1183 0
-1183 1199 0
-24 -1183 1184 0
-1184 1200 0
-25 -1184 0
-10 1185 0
-1185 1201 0
-11 -1185 1186 0
-1186 1202 0
-12 -1186 1187 0
-1187 1203 0
-13 -1187 1188 0
-1188 1204 0
-14 -1188 1189 0
-1189 1205 0
-15 -1189 1190 0
-1190 1206 0
-16 -1190 1191 0
-1191 1207 0
-17 -1191 1192 0
-1192 1208 0
-18 -1192 1193 0
-1193 1209 0
-19 -1193 1194 0
-1194 1210 0
-20 -1194 1195 0
-1195 1211 0
-21 -1195 1196 0
-1196 1212 0
-22 -1196 1197 0
-1197 1213 0
-23 -1197 1198 0
-1198 1214 0
-24 -1198 1199 0
-1199 1215 0
-25 -1199 1200 0
-1200 1216 0
-26 -1200 0
-11 1201 0
-1201 1217 0
-12 -1201 1202 0
-1202 1218 0
-13 -1202 1203 0
-1203 1219 0
-14 -1203 1204 0
-1204 1220 0
-15 -1204 1205 0
-1205 1221 0
-16 -1205 1206 0
-1206 1222 0
-17 -1206 1207 0
-1207 1223 0
-18 -1207 1208 0
-1208 1224 0
-19 -1208 1209 0
-1209 1225 0
-20 -1209 1210 0
-1210 1226 0
-21 -1210 1211 0
-1211 1227 0
-22 -1211 1212 0
-1212 1228 0
-23 -1212 1213 0
-1213 1229 0
-24 -1213 1214 0
-1214 1230 0
-25 -1214 1215 0
-1215 1231 0
-26 -1215 1216 0
-1216 1232 0
-27 -1216 0
-12 1217 0
-1217 1233 0
-13 -1217 1218 0
-1218 1234 0
-14 -1218 1219 0
-1219 1235 0
-15 -1219 1220 0
-1220 1236 0
-16 -1220 1221 0
-1221 1237 0
-17 -1221 1222 0
-1222 1238 0
-18 -1222 1223 0
-1223 1239 0
-19 -1223 1224 0
-1224 1240 0
-20 -1224 1225 0
-1225 1241 0
-21 -1225 1226 0
-1226 1242 0
-22 -1226 1227 0
-1227 1243 0
-23 -1227 1228 0
-1228 1244 0
-24 -1228 1229 0
-1229 1245 0
-25 -1229 1230 0
-1230 1246 0
-26 -1230 1231 0
-1231 1247 0
-27 -1231 1232 0
-1232 1248 0
-28 -1232 0
-13 1233 0
-1233 1249 0
-14 -1233 1234 0
-1234 1250 0
-15 -1234 1235 0
-1235 1251 0
-16 -1235 1236 0
-1236 1252 0
-17 -1236 1237 0
-1237 1253 0
-18 -1237 1238 0
-1238 1254 0
-19 -1238 1239 0
-1239 1255 0
-20 -1239 1240 0
-1240 1256 0
-21 -1240 1241 0
-1241 1257 0
-22 -1241 1242 0
-1242 1258 0
-23 -1242 1243 0
-1243 1259 0
-24 -1243 1244 0
-1244 1260 0
-25 -1244 1245 0
-1245 1261 0
-26 -1245 1246 0
-1246 1262 0
-27 -1246 1247 0
-1247 1263 0
-28 -1247 1248 0
-1248 1264 0
-29 -1248 0
-14 1249 0
-1249 1265 0
-15 -1249 1250 0
-1250 1266 0
-16 -1250 1251 0
-1251 1267 0
-17 -1251 1252 0
-1252 1268 0
-18 -1252 1253 0
-1253 1269 0
-19 -1253 1254 0
-1254 1270 0
-20 -1254 1255 0
-1255 1271 0
-21 -1255 1256 0
-1256 1272 0
-22 -1256 1257 0
-1257 1273 0
-23 -1257 1258 0
-1258 1274 0
-24 -1258 1259 0
-1259 1275 0
-25 -1259 1260 0
-1260 1276 0
-26 -1260 1261 0
-1261 1277 0
-27 -1261 1262 0
-1262 1278 0
-28 -1262 1263 0
-1263 1279 0
-29 -1263 1264 0
-1264 1280 0
-30 -1264 0
-15 1265 0
-1265 1281 0
-16 -1265 1266 0
-1266 1282 0
-17 -1266 1267 0
-1267 1283 0
-18 -1267 1268 0
-1268 1284 0
-19 -1268 1269 0
-1269 1285 0
-20 -1269 1270 0
-1270 1286 0
-21 -1270 1271 0
-1271 1287 0
-22 -1271 1272 0
-1272 1288 0
-23 -1272 1273 0
-1273 1289 0
-24 -1273 1274 0
-1274 1290 0
-25 -1274 1275 0
-1275 1291 0
-26 -1275 1276 0
-1276 1292 0
-27 -1276 1277 0
-1277 1293 0
-28 -1277 1278 0
-1278 1294 0
-29 -1278 1279 0
-1279 1295 0
-30 -1279 1280 0
-1280 1296 0
-31 -1280 0
-16 1281 0
-1281 1297 0
-17 -1281 1282 0
-1282 1298 0
-18 -1282 1283 0
-1283 1299 0
-19 -1283 1284 0
-1284 1300 0
-20 -1284 1285 0
-1285 1301 0
-21 -1285 1286 0
-1286 1302 0
-22 -1286 1287 0
-1287 1303 0
-23 -1287 1288 0
-1288 1304 0
-24 -1288 1289 0
-1289 1305 0
-25 -1289 1290 0
-1290 1306 0
-26 -1290 1291 0
-1291 1307 0
-27 -1291 1292 0
-1292 1308 0
-28 -1292 1293 0
-1293 1309 0
-29 -1293 1294 0
-1294 1310 0
-30 -1294 1295 0
-1295 1311 0
-31 -1295 1296 0
-1296 1312 0
-32 -1296 0
-17 1297 0
-1297 1313 0
-18 -1297 1298 0
-1298 1314 0
-19 -1298 1299 0
-1299 1315 0
-20 -1299 1300 0
-1300 1316 0
-21 -1300 1301 0
-1301 1317 0
-22 -1301 1302 0
-1302 1318 0
-23 -1302 1303 0
-1303 1319 0
-24 -1303 1304 0
-1304 1320 0
-25 -1304 1305 0
-1305 1321 0
-26 -1305 1306 0
-1306 1322 0
-27 -1306 1307 0
-1307 1323 0
-28 -1307 1308 0
-1308 1324 0
-29 -1308 1309 0
-1309 1325 0
-30 -1309 1310 0
-1310 1326 0
-31 -1310 1311 0
-1311 1327 0
-32 -1311 1312 0
-1312 1328 0
-33 -1312 0
-18 1313 0
-1313 1329 0
-19 -1313 1314 0
-1314 1330 0
-20 -1314 1315 0
-1315 1331 0
-21 -1315 1316 0
-1316 1332 0
-22 -1316 1317 0
-1317 1333 0
-23 -1317 1318 0
-1318 1334 0
-24 -1318 1319 0
-1319 1335 0
-25 -1319 1320 0
-1320 1336 0
-26 -1320 1321 0
-1321 1337 0
-27 -1321 1322 0
-1322 1338 0
-28 -1322 1323 0
-1323 1339 0
-29 -1323 1324 0
-1324 1340 0
-30 -1324 1325 0
-1325 1341 0
-31 -1325 1326 0
-1326 1342 0
-32 -1326 1327 0
-1327 1343 0
-33 -1327 1328 0
-1328 1344 0
-34 -1328 0
-19 1329 0
-1329 1345 0
-20 -1329 1330 0
-1330 1346 0
-21 -1330 1331 0
-1331 1347 0
-22 -1331 1332 0
-1332 1348 0
-23 -1332 1333 0
-1333 1349 0
-24 -1333 1334 0
-1334 1350 0
-25 -1334 1335 0
-1335 1351 0
-26 -1335 1336 0
-1336 1352 0
-27 -1336 1337 0
-1337 1353 0
-28 -1337 1338 0
-1338 1354 0
-29 -1338 1339 0
-1339 1355 0
-30 -1339 1340 0
-1340 1356 0
-31 -1340 1341 0
-1341 1357 0
-32 -1341 1342 0
-1342 1358 0
-33 -1342 1343 0
-1343 1359 0
-34 -1343 1344 0
-1344 1360 0
-35 -1344 0
-20 1345 0
-1345 1361 0
-21 -1345 1346 0
-1346 1362 0
-22 -1346 1347 0
-1347 1363 0
-23 -1347 1348 0
-1348 1364 0
-24 -1348 1349 0
-1349 1365 0
-25 -1349 1350 0
-1350 1366 0
-26 -1350 1351 0
-1351 1367 0
-27 -1351 1352 0
-1352 1368 0
-28 -1352 1353 0
-1353 1369 0
-29 -1353 1354 0
-1354 1370 0
-30 -1354 1355 0
-1355 1371 0
-31 -1355 1356 0
-1356 1372 0
-32 -1356 1357 0
-1357 1373 0
-33 -1357 1358 0
-1358 1374 0
-34 -1358 1359 0
-1359 1375 0
-35 -1359 1360 0
-1360 1376 0
-36 -1360 0
-21 1361 0
-1361 1377 0
-22 -1361 1362 0
-1362 1378 0
-23 -1362 1363 0
-1363 1379 0
-24 -1363 1364 0
-1364 1380 0
-25 -1364 1365 0
-1365 1381 0
-26 -1365 1366 0
-1366 1382 0
-27 -1366 1367 0
-1367 1383 0
-28 -1367 1368 0
-1368 1384 0
-29 -1368 1369 0
-1369 1385 0
-30 -1369 1370 0
-1370 1386 0
-31 -1370 1371 0
-1371 1387 0
-32 -1371 1372 0
-1372 1388 0
-33 -1372 1373 0
-1373 1389 0
-34 -1373 1374 0
-1374 1390 0
-35 -1374 1375 0
-1375 1391 0
-36 -1375 1376 0
-1376 1392 0
-37 -1376 0
-22 1377 0
-1377 1393 0
-23 -1377 1378 0
-1378 1394 0
-24 -1378 1379 0
-1379 1395 0
-25 -1379 1380 0
-1380 1396 0
-26 -1380 1381 0
-1381 1397 0
-27 -1381 1382 0
-1382 1398 0
-28 -1382 1383 0
-1383 1399 0
-29 -1383 1384 0
-1384 1400 0
-30 -1384 1385 0
-1385 1401 0
-31 -1385 1386 0
-1386 1402 0
-32 -1386 1387 0
-1387 1403 0
-33 -1387 1388 0
-1388 1404 0
-34 -1388 1389 0
-1389 1405 0
-35 -1389 1390 0
-1390 1406 0
-36 -1390 1391 0
-1391 1407 0
-37 -1391 1392 0
-1392 1408 0
-38 -1392 0
-23 1393 0
-1393 1409 0
-24 -1393 1394 0
-1394 1410 0
-25 -1394 1395 0
-1395 1411 0
-26 -1395 1396 0
-1396 1412 0
-27 -1396 1397 0
-1397 1413 0
-28 -1397 1398 0
-1398 1414 0
-29 -1398 1399 0
-1399 1415 0
-30 -1399 1400 0
-1400 1416 0
-31 -1400 1401 0
-1401 1417 0
-32 -1401 1402 0
-1402 1418 0
-33 -1402 1403 0
-1403 1419 0
-34 -1403 1404 0
-1404 1420 0
-35 -1404 1405 0
-1405 1421 0
-36 -1405 1406 0
-1406 1422 0
-37 -1406 1407 0
-1407 1423 0
-38 -1407 1408 0
-1408 1424 0
-39 -1408 0
-24 1409 0
-1409 1425 0
-25 -1409 1410 0
-1410 1426 0
-26 -1410 1411 0
-1411 1427 0
-27 -1411 1412 0
-1412 1428 0
-28 -1412 1413 0
-1413 1429 0
-29 -1413 1414 0
-1414 1430 0
-30 -1414 1415 0
-1415 1431 0
-31 -1415 1416 0
-1416 1432 0
-32 -1416 1417 0
-1417 1433 0
-33 -1417 1418 0
-1418 1434 0
-34 -1418 1419 0
-1419 1435 0
-35 -1419 1420 0
-1420 1436 0
-36 -1420 1421 0
-1421 1437 0
-37 -1421 1422 0
-1422 1438 0
-38 -1422 1423 0
-1423 1439 0
-39 -1423 1424 0
-1424 1440 0
-40 -1424 0
-25 1425 0
-1425 1441 0
-26 -1425 1426 0
-1426 1442 0
-27 -1426 1427 0
-1427 1443 0
-28 -1427 1428 0
-1428 1444 0
-29 -1428 1429 0
-1429 1445 0
-30 -1429 1430 0
-1430 1446 0
-31 -1430 1431 0
-1431 1447 0
-32 -1431 1432 0
-1432 1448 0
-33 -1432 1433 0
-1433 1449 0
-34 -1433 1434 0
-1434 1450 0
-35 -1434 1435 0
-1435 1451 0
-36 -1435 1436 0
-1436 1452 0
-37 -1436 1437 0
-1437 1453 0
-38 -1437 1438 0
-1438 1454 0
-39 -1438 1439 0
-1439 1455 0
-40 -1439 1440 0
-1440 1456 0
-41 -1440 0
-26 1441 0
-1441 1457 0
-27 -1441 1442 0
-1442 1458 0
-28 -1442 1443 0
-1443 1459 0
-29 -1443 1444 0
-1444 1460 0
-30 -1444 1445 0
-1445 1461 0
-31 -1445 1446 0
-1446 1462 0
-32 -1446 1447 0
-1447 1463 0
-33 -1447 1448 0
-1448 1464 0
-34 -1448 1449 0
-1449 1465 0
-35 -1449 1450 0
-1450 1466 0
-36 -1450 1451 0
-1451 1467 0
-37 -1451 1452 0
-1452 1468 0
-38 -1452 1453 0
-1453 1469 0
-39 -1453 1454 0
-1454 1470 0
-40 -1454 1455 0
-1455 1471 0
-41 -1455 1456 0
-1456 1472 0
-42 -1456 0
-27 1457 0
-1457 1473 0
-28 -1457 1458 0
-1458 1474 0
-29 -1458 1459 0
-1459 1475 0
-30 -1459 1460 0
-1460 1476 0
-31 -1460 1461 0
-1461 1477 0
-32 -1461 1462 0
-1462 1478 0
-33 -1462 1463 0
-1463 1479 0
-34 -1463 1464 0
-1464 1480 0
-35 -1464 1465 0
-1465 1481 0
-36 -1465 1466 0
-1466 1482 0
-37 -1466 1467 0
-1467 1483 0
-38 -1467 1468 0
-1468 1484 0
-39 -1468 1469 0
-1469 1485 0
-40 -1469 1470 0
-1470 1486 0
-41 -1470 1471 0
-1471 1487 0
-42 -1471 1472 0
-1472 1488 0
-43 -1472 0
-28 1473 0
-1473 1489 0
-29 -1473 1474 0
-1474 1490 0
-30 -1474 1475 0
-1475 1491 0
-31 -1475 1476 0
-1476 1492 0
-32 -1476 1477 0
-1477 1493 0
-33 -1477 1478 0
-1478 1494 0
-34 -1478 1479 0
-1479 1495 0
-35 -1479 1480 0
-1480 1496 0
-36 -1480 1481 0
-1481 1497 0
-37 -1481 1482 0
-1482 1498 0
-38 -1482 1483 0
-1483 1499 0
-39 -1483 1484 0
-1484 1500 0
-40 -1484 1485 0
-1485 1501 0
-41 -1485 1486 0
-1486 1502 0
-42 -1486 1487 0
-1487 1503 0
-43 -1487 1488 0
-1488 1504 0
-44 -1488 0
-29 1489 0
-1489 1505 0
-30 -1489 1490 0
-1490 1506 0
-31 -1490 1491 0
-1491 1507 0
-32 -1491 1492 0
-1492 1508 0
-33 -1492 1493 0
-1493 1509 0
-34 -1493 1494 0
-1494 1510 0
-35 -1494 1495 0
-1495 1511 0
-36 -1495 1496 0
-1496 1512 0
-37 -1496 1497 0
-1497 1513 0
-38 -1497 1498 0
-1498 1514 0
-39 -1498 1499 0
-1499 1515 0
-40 -1499 1500 0
-1500 1516 0
-41 -1500 1501 0
-1501 1517 0
-42 -1501 1502 0
-1502 1518 0
-43 -1502 1503 0
-1503 1519 0
-44 -1503 1504 0
-1504 1520 0
-45 -1504 0
-30 1505 0
-1505 1521 0
-31 -1505 1506 0
-1506 1522 0
-32 -1506 1507 0
-1507 1523 0
-33 -1507 1508 0
-1508 1524 0
-34 -1508 1509 0
-1509 1525 0
-35 -1509 1510 0
-1510 1526 0
-36 -1510 1511 0
-1511 1527 0
-37 -1511 1512 0
-1512 1528 0
-38 -1512 1513 0
-1513 1529 0
-39 -1513 1514 0
-1514 1530 0
-40 -1514 1515 0
-1515 1531 0
-41 -1515 1516 0
-1516 1532 0
-42 -1516 1517 0
-1517 1533 0
-43 -1517 1518 0
-1518 1534 0
-44 -1518 1519 0
-1519 1535 0
-45 -1519 1520 0
-1520 1536 0
-46 -1520 0
-31 1521 0
-1521 1537 0
-32 -1521 1522 0
-1522 1538 0
-33 -1522 1523 0
-1523 1539 0
-34 -1523 1524 0
-1524 1540 0
-35 -1524 1525 0
-1525 1541 0
-36 -1525 1526 0
-1526 1542 0
-37 -1526 1527 0
-1527 1543 0
-38 -1527 1528 0
-1528 1544 0
-39 -1528 1529 0
-1529 1545 0
-40 -1529 1530 0
-1530 1546 0
-41 -1530 1531 0
-1531 1547 0
-42 -1531 1532 0
-1532 1548 0
-43 -1532 1533 0
-1533 1549 0
-44 -1533 1534 0
-1534 1550 0
-45 -1534 1535 0
-1535 1551 0
-46 -1535 1536 0
-1536 1552 0
-47 -1536 0
-32 1537 0
-1537 1553 0
-33 -1537 1538 0
-1538 1554 0
-34 -1538 1539 0
-1539 1555 0
-35 -1539 1540 0
-1540 1556 0
-36 -1540 1541 0
-1541 1557 0
-37 -1541 1542 0
-1542 1558 0
-38 -1542 1543 0
-1543 1559 0
-39 -1543 1544 0
-1544 1560 0
-40 -1544 1545 0
-1545 1561 0
-41 -1545 1546 0
-1546 1562 0
-42 -1546 1547 0
-1547 1563 0
-43 -1547 1548 0
-1548 1564 0
-44 -1548 1549 0
-1549 1565 0
-45 -1549 1550 0
-1550 1566 0
-46 -1550 1551 0
-1551 1567 0
-47 -1551 1552 0
-1552 1568 0
-48 -1552 0
-33 1553 0
-1553 1569 0
-34 -1553 1554 0
-1554 1570 0
-35 -1554 1555 0
-1555 1571 0
-36 -1555 1556 0
-1556 1572 0
-37 -1556 1557 0
-1557 1573 0
-38 -1557 1558 0
-1558 1574 0
-39 -1558 1559 0
-1559 1575 0
-40 -1559 1560 0
-1560 1576 0
-41 -1560 1561 0
-1561 1577 0
-42 -1561 1562 0
-1562 1578 0
-43 -1562 1563 0
-1563 1579 0
-44 -1563 1564 0
-1564 1580 0
-45 -1564 1565 0
-1565 1581 0
-46 -1565 1566 0
-1566 1582 0
-47 -1566 1567 0
-1567 1583 0
-48 -1567 1568 0
-1568 1584 0
-49 -1568 0
-34 1569 0
-1569 1585 0
-35 -1569 1570 0
-1570 1586 0
-36 -1570 1571 0
-1571 1587 0
-37 -1571 1572 0
-1572 1588 0
-38 -1572 1573 0
-1573 1589 0
-39 -1573 1574 0
-1574 1590 0
-40 -1574 1575 0
-1575 1591 0
-41 -1575 1576 0
-1576 1592 0
-42 -1576 1577 0
-1577 1593 0
-43 -1577 1578 0
-1578 1594 0
-44 -1578 1579 0
-1579 1595 0
-45 -1579 1580 0
-1580 1596 0
-46 -1580 1581 0
-1581 1597 0
-47 -1581 1582 0
-1582 1598 0
-48 -1582 1583 0
-1583 1599 0
-49 -1583 1584 0
-1584 1600 0
-50 -1584 0
-35 1585 0
-1585 1601 0
-36 -1585 1586 0
-1586 1602 0
-37 -1586 1587 0
-1587 1603 0
-38 -1587 1588 0
-1588 1604 0
-39 -1588 1589 0
-1589 1605 0
-40 -1589 1590 0
-1590 1606 0
-41 -1590 1591 0
-1591 1607 0
-42 -1591 1592 0
-1592 1608 0
-43 -1592 1593 0
-1593 1609 0
-44 -1593 1594 0
-1594 1610 0
-45 -1594 1595 0
-1595 1611 0
-46 -1595 1596 0
-1596 1612 0
-47 -1596 1597 0
-1597 1613 0
-48 -1597 1598 0
-1598 1614 0
-49 -1598 1599 0
-1599 1615 0
-50 -1599 1600 0
-1600 1616 0
-51 -1600 0
-36 1601 0
-1601 1617 0
-37 -1601 1602 0
-1602 1618 0
-38 -1602 1603 0
-1603 1619 0
-39 -1603 1604 0
-1604 1620 0
-40 -1604 1605 0
-1605 1621 0
-41 -1605 1606 0
-1606 1622 0
-42 -1606 1607 0
-1607 1623 0
-43 -1607 1608 0
-1608 1624 0
-44 -1608 1609 0
-1609 1625 0
-45 -1609 1610 0
-1610 1626 0
-46 -1610 1611 0
-1611 1627 0
-47 -1611 1612 0
-1612 1628 0
-48 -1612 1613 0
-1613 1629 0
-49 -1613 1614 0
-1614 1630 0
-50 -1614 1615 0
-1615 1631 0
-51 -1615 1616 0
-1616 1632 0
-52 -1616 0
-37 1617 0
-1617 1633 0
-38 -1617 1618 0
-1618 1634 0
-39 -1618 1619 0
-1619 1635 0
-40 -1619 1620 0
-1620 1636 0
-41 -1620 1621 0
-1621 1637 0
-42 -1621 1622 0
-1622 1638 0
-43 -1622 1623 0
-1623 1639 0
-44 -1623 1624 0
-1624 1640 0
-45 -1624 1625 0
-1625 1641 0
-46 -1625 1626 0
-1626 1642 0
-47 -1626 1627 0
-1627 1643 0
-48 -1627 1628 0
-1628 1644 0
-49 -1628 1629 0
-1629 1645 0
-50 -1629 1630 0
-1630 1646 0
-51 -1630 1631 0
-1631 1647 0
-52 -1631 1632 0
-1632 1648 0
-53 -1632 0
-38 1633 0
-1633 1649 0
-39 -1633 1634 0
-1634 1650 0
-40 -1634 1635 0
-1635 1651 0
-41 -1635 1636 0
-1636 1652 0
-42 -1636 1637 0
-1637 1653 0
-43 -1637 1638 0
-1638 1654 0
-44 -1638 1639 0
-1639 1655 0
-45 -1639 1640 0
-1640 1656 0
-46 -1640 1641 0
-1641 1657 0
-47 -1641 1642 0
-1642 1658 0
-48 -1642 1643 0
-1643 1659 0
-49 -1643 1644 0
-1644 1660 0
-50 -1644 1645 0
-1645 1661 0
-51 -1645 1646 0
-1646 1662 0
-52 -1646 1647 0
-1647 1663 0
-53 -1647 1648 0
-1648 1664 0
-54 -1648 0
-39 1649 0
-1649 1665 0
-40 -1649 1650 0
-1650 1666 0
-41 -1650 1651 0
-1651 1667 0
-42 -1651 1652 0
-1652 1668 0
-43 -1652 1653 0
-1653 1669 0
-44 -1653 1654 0
-1654 1670 0
-45 -1654 1655 0
-1655 1671 0
-46 -1655 1656 0
-1656 1672 0
-47 -1656 1657 0
-1657 1673 0
-48 -1657 1658 0
-1658 1674 0
-49 -1658 1659 0
-1659 1675 0
-50 -1659 1660 0
-1660 1676 0
-51 -1660 1661 0
-1661 1677 0
-52 -1661 1662 0
-1662 1678 0
-53 -1662 1663 0
-1663 1679 0
-54 -1663 1664 0
-1664 1680 0
-55 -1664 0
-40 1665 0
-1665 1681 0
-41 -1665 1666 0
-1666 1682 0
-42 -1666 1667 0
-1667 1683 0
-43 -1667 1668 0
-1668 1684 0
-44 -1668 1669 0
-1669 1685 0
-45 -1669 1670 0
-1670 1686 0
-46 -1670 1671 0
-1671 1687 0
-47 -1671 1672 0
-1672 1688 0
-48 -1672 1673 0
-1673 1689 0
-49 -1673 1674 0
-1674 1690 0
-50 -1674 1675 0
-1675 1691 0
-51 -1675 1676 0
-1676 1692 0
-52 -1676 1677 0
-1677 1693 0
-53 -1677 1678 0
-1678 1694 0
-54 -1678 1679 0
-1679 1695 0
-55 -1679 1680 0
-1680 1696 0
-56 -1680 0
-41 1681 0
-1681 1697 0
-42 -1681 1682 0
-1682 1698 0
-43 -1682 1683 0
-1683 1699 0
-44 -1683 1684 0
-1684 1700 0
-45 -1684 1685 0
-1685 1701 0
-46 -1685 1686 0
-1686 1702 0
-47 -1686 1687 0
-1687 1703 0
-48 -1687 1688 0
-1688 1704 0
-49 -1688 1689 0
-1689 1705 0
-50 -1689 1690 0
-1690 1706 0
-51 -1690 1691 0
-1691 1707 0
-52 -1691 1692 0
-1692 1708 0
-53 -1692 1693 0
-1693 1709 0
-54 -1693 1694 0
-1694 1710 0
-55 -1694 1695 0
-1695 1711 0
-56 -1695 1696 0
-1696 1712 0
-57 -1696 0
-42 1697 0
-1697 1713 0
-43 -1697 1698 0
-1698 1714 0
-44 -1698 1699 0
-1699 1715 0
-45 -1699 1700 0
-1700 1716 0
-46 -1700 1701 0
-1701 1717 0
-47 -1701 1702 0
-1702 1718 0
-48 -1702 1703 0
-1703 1719 0
-49 -1703 1704 0
-1704 1720 0
-50 -1704 1705 0
-1705 1721 0
-51 -1705 1706 0
-1706 1722 0
-52 -1706 1707 0
-1707 1723 0
-53 -1707 1708 0
-1708 1724 0
-54 -1708 1709 0
-1709 1725 0
-55 -1709 1710 0
-1710 1726 0
-56 -1710 1711 0
-1711 1727 0
-57 -1711 1712 0
-1712 1728 0
-58 -1712 0
-43 1713 0
-1713 1729 0
-44 -1713 1714 0
-1714 1730 0
-45 -1714 1715 0
-1715 1731 0
-46 -1715 1716 0
-1716 1732 0
-47 -1716 1717 0
-1717 1733 0
-48 -1717 1718 0
-1718 1734 0
-49 -1718 1719 0
-1719 1735 0
-50 -1719 1720 0
-1720 1736 0
-51 -1720 1721 0
-1721 1737 0
-52 -1721 1722 0
-1722 1738 0
-53 -1722 1723 0
-1723 1739 0
-54 -1723 1724 0
-1724 1740 0
-55 -1724 1725 0
-1725 1741 0
-56 -1725 1726 0
-1726 1742 0
-57 -1726 1727 0
-1727 1743 0
-58 -1727 1728 0
-1728 1744 0
-59 -1728 0
-44 1729 0
-1729 1745 0
-45 -1729 1730 0
-1730 1746 0
-46 -1730 1731 0
-1731 1747 0
-47 -1731 1732 0
-1732 1748 0
-48 -1732 1733 0
-1733 1749 0
-49 -1733 1734 0
-1734 1750 0
-50 -1734 1735 0
-1735 1751 0
-51 -1735 1736 0
-1736 1752 0
-52 -1736 1737 0
-1737 1753 0
-53 -1737 1738 0
-1738 1754 0
-54 -1738 1739 0
-1739 1755 0
-55 -1739 1740 0
-1740 1756 0
-56 -1740 1741 0
-1741 1757 0
-57 -1741 1742 0
-1742 1758 0
-58 -1742 1743 0
-1743 1759 0
-59 -1743 1744 0
-1744 1760 0
-60 -1744 0
-45 1745 0
-1745 1761 0
-46 -1745 1746 0
-1746 1762 0
-47 -1746 1747 0
-1747 1763 0
-48 -1747 1748 0
-1748 1764 0
-49 -1748 1749 0
-1749 1765 0
-50 -1749 1750 0
-1750 1766 0
-51 -1750 1751 0
-1751 1767 0
-52 -1751 1752 0
-1752 1768 0
-53 -1752 1753 0
-1753 1769 0
-54 -1753 1754 0
-1754 1770 0
-55 -1754 1755 0
-1755 1771 0
-56 -1755 1756 0
-1756 1772 0
-57 -1756 1757 0
-1757 1773 0
-58 -1757 1758 0
-1758 1774 0
-59 -1758 1759 0
-1759 1775 0
-60 -1759 1760 0
-1760 1776 0
-61 -1760 0
-46 1761 0
-1761 1777 0
-47 -1761 1762 0
-1762 1778 0
-48 -1762 1763 0
-1763 1779 0
-49 -1763 1764 0
-1764 1780 0
-50 -1764 1765 0
-1765 1781 0
-51 -1765 1766 0
-1766 1782 0
-52 -1766 1767 0
-1767 1783 0
-53 -1767 1768 0
-1768 1784 0
-54 -1768 1769 0
-1769 1785 0
-55 -1769 1770 0
-1770 1786 0
-56 -1770 1771 0
-1771 1787 0
-57 -1771 1772 0
-1772 1788 0
-58 -1772 1773 0
-1773 1789 0
-59 -1773 1774 0
-1774 1790 0
-60 -1774 1775 0
-1775 1791 0
-61 -1775 1776 0
-1776 1792 0
-62 -1776 0
-47 1777 0
-1777 1793 0
-48 -1777 1778 0
-1778 1794 0
-49 -1778 1779 0
-1779 1795 0
-50 -1779 1780 0
-1780 1796 0
-51 -1780 1781 0
-1781 1797 0
-52 -1781 1782 0
-1782 1798 0
-53 -1782 1783 0
-1783 1799 0
-54 -1783 1784 0
-1784 1800 0
-55 -1784 1785 0
-1785 1801 0
-56 -1785 1786 0
-1786 1802 0
-57 -1786 1787 0
-1787 1803 0
-58 -1787 1788 0
-1788 1804 0
-59 -1788 1789 0
-1789 1805 0
-60 -1789 1790 0
-1790 1806 0
-61 -1790 1791 0
-1791 1807 0
-62 -1791 1792 0
-1792 1808 0
-63 -1792 0
-48 1793 0
-1793 1809 0
-49 -1793 1794 0
-1794 1810 0
-50 -1794 1795 0
-1795 1811 0
-51 -1795 1796 0
-1796 1812 0
-52 -1796 1797 0
-1797 1813 0
-53 -1797 1798 0
-1798 1814 0
-54 -1798 1799 0
-1799 1815 0
-55 -1799 1800 0
-1800 1816 0
-56 -1800 1801 0
-1801 1817 0
-57 -1801 1802 0
-1802 1818 0
-58 -1802 1803 0
-1803 1819 0
-59 -1803 1804 0
-1804 1820 0
-60 -1804 1805 0
-1805 1821 0
-61 -1805 1806 0
-1806 1822 0
-62 -1806 1807 0
-1807 1823 0
-63 -1807 1808 0
-1808 1824 0
-64 -1808 0
-49 1809 0
-1809 1825 0
-50 -1809 1810 0
-1810 1826 0
-51 -1810 1811 0
-1811 1827 0
-52 -1811 1812 0
-1812 1828 0
-53 -1812 1813 0
-1813 1829 0
-54 -1813 1814 0
-1814 1830 0
-55 -1814 1815 0
-1815 1831 0
-56 -1815 1816 0
-1816 1832 0
-57 -1816 1817 0
-1817 1833 0
-58 -1817 1818 0
-1818 1834 0
-59 -1818 1819 0
-1819 1835 0
-60 -1819 1820 0
-1820 1836 0
-61 -1820 1821 0
-1821 1837 0
-62 -1821 1822 0
-1822 1838 0
-63 -1822 1823 0
-1823 1839 0
-64 -1823 1824 0
-1824 1840 0
-65 -1824 0
-50 1825 0
-1825 1841 0
-51 -1825 1826 0
-1826 1842 0
-52 -1826 1827 0
-1827 1843 0
-53 -1827 1828 0
-1828 1844 0
-54 -1828 1829 0
-1829 1845 0
-55 -1829 1830 0
-1830 1846 0
-56 -1830 1831 0
-1831 1847 0
-57 -1831 1832 0
-1832 1848 0
-58 -1832 1833 0
-1833 1849 0
-59 -1833 1834 0
-1834 1850 0
-60 -1834 1835 0
-1835 1851 0
-61 -1835 1836 0
-1836 1852 0
-62 -1836 1837 0
-1837 1853 0
-63 -1837 1838 0
-1838 1854 0
-64 -1838 1839 0
-1839 1855 0
-65 -1839 1840 0
-1840 1856 0
-66 -1840 0
-51 1841 0
-1841 1857 0
-52 -1841 1842 0
-1842 1858 0
-53 -1842 1843 0
-1843 1859 0
-54 -1843 1844 0
-1844 1860 0
-55 -1844 1845 0
-1845 1861 0
-56 -1845 1846 0
-1846 1862 0
-57 -1846 1847 0
-1847 1863 0
-58 -1847 1848 0
-1848 1864 0
-59 -1848 1849 0
-1849 1865 0
-60 -1849 1850 0
-1850 1866 0
-61 -1850 1851 0
-1851 1867 0
-62 -1851 1852 0
-1852 1868 0
-63 -1852 1853 0
-1853 1869 0
-64 -1853 1854 0
-1854 1870 0
-65 -1854 1855 0
-1855 1871 0
-66 -1855 1856 0
-1856 1872 0
-67 -1856 0
-52 1857 0
-1857 1873 0
-53 -1857 1858 0
-1858 1874 0
-54 -1858 1859 0
-1859 1875 0
-55 -1859 1860 0
-1860 1876 0
-56 -1860 1861 0
-1861 1877 0
-57 -1861 1862 0
-1862 1878 0
-58 -1862 1863 0
-1863 1879 0
-59 -1863 1864 0
-1864 1880 0
-60 -1864 1865 0
-1865 1881 0
-61 -1865 1866 0
-1866 1882 0
-62 -1866 1867 0
-1867 1883 0
-63 -1867 1868 0
-1868 1884 0
-64 -1868 1869 0
-1869 1885 0
-65 -1869 1870 0
-1870 1886 0
-66 -1870 1871 0
-1871 1887 0
-67 -1871 1872 0
-1872 1888 0
-68 -1872 0
-53 1873 0
-1873 1889 0
-54 -1873 1874 0
-1874 1890 0
-55 -1874 1875 0
-1875 1891 0
-56 -1875 1876 0
-1876 1892 0
-57 -1876 1877 0
-1877 1893 0
-58 -1877 1878 0
-1878 1894 0
-59 -1878 1879 0
-1879 1895 0
-60 -1879 1880 0
-1880 1896 0
-61 -1880 1881 0
-1881 1897 0
-62 -1881 1882 0
-1882 1898 0
-63 -1882 1883 0
-1883 1899 0
-64 -1883 1884 0
-1884 1900 0
-65 -1884 1885 0
-1885 1901 0
-66 -1885 1886 0
-1886 1902 0
-67 -1886 1887 0
-1887 1903 0
-68 -1887 1888 0
-1888 1904 0
-69 -1888 0
-54 1889 0
-1889 1905 0
-55 -1889 1890 0
-1890 1906 0
-56 -1890 1891 0
-1891 1907 0
-57 -1891 1892 0
-1892 1908 0
-58 -1892 1893 0
-1893 1909 0
-59 -1893 1894 0
-1894 1910 0
-60 -1894 1895 0
-1895 1911 0
-61 -1895 1896 0
-1896 1912 0
-62 -1896 1897 0
-1897 1913 0
-63 -1897 1898 0
-1898 1914 0
-64 -1898 1899 0
-1899 1915 0
-65 -1899 1900 0
-1900 1916 0
-66 -1900 1901 0
-1901 1917 0
-67 -1901 1902 0
-1902 1918 0
-68 -1902 1903 0
-1903 1919 0
-69 -1903 1904 0
-1904 1920 0
-70 -1904 0
-55 1905 0
-1905 1921 0
-56 -1905 1906 0
-1906 1922 0
-57 -1906 1907 0
-1907 1923 0
-58 -1907 1908 0
-1908 1924 0
-59 -1908 1909 0
-1909 1925 0
-60 -1909 1910 0
-1910 1926 0
-61 -1910 1911 0
-1911 1927 0
-62 -1911 1912 0
-1912 1928 0
-63 -1912 1913 0
-1913 1929 0
-64 -1913 1914 0
-1914 1930 0
-65 -1914 1915 0
-1915 1931 0
-66 -1915 1916 0
-1916 1932 0
-67 -1916 1917 0
-1917 1933 0
-68 -1917 1918 0
-1918 1934 0
-69 -1918 1919 0
-1919 1935 0
-70 -1919 1920 0
-1920 1936 0
-71 -1920 0
-56 1921 0
-57 -1921 1922 0
-58 -1922 1923 0
-59 -1923 1924 0
-60 -1924 1925 0
-61 -1925 1926 0
-62 -1926 1927 0
-63 -1927 1928 0
-64 -1928 1929 0
-65 -1929 1930 0
-66 -1930 1931 0
-67 -1931 1932 0
-68 -1932 1933 0
-69 -1933 1934 0
-70 -1934 1935 0
-71 -1935 1936 0
-72 -1936 0
-73 1937 0
-1937 1938 0
-74 -1937 1939 0
-1939 1940 0
-75 -1939 1941 0
-1941 1942 0
-76 -1941 1943 0
-1943 1944 0
-77 -1943 1945 0
-1945 1946 0
-78 -1945 1947 0
-1947 1948 0
-79 -1947 1949 0
-1949 1950 0
-80 -1949 1951 0
-1951 1952 0
-81 -1951 1953 0
-1953 1954 0
-82 -1953 0
-74 1938 0
-1938 1955 0
-75 -1938 1940 0
-1940 1956 0
-76 -1940 1942 0
-1942 1957 0
-77 -1942 1944 0
-1944 1958 0
-78 -1944 1946 0
-1946 1959 0
-79 -1946 1948 0
-1948 1960 0
-80 -1948 1950 0
-1950 1961 0
-81 -1950 1952 0
-1952 1962 0
-82 -1952 1954 0
-1954 1963 0
-83 -1954 0
-75 1955 0
-1955 1964 0
-76 -1955 1956 0
-1956 1965 0
-77 -1956 1957 0
-1957 1966 0
-78 -1957 1958 0
-1958 1967 0
-79 -1958 1959 0
-1959 1968 0
-80 -1959 1960 0
-1960 1969 0
-81 -1960 1961 0
-1961 1970 0
-82 -1961 1962 0
-1962 1971 0
-83 -1962 1963 0
-1963 1972 0
-84 -1963 0
-76 1964 0
-1964 1973 0
-77 -1964 1965 0
-1965 1974 0
-78 -1965 1966 0
-1966 1975 0
-79 -1966 1967 0
-1967 1976 0
-80 -1967 1968 0
-1968 1977 0
-81 -1968 1969 0
-1969 1978 0
-82 -1969 1970 0
-1970 1979 0
-83 -1970 1971 0
-1971 1980 0
-84 -1971 1972 0
-1972 1981 0
-85 -1972 0
-77 1973 0
-1973 1982 0
-78 -1973 1974 0
-1974 1983 0
-79 -1974 1975 0
-1975 1984 0
-80 -1975 1976 0
-1976 1985 0
-81 -1976 1977 0
-1977 1986 0
-82 -1977 1978 0
-1978 1987 0
-83 -1978 1979 0
-1979 1988 0
-84 -1979 1980 0
-1980 1989 0
-85 -1980 1981 0
-1981 1990 0
-86 -1981 0
-78 1982 0
-1982 1991 0
-79 -1982 1983 0
-1983 1992 0
-80 -1983 1984 0
-1984 1993 0
-81 -1984 1985 0
-1985 1994 0
-82 -1985 1986 0
-1986 1995 0
-83 -1986 1987 0
-1987 1996 0
-84 -1987 1988 0
-1988 1997 0
-85 -1988 1989 0
-1989 1998 0
-86 -1989 1990 0
-1990 1999 0
-87 -1990 0
-79 1991 0
-1991 2000 0
-80 -1991 1992 0
-1992 2001 0
-81 -1992 1993 0
-1993 2002 0
-82 -1993 1994 0
-1994 2003 0
-83 -1994 1995 0
-1995 2004 0
-84 -1995 1996 0
-1996 2005 0
-85 -1996 1997 0
-1997 2006 0
-86 -1997 1998 0
-1998 2007 0
-87 -1998 1999 0
-1999 2008 0
-88 -1999 0
-80 2000 0
-2000 2009 0
-81 -2000 2001 0
-2001 2010 0
-82 -2001 2002 0
-2002 2011 0
-83 -2002 2003 0
-2003 2012 0
-84 -2003 2004 0
-2004 2013 0
-85 -2004 2005 0
-2005 2014 0
-86 -2005 2006 0
-2006 2015 0
-87 -2006 2007 0
-2007 2016 0
-88 -2007 2008 0
-2008 2017 0
-89 -2008 0
-81 2009 0
-2009 2018 0
-82 -2009 2010 0
-2010 2019 0
-83 -2010 2011 0
-2011 2020 0
-84 -2011 2012 0
-2012 2021 0
-85 -2012 2013 0
-2013 2022 0
-86 -2013 2014 0
-2014 2023 0
-87 -2014 2015 0
-2015 2024 0
-88 -2015 2016 0
-2016 2025 0
-89 -2016 2017 0
-2017 2026 0
-90 -2017 0
-82 2018 0
-2018 2027 0
-83 -2018 2019 0
-2019 2028 0
-84 -2019 2020 0
-2020 2029 0
-85 -2020 2021 0
-2021 2030 0
-86 -2021 2022 0
-2022 2031 0
-87 -2022 2023 0
-2023 2032 0
-88 -2023 2024 0
-2024 2033 0
-89 -2024 2025 0
-2025 2034 0
-90 -2025 2026 0
-2026 2035 0
-91 -2026 0
-83 2027 0
-2027 2036 0
-84 -2027 2028 0
-2028 2037 0
-85 -2028 2029 0
-2029 2038 0
-86 -2029 2030 0
-2030 2039 0
-87 -2030 2031 0
-2031 2040 0
-88 -2031 2032 0
-2032 2041 0
-89 -2032 2033 0
-2033 2042 0
-90 -2033 2034 0
-2034 2043 0
-91 -2034 2035 0
-2035 2044 0
-92 -2035 0
-84 2036 0
-2036 2045 0
-85 -2036 2037 0
-2037 2046 0
-86 -2037 2038 0
-2038 2047 0
-87 -2038 2039 0
-2039 2048 0
-88 -2039 2040 0
-2040 2049 0
-89 -2040 2041 0
-2041 2050 0
-90 -2041 2042 0
-2042 2051 0
-91 -2042 2043 0
-2043 2052 0
-92 -2043 2044 0
-2044 2053 0
-93 -2044 0
-85 2045 0
-2045 2054 0
-86 -2045 2046 0
-2046 2055 0
-87 -2046 2047 0
-2047 2056 0
-88 -2047 2048 0
-2048 2057 0
-89 -2048 2049 0
-2049 2058 0
-90 -2049 2050 0
-2050 2059 0
-91 -2050 2051 0
-2051 2060 0
-92 -2051 2052 0
-2052 2061 0
-93 -2052 2053 0
-2053 2062 0
-94 -2053 0
-86 2054 0
-2054 2063 0
-87 -2054 2055 0
-2055 2064 0
-88 -2055 2056 0
-2056 2065 0
-89 -2056 2057 0
-2057 2066 0
-90 -2057 2058 0
-2058 2067 0
-91 -2058 2059 0
-2059 2068 0
-92 -2059 2060 0
-2060 2069 0
-93 -2060 2061 0
-2061 2070 0
-94 -2061 2062 0
-2062 2071 0
-95 -2062 0
-87 2063 0
-2063 2072 0
-88 -2063 2064 0
-2064 2073 0
-89 -2064 2065 0
-2065 2074 0
-90 -2065 2066 0
-2066 2075 0
-91 -2066 2067 0
-2067 2076 0
-92 -2067 2068 0
-2068 2077 0
-93 -2068 2069 0
-2069 2078 0
-94 -2069 2070 0
-2070 2079 0
-95 -2070 2071 0
-2071 2080 0
-96 -2071 0
-88 2072 0
-2072 2081 0
-89 -2072 2073 0
-2073 2082 0
-90 -2073 2074 0
-2074 2083 0
-91 -2074 2075 0
-2075 2084 0
-92 -2075 2076 0
-2076 2085 0
-93 -2076 2077 0
-2077 2086 0
-94 -2077 2078 0
-2078 2087 0
-95 -2078 2079 0
-2079 2088 0
-96 -2079 2080 0
-2080 2089 0
-97 -2080 0
-89 2081 0
-2081 2090 0
-90 -2081 2082 0
-2082 2091 0
-91 -2082 2083 0
-2083 2092 0
-92 -2083 2084 0
-2084 2093 0
-93 -2084 2085 0
-2085 2094 0
-94 -2085 2086 0
-2086 2095 0
-95 -2086 2087 0
-2087 2096 0
-96 -2087 2088 0
-2088 2097 0
-97 -2088 2089 0
-2089 2098 0
-98 -2089 0
-90 2090 0
-2090 2099 0
-91 -2090 2091 0
-2091 2100 0
-92 -2091 2092 0
-2092 2101 0
-93 -2092 2093 0
-2093 2102 0
-94 -2093 2094 0
-2094 2103 0
-95 -2094 2095 0
-2095 2104 0
-96 -2095 2096 0
-2096 2105 0
-97 -2096 2097 0
-2097 2106 0
-98 -2097 2098 0
-2098 2107 0
-99 -2098 0
-91 2099 0
-2099 2108 0
-92 -2099 2100 0
-2100 2109 0
-93 -2100 2101 0
-2101 2110 0
-94 -2101 2102 0
-2102 2111 0
-95 -2102 2103 0
-2103 2112 0
-96 -2103 2104 0
-2104 2113 0
-97 -2104 2105 0
-2105 2114 0
-98 -2105 2106 0
-2106 2115 0
-99 -2106 2107 0
-2107 2116 0
-100 -2107 0
-92 2108 0
-2108 2117 0
-93 -2108 2109 0
-2109 2118 0
-94 -2109 2110 0
-2110 2119 0
-95 -2110 2111 0
-2111 2120 0
-96 -2111 2112 0
-2112 2121 0
-97 -2112 2113 0
-2113 2122 0
-98 -2113 2114 0
-2114 2123 0
-99 -2114 2115 0
-2115 2124 0
-100 -2115 2116 0
-2116 2125 0
-101 -2116 0
-93 2117 0
-2117 2126 0
-94 -2117 2118 0
-2118 2127 0
-95 -2118 2119 0
-2119 2128 0
-96 -2119 2120 0
-2120 2129 0
-97 -2120 2121 0
-2121 2130 0
-98 -2121 2122 0
-2122 2131 0
-99 -2122 2123 0
-2123 2132 0
-100 -2123 2124 0
-2124 2133 0
-101 -2124 2125 0
-2125 2134 0
-102 -2125 0
-94 2126 0
-2126 2135 0
-95 -2126 2127 0
-2127 2136 0
-96 -2127 2128 0
-2128 2137 0
-97 -2128 2129 0
-2129 2138 0
-98 -2129 2130 0
-2130 2139 0
-99 -2130 2131 0
-2131 2140 0
-100 -2131 2132 0
-2132 2141 0
-101 -2132 2133 0
-2133 2142 0
-102 -2133 2134 0
-2134 2143 0
-103 -2134 0
-95 2135 0
-2135 2144 0
-96 -2135 2136 0
-2136 2145 0
-97 -2136 2137 0
-2137 2146 0
-98 -2137 2138 0
-2138 2147 0
-99 -2138 2139 0
-2139 2148 0
-100 -2139 2140 0
-2140 2149 0
-101 -2140 2141 0
-2141 2150 0
-102 -2141 2142 0
-2142 2151 0
-103 -2142 2143 0
-2143 2152 0
-104 -2143 0
-96 2144 0
-2144 2153 0
-97 -2144 2145 0
-2145 2154 0
-98 -2145 2146 0
-2146 2155 0
-99 -2146 2147 0
-2147 2156 0
-100 -2147 2148 0
-2148 2157 0
-101 -2148 2149 0
-2149 2158 0
-102 -2149 2150 0
-2150 2159 0
-103 -2150 2151 0
-2151 2160 0
-104 -2151 2152 0
-2152 2161 0
-105 -2152 0
-97 2153 0
-2153 2162 0
-98 -2153 2154 0
-2154 2163 0
-99 -2154 2155 0
-2155 2164 0
-100 -2155 2156 0
-2156 2165 0
-101 -2156 2157 0
-2157 2166 0
-102 -2157 2158 0
-2158 2167 0
-103 -2158 2159 0
-2159 2168 0
-104 -2159 2160 0
-2160 2169 0
-105 -2160 2161 0
-2161 2170 0
-106 -2161 0
-98 2162 0
-2162 2171 0
-99 -2162 2163 0
-2163 2172 0
-100 -2163 2164 0
-2164 2173 0
-101 -2164 2165 0
-2165 2174 0
-102 -2165 2166 0
-2166 2175 0
-103 -2166 2167 0
-2167 2176 0
-104 -2167 2168 0
-2168 2177 0
-105 -2168 2169 0
-2169 2178 0
-106 -2169 2170 0
-2170 2179 0
-107 -2170 0
-99 2171 0
-2171 2180 0
-100 -2171 2172 0
-2172 2181 0
-101 -2172 2173 0
-2173 2182 0
-102 -2173 2174 0
-2174 2183 0
-103 -2174 2175 0
-2175 2184 0
-104 -2175 2176 0
-2176 2185 0
-105 -2176 2177 0
-2177 2186 0
-106 -2177 2178 0
-2178 2187 0
-107 -2178 2179 0
-2179 2188 0
-108 -2179 0
-100 2180 0
-2180 2189 0
-101 -2180 2181 0
-2181 2190 0
-102 -2181 2182 0
-2182 2191 0
-103 -2182 2183 0
-2183 2192 0
-104 -2183 2184 0
-2184 2193 0
-105 -2184 2185 0
-2185 2194 0
-106 -2185 2186 0
-2186 2195 0
-107 -2186 2187 0
-2187 2196 0
-108 -2187 2188 0
-2188 2197 0
-109 -2188 0
-101 2189 0
-2189 2198 0
-102 -2189 2190 0
-2190 2199 0
-103 -2190 2191 0
-2191 2200 0
-104 -2191 2192 0
-2192 2201 0
-105 -2192 2193 0
-2193 2202 0
-106 -2193 2194 0
-2194 2203 0
-107 -2194 2195 0
-2195 2204 0
-108 -2195 2196 0
-2196 2205 0
-109 -2196 2197 0
-2197 2206 0
-110 -2197 0
-102 2198 0
-2198 2207 0
-103 -2198 2199 0
-2199 2208 0
-104 -2199 2200 0
-2200 2209 0
-105 -2200 2201 0
-2201 2210 0
-106 -2201 2202 0
-2202 2211 0
-107 -2202 2203 0
-2203 2212 0
-108 -2203 2204 0
-2204 2213 0
-109 -2204 2205 0
-2205 2214 0
-110 -2205 2206 0
-2206 2215 0
-111 -2206 0
-103 2207 0
-2207 2216 0
-104 -2207 2208 0
-2208 2217 0
-105 -2208 2209 0
-2209 2218 0
-106 -2209 2210 0
-2210 2219 0
-107 -2210 2211 0
-2211 2220 0
-108 -2211 2212 0
-2212 2221 0
-109 -2212 2213 0
-2213 2222 0
-110 -2213 2214 0
-2214 2223 0
-111 -2214 2215 0
-2215 2224 0
-112 -2215 0
-104 2216 0
-2216 2225 0
-105 -2216 2217 0
-2217 2226 0
-106 -2217 2218 0
-2218 2227 0
-107 -2218 2219 0
-2219 2228 0
-108 -2219 2220 0
-2220 2229 0
-109 -2220 2221 0
-2221 2230 0
-110 -2221 2222 0
-2222 2231 0
-111 -2222 2223 0
-2223 2232 0
-112 -2223 2224 0
-2224 2233 0
-113 -2224 0
-105 2225 0
-2225 2234 0
-106 -2225 2226 0
-2226 2235 0
-107 -2226 2227 0
-2227 2236 0
-108 -2227 2228 0
-2228 2237 0
-109 -2228 2229 0
-2229 2238 0
-110 -2229 2230 0
-2230 2239 0
-111 -2230 2231 0
-2231 2240 0
-112 -2231 2232 0
-2232 2241 0
-113 -2232 2233 0
-2233 2242 0
-114 -2233 0
-106 2234 0
-2234 2243 0
-107 -2234 2235 0
-2235 2244 0
-108 -2235 2236 0
-2236 2245 0
-109 -2236 2237 0
-2237 2246 0
-110 -2237 2238 0
-2238 2247 0
-111 -2238 2239 0
-2239 2248 0
-112 -2239 2240 0
-2240 2249 0
-113 -2240 2241 0
-2241 2250 0
-114 -2241 2242 0
-2242 2251 0
-115 -2242 0
-107 2243 0
-2243 2252 0
-108 -2243 2244 0
-2244 2253 0
-109 -2244 2245 0
-2245 2254 0
-110 -2245 2246 0
-2246 2255 0
-111 -2246 2247 0
-2247 2256 0
-112 -2247 2248 0
-2248 2257 0
-113 -2248 2249 0
-2249 2258 0
-114 -2249 2250 0
-2250 2259 0
-115 -2250 2251 0
-2251 2260 0
-116 -2251 0
-108 2252 0
-2252 2261 0
-109 -2252 2253 0
-2253 2262 0
-110 -2253 2254 0
-2254 2263 0
-111 -2254 2255 0
-2255 2264 0
-112 -2255 2256 0
-2256 2265 0
-113 -2256 2257 0
-2257 2266 0
-114 -2257 2258 0
-2258 2267 0
-115 -2258 2259 0
-2259 2268 0
-116 -2259 2260 0
-2260 2269 0
-117 -2260 0
-109 2261 0
-2261 2270 0
-110 -2261 2262 0
-2262 2271 0
-111 -2262 2263 0
-2263 2272 0
-112 -2263 2264 0
-2264 2273 0
-113 -2264 2265 0
-2265 2274 0
-114 -2265 2266 0
-2266 2275 0
-115 -2266 2267 0
-2267 2276 0
-116 -2267 2268 0
-2268 2277 0
-117 -2268 2269 0
-2269 2278 0
-118 -2269 0
-110 2270 0
-2270 2279 0
-111 -2270 2271 0
-2271 2280 0
-112 -2271 2272 0
-2272 2281 0
-113 -2272 2273 0
-2273 2282 0
-114 -2273 2274 0
-2274 2283 0
-115 -2274 2275 0
-2275 2284 0
-116 -2275 2276 0
-2276 2285 0
-117 -2276 2277 0
-2277 2286 0
-118 -2277 2278 0
-2278 2287 0
-119 -2278 0
-111 2279 0
-2279 2288 0
-112 -2279 2280 0
-2280 2289 0
-113 -2280 2281 0
-2281 2290 0
-114 -2281 2282 0
-2282 2291 0
-115 -2282 2283 0
-2283 2292 0
-116 -2283 2284 0
-2284 2293 0
-117 -2284 2285 0
-2285 2294 0
-118 -2285 2286 0
-2286 2295 0
-119 -2286 2287 0
-2287 2296 0
-120 -2287 0
-112 2288 0
-2288 2297 0
-113 -2288 2289 0
-2289 2298 0
-114 -2289 2290 0
-2290 2299 0
-115 -2290 2291 0
-2291 2300 0
-116 -2291 2292 0
-2292 2301 0
-117 -2292 2293 0
-2293 2302 0
-118 -2293 2294 0
-2294 2303 0
-119 -2294 2295 0
-2295 2304 0
-120 -2295 2296 0
-2296 2305 0
-121 -2296 0
-113 2297 0
-2297 2306 0
-114 -2297 2298 0
-2298 2307 0
-115 -2298 2299 0
-2299 2308 0
-116 -2299 2300 0
-2300 2309 0
-117 -2300 2301 0
-2301 2310 0
-118 -2301 2302 0
-2302 2311 0
-119 -2302 2303 0
-2303 2312 0
-120 -2303 2304 0
-2304 2313 0
-121 -2304 2305 0
-2305 2314 0
-122 -2305 0
-114 2306 0
-2306 2315 0
-115 -2306 2307 0
-2307 2316 0
-116 -2307 2308 0
-2308 2317 0
-117 -2308 2309 0
-2309 2318 0
-118 -2309 2310 0
-2310 2319 0
-119 -2310 2311 0
-2311 2320 0
-120 -2311 2312 0
-2312 2321 0
-121 -2312 2313 0
-2313 2322 0
-122 -2313 2314 0
-2314 2323 0
-123 -2314 0
-115 2315 0
-2315 2324 0
-116 -2315 2316 0
-2316 2325 0
-117 -2316 2317 0
-2317 2326 0
-118 -2317 2318 0
-2318 2327 0
-119 -2318 2319 0
-2319 2328 0
-120 -2319 2320 0
-2320 2329 0
-121 -2320 2321 0
-2321 2330 0
-122 -2321 2322 0
-2322 2331 0
-123 -2322 2323 0
-2323 2332 0
-124 -2323 0
-116 2324 0
-2324 2333 0
-117 -2324 2325 0
-2325 2334 0
-118 -2325 2326 0
-2326 2335 0
-119 -2326 2327 0
-2327 2336 0
-120 -2327 2328 0
-2328 2337 0
-121 -2328 2329 0
-2329 2338 0
-122 -2329 2330 0
-2330 2339 0
-123 -2330 2331 0
-2331 2340 0
-124 -2331 2332 0
-2332 2341 0
-125 -2332 0
-117 2333 0
-2333 2342 0
-118 -2333 2334 0
-2334 2343 0
-119 -2334 2335 0
-2335 2344 0
-120 -2335 2336 0
-2336 2345 0
-121 -2336 2337 0
-2337 2346 0
-122 -2337 2338 0
-2338 2347 0
-123 -2338 2339 0
-2339 2348 0
-124 -2339 2340 0
-2340 2349 0
-125 -2340 2341 0
-2341 2350 0
-126 -2341 0
-118 2342 0
-2342 2351 0
-119 -2342 2343 0
-2343 2352 0
-120 -2343 2344 0
-2344 2353 0
-121 -2344 2345 0
-2345 2354 0
-122 -2345 2346 0
-2346 2355 0
-123 -2346 2347 0
-2347 2356 0
-124 -2347 2348 0
-2348 2357 0
-125 -2348 2349 0
-2349 2358 0
-126 -2349 2350 0
-2350 2359 0
-127 -2350 0
-119 2351 0
-2351 2360 0
-120 -2351 2352 0
-2352 2361 0
-121 -2352 2353 0
-2353 2362 0
-122 -2353 2354 0
-2354 2363 0
-123 -2354 2355 0
-2355 2364 0
-124 -2355 2356 0
-2356 2365 0
-125 -2356 2357 0
-2357 2366 0
-126 -2357 2358 0
-2358 2367 0
-127 -2358 2359 0
-2359 2368 0
-128 -2359 0
-120 2360 0
-2360 2369 0
-121 -2360 2361 0
-2361 2370 0
-122 -2361 2362 0
-2362 2371 0
-123 -2362 2363 0
-2363 2372 0
-124 -2363 2364 0
-2364 2373 0
-125 -2364 2365 0
-2365 2374 0
-126 -2365 2366 0
-2366 2375 0
-127 -2366 2367 0
-2367 2376 0
-128 -2367 2368 0
-2368 2377 0
-129 -2368 0
-121 2369 0
-2369 2378 0
-122 -2369 2370 0
-2370 2379 0
-123 -2370 2371 0
-2371 2380 0
-124 -2371 2372 0
-2372 2381 0
-125 -2372 2373 0
-2373 2382 0
-126 -2373 2374 0
-2374 2383 0
-127 -2374 2375 0
-2375 2384 0
-128 -2375 2376 0
-2376 2385 0
-129 -2376 2377 0
-2377 2386 0
-130 -2377 0
-122 2378 0
-2378 2387 0
-123 -2378 2379 0
-2379 2388 0
-124 -2379 2380 0
-2380 2389 0
-125 -2380 2381 0
-2381 2390 0
-126 -2381 2382 0
-2382 2391 0
-127 -2382 2383 0
-2383 2392 0
-128 -2383 2384 0
-2384 2393 0
-129 -2384 2385 0
-2385 2394 0
-130 -2385 2386 0
-2386 2395 0
-131 -2386 0
-123 2387 0
-2387 2396 0
-124 -2387 2388 0
-2388 2397 0
-125 -2388 2389 0
-2389 2398 0
-126 -2389 2390 0
-2390 2399 0
-127 -2390 2391 0
-2391 2400 0
-128 -2391 2392 0
-2392 2401 0
-129 -2392 2393 0
-2393 2402 0
-130 -2393 2394 0
-2394 2403 0
-131 -2394 2395 0
-2395 2404 0
-132 -2395 0
-124 2396 0
-2396 2405 0
-125 -2396 2397 0
-2397 2406 0
-126 -2397 2398 0
-2398 2407 0
-127 -2398 2399 0
-2399 2408 0
-128 -2399 2400 0
-2400 2409 0
-129 -2400 2401 0
-2401 2410 0
-130 -2401 2402 0
-2402 2411 0
-131 -2402 2403 0
-2403 2412 0
-132 -2403 2404 0
-2404 2413 0
-133 -2404 0
-125 2405 0
-2405 2414 0
-126 -2405 2406 0
-2406 2415 0
-127 -2406 2407 0
-2407 2416 0
-128 -2407 2408 0
-2408 2417 0
-129 -2408 2409 0
-2409 2418 0
-130 -2409 2410 0
-2410 2419 0
-131 -2410 2411 0
-2411 2420 0
-132 -2411 2412 0
-2412 2421 0
-133 -2412 2413 0
-2413 2422 0
-134 -2413 0
-126 2414 0
-2414 2423 0
-127 -2414 2415 0
-2415 2424 0
-128 -2415 2416 0
-2416 2425 0
-129 -2416 2417 0
-2417 2426 0
-130 -2417 2418 0
-2418 2427 0
-131 -2418 2419 0
-2419 2428 0
-132 -2419 2420 0
-2420 2429 0
-133 -2420 2421 0
-2421 2430 0
-134 -2421 2422 0
-2422 2431 0
-135 -2422 0
-127 2423 0
-2423 2432 0
-128 -2423 2424 0
-2424 2433 0
-129 -2424 2425 0
-2425 2434 0
-130 -2425 2426 0
-2426 2435 0
-131 -2426 2427 0
-2427 2436 0
-132 -2427 2428 0
-2428 2437 0
-133 -2428 2429 0
-2429 2438 0
-134 -2429 2430 0
-2430 2439 0
-135 -2430 2431 0
-2431 2440 0
-136 -2431 0
-128 2432 0
-2432 2441 0
-129 -2432 2433 0
-2433 2442 0
-130 -2433 2434 0
-2434 2443 0
-131 -2434 2435 0
-2435 2444 0
-132 -2435 2436 0
-2436 2445 0
-133 -2436 2437 0
-2437 2446 0
-134 -2437 2438 0
-2438 2447 0
-135 -2438 2439 0
-2439 2448 0
-136 -2439 2440 0
-2440 2449 0
-137 -2440 0
-129 2441 0
-2441 2450 0
-130 -2441 2442 0
-2442 2451 0
-131 -2442 2443 0
-2443 2452 0
-132 -2443 2444 0
-2444 2453 0
-133 -2444 2445 0
-2445 2454 0
-134 -2445 2446 0
-2446 2455 0
-135 -2446 2447 0
-2447 2456 0
-136 -2447 2448 0
-2448 2457 0
-137 -2448 2449 0
-2449 2458 0
-138 -2449 0
-130 2450 0
-2450 2459 0
-131 -2450 2451 0
-2451 2460 0
-132 -2451 2452 0
-2452 2461 0
-133 -2452 2453 0
-2453 2462 0
-134 -2453 2454 0
-2454 2463 0
-135 -2454 2455 0
-2455 2464 0
-136 -2455 2456 0
-2456 2465 0
-137 -2456 2457 0
-2457 2466 0
-138 -2457 2458 0
-2458 2467 0
-139 -2458 0
-131 2459 0
-2459 2468 0
-132 -2459 2460 0
-2460 2469 0
-133 -2460 2461 0
-2461 2470 0
-134 -2461 2462 0
-2462 2471 0
-135 -2462 2463 0
-2463 2472 0
-136 -2463 2464 0
-2464 2473 0
-137 -2464 2465 0
-2465 2474 0
-138 -2465 2466 0
-2466 2475 0
-139 -2466 2467 0
-2467 2476 0
-140 -2467 0
-132 2468 0
-2468 2477 0
-133 -2468 2469 0
-2469 2478 0
-134 -2469 2470 0
-2470 2479 0
-135 -2470 2471 0
-2471 2480 0
-136 -2471 2472 0
-2472 2481 0
-137 -2472 2473 0
-2473 2482 0
-138 -2473 2474 0
-2474 2483 0
-139 -2474 2475 0
-2475 2484 0
-140 -2475 2476 0
-2476 2485 0
-141 -2476 0
-133 2477 0
-2477 2486 0
-134 -2477 2478 0
-2478 2487 0
-135 -2478 2479 0
-2479 2488 0
-136 -2479 2480 0
-2480 2489 0
-137 -2480 2481 0
-2481 2490 0
-138 -2481 2482 0
-2482 2491 0
-139 -2482 2483 0
-2483 2492 0
-140 -2483 2484 0
-2484 2493 0
-141 -2484 2485 0
-2485 2494 0
-142 -2485 0
-134 2486 0
-2486 2495 0
-135 -2486 2487 0
-2487 2496 0
-136 -2487 2488 0
-2488 2497 0
-137 -2488 2489 0
-2489 2498 0
-138 -2489 2490 0
-2490 2499 0
-139 -2490 2491 0
-2491 2500 0
-140 -2491 2492 0
-2492 2501 0
-141 -2492 2493 0
-2493 2502 0
-142 -2493 2494 0
-2494 2503 0
-143 -2494 0
-135 2495 0
-136 -2495 2496 0
-137 -2496 2497 0
-138 -2497 2498 0
-139 -2498 2499 0
-140 -2499 2500 0
-141 -2500 2501 0
-142 -2501 2502 0
-143 -2502 2503 0
-144 -2503 0
1 37 0
