p cnf 1931 3917
-1 53 0
-2 53 0
-26 53 0
-27 53 0
-53 1 2 26 27 0
-2 54 0
-1 54 0
-3 54 0
-28 54 0
-54 2 1 3 28 0
-3 55 0
-2 55 0
-4 55 0
-29 55 0
-55 3 2 4 29 0
-4 56 0
-3 56 0
-5 56 0
-30 56 0
-56 4 3 5 30 0
-5 57 0
-4 57 0
-6 57 0
-31 57 0
-57 5 4 6 31 0
-6 58 0
-5 58 0
-7 58 0
-32 58 0
-58 6 5 7 32 0
-7 59 0
-6 59 0
-8 59 0
-33 59 0
-59 7 6 8 33 0
-8 60 0
-7 60 0
-9 60 0
-34 60 0
-60 8 7 9 34 0
-9 61 0
-8 61 0
-10 61 0
-35 61 0
-61 9 8 10 35 0
-10 62 0
-9 62 0
-11 62 0
-36 62 0
-62 10 9 11 36 0
-11 63 0
-10 63 0
-12 63 0
-37 63 0
-63 11 10 12 37 0
-12 64 0
-11 64 0
-13 64 0
-38 64 0
-64 12 11 13 38 0
-13 65 0
-12 65 0
-14 65 0
-39 65 0
-65 13 12 14 39 0
-14 66 0
-13 66 0
-15 66 0
-40 66 0
-66 14 13 15 40 0
-15 67 0
-14 67 0
-16 67 0
-41 67 0
-67 15 14 16 41 0
-16 68 0
-15 68 0
-17 68 0
-42 68 0
-68 16 15 17 42 0
-17 69 0
-16 69 0
-18 69 0
-43 69 0
-69 17 16 18 43 0
-18 70 0
-17 70 0
-19 70 0
-44 70 0
-70 18 17 19 44 0
-19 71 0
-18 71 0
-20 71 0
-45 71 0
-71 19 18 20 45 0
-20 72 0
-19 72 0
-21 72 0
-46 72 0
-72 20 19 21 46 0
-21 73 0
-20 73 0
-22 73 0
-47 73 0
-73 21 20 22 47 0
-22 74 0
-21 74 0
-23 74 0
-48 74 0
-74 22 21 23 48 0
-23 75 0
-22 75 0
-24 75 0
-49 75 0
-75 23 22 24 49 0
-24 76 0
-23 76 0
-25 76 0
-50 76 0
-76 24 23 25 50 0
-25 77 0
-24 77 0
-26 77 0
-51 77 0
-77 25 24 26 51 0
-26 78 0
-1 78 0
-25 78 0
-52 78 0
-78 26 1 25 52 0
-27 79 0
-1 79 0
-31 79 0
-49 79 0
-79 27 1 31 49 0
-28 80 0
-2 80 0
-32 80 0
-50 80 0
-80 28 2 32 50 0
-29 81 0
-3 81 0
-33 81 0
-51 81 0
-81 29 3 33 51 0
-30 82 0
-4 82 0
-34 82 0
-52 82 0
-82 30 4 34 52 0
-31 83 0
-5 83 0
-27 83 0
-35 83 0
-83 31 5 27 35 0
-32 84 0
-6 84 0
-28 84 0
-36 84 0
-84 32 6 28 36 0
-33 85 0
-7 85 0
-29 85 0
-37 85 0
-85 33 7 29 37 0
-34 86 0
-8 86 0
-30 86 0
-38 86 0
-86 34 8 30 38 0
-35 87 0
-9 87 0
-31 87 0
-39 87 0
-87 35 9 31 39 0
-36 88 0
-10 88 0
-32 88 0
-40 88 0
-88 36 10 32 40 0
-37 89 0
-11 89 0
-33 89 0
-41 89 0
-89 37 11 33 41 0
-38 90 0
-12 90 0
-34 90 0
-42 90 0
-90 38 12 34 42 0
-39 91 0
-13 91 0
-35 91 0
-43 91 0
-91 39 13 35 43 0
-40 92 0
-14 92 0
-36 92 0
-44 92 0
-92 40 14 36 44 0
-41 93 0
-15 93 0
-37 93 0
-45 93 0
-93 41 15 37 45 0
-42 94 0
-16 94 0
-38 94 0
-46 94 0
-94 42 16 38 46 0
-43 95 0
-17 95 0
-39 95 0
-47 95 0
-95 43 17 39 47 0
-44 96 0
-18 96 0
-40 96 0
-48 96 0
-96 44 18 40 48 0
-45 97 0
-19 97 0
-41 97 0
-49 97 0
-97 45 19 41 49 0
-46 98 0
-20 98 0
-42 98 0
-50 98 0
-98 46 20 42 50 0
-47 99 0
-21 99 0
-43 99 0
-51 99 0
-99 47 21 43 51 0
-48 100 0
-22 100 0
-44 100 0
-52 100 0
-100 48 22 44 52 0
-49 101 0
-23 101 0
-27 101 0
-45 101 0
-101 49 23 27 45 0
-50 102 0
-24 102 0
-28 102 0
-46 102 0
-102 50 24 28 46 0
-51 103 0
-25 103 0
-29 103 0
-47 103 0
-103 51 25 29 47 0
-52 104 0
-26 104 0
-30 104 0
-48 104 0
-104 52 26 30 48 0
1 105 0
-105 106 0
2 -105 107 0
-107 108 0
3 -107 109 0
-109 110 0
4 -109 111 0
-111 112 0
5 -111 113 0
-113 114 0
6 -113 115 0
-115 116 0
7 -115 117 0
-117 118 0
8 -117 119 0
-119 120 0
9 -119 121 0
-121 122 0
10 -121 123 0
-123 124 0
11 -123 125 0
-125 126 0
12 -125 127 0
-127 128 0
13 -127 129 0
-129 130 0
14 -129 131 0
-131 132 0
15 -131 133 0
-133 134 0
16 -133 135 0
-135 136 0
17 -135 137 0
-137 138 0
18 -137 139 0
-139 140 0
19 -139 141 0
-141 142 0
20 -141 143 0
-143 144 0
21 -143 145 0
-145 146 0
22 -145 147 0
-147 148 0
23 -147 149 0
-149 150 0
24 -149 151 0
-151 152 0
25 -151 153 0
-153 154 0
26 -153 155 0
-155 156 0
27 -155 157 0
-157 158 0
28 -157 159 0
-159 160 0
29 -159 161 0
-161 162 0
30 -161 163 0
-163 164 0
31 -163 165 0
-165 166 0
32 -165 167 0
-167 168 0
33 -167 169 0
-169 170 0
34 -169 171 0
-171 172 0
35 -171 173 0
-173 174 0
36 -173 175 0
-175 176 0
37 -175 0
2 106 0
-106 177 0
3 -106 108 0
-108 178 0
4 -108 110 0
-110 179 0
5 -110 112 0
-112 180 0
6 -112 114 0
-114 181 0
7 -114 116 0
-116 182 0
8 -116 118 0
-118 183 0
9 -118 120 0
-120 184 0
10 -120 122 0
-122 185 0
11 -122 124 0
-124 186 0
12 -124 126 0
-126 187 0
13 -126 128 0
-128 188 0
14 -128 130 0
-130 189 0
15 -130 132 0
-132 190 0
16 -132 134 0
-134 191 0
17 -134 136 0
-136 192 0
18 -136 138 0
-138 193 0
19 -138 140 0
-140 194 0
20 -140 142 0
-142 195 0
21 -142 144 0
-144 196 0
22 -144 146 0
-146 197 0
23 -146 148 0
-148 198 0
24 -148 150 0
-150 199 0
25 -150 152 0
-152 200 0
26 -152 154 0
-154 201 0
27 -154 156 0
-156 202 0
28 -156 158 0
-158 203 0
29 -158 160 0
-160 204 0
30 -160 162 0
-162 205 0
31 -162 164 0
-164 206 0
32 -164 166 0
-166 207 0
33 -166 168 0
-168 208 0
34 -168 170 0
-170 209 0
35 -170 172 0
-172 210 0
36 -172 174 0
-174 211 0
37 -174 176 0
-176 212 0
38 -176 0
3 177 0
-177 213 0
4 -177 178 0
-178 214 0
5 -178 179 0
-179 215 0
6 -179 180 0
-180 216 0
7 -180 181 0
-181 217 0
8 -181 182 0
-182 218 0
9 -182 183 0
-183 219 0
10 -183 184 0
-184 220 0
11 -184 185 0
-185 221 0
12 -185 186 0
-186 222 0
13 -186 187 0
-187 223 0
14 -187 188 0
-188 224 0
15 -188 189 0
-189 225 0
16 -189 190 0
-190 226 0
17 -190 191 0
-191 227 0
18 -191 192 0
-192 228 0
19 -192 193 0
-193 229 0
20 -193 194 0
-194 230 0
21 -194 195 0
-195 231 0
22 -195 196 0
-196 232 0
23 -196 197 0
-197 233 0
24 -197 198 0
-198 234 0
25 -198 199 0
-199 235 0
26 -199 200 0
-200 236 0
27 -200 201 0
-201 237 0
28 -201 202 0
-202 238 0
29 -202 203 0
-203 239 0
30 -203 204 0
-204 240 0
31 -204 205 0
-205 241 0
32 -205 206 0
-206 242 0
33 -206 207 0
-207 243 0
34 -207 208 0
-208 244 0
35 -208 209 0
-209 245 0
36 -209 210 0
-210 246 0
37 -210 211 0
-211 247 0
38 -211 212 0
-212 248 0
39 -212 0
4 213 0
-213 249 0
5 -213 214 0
-214 250 0
6 -214 215 0
-215 251 0
7 -215 216 0
-216 252 0
8 -216 217 0
-217 253 0
9 -217 218 0
-218 254 0
10 -218 219 0
-219 255 0
11 -219 220 0
-220 256 0
12 -220 221 0
-221 257 0
13 -221 222 0
-222 258 0
14 -222 223 0
-223 259 0
15 -223 224 0
-224 260 0
16 -224 225 0
-225 261 0
17 -225 226 0
-226 262 0
18 -226 227 0
-227 263 0
19 -227 228 0
-228 264 0
20 -228 229 0
-229 265 0
21 -229 230 0
-230 266 0
22 -230 231 0
-231 267 0
23 -231 232 0
-232 268 0
24 -232 233 0
-233 269 0
25 -233 234 0
-234 270 0
26 -234 235 0
-235 271 0
27 -235 236 0
-236 272 0
28 -236 237 0
-237 273 0
29 -237 238 0
-238 274 0
30 -238 239 0
-239 275 0
31 -239 240 0
-240 276 0
32 -240 241 0
-241 277 0
33 -241 242 0
-242 278 0
34 -242 243 0
-243 279 0
35 -243 244 0
-244 280 0
36 -244 245 0
-245 281 0
37 -245 246 0
-246 282 0
38 -246 247 0
-247 283 0
39 -247 248 0
-248 284 0
40 -248 0
5 249 0
-249 285 0
6 -249 250 0
-250 286 0
7 -250 251 0
-251 287 0
8 -251 252 0
-252 288 0
9 -252 253 0
-253 289 0
10 -253 254 0
-254 290 0
11 -254 255 0
-255 291 0
12 -255 256 0
-256 292 0
13 -256 257 0
-257 293 0
14 -257 258 0
-258 294 0
15 -258 259 0
-259 295 0
16 -259 260 0
-260 296 0
17 -260 261 0
-261 297 0
18 -261 262 0
-262 298 0
19 -262 263 0
-263 299 0
20 -263 264 0
-264 300 0
21 -264 265 0
-265 301 0
22 -265 266 0
-266 302 0
23 -266 267 0
-267 303 0
24 -267 268 0
-268 304 0
25 -268 269 0
-269 305 0
26 -269 270 0
-270 306 0
27 -270 271 0
-271 307 0
28 -271 272 0
-272 308 0
29 -272 273 0
-273 309 0
30 -273 274 0
-274 310 0
31 -274 275 0
-275 311 0
32 -275 276 0
-276 312 0
33 -276 277 0
-277 313 0
34 -277 278 0
-278 314 0
35 -278 279 0
-279 315 0
36 -279 280 0
-280 316 0
37 -280 281 0
-281 317 0
38 -281 282 0
-282 318 0
39 -282 283 0
-283 319 0
40 -283 284 0
-284 320 0
41 -284 0
6 285 0
-285 321 0
7 -285 286 0
-286 322 0
8 -286 287 0
-287 323 0
9 -287 288 0
-288 324 0
10 -288 289 0
-289 325 0
11 -289 290 0
-290 326 0
12 -290 291 0
-291 327 0
13 -291 292 0
-292 328 0
14 -292 293 0
-293 329 0
15 -293 294 0
-294 330 0
16 -294 295 0
-295 331 0
17 -295 296 0
-296 332 0
18 -296 297 0
-297 333 0
19 -297 298 0
-298 334 0
20 -298 299 0
-299 335 0
21 -299 300 0
-300 336 0
22 -300 301 0
-301 337 0
23 -301 302 0
-302 338 0
24 -302 303 0
-303 339 0
25 -303 304 0
-304 340 0
26 -304 305 0
-305 341 0
27 -305 306 0
-306 342 0
28 -306 307 0
-307 343 0
29 -307 308 0
-308 344 0
30 -308 309 0
-309 345 0
31 -309 310 0
-310 346 0
32 -310 311 0
-311 347 0
33 -311 312 0
-312 348 0
34 -312 313 0
-313 349 0
35 -313 314 0
-314 350 0
36 -314 315 0
-315 351 0
37 -315 316 0
-316 352 0
38 -316 317 0
-317 353 0
39 -317 318 0
-318 354 0
40 -318 319 0
-319 355 0
41 -319 320 0
-320 356 0
42 -320 0
7 321 0
-321 357 0
8 -321 322 0
-322 358 0
9 -322 323 0
-323 359 0
10 -323 324 0
-324 360 0
11 -324 325 0
-325 361 0
12 -325 326 0
-326 362 0
13 -326 327 0
-327 363 0
14 -327 328 0
-328 364 0
15 -328 329 0
-329 365 0
16 -329 330 0
-330 366 0
17 -330 331 0
-331 367 0
18 -331 332 0
-332 368 0
19 -332 333 0
-333 369 0
20 -333 334 0
-334 370 0
21 -334 335 0
-335 371 0
22 -335 336 0
-336 372 0
23 -336 337 0
-337 373 0
24 -337 338 0
-338 374 0
25 -338 339 0
-339 375 0
26 -339 340 0
-340 376 0
27 -340 341 0
-341 377 0
28 -341 342 0
-342 378 0
29 -342 343 0
-343 379 0
30 -343 344 0
-344 380 0
31 -344 345 0
-345 381 0
32 -345 346 0
-346 382 0
33 -346 347 0
-347 383 0
34 -347 348 0
-348 384 0
35 -348 349 0
-349 385 0
36 -349 350 0
-350 386 0
37 -350 351 0
-351 387 0
38 -351 352 0
-352 388 0
39 -352 353 0
-353 389 0
40 -353 354 0
-354 390 0
41 -354 355 0
-355 391 0
42 -355 356 0
-356 392 0
43 -356 0
8 357 0
-357 393 0
9 -357 358 0
-358 394 0
10 -358 359 0
-359 395 0
11 -359 360 0
-360 396 0
12 -360 361 0
-361 397 0
13 -361 362 0
-362 398 0
14 -362 363 0
-363 399 0
15 -363 364 0
-364 400 0
16 -364 365 0
-365 401 0
17 -365 366 0
-366 402 0
18 -366 367 0
-367 403 0
19 -367 368 0
-368 404 0
20 -368 369 0
-369 405 0
21 -369 370 0
-370 406 0
22 -370 371 0
-371 407 0
23 -371 372 0
-372 408 0
24 -372 373 0
-373 409 0
25 -373 374 0
-374 410 0
26 -374 375 0
-375 411 0
27 -375 376 0
-376 412 0
28 -376 377 0
-377 413 0
29 -377 378 0
-378 414 0
30 -378 379 0
-379 415 0
31 -379 380 0
-380 416 0
32 -380 381 0
-381 417 0
33 -381 382 0
-382 418 0
34 -382 383 0
-383 419 0
35 -383 384 0
-384 420 0
36 -384 385 0
-385 421 0
37 -385 386 0
-386 422 0
38 -386 387 0
-387 423 0
39 -387 388 0
-388 424 0
40 -388 389 0
-389 425 0
41 -389 390 0
-390 426 0
42 -390 391 0
-391 427 0
43 -391 392 0
-392 428 0
44 -392 0
9 393 0
-393 429 0
10 -393 394 0
-394 430 0
11 -394 395 0
-395 431 0
12 -395 396 0
-396 432 0
13 -396 397 0
-397 433 0
14 -397 398 0
-398 434 0
15 -398 399 0
-399 435 0
16 -399 400 0
-400 436 0
17 -400 401 0
-401 437 0
18 -401 402 0
-402 438 0
19 -402 403 0
-403 439 0
20 -403 404 0
-404 440 0
21 -404 405 0
-405 441 0
22 -405 406 0
-406 442 0
23 -406 407 0
-407 443 0
24 -407 408 0
-408 444 0
25 -408 409 0
-409 445 0
26 -409 410 0
-410 446 0
27 -410 411 0
-411 447 0
28 -411 412 0
-412 448 0
29 -412 413 0
-413 449 0
30 -413 414 0
-414 450 0
31 -414 415 0
-415 451 0
32 -415 416 0
-416 452 0
33 -416 417 0
-417 453 0
34 -417 418 0
-418 454 0
35 -418 419 0
-419 455 0
36 -419 420 0
-420 456 0
37 -420 421 0
-421 457 0
38 -421 422 0
-422 458 0
39 -422 423 0
-423 459 0
40 -423 424 0
-424 460 0
41 -424 425 0
-425 461 0
42 -425 426 0
-426 462 0
43 -426 427 0
-427 463 0
44 -427 428 0
-428 464 0
45 -428 0
10 429 0
-429 465 0
11 -429 430 0
-430 466 0
12 -430 431 0
-431 467 0
13 -431 432 0
-432 468 0
14 -432 433 0
-433 469 0
15 -433 434 0
-434 470 0
16 -434 435 0
-435 471 0
17 -435 436 0
-436 472 0
18 -436 437 0
-437 473 0
19 -437 438 0
-438 474 0
20 -438 439 0
-439 475 0
21 -439 440 0
-440 476 0
22 -440 441 0
-441 477 0
23 -441 442 0
-442 478 0
24 -442 443 0
-443 479 0
25 -443 444 0
-444 480 0
26 -444 445 0
-445 481 0
27 -445 446 0
-446 482 0
28 -446 447 0
-447 483 0
29 -447 448 0
-448 484 0
30 -448 449 0
-449 485 0
31 -449 450 0
-450 486 0
32 -450 451 0
-451 487 0
33 -451 452 0
-452 488 0
34 -452 453 0
-453 489 0
35 -453 454 0
-454 490 0
36 -454 455 0
-455 491 0
37 -455 456 0
-456 492 0
38 -456 457 0
-457 493 0
39 -457 458 0
-458 494 0
40 -458 459 0
-459 495 0
41 -459 460 0
-460 496 0
42 -460 461 0
-461 497 0
43 -461 462 0
-462 498 0
44 -462 463 0
-463 499 0
45 -463 464 0
-464 500 0
46 -464 0
11 465 0
-465 501 0
12 -465 466 0
-466 502 0
13 -466 467 0
-467 503 0
14 -467 468 0
-468 504 0
15 -468 469 0
-469 505 0
16 -469 470 0
-470 506 0
17 -470 471 0
-471 507 0
18 -471 472 0
-472 508 0
19 -472 473 0
-473 509 0
20 -473 474 0
-474 510 0
21 -474 475 0
-475 511 0
22 -475 476 0
-476 512 0
23 -476 477 0
-477 513 0
24 -477 478 0
-478 514 0
25 -478 479 0
-479 515 0
26 -479 480 0
-480 516 0
27 -480 481 0
-481 517 0
28 -481 482 0
-482 518 0
29 -482 483 0
-483 519 0
30 -483 484 0
-484 520 0
31 -484 485 0
-485 521 0
32 -485 486 0
-486 522 0
33 -486 487 0
-487 523 0
34 -487 488 0
-488 524 0
35 -488 489 0
-489 525 0
36 -489 490 0
-490 526 0
37 -490 491 0
-491 527 0
38 -491 492 0
-492 528 0
39 -492 493 0
-493 529 0
40 -493 494 0
-494 530 0
41 -494 495 0
-495 531 0
42 -495 496 0
-496 532 0
43 -496 497 0
-497 533 0
44 -497 498 0
-498 534 0
45 -498 499 0
-499 535 0
46 -499 500 0
-500 536 0
47 -500 0
12 501 0
-501 537 0
13 -501 502 0
-502 538 0
14 -502 503 0
-503 539 0
15 -503 504 0
-504 540 0
16 -504 505 0
-505 541 0
17 -505 506 0
-506 542 0
18 -506 507 0
-507 543 0
19 -507 508 0
-508 544 0
20 -508 509 0
-509 545 0
21 -509 510 0
-510 546 0
22 -510 511 0
-511 547 0
23 -511 512 0
-512 548 0
24 -512 513 0
-513 549 0
25 -513 514 0
-514 550 0
26 -514 515 0
-515 551 0
27 -515 516 0
-516 552 0
28 -516 517 0
-517 553 0
29 -517 518 0
-518 554 0
30 -518 519 0
-519 555 0
31 -519 520 0
-520 556 0
32 -520 521 0
-521 557 0
33 -521 522 0
-522 558 0
34 -522 523 0
-523 559 0
35 -523 524 0
-524 560 0
36 -524 525 0
-525 561 0
37 -525 526 0
-526 562 0
38 -526 527 0
-527 563 0
39 -527 528 0
-528 564 0
40 -528 529 0
-529 565 0
41 -529 530 0
-530 566 0
42 -530 531 0
-531 567 0
43 -531 532 0
-532 568 0
44 -532 533 0
-533 569 0
45 -533 534 0
-534 570 0
46 -534 535 0
-535 571 0
47 -535 536 0
-536 572 0
48 -536 0
13 537 0
-537 573 0
14 -537 538 0
-538 574 0
15 -538 539 0
-539 575 0
16 -539 540 0
-540 576 0
17 -540 541 0
-541 577 0
18 -541 542 0
-542 578 0
19 -542 543 0
-543 579 0
20 -543 544 0
-544 580 0
21 -544 545 0
-545 581 0
22 -545 546 0
-546 582 0
23 -546 547 0
-547 583 0
24 -547 548 0
-548 584 0
25 -548 549 0
-549 585 0
26 -549 550 0
-550 586 0
27 -550 551 0
-551 587 0
28 -551 552 0
-552 588 0
29 -552 553 0
-553 589 0
30 -553 554 0
-554 590 0
31 -554 555 0
-555 591 0
32 -555 556 0
-556 592 0
33 -556 557 0
-557 593 0
34 -557 558 0
-558 594 0
35 -558 559 0
-559 595 0
36 -559 560 0
-560 596 0
37 -560 561 0
-561 597 0
38 -561 562 0
-562 598 0
39 -562 563 0
-563 599 0
40 -563 564 0
-564 600 0
41 -564 565 0
-565 601 0
42 -565 566 0
-566 602 0
43 -566 567 0
-567 603 0
44 -567 568 0
-568 604 0
45 -568 569 0
-569 605 0
46 -569 570 0
-570 606 0
47 -570 571 0
-571 607 0
48 -571 572 0
-572 608 0
49 -572 0
14 573 0
-573 609 0
15 -573 574 0
-574 610 0
16 -574 575 0
-575 611 0
17 -575 576 0
-576 612 0
18 -576 577 0
-577 613 0
19 -577 578 0
-578 614 0
20 -578 579 0
-579 615 0
21 -579 580 0
-580 616 0
22 -580 581 0
-581 617 0
23 -581 582 0
-582 618 0
24 -582 583 0
-583 619 0
25 -583 584 0
-584 620 0
26 -584 585 0
-585 621 0
27 -585 586 0
-586 622 0
28 -586 587 0
-587 623 0
29 -587 588 0
-588 624 0
30 -588 589 0
-589 625 0
31 -589 590 0
-590 626 0
32 -590 591 0
-591 627 0
33 -591 592 0
-592 628 0
34 -592 593 0
-593 629 0
35 -593 594 0
-594 630 0
36 -594 595 0
-595 631 0
37 -595 596 0
-596 632 0
38 -596 597 0
-597 633 0
39 -597 598 0
-598 634 0
40 -598 599 0
-599 635 0
41 -599 600 0
-600 636 0
42 -600 601 0
-601 637 0
43 -601 602 0
-602 638 0
44 -602 603 0
-603 639 0
45 -603 604 0
-604 640 0
46 -604 605 0
-605 641 0
47 -605 606 0
-606 642 0
48 -606 607 0
-607 643 0
49 -607 608 0
-608 644 0
50 -608 0
15 609 0
-609 645 0
16 -609 610 0
-610 646 0
17 -610 611 0
-611 647 0
18 -611 612 0
-612 648 0
19 -612 613 0
-613 649 0
20 -613 614 0
-614 650 0
21 -614 615 0
-615 651 0
22 -615 616 0
-616 652 0
23 -616 617 0
-617 653 0
24 -617 618 0
-618 654 0
25 -618 619 0
-619 655 0
26 -619 620 0
-620 656 0
27 -620 621 0
-621 657 0
28 -621 622 0
-622 658 0
29 -622 623 0
-623 659 0
30 -623 624 0
-624 660 0
31 -624 625 0
-625 661 0
32 -625 626 0
-626 662 0
33 -626 627 0
-627 663 0
34 -627 628 0
-628 664 0
35 -628 629 0
-629 665 0
36 -629 630 0
-630 666 0
37 -630 631 0
-631 667 0
38 -631 632 0
-632 668 0
39 -632 633 0
-633 669 0
40 -633 634 0
-634 670 0
41 -634 635 0
-635 671 0
42 -635 636 0
-636 672 0
43 -636 637 0
-637 673 0
44 -637 638 0
-638 674 0
45 -638 639 0
-639 675 0
46 -639 640 0
-640 676 0
47 -640 641 0
-641 677 0
48 -641 642 0
-642 678 0
49 -642 643 0
-643 679 0
50 -643 644 0
-644 680 0
51 -644 0
16 645 0
17 -645 646 0
18 -646 647 0
19 -647 648 0
20 -648 649 0
21 -649 650 0
22 -650 651 0
23 -651 652 0
24 -652 653 0
25 -653 654 0
26 -654 655 0
27 -655 656 0
28 -656 657 0
29 -657 658 0
30 -658 659 0
31 -659 660 0
32 -660 661 0
33 -661 662 0
34 -662 663 0
35 -663 664 0
36 -664 665 0
37 -665 666 0
38 -666 667 0
39 -667 668 0
40 -668 669 0
41 -669 670 0
42 -670 671 0
43 -671 672 0
44 -672 673 0
45 -673 674 0
46 -674 675 0
47 -675 676 0
48 -676 677 0
49 -677 678 0
50 -678 679 0
51 -679 680 0
52 -680 0
-1 681 0
-681 682 0
-2 -681 683 0
-683 684 0
-3 -683 685 0
-685 686 0
-4 -685 687 0
-687 688 0
-5 -687 689 0
-689 690 0
-6 -689 691 0
-691 692 0
-7 -691 693 0
-693 694 0
-8 -693 695 0
-695 696 0
-9 -695 697 0
-697 698 0
-10 -697 699 0
-699 700 0
-11 -699 701 0
-701 702 0
-12 -701 703 0
-703 704 0
-13 -703 705 0
-705 706 0
-14 -705 707 0
-707 708 0
-15 -707 709 0
-709 710 0
-16 -709 711 0
-711 712 0
-17 -711 0
-2 682 0
-682 713 0
-3 -682 684 0
-684 714 0
-4 -684 686 0
-686 715 0
-5 -686 688 0
-688 716 0
-6 -688 690 0
-690 717 0
-7 -690 692 0
-692 718 0
-8 -692 694 0
-694 719 0
-9 -694 696 0
-696 720 0
-10 -696 698 0
-698 721 0
-11 -698 700 0
-700 722 0
-12 -700 702 0
-702 723 0
-13 -702 704 0
-704 724 0
-14 -704 706 0
-706 725 0
-15 -706 708 0
-708 726 0
-16 -708 710 0
-710 727 0
-17 -710 712 0
-712 728 0
-18 -712 0
-3 713 0
-713 729 0
-4 -713 714 0
-714 730 0
-5 -714 715 0
-715 731 0
-6 -715 716 0
-716 732 0
-7 -716 717 0
-717 733 0
-8 -717 718 0
-718 734 0
-9 -718 719 0
-719 735 0
-10 -719 720 0
-720 736 0
-11 -720 721 0
-721 737 0
-12 -721 722 0
-722 738 0
-13 -722 723 0
-723 739 0
-14 -723 724 0
-724 740 0
-15 -724 725 0
-725 741 0
-16 -725 726 0
-726 742 0
-17 -726 727 0
-727 743 0
-18 -727 728 0
-728 744 0
-19 -728 0
-4 729 0
-729 745 0
-5 -729 730 0
-730 746 0
-6 -730 731 0
-731 747 0
-7 -731 732 0
-732 748 0
-8 -732 733 0
-733 749 0
-9 -733 734 0
-734 750 0
-10 -734 735 0
-735 751 0
-11 -735 736 0
-736 752 0
-12 -736 737 0
-737 753 0
-13 -737 738 0
-738 754 0
-14 -738 739 0
-739 755 0
-15 -739 740 0
-740 756 0
-16 -740 741 0
-741 757 0
-17 -741 742 0
-742 758 0
-18 -742 743 0
-743 759 0
-19 -743 744 0
-744 760 0
-20 -744 0
-5 745 0
-745 761 0
-6 -745 746 0
-746 762 0
-7 -746 747 0
-747 763 0
-8 -747 748 0
-748 764 0
-9 -748 749 0
-749 765 0
-10 -749 750 0
-750 766 0
-11 -750 751 0
-751 767 0
-12 -751 752 0
-752 768 0
-13 -752 753 0
-753 769 0
-14 -753 754 0
-754 770 0
-15 -754 755 0
-755 771 0
-16 -755 756 0
-756 772 0
-17 -756 757 0
-757 773 0
-18 -757 758 0
-758 774 0
-19 -758 759 0
-759 775 0
-20 -759 760 0
-760 776 0
-21 -760 0
-6 761 0
-761 777 0
-7 -761 762 0
-762 778 0
-8 -762 763 0
-763 779 0
-9 -763 764 0
-764 780 0
-10 -764 765 0
-765 781 0
-11 -765 766 0
-766 782 0
-12 -766 767 0
-767 783 0
-13 -767 768 0
-768 784 0
-14 -768 769 0
-769 785 0
-15 -769 770 0
-770 786 0
-16 -770 771 0
-771 787 0
-17 -771 772 0
-772 788 0
-18 -772 773 0
-773 789 0
-19 -773 774 0
-774 790 0
-20 -774 775 0
-775 791 0
-21 -775 776 0
-776 792 0
-22 -776 0
-7 777 0
-777 793 0
-8 -777 778 0
-778 794 0
-9 -778 779 0
-779 795 0
-10 -779 780 0
-780 796 0
-11 -780 781 0
-781 797 0
-12 -781 782 0
-782 798 0
-13 -782 783 0
-783 799 0
-14 -783 784 0
-784 800 0
-15 -784 785 0
-785 801 0
-16 -785 786 0
-786 802 0
-17 -786 787 0
-787 803 0
-18 -787 788 0
-788 804 0
-19 -788 789 0
-789 805 0
-20 -789 790 0
-790 806 0
-21 -790 791 0
-791 807 0
-22 -791 792 0
-792 808 0
-23 -792 0
-8 793 0
-793 809 0
-9 -793 794 0
-794 810 0
-10 -794 795 0
-795 811 0
-11 -795 796 0
-796 812 0
-12 -796 797 0
-797 813 0
-13 -797 798 0
-798 814 0
-14 -798 799 0
-799 815 0
-15 -799 800 0
-800 816 0
-16 -800 801 0
-801 817 0
-17 -801 802 0
-802 818 0
-18 -802 803 0
-803 819 0
-19 -803 804 0
-804 820 0
-20 -804 805 0
-805 821 0
-21 -805 806 0
-806 822 0
-22 -806 807 0
-807 823 0
-23 -807 808 0
-808 824 0
-24 -808 0
-9 809 0
-809 825 0
-10 -809 810 0
-810 826 0
-11 -810 811 0
-811 827 0
-12 -811 812 0
-812 828 0
-13 -812 813 0
-813 829 0
-14 -813 814 0
-814 830 0
-15 -814 815 0
-815 831 0
-16 -815 816 0
-816 832 0
-17 -816 817 0
-817 833 0
-18 -817 818 0
-818 834 0
-19 -818 819 0
-819 835 0
-20 -819 820 0
-820 836 0
-21 -820 821 0
-821 837 0
-22 -821 822 0
-822 838 0
-23 -822 823 0
-823 839 0
-24 -823 824 0
-824 840 0
-25 -824 0
-10 825 0
-825 841 0
-11 -825 826 0
-826 842 0
-12 -826 827 0
-827 843 0
-13 -827 828 0
-828 844 0
-14 -828 829 0
-829 845 0
-15 -829 830 0
-830 846 0
-16 -830 831 0
-831 847 0
-17 -831 832 0
-832 848 0
-18 -832 833 0
-833 849 0
-19 -833 834 0
-834 850 0
-20 -834 835 0
-835 851 0
-21 -835 836 0
-836 852 0
-22 -836 837 0
-837 853 0
-23 -837 838 0
-838 854 0
-24 -838 839 0
-839 855 0
-25 -839 840 0
-840 856 0
-26 -840 0
-11 841 0
-841 857 0
-12 -841 842 0
-842 858 0
-13 -842 843 0
-843 859 0
-14 -843 844 0
-844 860 0
-15 -844 845 0
-845 861 0
-16 -845 846 0
-846 862 0
-17 -846 847 0
-847 863 0
-18 -847 848 0
-848 864 0
-19 -848 849 0
-849 865 0
-20 -849 850 0
-850 866 0
-21 -850 851 0
-851 867 0
-22 -851 852 0
-852 868 0
-23 -852 853 0
-853 869 0
-24 -853 854 0
-854 870 0
-25 -854 855 0
-855 871 0
-26 -855 856 0
-856 872 0
-27 -856 0
-12 857 0
-857 873 0
-13 -857 858 0
-858 874 0
-14 -858 859 0
-859 875 0
-15 -859 860 0
-860 876 0
-16 -860 861 0
-861 877 0
-17 -861 862 0
-862 878 0
-18 -862 863 0
-863 879 0
-19 -863 864 0
-864 880 0
-20 -864 865 0
-865 881 0
-21 -865 866 0
-866 882 0
-22 -866 867 0
-867 883 0
-23 -867 868 0
-868 884 0
-24 -868 869 0
-869 885 0
-25 -869 870 0
-870 886 0
-26 -870 871 0
-871 887 0
-27 -871 872 0
-872 888 0
-28 -872 0
-13 873 0
-873 889 0
-14 -873 874 0
-874 890 0
-15 -874 875 0
-875 891 0
-16 -875 876 0
-876 892 0
-17 -876 877 0
-877 893 0
-18 -877 878 0
-878 894 0
-19 -878 879 0
-879 895 0
-20 -879 880 0
-880 896 0
-21 -880 881 0
-881 897 0
-22 -881 882 0
-882 898 0
-23 -882 883 0
-883 899 0
-24 -883 884 0
-884 900 0
-25 -884 885 0
-885 901 0
-26 -885 886 0
-886 902 0
-27 -886 887 0
-887 903 0
-28 -887 888 0
-888 904 0
-29 -888 0
-14 889 0
-889 905 0
-15 -889 890 0
-890 906 0
-16 -890 891 0
-891 907 0
-17 -891 892 0
-892 908 0
-18 -892 893 0
-893 909 0
-19 -893 894 0
-894 910 0
-20 -894 895 0
-895 911 0
-21 -895 896 0
-896 912 0
-22 -896 897 0
-897 913 0
-23 -897 898 0
-898 914 0
-24 -898 899 0
-899 915 0
-25 -899 900 0
-900 916 0
-26 -900 901 0
-901 917 0
-27 -901 902 0
-902 918 0
-28 -902 903 0
-903 919 0
-29 -903 904 0
-904 920 0
-30 -904 0
-15 905 0
-905 921 0
-16 -905 906 0
-906 922 0
-17 -906 907 0
-907 923 0
-18 -907 908 0
-908 924 0
-19 -908 909 0
-909 925 0
-20 -909 910 0
-910 926 0
-21 -910 911 0
-911 927 0
-22 -911 912 0
-912 928 0
-23 -912 913 0
-913 929 0
-24 -913 914 0
-914 930 0
-25 -914 915 0
-915 931 0
-26 -915 916 0
-916 932 0
-27 -916 917 0
-917 933 0
-28 -917 918 0
-918 934 0
-29 -918 919 0
-919 935 0
-30 -919 920 0
-920 936 0
-31 -920 0
-16 921 0
-921 937 0
-17 -921 922 0
-922 938 0
-18 -922 923 0
-923 939 0
-19 -923 924 0
-924 940 0
-20 -924 925 0
-925 941 0
-21 -925 926 0
-926 942 0
-22 -926 927 0
-927 943 0
-23 -927 928 0
-928 944 0
-24 -928 929 0
-929 945 0
-25 -929 930 0
-930 946 0
-26 -930 931 0
-931 947 0
-27 -931 932 0
-932 948 0
-28 -932 933 0
-933 949 0
-29 -933 934 0
-934 950 0
-30 -934 935 0
-935 951 0
-31 -935 936 0
-936 952 0
-32 -936 0
-17 937 0
-937 953 0
-18 -937 938 0
-938 954 0
-19 -938 939 0
-939 955 0
-20 -939 940 0
-940 956 0
-21 -940 941 0
-941 957 0
-22 -941 942 0
-942 958 0
-23 -942 943 0
-943 959 0
-24 -943 944 0
-944 960 0
-25 -944 945 0
-945 961 0
-26 -945 946 0
-946 962 0
-27 -946 947 0
-947 963 0
-28 -947 948 0
-948 964 0
-29 -948 949 0
-949 965 0
-30 -949 950 0
-950 966 0
-31 -950 951 0
-951 967 0
-32 -951 952 0
-952 968 0
-33 -952 0
-18 953 0
-953 969 0
-19 -953 954 0
-954 970 0
-20 -954 955 0
-955 971 0
-21 -955 956 0
-956 972 0
-22 -956 957 0
-957 973 0
-23 -957 958 0
-958 974 0
-24 -958 959 0
-959 975 0
-25 -959 960 0
-960 976 0
-26 -960 961 0
-961 977 0
-27 -961 962 0
-962 978 0
-28 -962 963 0
-963 979 0
-29 -963 964 0
-964 980 0
-30 -964 965 0
-965 981 0
-31 -965 966 0
-966 982 0
-32 -966 967 0
-967 983 0
-33 -967 968 0
-968 984 0
-34 -968 0
-19 969 0
-969 985 0
-20 -969 970 0
-970 986 0
-21 -970 971 0
-971 987 0
-22 -971 972 0
-972 988 0
-23 -972 973 0
-973 989 0
-24 -973 974 0
-974 990 0
-25 -974 975 0
-975 991 0
-26 -975 976 0
-976 992 0
-27 -976 977 0
-977 993 0
-28 -977 978 0
-978 994 0
-29 -978 979 0
-979 995 0
-30 -979 980 0
-980 996 0
-31 -980 981 0
-981 997 0
-32 -981 982 0
-982 998 0
-33 -982 983 0
-983 999 0
-34 -983 984 0
-984 1000 0
-35 -984 0
-20 985 0
-985 1001 0
-21 -985 986 0
-986 1002 0
-22 -986 987 0
-987 1003 0
-23 -987 988 0
-988 1004 0
-24 -988 989 0
-989 1005 0
-25 -989 990 0
-990 1006 0
-26 -990 991 0
-991 1007 0
-27 -991 992 0
-992 1008 0
-28 -992 993 0
-993 1009 0
-29 -993 994 0
-994 1010 0
-30 -994 995 0
-995 1011 0
-31 -995 996 0
-996 1012 0
-32 -996 997 0
-997 1013 0
-33 -997 998 0
-998 1014 0
-34 -998 999 0
-999 1015 0
-35 -999 1000 0
-1000 1016 0
-36 -1000 0
-21 1001 0
-1001 1017 0
-22 -1001 1002 0
-1002 1018 0
-23 -1002 1003 0
-1003 1019 0
-24 -1003 1004 0
-1004 1020 0
-25 -1004 1005 0
-1005 1021 0
-26 -1005 1006 0
-1006 1022 0
-27 -1006 1007 0
-1007 1023 0
-28 -1007 1008 0
-1008 1024 0
-29 -1008 1009 0
-1009 1025 0
-30 -1009 1010 0
-1010 1026 0
-31 -1010 1011 0
-1011 1027 0
-32 -1011 1012 0
-1012 1028 0
-33 -1012 1013 0
-1013 1029 0
-34 -1013 1014 0
-1014 1030 0
-35 -1014 1015 0
-1015 1031 0
-36 -1015 1016 0
-1016 1032 0
-37 -1016 0
-22 1017 0
-1017 1033 0
-23 -1017 1018 0
-1018 1034 0
-24 -1018 1019 0
-1019 1035 0
-25 -1019 1020 0
-1020 1036 0
-26 -1020 1021 0
-1021 1037 0
-27 -1021 1022 0
-1022 1038 0
-28 -1022 1023 0
-1023 1039 0
-29 -1023 1024 0
-1024 1040 0
-30 -1024 1025 0
-1025 1041 0
-31 -1025 1026 0
-1026 1042 0
-32 -1026 1027 0
-1027 1043 0
-33 -1027 1028 0
-1028 1044 0
-34 -1028 1029 0
-1029 1045 0
-35 -1029 1030 0
-1030 1046 0
-36 -1030 1031 0
-1031 1047 0
-37 -1031 1032 0
-1032 1048 0
-38 -1032 0
-23 1033 0
-1033 1049 0
-24 -1033 1034 0
-1034 1050 0
-25 -1034 1035 0
-1035 1051 0
-26 -1035 1036 0
-1036 1052 0
-27 -1036 1037 0
-1037 1053 0
-28 -1037 1038 0
-1038 1054 0
-29 -1038 1039 0
-1039 1055 0
-30 -1039 1040 0
-1040 1056 0
-31 -1040 1041 0
-1041 1057 0
-32 -1041 1042 0
-1042 1058 0
-33 -1042 1043 0
-1043 1059 0
-34 -1043 1044 0
-1044 1060 0
-35 -1044 1045 0
-1045 1061 0
-36 -1045 1046 0
-1046 1062 0
-37 -1046 1047 0
-1047 1063 0
-38 -1047 1048 0
-1048 1064 0
-39 -1048 0
-24 1049 0
-1049 1065 0
-25 -1049 1050 0
-1050 1066 0
-26 -1050 1051 0
-1051 1067 0
-27 -1051 1052 0
-1052 1068 0
-28 -1052 1053 0
-1053 1069 0
-29 -1053 1054 0
-1054 1070 0
-30 -1054 1055 0
-1055 1071 0
-31 -1055 1056 0
-1056 1072 0
-32 -1056 1057 0
-1057 1073 0
-33 -1057 1058 0
-1058 1074 0
-34 -1058 1059 0
-1059 1075 0
-35 -1059 1060 0
-1060 1076 0
-36 -1060 1061 0
-1061 1077 0
-37 -1061 1062 0
-1062 1078 0
-38 -1062 1063 0
-1063 1079 0
-39 -1063 1064 0
-1064 1080 0
-40 -1064 0
-25 1065 0
-1065 1081 0
-26 -1065 1066 0
-1066 1082 0
-27 -1066 1067 0
-1067 1083 0
-28 -1067 1068 0
-1068 1084 0
-29 -1068 1069 0
-1069 1085 0
-30 -1069 1070 0
-1070 1086 0
-31 -1070 1071 0
-1071 1087 0
-32 -1071 1072 0
-1072 1088 0
-33 -1072 1073 0
-1073 1089 0
-34 -1073 1074 0
-1074 1090 0
-35 -1074 1075 0
-1075 1091 0
-36 -1075 1076 0
-1076 1092 0
-37 -1076 1077 0
-1077 1093 0
-38 -1077 1078 0
-1078 1094 0
-39 -1078 1079 0
-1079 1095 0
-40 -1079 1080 0
-1080 1096 0
-41 -1080 0
-26 1081 0
-1081 1097 0
-27 -1081 1082 0
-1082 1098 0
-28 -1082 1083 0
-1083 1099 0
-29 -1083 1084 0
-1084 1100 0
-30 -1084 1085 0
-1085 1101 0
-31 -1085 1086 0
-1086 1102 0
-32 -1086 1087 0
-1087 1103 0
-33 -1087 1088 0
-1088 1104 0
-34 -1088 1089 0
-1089 1105 0
-35 -1089 1090 0
-1090 1106 0
-36 -1090 1091 0
-1091 1107 0
-37 -1091 1092 0
-1092 1108 0
-38 -1092 1093 0
-1093 1109 0
-39 -1093 1094 0
-1094 1110 0
-40 -1094 1095 0
-1095 1111 0
-41 -1095 1096 0
-1096 1112 0
-42 -1096 0
-27 1097 0
-1097 1113 0
-28 -1097 1098 0
-1098 1114 0
-29 -1098 1099 0
-1099 1115 0
-30 -1099 1100 0
-1100 1116 0
-31 -1100 1101 0
-1101 1117 0
-32 -1101 1102 0
-1102 1118 0
-33 -1102 1103 0
-1103 1119 0
-34 -1103 1104 0
-1104 1120 0
-35 -1104 1105 0
-1105 1121 0
-36 -1105 1106 0
-1106 1122 0
-37 -1106 1107 0
-1107 1123 0
-38 -1107 1108 0
-1108 1124 0
-39 -1108 1109 0
-1109 1125 0
-40 -1109 1110 0
-1110 1126 0
-41 -1110 1111 0
-1111 1127 0
-42 -1111 1112 0
-1112 1128 0
-43 -1112 0
-28 1113 0
-1113 1129 0
-29 -1113 1114 0
-1114 1130 0
-30 -1114 1115 0
-1115 1131 0
-31 -1115 1116 0
-1116 1132 0
-32 -1116 1117 0
-1117 1133 0
-33 -1117 1118 0
-1118 1134 0
-34 -1118 1119 0
-1119 1135 0
-35 -1119 1120 0
-1120 1136 0
-36 -1120 1121 0
-1121 1137 0
-37 -1121 1122 0
-1122 1138 0
-38 -1122 1123 0
-1123 1139 0
-39 -1123 1124 0
-1124 1140 0
-40 -1124 1125 0
-1125 1141 0
-41 -1125 1126 0
-1126 1142 0
-42 -1126 1127 0
-1127 1143 0
-43 -1127 1128 0
-1128 1144 0
-44 -1128 0
-29 1129 0
-1129 1145 0
-30 -1129 1130 0
-1130 1146 0
-31 -1130 1131 0
-1131 1147 0
-32 -1131 1132 0
-1132 1148 0
-33 -1132 1133 0
-1133 1149 0
-34 -1133 1134 0
-1134 1150 0
-35 -1134 1135 0
-1135 1151 0
-36 -1135 1136 0
-1136 1152 0
-37 -1136 1137 0
-1137 1153 0
-38 -1137 1138 0
-1138 1154 0
-39 -1138 1139 0
-1139 1155 0
-40 -1139 1140 0
-1140 1156 0
-41 -1140 1141 0
-1141 1157 0
-42 -1141 1142 0
-1142 1158 0
-43 -1142 1143 0
-1143 1159 0
-44 -1143 1144 0
-1144 1160 0
-45 -1144 0
-30 1145 0
-1145 1161 0
-31 -1145 1146 0
-1146 1162 0
-32 -1146 1147 0
-1147 1163 0
-33 -1147 1148 0
-1148 1164 0
-34 -1148 1149 0
-1149 1165 0
-35 -1149 1150 0
-1150 1166 0
-36 -1150 1151 0
-1151 1167 0
-37 -1151 1152 0
-1152 1168 0
-38 -1152 1153 0
-1153 1169 0
-39 -1153 1154 0
-1154 1170 0
-40 -1154 1155 0
-1155 1171 0
-41 -1155 1156 0
-1156 1172 0
-42 -1156 1157 0
-1157 1173 0
-43 -1157 1158 0
-1158 1174 0
-44 -1158 1159 0
-1159 1175 0
-45 -1159 1160 0
-1160 1176 0
-46 -1160 0
-31 1161 0
-1161 1177 0
-32 -1161 1162 0
-1162 1178 0
-33 -1162 1163 0
-1163 1179 0
-34 -1163 1164 0
-1164 1180 0
-35 -1164 1165 0
-1165 1181 0
-36 -1165 1166 0
-1166 1182 0
-37 -1166 1167 0
-1167 1183 0
-38 -1167 1168 0
-1168 1184 0
-39 -1168 1169 0
-1169 1185 0
-40 -1169 1170 0
-1170 1186 0
-41 -1170 1171 0
-1171 1187 0
-42 -1171 1172 0
-1172 1188 0
-43 -1172 1173 0
-1173 1189 0
-44 -1173 1174 0
-1174 1190 0
-45 -1174 1175 0
-1175 1191 0
-46 -1175 1176 0
-1176 1192 0
-47 -1176 0
-32 1177 0
-1177 1193 0
-33 -1177 1178 0
-1178 1194 0
-34 -1178 1179 0
-1179 1195 0
-35 -1179 1180 0
-1180 1196 0
-36 -1180 1181 0
-1181 1197 0
-37 -1181 1182 0
-1182 1198 0
-38 -1182 1183 0
-1183 1199 0
-39 -1183 1184 0
-1184 1200 0
-40 -1184 1185 0
-1185 1201 0
-41 -1185 1186 0
-1186 1202 0
-42 -1186 1187 0
-1187 1203 0
-43 -1187 1188 0
-1188 1204 0
-44 -1188 1189 0
-1189 1205 0
-45 -1189 1190 0
-1190 1206 0
-46 -1190 1191 0
-1191 1207 0
-47 -1191 1192 0
-1192 1208 0
-48 -1192 0
-33 1193 0
-1193 1209 0
-34 -1193 1194 0
-1194 1210 0
-35 -1194 1195 0
-1195 1211 0
-36 -1195 1196 0
-1196 1212 0
-37 -1196 1197 0
-1197 1213 0
-38 -1197 1198 0
-1198 1214 0
-39 -1198 1199 0
-1199 1215 0
-40 -1199 1200 0
-1200 1216 0
-41 -1200 1201 0
-1201 1217 0
-42 -1201 1202 0
-1202 1218 0
-43 -1202 1203 0
-1203 1219 0
-44 -1203 1204 0
-1204 1220 0
-45 -1204 1205 0
-1205 1221 0
-46 -1205 1206 0
-1206 1222 0
-47 -1206 1207 0
-1207 1223 0
-48 -1207 1208 0
-1208 1224 0
-49 -1208 0
-34 1209 0
-1209 1225 0
-35 -1209 1210 0
-1210 1226 0
-36 -1210 1211 0
-1211 1227 0
-37 -1211 1212 0
-1212 1228 0
-38 -1212 1213 0
-1213 1229 0
-39 -1213 1214 0
-1214 1230 0
-40 -1214 1215 0
-1215 1231 0
-41 -1215 1216 0
-1216 1232 0
-42 -1216 1217 0
-1217 1233 0
-43 -1217 1218 0
-1218 1234 0
-44 -1218 1219 0
-1219 1235 0
-45 -1219 1220 0
-1220 1236 0
-46 -1220 1221 0
-1221 1237 0
-47 -1221 1222 0
-1222 1238 0
-48 -1222 1223 0
-1223 1239 0
-49 -1223 1224 0
-1224 1240 0
-50 -1224 0
-35 1225 0
-1225 1241 0
-36 -1225 1226 0
-1226 1242 0
-37 -1226 1227 0
-1227 1243 0
-38 -1227 1228 0
-1228 1244 0
-39 -1228 1229 0
-1229 1245 0
-40 -1229 1230 0
-1230 1246 0
-41 -1230 1231 0
-1231 1247 0
-42 -1231 1232 0
-1232 1248 0
-43 -1232 1233 0
-1233 1249 0
-44 -1233 1234 0
-1234 1250 0
-45 -1234 1235 0
-1235 1251 0
-46 -1235 1236 0
-1236 1252 0
-47 -1236 1237 0
-1237 1253 0
-48 -1237 1238 0
-1238 1254 0
-49 -1238 1239 0
-1239 1255 0
-50 -1239 1240 0
-1240 1256 0
-51 -1240 0
-36 1241 0
-37 -1241 1242 0
-38 -1242 1243 0
-39 -1243 1244 0
-40 -1244 1245 0
-41 -1245 1246 0
-42 -1246 1247 0
-43 -1247 1248 0
-44 -1248 1249 0
-45 -1249 1250 0
-46 -1250 1251 0
-47 -1251 1252 0
-48 -1252 1253 0
-49 -1253 1254 0
-50 -1254 1255 0
-51 -1255 1256 0
-52 -1256 0
-53 1257 0
-1257 1258 0
-54 -1257 1259 0
-1259 1260 0
-55 -1259 1261 0
-1261 1262 0
-56 -1261 1263 0
-1263 1264 0
-57 -1263 1265 0
-1265 1266 0
-58 -1265 1267 0
-1267 1268 0
-59 -1267 1269 0
-1269 1270 0
-60 -1269 1271 0
-1271 1272 0
-61 -1271 1273 0
-1273 1274 0
-62 -1273 1275 0
-1275 1276 0
-63 -1275 1277 0
-1277 1278 0
-64 -1277 1279 0
-1279 1280 0
-65 -1279 1281 0
-1281 1282 0
-66 -1281 1283 0
-1283 1284 0
-67 -1283 1285 0
-1285 1286 0
-68 -1285 1287 0
-1287 1288 0
-69 -1287 1289 0
-1289 1290 0
-70 -1289 1291 0
-1291 1292 0
-71 -1291 1293 0
-1293 1294 0
-72 -1293 1295 0
-1295 1296 0
-73 -1295 1297 0
-1297 1298 0
-74 -1297 1299 0
-1299 1300 0
-75 -1299 1301 0
-1301 1302 0
-76 -1301 1303 0
-1303 1304 0
-77 -1303 1305 0
-1305 1306 0
-78 -1305 0
-54 1258 0
-1258 1307 0
-55 -1258 1260 0
-1260 1308 0
-56 -1260 1262 0
-1262 1309 0
-57 -1262 1264 0
-1264 1310 0
-58 -1264 1266 0
-1266 1311 0
-59 -1266 1268 0
-1268 1312 0
-60 -1268 1270 0
-1270 1313 0
-61 -1270 1272 0
-1272 1314 0
-62 -1272 1274 0
-1274 1315 0
-63 -1274 1276 0
-1276 1316 0
-64 -1276 1278 0
-1278 1317 0
-65 -1278 1280 0
-1280 1318 0
-66 -1280 1282 0
-1282 1319 0
-67 -1282 1284 0
-1284 1320 0
-68 -1284 1286 0
-1286 1321 0
-69 -1286 1288 0
-1288 1322 0
-70 -1288 1290 0
-1290 1323 0
-71 -1290 1292 0
-1292 1324 0
-72 -1292 1294 0
-1294 1325 0
-73 -1294 1296 0
-1296 1326 0
-74 -1296 1298 0
-1298 1327 0
-75 -1298 1300 0
-1300 1328 0
-76 -1300 1302 0
-1302 1329 0
-77 -1302 1304 0
-1304 1330 0
-78 -1304 1306 0
-1306 1331 0
-79 -1306 0
-55 1307 0
-1307 1332 0
-56 -1307 1308 0
-1308 1333 0
-57 -1308 1309 0
-1309 1334 0
-58 -1309 1310 0
-1310 1335 0
-59 -1310 1311 0
-1311 1336 0
-60 -1311 1312 0
-1312 1337 0
-61 -1312 1313 0
-1313 1338 0
-62 -1313 1314 0
-1314 1339 0
-63 -1314 1315 0
-1315 1340 0
-64 -1315 1316 0
-1316 1341 0
-65 -1316 1317 0
-1317 1342 0
-66 -1317 1318 0
-1318 1343 0
-67 -1318 1319 0
-1319 1344 0
-68 -1319 1320 0
-1320 1345 0
-69 -1320 1321 0
-1321 1346 0
-70 -1321 1322 0
-1322 1347 0
-71 -1322 1323 0
-1323 1348 0
-72 -1323 1324 0
-1324 1349 0
-73 -1324 1325 0
-1325 1350 0
-74 -1325 1326 0
-1326 1351 0
-75 -1326 1327 0
-1327 1352 0
-76 -1327 1328 0
-1328 1353 0
-77 -1328 1329 0
-1329 1354 0
-78 -1329 1330 0
-1330 1355 0
-79 -1330 1331 0
-1331 1356 0
-80 -1331 0
-56 1332 0
-1332 1357 0
-57 -1332 1333 0
-1333 1358 0
-58 -1333 1334 0
-1334 1359 0
-59 -1334 1335 0
-1335 1360 0
-60 -1335 1336 0
-1336 1361 0
-61 -1336 1337 0
-1337 1362 0
-62 -1337 1338 0
-1338 1363 0
-63 -1338 1339 0
-1339 1364 0
-64 -1339 1340 0
-1340 1365 0
-65 -1340 1341 0
-1341 1366 0
-66 -1341 1342 0
-1342 1367 0
-67 -1342 1343 0
-1343 1368 0
-68 -1343 1344 0
-1344 1369 0
-69 -1344 1345 0
-1345 1370 0
-70 -1345 1346 0
-1346 1371 0
-71 -1346 1347 0
-1347 1372 0
-72 -1347 1348 0
-1348 1373 0
-73 -1348 1349 0
-1349 1374 0
-74 -1349 1350 0
-1350 1375 0
-75 -1350 1351 0
-1351 1376 0
-76 -1351 1352 0
-1352 1377 0
-77 -1352 1353 0
-1353 1378 0
-78 -1353 1354 0
-1354 1379 0
-79 -1354 1355 0
-1355 1380 0
-80 -1355 1356 0
-1356 1381 0
-81 -1356 0
-57 1357 0
-1357 1382 0
-58 -1357 1358 0
-1358 1383 0
-59 -1358 1359 0
-1359 1384 0
-60 -1359 1360 0
-1360 1385 0
-61 -1360 1361 0
-1361 1386 0
-62 -1361 1362 0
-1362 1387 0
-63 -1362 1363 0
-1363 1388 0
-64 -1363 1364 0
-1364 1389 0
-65 -1364 1365 0
-1365 1390 0
-66 -1365 1366 0
-1366 1391 0
-67 -1366 1367 0
-1367 1392 0
-68 -1367 1368 0
-1368 1393 0
-69 -1368 1369 0
-1369 1394 0
-70 -1369 1370 0
-1370 1395 0
-71 -1370 1371 0
-1371 1396 0
-72 -1371 1372 0
-1372 1397 0
-73 -1372 1373 0
-1373 1398 0
-74 -1373 1374 0
-1374 1399 0
-75 -1374 1375 0
-1375 1400 0
-76 -1375 1376 0
-1376 1401 0
-77 -1376 1377 0
-1377 1402 0
-78 -1377 1378 0
-1378 1403 0
-79 -1378 1379 0
-1379 1404 0
-80 -1379 1380 0
-1380 1405 0
-81 -1380 1381 0
-1381 1406 0
-82 -1381 0
-58 1382 0
-1382 1407 0
-59 -1382 1383 0
-1383 1408 0
-60 -1383 1384 0
-1384 1409 0
-61 -1384 1385 0
-1385 1410 0
-62 -1385 1386 0
-1386 1411 0
-63 -1386 1387 0
-1387 1412 0
-64 -1387 1388 0
-1388 1413 0
-65 -1388 1389 0
-1389 1414 0
-66 -1389 1390 0
-1390 1415 0
-67 -1390 1391 0
-1391 1416 0
-68 -1391 1392 0
-1392 1417 0
-69 -1392 1393 0
-1393 1418 0
-70 -1393 1394 0
-1394 1419 0
-71 -1394 1395 0
-1395 1420 0
-72 -1395 1396 0
-1396 1421 0
-73 -1396 1397 0
-1397 1422 0
-74 -1397 1398 0
-1398 1423 0
-75 -1398 1399 0
-1399 1424 0
-76 -1399 1400 0
-1400 1425 0
-77 -1400 1401 0
-1401 1426 0
-78 -1401 1402 0
-1402 1427 0
-79 -1402 1403 0
-1403 1428 0
-80 -1403 1404 0
-1404 1429 0
-81 -1404 1405 0
-1405 1430 0
-82 -1405 1406 0
-1406 1431 0
-83 -1406 0
-59 1407 0
-1407 1432 0
-60 -1407 1408 0
-1408 1433 0
-61 -1408 1409 0
-1409 1434 0
-62 -1409 1410 0
-1410 1435 0
-63 -1410 1411 0
-1411 1436 0
-64 -1411 1412 0
-1412 1437 0
-65 -1412 1413 0
-1413 1438 0
-66 -1413 1414 0
-1414 1439 0
-67 -1414 1415 0
-1415 1440 0
-68 -1415 1416 0
-1416 1441 0
-69 -1416 1417 0
-1417 1442 0
-70 -1417 1418 0
-1418 1443 0
-71 -1418 1419 0
-1419 1444 0
-72 -1419 1420 0
-1420 1445 0
-73 -1420 1421 0
-1421 1446 0
-74 -1421 1422 0
-1422 1447 0
-75 -1422 1423 0
-1423 1448 0
-76 -1423 1424 0
-1424 1449 0
-77 -1424 1425 0
-1425 1450 0
-78 -1425 1426 0
-1426 1451 0
-79 -1426 1427 0
-1427 1452 0
-80 -1427 1428 0
-1428 1453 0
-81 -1428 1429 0
-1429 1454 0
-82 -1429 1430 0
-1430 1455 0
-83 -1430 1431 0
-1431 1456 0
-84 -1431 0
-60 1432 0
-1432 1457 0
-61 -1432 1433 0
-1433 1458 0
-62 -1433 1434 0
-1434 1459 0
-63 -1434 1435 0
-1435 1460 0
-64 -1435 1436 0
-1436 1461 0
-65 -1436 1437 0
-1437 1462 0
-66 -1437 1438 0
-1438 1463 0
-67 -1438 1439 0
-1439 1464 0
-68 -1439 1440 0
-1440 1465 0
-69 -1440 1441 0
-1441 1466 0
-70 -1441 1442 0
-1442 1467 0
-71 -1442 1443 0
-1443 1468 0
-72 -1443 1444 0
-1444 1469 0
-73 -1444 1445 0
-1445 1470 0
-74 -1445 1446 0
-1446 1471 0
-75 -1446 1447 0
-1447 1472 0
-76 -1447 1448 0
-1448 1473 0
-77 -1448 1449 0
-1449 1474 0
-78 -1449 1450 0
-1450 1475 0
-79 -1450 1451 0
-1451 1476 0
-80 -1451 1452 0
-1452 1477 0
-81 -1452 1453 0
-1453 1478 0
-82 -1453 1454 0
-1454 1479 0
-83 -1454 1455 0
-1455 1480 0
-84 -1455 1456 0
-1456 1481 0
-85 -1456 0
-61 1457 0
-1457 1482 0
-62 -1457 1458 0
-1458 1483 0
-63 -1458 1459 0
-1459 1484 0
-64 -1459 1460 0
-1460 1485 0
-65 -1460 1461 0
-1461 1486 0
-66 -1461 1462 0
-1462 1487 0
-67 -1462 1463 0
-1463 1488 0
-68 -1463 1464 0
-1464 1489 0
-69 -1464 1465 0
-1465 1490 0
-70 -1465 1466 0
-1466 1491 0
-71 -1466 1467 0
-1467 1492 0
-72 -1467 1468 0
-1468 1493 0
-73 -1468 1469 0
-1469 1494 0
-74 -1469 1470 0
-1470 1495 0
-75 -1470 1471 0
-1471 1496 0
-76 -1471 1472 0
-1472 1497 0
-77 -1472 1473 0
-1473 1498 0
-78 -1473 1474 0
-1474 1499 0
-79 -1474 1475 0
-1475 1500 0
-80 -1475 1476 0
-1476 1501 0
-81 -1476 1477 0
-1477 1502 0
-82 -1477 1478 0
-1478 1503 0
-83 -1478 1479 0
-1479 1504 0
-84 -1479 1480 0
-1480 1505 0
-85 -1480 1481 0
-1481 1506 0
-86 -1481 0
-62 1482 0
-1482 1507 0
-63 -1482 1483 0
-1483 1508 0
-64 -1483 1484 0
-1484 1509 0
-65 -1484 1485 0
-1485 1510 0
-66 -1485 1486 0
-1486 1511 0
-67 -1486 1487 0
-1487 1512 0
-68 -1487 1488 0
-1488 1513 0
-69 -1488 1489 0
-1489 1514 0
-70 -1489 1490 0
-1490 1515 0
-71 -1490 1491 0
-1491 1516 0
-72 -1491 1492 0
-1492 1517 0
-73 -1492 1493 0
-1493 1518 0
-74 -1493 1494 0
-1494 1519 0
-75 -1494 1495 0
-1495 1520 0
-76 -1495 1496 0
-1496 1521 0
-77 -1496 1497 0
-1497 1522 0
-78 -1497 1498 0
-1498 1523 0
-79 -1498 1499 0
-1499 1524 0
-80 -1499 1500 0
-1500 1525 0
-81 -1500 1501 0
-1501 1526 0
-82 -1501 1502 0
-1502 1527 0
-83 -1502 1503 0
-1503 1528 0
-84 -1503 1504 0
-1504 1529 0
-85 -1504 1505 0
-1505 1530 0
-86 -1505 1506 0
-1506 1531 0
-87 -1506 0
-63 1507 0
-1507 1532 0
-64 -1507 1508 0
-1508 1533 0
-65 -1508 1509 0
-1509 1534 0
-66 -1509 1510 0
-1510 1535 0
-67 -1510 1511 0
-1511 1536 0
-68 -1511 1512 0
-1512 1537 0
-69 -1512 1513 0
-1513 1538 0
-70 -1513 1514 0
-1514 1539 0
-71 -1514 1515 0
-1515 1540 0
-72 -1515 1516 0
-1516 1541 0
-73 -1516 1517 0
-1517 1542 0
-74 -1517 1518 0
-1518 1543 0
-75 -1518 1519 0
-1519 1544 0
-76 -1519 1520 0
-1520 1545 0
-77 -1520 1521 0
-1521 1546 0
-78 -1521 1522 0
-1522 1547 0
-79 -1522 1523 0
-1523 1548 0
-80 -1523 1524 0
-1524 1549 0
-81 -1524 1525 0
-1525 1550 0
-82 -1525 1526 0
-1526 1551 0
-83 -1526 1527 0
-1527 1552 0
-84 -1527 1528 0
-1528 1553 0
-85 -1528 1529 0
-1529 1554 0
-86 -1529 1530 0
-1530 1555 0
-87 -1530 1531 0
-1531 1556 0
-88 -1531 0
-64 1532 0
-1532 1557 0
-65 -1532 1533 0
-1533 1558 0
-66 -1533 1534 0
-1534 1559 0
-67 -1534 1535 0
-1535 1560 0
-68 -1535 1536 0
-1536 1561 0
-69 -1536 1537 0
-1537 1562 0
-70 -1537 1538 0
-1538 1563 0
-71 -1538 1539 0
-1539 1564 0
-72 -1539 1540 0
-1540 1565 0
-73 -1540 1541 0
-1541 1566 0
-74 -1541 1542 0
-1542 1567 0
-75 -1542 1543 0
-1543 1568 0
-76 -1543 1544 0
-1544 1569 0
-77 -1544 1545 0
-1545 1570 0
-78 -1545 1546 0
-1546 1571 0
-79 -1546 1547 0
-1547 1572 0
-80 -1547 1548 0
-1548 1573 0
-81 -1548 1549 0
-1549 1574 0
-82 -1549 1550 0
-1550 1575 0
-83 -1550 1551 0
-1551 1576 0
-84 -1551 1552 0
-1552 1577 0
-85 -1552 1553 0
-1553 1578 0
-86 -1553 1554 0
-1554 1579 0
-87 -1554 1555 0
-1555 1580 0
-88 -1555 1556 0
-1556 1581 0
-89 -1556 0
-65 1557 0
-1557 1582 0
-66 -1557 1558 0
-1558 1583 0
-67 -1558 1559 0
-1559 1584 0
-68 -1559 1560 0
-1560 1585 0
-69 -1560 1561 0
-1561 1586 0
-70 -1561 1562 0
-1562 1587 0
-71 -1562 1563 0
-1563 1588 0
-72 -1563 1564 0
-1564 1589 0
-73 -1564 1565 0
-1565 1590 0
-74 -1565 1566 0
-1566 1591 0
-75 -1566 1567 0
-1567 1592 0
-76 -1567 1568 0
-1568 1593 0
-77 -1568 1569 0
-1569 1594 0
-78 -1569 1570 0
-1570 1595 0
-79 -1570 1571 0
-1571 1596 0
-80 -1571 1572 0
-1572 1597 0
-81 -1572 1573 0
-1573 1598 0
-82 -1573 1574 0
-1574 1599 0
-83 -1574 1575 0
-1575 1600 0
-84 -1575 1576 0
-1576 1601 0
-85 -1576 1577 0
-1577 1602 0
-86 -1577 1578 0
-1578 1603 0
-87 -1578 1579 0
-1579 1604 0
-88 -1579 1580 0
-1580 1605 0
-89 -1580 1581 0
-1581 1606 0
-90 -1581 0
-66 1582 0
-1582 1607 0
-67 -1582 1583 0
-1583 1608 0
-68 -1583 1584 0
-1584 1609 0
-69 -1584 1585 0
-1585 1610 0
-70 -1585 1586 0
-1586 1611 0
-71 -1586 1587 0
-1587 1612 0
-72 -1587 1588 0
-1588 1613 0
-73 -1588 1589 0
-1589 1614 0
-74 -1589 1590 0
-1590 1615 0
-75 -1590 1591 0
-1591 1616 0
-76 -1591 1592 0
-1592 1617 0
-77 -1592 1593 0
-1593 1618 0
-78 -1593 1594 0
-1594 1619 0
-79 -1594 1595 0
-1595 1620 0
-80 -1595 1596 0
-1596 1621 0
-81 -1596 1597 0
-1597 1622 0
-82 -1597 1598 0
-1598 1623 0
-83 -1598 1599 0
-1599 1624 0
-84 -1599 1600 0
-1600 1625 0
-85 -1600 1601 0
-1601 1626 0
-86 -1601 1602 0
-1602 1627 0
-87 -1602 1603 0
-1603 1628 0
-88 -1603 1604 0
-1604 1629 0
-89 -1604 1605 0
-1605 1630 0
-90 -1605 1606 0
-1606 1631 0
-91 -1606 0
-67 1607 0
-1607 1632 0
-68 -1607 1608 0
-1608 1633 0
-69 -1608 1609 0
-1609 1634 0
-70 -1609 1610 0
-1610 1635 0
-71 -1610 1611 0
-1611 1636 0
-72 -1611 1612 0
-1612 1637 0
-73 -1612 1613 0
-1613 1638 0
-74 -1613 1614 0
-1614 1639 0
-75 -1614 1615 0
-1615 1640 0
-76 -1615 1616 0
-1616 1641 0
-77 -1616 1617 0
-1617 1642 0
-78 -1617 1618 0
-1618 1643 0
-79 -1618 1619 0
-1619 1644 0
-80 -1619 1620 0
-1620 1645 0
-81 -1620 1621 0
-1621 1646 0
-82 -1621 1622 0
-1622 1647 0
-83 -1622 1623 0
-1623 1648 0
-84 -1623 1624 0
-1624 1649 0
-85 -1624 1625 0
-1625 1650 0
-86 -1625 1626 0
-1626 1651 0
-87 -1626 1627 0
-1627 1652 0
-88 -1627 1628 0
-1628 1653 0
-89 -1628 1629 0
-1629 1654 0
-90 -1629 1630 0
-1630 1655 0
-91 -1630 1631 0
-1631 1656 0
-92 -1631 0
-68 1632 0
-1632 1657 0
-69 -1632 1633 0
-1633 1658 0
-70 -1633 1634 0
-1634 1659 0
-71 -1634 1635 0
-1635 1660 0
-72 -1635 1636 0
-1636 1661 0
-73 -1636 1637 0
-1637 1662 0
-74 -1637 1638 0
-1638 1663 0
-75 -1638 1639 0
-1639 1664 0
-76 -1639 1640 0
-1640 1665 0
-77 -1640 1641 0
-1641 1666 0
-78 -1641 1642 0
-1642 1667 0
-79 -1642 1643 0
-1643 1668 0
-80 -1643 1644 0
-1644 1669 0
-81 -1644 1645 0
-1645 1670 0
-82 -1645 1646 0
-1646 1671 0
-83 -1646 1647 0
-1647 1672 0
-84 -1647 1648 0
-1648 1673 0
-85 -1648 1649 0
-1649 1674 0
-86 -1649 1650 0
-1650 1675 0
-87 -1650 1651 0
-1651 1676 0
-88 -1651 1652 0
-1652 1677 0
-89 -1652 1653 0
-1653 1678 0
-90 -1653 1654 0
-1654 1679 0
-91 -1654 1655 0
-1655 1680 0
-92 -1655 1656 0
-1656 1681 0
-93 -1656 0
-69 1657 0
-1657 1682 0
-70 -1657 1658 0
-1658 1683 0
-71 -1658 1659 0
-1659 1684 0
-72 -1659 1660 0
-1660 1685 0
-73 -1660 1661 0
-1661 1686 0
-74 -1661 1662 0
-1662 1687 0
-75 -1662 1663 0
-1663 1688 0
-76 -1663 1664 0
-1664 1689 0
-77 -1664 1665 0
-1665 1690 0
-78 -1665 1666 0
-1666 1691 0
-79 -1666 1667 0
-1667 1692 0
-80 -1667 1668 0
-1668 1693 0
-81 -1668 1669 0
-1669 1694 0
-82 -1669 1670 0
-1670 1695 0
-83 -1670 1671 0
-1671 1696 0
-84 -1671 1672 0
-1672 1697 0
-85 -1672 1673 0
-1673 1698 0
-86 -1673 1674 0
-1674 1699 0
-87 -1674 1675 0
-1675 1700 0
-88 -1675 1676 0
-1676 1701 0
-89 -1676 1677 0
-1677 1702 0
-90 -1677 1678 0
-1678 1703 0
-91 -1678 1679 0
-1679 1704 0
-92 -1679 1680 0
-1680 1705 0
-93 -1680 1681 0
-1681 1706 0
-94 -1681 0
-70 1682 0
-1682 1707 0
-71 -1682 1683 0
-1683 1708 0
-72 -1683 1684 0
-1684 1709 0
-73 -1684 1685 0
-1685 1710 0
-74 -1685 1686 0
-1686 1711 0
-75 -1686 1687 0
-1687 1712 0
-76 -1687 1688 0
-1688 1713 0
-77 -1688 1689 0
-1689 1714 0
-78 -1689 1690 0
-1690 1715 0
-79 -1690 1691 0
-1691 1716 0
-80 -1691 1692 0
-1692 1717 0
-81 -1692 1693 0
-1693 1718 0
-82 -1693 1694 0
-1694 1719 0
-83 -1694 1695 0
-1695 1720 0
-84 -1695 1696 0
-1696 1721 0
-85 -1696 1697 0
-1697 1722 0
-86 -1697 1698 0
-1698 1723 0
-87 -1698 1699 0
-1699 1724 0
-88 -1699 1700 0
-1700 1725 0
-89 -1700 1701 0
-1701 1726 0
-90 -1701 1702 0
-1702 1727 0
-91 -1702 1703 0
-1703 1728 0
-92 -1703 1704 0
-1704 1729 0
-93 -1704 1705 0
-1705 1730 0
-94 -1705 1706 0
-1706 1731 0
-95 -1706 0
-71 1707 0
-1707 1732 0
-72 -1707 1708 0
-1708 1733 0
-73 -1708 1709 0
-1709 1734 0
-74 -1709 1710 0
-1710 1735 0
-75 -1710 1711 0
-1711 1736 0
-76 -1711 1712 0
-1712 1737 0
-77 -1712 1713 0
-1713 1738 0
-78 -1713 1714 0
-1714 1739 0
-79 -1714 1715 0
-1715 1740 0
-80 -1715 1716 0
-1716 1741 0
-81 -1716 1717 0
-1717 1742 0
-82 -1717 1718 0
-1718 1743 0
-83 -1718 1719 0
-1719 1744 0
-84 -1719 1720 0
-1720 1745 0
-85 -1720 1721 0
-1721 1746 0
-86 -1721 1722 0
-1722 1747 0
-87 -1722 1723 0
-1723 1748 0
-88 -1723 1724 0
-1724 1749 0
-89 -1724 1725 0
-1725 1750 0
-90 -1725 1726 0
-1726 1751 0
-91 -1726 1727 0
-1727 1752 0
-92 -1727 1728 0
-1728 1753 0
-93 -1728 1729 0
-1729 1754 0
-94 -1729 1730 0
-1730 1755 0
-95 -1730 1731 0
-1731 1756 0
-96 -1731 0
-72 1732 0
-1732 1757 0
-73 -1732 1733 0
-1733 1758 0
-74 -1733 1734 0
-1734 1759 0
-75 -1734 1735 0
-1735 1760 0
-76 -1735 1736 0
-1736 1761 0
-77 -1736 1737 0
-1737 1762 0
-78 -1737 1738 0
-1738 1763 0
-79 -1738 1739 0
-1739 1764 0
-80 -1739 1740 0
-1740 1765 0
-81 -1740 1741 0
-1741 1766 0
-82 -1741 1742 0
-1742 1767 0
-83 -1742 1743 0
-1743 1768 0
-84 -1743 1744 0
-1744 1769 0
-85 -1744 1745 0
-1745 1770 0
-86 -1745 1746 0
-1746 1771 0
-87 -1746 1747 0
-1747 1772 0
-88 -1747 1748 0
-1748 1773 0
-89 -1748 1749 0
-1749 1774 0
-90 -1749 1750 0
-1750 1775 0
-91 -1750 1751 0
-1751 1776 0
-92 -1751 1752 0
-1752 1777 0
-93 -1752 1753 0
-1753 1778 0
-94 -1753 1754 0
-1754 1779 0
-95 -1754 1755 0
-1755 1780 0
-96 -1755 1756 0
-1756 1781 0
-97 -1756 0
-73 1757 0
-1757 1782 0
-74 -1757 1758 0
-1758 1783 0
-75 -1758 1759 0
-1759 1784 0
-76 -1759 1760 0
-1760 1785 0
-77 -1760 1761 0
-1761 1786 0
-78 -1761 1762 0
-1762 1787 0
-79 -1762 1763 0
-1763 1788 0
-80 -1763 1764 0
-1764 1789 0
-81 -1764 1765 0
-1765 1790 0
-82 -1765 1766 0
-1766 1791 0
-83 -1766 1767 0
-1767 1792 0
-84 -1767 1768 0
-1768 1793 0
-85 -1768 1769 0
-1769 1794 0
-86 -1769 1770 0
-1770 1795 0
-87 -1770 1771 0
-1771 1796 0
-88 -1771 1772 0
-1772 1797 0
-89 -1772 1773 0
-1773 1798 0
-90 -1773 1774 0
-1774 1799 0
-91 -1774 1775 0
-1775 1800 0
-92 -1775 1776 0
-1776 1801 0
-93 -1776 1777 0
-1777 1802 0
-94 -1777 1778 0
-1778 1803 0
-95 -1778 1779 0
-1779 1804 0
-96 -1779 1780 0
-1780 1805 0
-97 -1780 1781 0
-1781 1806 0
-98 -1781 0
-74 1782 0
-1782 1807 0
-75 -1782 1783 0
-1783 1808 0
-76 -1783 1784 0
-1784 1809 0
-77 -1784 1785 0
-1785 1810 0
-78 -1785 1786 0
-1786 1811 0
-79 -1786 1787 0
-1787 1812 0
-80 -1787 1788 0
-1788 1813 0
-81 -1788 1789 0
-1789 1814 0
-82 -1789 1790 0
-1790 1815 0
-83 -1790 1791 0
-1791 1816 0
-84 -1791 1792 0
-1792 1817 0
-85 -1792 1793 0
-1793 1818 0
-86 -1793 1794 0
-1794 1819 0
-87 -1794 1795 0
-1795 1820 0
-88 -1795 1796 0
-1796 1821 0
-89 -1796 1797 0
-1797 1822 0
-90 -1797 1798 0
-1798 1823 0
-91 -1798 1799 0
-1799 1824 0
-92 -1799 1800 0
-1800 1825 0
-93 -1800 1801 0
-1801 1826 0
-94 -1801 1802 0
-1802 1827 0
-95 -1802 1803 0
-1803 1828 0
-96 -1803 1804 0
-1804 1829 0
-97 -1804 1805 0
-1805 1830 0
-98 -1805 1806 0
-1806 1831 0
-99 -1806 0
-75 1807 0
-1807 1832 0
-76 -1807 1808 0
-1808 1833 0
-77 -1808 1809 0
-1809 1834 0
-78 -1809 1810 0
-1810 1835 0
-79 -1810 1811 0
-1811 1836 0
-80 -1811 1812 0
-1812 1837 0
-81 -1812 1813 0
-1813 1838 0
-82 -1813 1814 0
-1814 1839 0
-83 -1814 1815 0
-1815 1840 0
-84 -1815 1816 0
-1816 1841 0
-85 -1816 1817 0
-1817 1842 0
-86 -1817 1818 0
-1818 1843 0
-87 -1818 1819 0
-1819 1844 0
-88 -1819 1820 0
-1820 1845 0
-89 -1820 1821 0
-1821 1846 0
-90 -1821 1822 0
-1822 1847 0
-91 -1822 1823 0
-1823 1848 0
-92 -1823 1824 0
-1824 1849 0
-93 -1824 1825 0
-1825 1850 0
-94 -1825 1826 0
-1826 1851 0
-95 -1826 1827 0
-1827 1852 0
-96 -1827 1828 0
-1828 1853 0
-97 -1828 1829 0
-1829 1854 0
-98 -1829 1830 0
-1830 1855 0
-99 -1830 1831 0
-1831 1856 0
-100 -1831 0
-76 1832 0
-1832 1857 0
-77 -1832 1833 0
-1833 1858 0
-78 -1833 1834 0
-1834 1859 0
-79 -1834 1835 0
-1835 1860 0
-80 -1835 1836 0
-1836 1861 0
-81 -1836 1837 0
-1837 1862 0
-82 -1837 1838 0
-1838 1863 0
-83 -1838 1839 0
-1839 1864 0
-84 -1839 1840 0
-1840 1865 0
-85 -1840 1841 0
-1841 1866 0
-86 -1841 1842 0
-1842 1867 0
-87 -1842 1843 0
-1843 1868 0
-88 -1843 1844 0
-1844 1869 0
-89 -1844 1845 0
-1845 1870 0
-90 -1845 1846 0
-1846 1871 0
-91 -1846 1847 0
-1847 1872 0
-92 -1847 1848 0
-1848 1873 0
-93 -1848 1849 0
-1849 1874 0
-94 -1849 1850 0
-1850 1875 0
-95 -1850 1851 0
-1851 1876 0
-96 -1851 1852 0
-1852 1877 0
-97 -1852 1853 0
-1853 1878 0
-98 -1853 1854 0
-1854 1879 0
-99 -1854 1855 0
-1855 1880 0
-100 -1855 1856 0
-1856 1881 0
-101 -1856 0
-77 1857 0
-1857 1882 0
-78 -1857 1858 0
-1858 1883 0
-79 -1858 1859 0
-1859 1884 0
-80 -1859 1860 0
-1860 1885 0
-81 -1860 1861 0
-1861 1886 0
-82 -1861 1862 0
-1862 1887 0
-83 -1862 1863 0
-1863 1888 0
-84 -1863 1864 0
-1864 1889 0
-85 -1864 1865 0
-1865 1890 0
-86 -1865 1866 0
-1866 1891 0
-87 -1866 1867 0
-1867 1892 0
-88 -1867 1868 0
-1868 1893 0
-89 -1868 1869 0
-1869 1894 0
-90 -1869 1870 0
-1870 1895 0
-91 -1870 1871 0
-1871 1896 0
-92 -1871 1872 0
-1872 1897 0
-93 -1872 1873 0
-1873 1898 0
-94 -1873 1874 0
-1874 1899 0
-95 -1874 1875 0
-1875 1900 0
-96 -1875 1876 0
-1876 1901 0
-97 -1876 1877 0
-1877 1902 0
-98 -1877 1878 0
-1878 1903 0
-99 -1878 1879 0
-1879 1904 0
-100 -1879 1880 0
-1880 1905 0
-101 -1880 1881 0
-1881 1906 0
-102 -1881 0
-78 1882 0
-1882 1907 0
-79 -1882 1883 0
-1883 1908 0
-80 -1883 1884 0
-1884 1909 0
-81 -1884 1885 0
-1885 1910 0
-82 -1885 1886 0
-1886 1911 0
-83 -1886 1887 0
-1887 1912 0
-84 -1887 1888 0
-1888 1913 0
-85 -1888 1889 0
-1889 1914 0
-86 -1889 1890 0
-1890 1915 0
-87 -1890 1891 0
-1891 1916 0
-88 -1891 1892 0
-1892 1917 0
-89 -1892 1893 0
-1893 1918 0
-90 -1893 1894 0
-1894 1919 0
-91 -1894 1895 0
-1895 1920 0
-92 -1895 1896 0
-1896 1921 0
-93 -1896 1897 0
-1897 1922 0
-94 -1897 1898 0
-1898 1923 0
-95 -1898 1899 0
-1899 1924 0
-96 -1899 1900 0
-1900 1925 0
-97 -1900 1901 0
-1901 1926 0
-98 -1901 1902 0
-1902 1927 0
-99 -1902 1903 0
-1903 1928 0
-100 -1903 1904 0
-1904 1929 0
-101 -1904 1905 0
-1905 1930 0
-102 -1905 1906 0
-1906 1931 0
-103 -1906 0
-79 1907 0
-80 -1907 1908 0
-81 -1908 1909 0
-82 -1909 1910 0
-83 -1910 1911 0
-84 -1911 1912 0
-85 -1912 1913 0
-86 -1913 1914 0
-87 -1914 1915 0
-88 -1915 1916 0
-89 -1916 1917 0
-90 -1917 1918 0
-91 -1918 1919 0
-92 -1919 1920 0
-93 -1920 1921 0
-94 -1921 1922 0
-95 -1922 1923 0
-96 -1923 1924 0
-97 -1924 1925 0
-98 -1925 1926 0
-99 -1926 1927 0
-100 -1927 1928 0
-101 -1928 1929 0
-102 -1929 1930 0
-103 -1930 1931 0
-104 -1931 0
1 27 0
