p cnf 2675 5485
-77 -1 0
-77 2 38 39 0
-2 1 77 0
-38 1 77 0
-39 1 77 0
-78 -2 0
-78 1 3 40 0
-1 2 78 0
-3 2 78 0
-40 2 78 0
-79 -3 0
-79 2 4 41 0
-2 3 79 0
-4 3 79 0
-41 3 79 0
-80 -4 0
-80 3 5 42 0
-3 4 80 0
-5 4 80 0
-42 4 80 0
-81 -5 0
-81 4 6 43 0
-4 5 81 0
-6 5 81 0
-43 5 81 0
-82 -6 0
-82 5 7 44 0
-5 6 82 0
-7 6 82 0
-44 6 82 0
-83 -7 0
-83 6 8 45 0
-6 7 83 0
-8 7 83 0
-45 7 83 0
-84 -8 0
-84 7 9 46 0
-7 8 84 0
-9 8 84 0
-46 8 84 0
-85 -9 0
-85 8 10 47 0
-8 9 85 0
-10 9 85 0
-47 9 85 0
-86 -10 0
-86 9 11 48 0
-9 10 86 0
-11 10 86 0
-48 10 86 0
-87 -11 0
-87 10 12 49 0
-10 11 87 0
-12 11 87 0
-49 11 87 0
-88 -12 0
-88 11 13 50 0
-11 12 88 0
-13 12 88 0
-50 12 88 0
-89 -13 0
-89 12 14 51 0
-12 13 89 0
-14 13 89 0
-51 13 89 0
-90 -14 0
-90 13 15 52 0
-13 14 90 0
-15 14 90 0
-52 14 90 0
-91 -15 0
-91 14 16 53 0
-14 15 91 0
-16 15 91 0
-53 15 91 0
-92 -16 0
-92 15 17 54 0
-15 16 92 0
-17 16 92 0
-54 16 92 0
-93 -17 0
-93 16 18 55 0
-16 17 93 0
-18 17 93 0
-55 17 93 0
-94 -18 0
-94 17 19 56 0
-17 18 94 0
-19 18 94 0
-56 18 94 0
-95 -19 0
-95 18 20 57 0
-18 19 95 0
-20 19 95 0
-57 19 95 0
-96 -20 0
-96 19 21 58 0
-19 20 96 0
-21 20 96 0
-58 20 96 0
-97 -21 0
-97 20 22 59 0
-20 21 97 0
-22 21 97 0
-59 21 97 0
-98 -22 0
-98 21 23 60 0
-21 22 98 0
-23 22 98 0
-60 22 98 0
-99 -23 0
-99 22 24 61 0
-22 23 99 0
-24 23 99 0
-61 23 99 0
-100 -24 0
-100 23 25 62 0
-23 24 100 0
-25 24 100 0
-62 24 100 0
-101 -25 0
-101 24 26 63 0
-24 25 101 0
-26 25 101 0
-63 25 101 0
-102 -26 0
-102 25 27 64 0
-25 26 102 0
-27 26 102 0
-64 26 102 0
-103 -27 0
-103 26 28 65 0
-26 27 103 0
-28 27 103 0
-65 27 103 0
-104 -28 0
-104 27 29 66 0
-27 28 104 0
-29 28 104 0
-66 28 104 0
-105 -29 0
-105 28 30 67 0
-28 29 105 0
-30 29 105 0
-67 29 105 0
-106 -30 0
-106 29 31 68 0
-29 30 106 0
-31 30 106 0
-68 30 106 0
-107 -31 0
-107 30 32 69 0
-30 31 107 0
-32 31 107 0
-69 31 107 0
-108 -32 0
-108 31 33 70 0
-31 32 108 0
-33 32 108 0
-70 32 108 0
-109 -33 0
-109 32 34 71 0
-32 33 109 0
-34 33 109 0
-71 33 109 0
-110 -34 0
-110 33 35 72 0
-33 34 110 0
-35 34 110 0
-72 34 110 0
-111 -35 0
-111 34 36 73 0
-34 35 111 0
-36 35 111 0
-73 35 111 0
-112 -36 0
-112 35 37 74 0
-35 36 112 0
-37 36 112 0
-74 36 112 0
-113 -37 0
-113 36 38 75 0
-36 37 113 0
-38 37 113 0
-75 37 113 0
-114 -38 0
-114 1 37 76 0
-1 38 114 0
-37 38 114 0
-76 38 114 0
-115 -39 0
-115 1 43 73 0
-1 39 115 0
-43 39 115 0
-73 39 115 0
-116 -40 0
-116 2 44 74 0
-2 40 116 0
-44 40 116 0
-74 40 116 0
-117 -41 0
-117 3 45 75 0
-3 41 117 0
-45 41 117 0
-75 41 117 0
-118 -42 0
-118 4 46 76 0
-4 42 118 0
-46 42 118 0
-76 42 118 0
-119 -43 0
-119 5 39 47 0
-5 43 119 0
-39 43 119 0
-47 43 119 0
-120 -44 0
-120 6 40 48 0
-6 44 120 0
-40 44 120 0
-48 44 120 0
-121 -45 0
-121 7 41 49 0
-7 45 121 0
-41 45 121 0
-49 45 121 0
-122 -46 0
-122 8 42 50 0
-8 46 122 0
-42 46 122 0
-50 46 122 0
-123 -47 0
-123 9 43 51 0
-9 47 123 0
-43 47 123 0
-51 47 123 0
-124 -48 0
-124 10 44 52 0
-10 48 124 0
-44 48 124 0
-52 48 124 0
-125 -49 0
-125 11 45 53 0
-11 49 125 0
-45 49 125 0
-53 49 125 0
-126 -50 0
-126 12 46 54 0
-12 50 126 0
-46 50 126 0
-54 50 126 0
-127 -51 0
-127 13 47 55 0
-13 51 127 0
-47 51 127 0
-55 51 127 0
-128 -52 0
-128 14 48 56 0
-14 52 128 0
-48 52 128 0
-56 52 128 0
-129 -53 0
-129 15 49 57 0
-15 53 129 0
-49 53 129 0
-57 53 129 0
-130 -54 0
-130 16 50 58 0
-16 54 130 0
-50 54 130 0
-58 54 130 0
-131 -55 0
-131 17 51 59 0
-17 55 131 0
-51 55 131 0
-59 55 131 0
-132 -56 0
-132 18 52 60 0
-18 56 132 0
-52 56 132 0
-60 56 132 0
-133 -57 0
-133 19 53 61 0
-19 57 133 0
-53 57 133 0
-61 57 133 0
-134 -58 0
-134 20 54 62 0
-20 58 134 0
-54 58 134 0
-62 58 134 0
-135 -59 0
-135 21 55 63 0
-21 59 135 0
-55 59 135 0
-63 59 135 0
-136 -60 0
-136 22 56 64 0
-22 60 136 0
-56 60 136 0
-64 60 136 0
-137 -61 0
-137 23 57 65 0
-23 61 137 0
-57 61 137 0
-65 61 137 0
-138 -62 0
-138 24 58 66 0
-24 62 138 0
-58 62 138 0
-66 62 138 0
-139 -63 0
-139 25 59 67 0
-25 63 139 0
-59 63 139 0
-67 63 139 0
-140 -64 0
-140 26 60 68 0
-26 64 140 0
-60 64 140 0
-68 64 140 0
-141 -65 0
-141 27 61 69 0
-27 65 141 0
-61 65 141 0
-69 65 141 0
-142 -66 0
-142 28 62 70 0
-28 66 142 0
-62 66 142 0
-70 66 142 0
-143 -67 0
-143 29 63 71 0
-29 67 143 0
-63 67 143 0
-71 67 143 0
-144 -68 0
-144 30 64 72 0
-30 68 144 0
-64 68 144 0
-72 68 144 0
-145 -69 0
-145 31 65 73 0
-31 69 145 0
-65 69 145 0
-73 69 145 0
-146 -70 0
-146 32 66 74 0
-32 70 146 0
-66 70 146 0
-74 70 146 0
-147 -71 0
-147 33 67 75 0
-33 71 147 0
-67 71 147 0
-75 71 147 0
-148 -72 0
-148 34 68 76 0
-34 72 148 0
-68 72 148 0
-76 72 148 0
-149 -73 0
-149 35 39 69 0
-35 73 149 0
-39 73 149 0
-69 73 149 0
-150 -74 0
-150 36 40 70 0
-36 74 150 0
-40 74 150 0
-70 74 150 0
-151 -75 0
-151 37 41 71 0
-37 75 151 0
-41 75 151 0
-71 75 151 0
-152 -76 0
-152 38 42 72 0
-38 76 152 0
-42 76 152 0
-72 76 152 0
1 153 0
-153 154 0
2 -153 155 0
-155 156 0
3 -155 157 0
-157 158 0
4 -157 159 0
-159 160 0
5 -159 161 0
-161 162 0
6 -161 163 0
-163 164 0
7 -163 165 0
-165 166 0
8 -165 167 0
-167 168 0
9 -167 169 0
-169 170 0
10 -169 171 0
-171 172 0
11 -171 173 0
-173 174 0
12 -173 175 0
-175 176 0
13 -175 177 0
-177 178 0
14 -177 179 0
-179 180 0
15 -179 181 0
-181 182 0
16 -181 183 0
-183 184 0
17 -183 185 0
-185 186 0
18 -185 187 0
-187 188 0
19 -187 189 0
-189 190 0
20 -189 191 0
-191 192 0
21 -191 193 0
-193 194 0
22 -193 195 0
-195 196 0
23 -195 197 0
-197 198 0
24 -197 199 0
-199 200 0
25 -199 201 0
-201 202 0
26 -201 203 0
-203 204 0
27 -203 205 0
-205 206 0
28 -205 207 0
-207 208 0
29 -207 209 0
-209 210 0
30 -209 211 0
-211 212 0
31 -211 213 0
-213 214 0
32 -213 215 0
-215 216 0
33 -215 217 0
-217 218 0
34 -217 219 0
-219 220 0
35 -219 221 0
-221 222 0
36 -221 223 0
-223 224 0
37 -223 225 0
-225 226 0
38 -225 227 0
-227 228 0
39 -227 229 0
-229 230 0
40 -229 231 0
-231 232 0
41 -231 233 0
-233 234 0
42 -233 235 0
-235 236 0
43 -235 237 0
-237 238 0
44 -237 239 0
-239 240 0
45 -239 241 0
-241 242 0
46 -241 243 0
-243 244 0
47 -243 245 0
-245 246 0
48 -245 247 0
-247 248 0
49 -247 249 0
-249 250 0
50 -249 251 0
-251 252 0
51 -251 253 0
-253 254 0
52 -253 255 0
-255 256 0
53 -255 257 0
-257 258 0
54 -257 259 0
-259 260 0
55 -259 261 0
-261 262 0
56 -261 263 0
-263 264 0
57 -263 265 0
-265 266 0
58 -265 267 0
-267 268 0
59 -267 269 0
-269 270 0
60 -269 271 0
-271 272 0
61 -271 0
2 154 0
-154 273 0
3 -154 156 0
-156 274 0
4 -156 158 0
-158 275 0
5 -158 160 0
-160 276 0
6 -160 162 0
-162 277 0
7 -162 164 0
-164 278 0
8 -164 166 0
-166 279 0
9 -166 168 0
-168 280 0
10 -168 170 0
-170 281 0
11 -170 172 0
-172 282 0
12 -172 174 0
-174 283 0
13 -174 176 0
-176 284 0
14 -176 178 0
-178 285 0
15 -178 180 0
-180 286 0
16 -180 182 0
-182 287 0
17 -182 184 0
-184 288 0
18 -184 186 0
-186 289 0
19 -186 188 0
-188 290 0
20 -188 190 0
-190 291 0
21 -190 192 0
-192 292 0
22 -192 194 0
-194 293 0
23 -194 196 0
-196 294 0
24 -196 198 0
-198 295 0
25 -198 200 0
-200 296 0
26 -200 202 0
-202 297 0
27 -202 204 0
-204 298 0
28 -204 206 0
-206 299 0
29 -206 208 0
-208 300 0
30 -208 210 0
-210 301 0
31 -210 212 0
-212 302 0
32 -212 214 0
-214 303 0
33 -214 216 0
-216 304 0
34 -216 218 0
-218 305 0
35 -218 220 0
-220 306 0
36 -220 222 0
-222 307 0
37 -222 224 0
-224 308 0
38 -224 226 0
-226 309 0
39 -226 228 0
-228 310 0
40 -228 230 0
-230 311 0
41 -230 232 0
-232 312 0
42 -232 234 0
-234 313 0
43 -234 236 0
-236 314 0
44 -236 238 0
-238 315 0
45 -238 240 0
-240 316 0
46 -240 242 0
-242 317 0
47 -242 244 0
-244 318 0
48 -244 246 0
-246 319 0
49 -246 248 0
-248 320 0
50 -248 250 0
-250 321 0
51 -250 252 0
-252 322 0
52 -252 254 0
-254 323 0
53 -254 256 0
-256 324 0
54 -256 258 0
-258 325 0
55 -258 260 0
-260 326 0
56 -260 262 0
-262 327 0
57 -262 264 0
-264 328 0
58 -264 266 0
-266 329 0
59 -266 268 0
-268 330 0
60 -268 270 0
-270 331 0
61 -270 272 0
-272 332 0
62 -272 0
3 273 0
-273 333 0
4 -273 274 0
-274 334 0
5 -274 275 0
-275 335 0
6 -275 276 0
-276 336 0
7 -276 277 0
-277 337 0
8 -277 278 0
-278 338 0
9 -278 279 0
-279 339 0
10 -279 280 0
-280 340 0
11 -280 281 0
-281 341 0
12 -281 282 0
-282 342 0
13 -282 283 0
-283 343 0
14 -283 284 0
-284 344 0
15 -284 285 0
-285 345 0
16 -285 286 0
-286 346 0
17 -286 287 0
-287 347 0
18 -287 288 0
-288 348 0
19 -288 289 0
-289 349 0
20 -289 290 0
-290 350 0
21 -290 291 0
-291 351 0
22 -291 292 0
-292 352 0
23 -292 293 0
-293 353 0
24 -293 294 0
-294 354 0
25 -294 295 0
-295 355 0
26 -295 296 0
-296 356 0
27 -296 297 0
-297 357 0
28 -297 298 0
-298 358 0
29 -298 299 0
-299 359 0
30 -299 300 0
-300 360 0
31 -300 301 0
-301 361 0
32 -301 302 0
-302 362 0
33 -302 303 0
-303 363 0
34 -303 304 0
-304 364 0
35 -304 305 0
-305 365 0
36 -305 306 0
-306 366 0
37 -306 307 0
-307 367 0
38 -307 308 0
-308 368 0
39 -308 309 0
-309 369 0
40 -309 310 0
-310 370 0
41 -310 311 0
-311 371 0
42 -311 312 0
-312 372 0
43 -312 313 0
-313 373 0
44 -313 314 0
-314 374 0
45 -314 315 0
-315 375 0
46 -315 316 0
-316 376 0
47 -316 317 0
-317 377 0
48 -317 318 0
-318 378 0
49 -318 319 0
-319 379 0
50 -319 320 0
-320 380 0
51 -320 321 0
-321 381 0
52 -321 322 0
-322 382 0
53 -322 323 0
-323 383 0
54 -323 324 0
-324 384 0
55 -324 325 0
-325 385 0
56 -325 326 0
-326 386 0
57 -326 327 0
-327 387 0
58 -327 328 0
-328 388 0
59 -328 329 0
-329 389 0
60 -329 330 0
-330 390 0
61 -330 331 0
-331 391 0
62 -331 332 0
-332 392 0
63 -332 0
4 333 0
-333 393 0
5 -333 334 0
-334 394 0
6 -334 335 0
-335 395 0
7 -335 336 0
-336 396 0
8 -336 337 0
-337 397 0
9 -337 338 0
-338 398 0
10 -338 339 0
-339 399 0
11 -339 340 0
-340 400 0
12 -340 341 0
-341 401 0
13 -341 342 0
-342 402 0
14 -342 343 0
-343 403 0
15 -343 344 0
-344 404 0
16 -344 345 0
-345 405 0
17 -345 346 0
-346 406 0
18 -346 347 0
-347 407 0
19 -347 348 0
-348 408 0
20 -348 349 0
-349 409 0
21 -349 350 0
-350 410 0
22 -350 351 0
-351 411 0
23 -351 352 0
-352 412 0
24 -352 353 0
-353 413 0
25 -353 354 0
-354 414 0
26 -354 355 0
-355 415 0
27 -355 356 0
-356 416 0
28 -356 357 0
-357 417 0
29 -357 358 0
-358 418 0
30 -358 359 0
-359 419 0
31 -359 360 0
-360 420 0
32 -360 361 0
-361 421 0
33 -361 362 0
-362 422 0
34 -362 363 0
-363 423 0
35 -363 364 0
-364 424 0
36 -364 365 0
-365 425 0
37 -365 366 0
-366 426 0
38 -366 367 0
-367 427 0
39 -367 368 0
-368 428 0
40 -368 369 0
-369 429 0
41 -369 370 0
-370 430 0
42 -370 371 0
-371 431 0
43 -371 372 0
-372 432 0
44 -372 373 0
-373 433 0
45 -373 374 0
-374 434 0
46 -374 375 0
-375 435 0
47 -375 376 0
-376 436 0
48 -376 377 0
-377 437 0
49 -377 378 0
-378 438 0
50 -378 379 0
-379 439 0
51 -379 380 0
-380 440 0
52 -380 381 0
-381 441 0
53 -381 382 0
-382 442 0
54 -382 383 0
-383 443 0
55 -383 384 0
-384 444 0
56 -384 385 0
-385 445 0
57 -385 386 0
-386 446 0
58 -386 387 0
-387 447 0
59 -387 388 0
-388 448 0
60 -388 389 0
-389 449 0
61 -389 390 0
-390 450 0
62 -390 391 0
-391 451 0
63 -391 392 0
-392 452 0
64 -392 0
5 393 0
-393 453 0
6 -393 394 0
-394 454 0
7 -394 395 0
-395 455 0
8 -395 396 0
-396 456 0
9 -396 397 0
-397 457 0
10 -397 398 0
-398 458 0
11 -398 399 0
-399 459 0
12 -399 400 0
-400 460 0
13 -400 401 0
-401 461 0
14 -401 402 0
-402 462 0
15 -402 403 0
-403 463 0
16 -403 404 0
-404 464 0
17 -404 405 0
-405 465 0
18 -405 406 0
-406 466 0
19 -406 407 0
-407 467 0
20 -407 408 0
-408 468 0
21 -408 409 0
-409 469 0
22 -409 410 0
-410 470 0
23 -410 411 0
-411 471 0
24 -411 412 0
-412 472 0
25 -412 413 0
-413 473 0
26 -413 414 0
-414 474 0
27 -414 415 0
-415 475 0
28 -415 416 0
-416 476 0
29 -416 417 0
-417 477 0
30 -417 418 0
-418 478 0
31 -418 419 0
-419 479 0
32 -419 420 0
-420 480 0
33 -420 421 0
-421 481 0
34 -421 422 0
-422 482 0
35 -422 423 0
-423 483 0
36 -423 424 0
-424 484 0
37 -424 425 0
-425 485 0
38 -425 426 0
-426 486 0
39 -426 427 0
-427 487 0
40 -427 428 0
-428 488 0
41 -428 429 0
-429 489 0
42 -429 430 0
-430 490 0
43 -430 431 0
-431 491 0
44 -431 432 0
-432 492 0
45 -432 433 0
-433 493 0
46 -433 434 0
-434 494 0
47 -434 435 0
-435 495 0
48 -435 436 0
-436 496 0
49 -436 437 0
-437 497 0
50 -437 438 0
-438 498 0
51 -438 439 0
-439 499 0
52 -439 440 0
-440 500 0
53 -440 441 0
-441 501 0
54 -441 442 0
-442 502 0
55 -442 443 0
-443 503 0
56 -443 444 0
-444 504 0
57 -444 445 0
-445 505 0
58 -445 446 0
-446 506 0
59 -446 447 0
-447 507 0
60 -447 448 0
-448 508 0
61 -448 449 0
-449 509 0
62 -449 450 0
-450 510 0
63 -450 451 0
-451 511 0
64 -451 452 0
-452 512 0
65 -452 0
6 453 0
-453 513 0
7 -453 454 0
-454 514 0
8 -454 455 0
-455 515 0
9 -455 456 0
-456 516 0
10 -456 457 0
-457 517 0
11 -457 458 0
-458 518 0
12 -458 459 0
-459 519 0
13 -459 460 0
-460 520 0
14 -460 461 0
-461 521 0
15 -461 462 0
-462 522 0
16 -462 463 0
-463 523 0
17 -463 464 0
-464 524 0
18 -464 465 0
-465 525 0
19 -465 466 0
-466 526 0
20 -466 467 0
-467 527 0
21 -467 468 0
-468 528 0
22 -468 469 0
-469 529 0
23 -469 470 0
-470 530 0
24 -470 471 0
-471 531 0
25 -471 472 0
-472 532 0
26 -472 473 0
-473 533 0
27 -473 474 0
-474 534 0
28 -474 475 0
-475 535 0
29 -475 476 0
-476 536 0
30 -476 477 0
-477 537 0
31 -477 478 0
-478 538 0
32 -478 479 0
-479 539 0
33 -479 480 0
-480 540 0
34 -480 481 0
-481 541 0
35 -481 482 0
-482 542 0
36 -482 483 0
-483 543 0
37 -483 484 0
-484 544 0
38 -484 485 0
-485 545 0
39 -485 486 0
-486 546 0
40 -486 487 0
-487 547 0
41 -487 488 0
-488 548 0
42 -488 489 0
-489 549 0
43 -489 490 0
-490 550 0
44 -490 491 0
-491 551 0
45 -491 492 0
-492 552 0
46 -492 493 0
-493 553 0
47 -493 494 0
-494 554 0
48 -494 495 0
-495 555 0
49 -495 496 0
-496 556 0
50 -496 497 0
-497 557 0
51 -497 498 0
-498 558 0
52 -498 499 0
-499 559 0
53 -499 500 0
-500 560 0
54 -500 501 0
-501 561 0
55 -501 502 0
-502 562 0
56 -502 503 0
-503 563 0
57 -503 504 0
-504 564 0
58 -504 505 0
-505 565 0
59 -505 506 0
-506 566 0
60 -506 507 0
-507 567 0
61 -507 508 0
-508 568 0
62 -508 509 0
-509 569 0
63 -509 510 0
-510 570 0
64 -510 511 0
-511 571 0
65 -511 512 0
-512 572 0
66 -512 0
7 513 0
-513 573 0
8 -513 514 0
-514 574 0
9 -514 515 0
-515 575 0
10 -515 516 0
-516 576 0
11 -516 517 0
-517 577 0
12 -517 518 0
-518 578 0
13 -518 519 0
-519 579 0
14 -519 520 0
-520 580 0
15 -520 521 0
-521 581 0
16 -521 522 0
-522 582 0
17 -522 523 0
-523 583 0
18 -523 524 0
-524 584 0
19 -524 525 0
-525 585 0
20 -525 526 0
-526 586 0
21 -526 527 0
-527 587 0
22 -527 528 0
-528 588 0
23 -528 529 0
-529 589 0
24 -529 530 0
-530 590 0
25 -530 531 0
-531 591 0
26 -531 532 0
-532 592 0
27 -532 533 0
-533 593 0
28 -533 534 0
-534 594 0
29 -534 535 0
-535 595 0
30 -535 536 0
-536 596 0
31 -536 537 0
-537 597 0
32 -537 538 0
-538 598 0
33 -538 539 0
-539 599 0
34 -539 540 0
-540 600 0
35 -540 541 0
-541 601 0
36 -541 542 0
-542 602 0
37 -542 543 0
-543 603 0
38 -543 544 0
-544 604 0
39 -544 545 0
-545 605 0
40 -545 546 0
-546 606 0
41 -546 547 0
-547 607 0
42 -547 548 0
-548 608 0
43 -548 549 0
-549 609 0
44 -549 550 0
-550 610 0
45 -550 551 0
-551 611 0
46 -551 552 0
-552 612 0
47 -552 553 0
-553 613 0
48 -553 554 0
-554 614 0
49 -554 555 0
-555 615 0
50 -555 556 0
-556 616 0
51 -556 557 0
-557 617 0
52 -557 558 0
-558 618 0
53 -558 559 0
-559 619 0
54 -559 560 0
-560 620 0
55 -560 561 0
-561 621 0
56 -561 562 0
-562 622 0
57 -562 563 0
-563 623 0
58 -563 564 0
-564 624 0
59 -564 565 0
-565 625 0
60 -565 566 0
-566 626 0
61 -566 567 0
-567 627 0
62 -567 568 0
-568 628 0
63 -568 569 0
-569 629 0
64 -569 570 0
-570 630 0
65 -570 571 0
-571 631 0
66 -571 572 0
-572 632 0
67 -572 0
8 573 0
-573 633 0
9 -573 574 0
-574 634 0
10 -574 575 0
-575 635 0
11 -575 576 0
-576 636 0
12 -576 577 0
-577 637 0
13 -577 578 0
-578 638 0
14 -578 579 0
-579 639 0
15 -579 580 0
-580 640 0
16 -580 581 0
-581 641 0
17 -581 582 0
-582 642 0
18 -582 583 0
-583 643 0
19 -583 584 0
-584 644 0
20 -584 585 0
-585 645 0
21 -585 586 0
-586 646 0
22 -586 587 0
-587 647 0
23 -587 588 0
-588 648 0
24 -588 589 0
-589 649 0
25 -589 590 0
-590 650 0
26 -590 591 0
-591 651 0
27 -591 592 0
-592 652 0
28 -592 593 0
-593 653 0
29 -593 594 0
-594 654 0
30 -594 595 0
-595 655 0
31 -595 596 0
-596 656 0
32 -596 597 0
-597 657 0
33 -597 598 0
-598 658 0
34 -598 599 0
-599 659 0
35 -599 600 0
-600 660 0
36 -600 601 0
-601 661 0
37 -601 602 0
-602 662 0
38 -602 603 0
-603 663 0
39 -603 604 0
-604 664 0
40 -604 605 0
-605 665 0
41 -605 606 0
-606 666 0
42 -606 607 0
-607 667 0
43 -607 608 0
-608 668 0
44 -608 609 0
-609 669 0
45 -609 610 0
-610 670 0
46 -610 611 0
-611 671 0
47 -611 612 0
-612 672 0
48 -612 613 0
-613 673 0
49 -613 614 0
-614 674 0
50 -614 615 0
-615 675 0
51 -615 616 0
-616 676 0
52 -616 617 0
-617 677 0
53 -617 618 0
-618 678 0
54 -618 619 0
-619 679 0
55 -619 620 0
-620 680 0
56 -620 621 0
-621 681 0
57 -621 622 0
-622 682 0
58 -622 623 0
-623 683 0
59 -623 624 0
-624 684 0
60 -624 625 0
-625 685 0
61 -625 626 0
-626 686 0
62 -626 627 0
-627 687 0
63 -627 628 0
-628 688 0
64 -628 629 0
-629 689 0
65 -629 630 0
-630 690 0
66 -630 631 0
-631 691 0
67 -631 632 0
-632 692 0
68 -632 0
9 633 0
-633 693 0
10 -633 634 0
-634 694 0
11 -634 635 0
-635 695 0
12 -635 636 0
-636 696 0
13 -636 637 0
-637 697 0
14 -637 638 0
-638 698 0
15 -638 639 0
-639 699 0
16 -639 640 0
-640 700 0
17 -640 641 0
-641 701 0
18 -641 642 0
-642 702 0
19 -642 643 0
-643 703 0
20 -643 644 0
-644 704 0
21 -644 645 0
-645 705 0
22 -645 646 0
-646 706 0
23 -646 647 0
-647 707 0
24 -647 648 0
-648 708 0
25 -648 649 0
-649 709 0
26 -649 650 0
-650 710 0
27 -650 651 0
-651 711 0
28 -651 652 0
-652 712 0
29 -652 653 0
-653 713 0
30 -653 654 0
-654 714 0
31 -654 655 0
-655 715 0
32 -655 656 0
-656 716 0
33 -656 657 0
-657 717 0
34 -657 658 0
-658 718 0
35 -658 659 0
-659 719 0
36 -659 660 0
-660 720 0
37 -660 661 0
-661 721 0
38 -661 662 0
-662 722 0
39 -662 663 0
-663 723 0
40 -663 664 0
-664 724 0
41 -664 665 0
-665 725 0
42 -665 666 0
-666 726 0
43 -666 667 0
-667 727 0
44 -667 668 0
-668 728 0
45 -668 669 0
-669 729 0
46 -669 670 0
-670 730 0
47 -670 671 0
-671 731 0
48 -671 672 0
-672 732 0
49 -672 673 0
-673 733 0
50 -673 674 0
-674 734 0
51 -674 675 0
-675 735 0
52 -675 676 0
-676 736 0
53 -676 677 0
-677 737 0
54 -677 678 0
-678 738 0
55 -678 679 0
-679 739 0
56 -679 680 0
-680 740 0
57 -680 681 0
-681 741 0
58 -681 682 0
-682 742 0
59 -682 683 0
-683 743 0
60 -683 684 0
-684 744 0
61 -684 685 0
-685 745 0
62 -685 686 0
-686 746 0
63 -686 687 0
-687 747 0
64 -687 688 0
-688 748 0
65 -688 689 0
-689 749 0
66 -689 690 0
-690 750 0
67 -690 691 0
-691 751 0
68 -691 692 0
-692 752 0
69 -692 0
10 693 0
-693 753 0
11 -693 694 0
-694 754 0
12 -694 695 0
-695 755 0
13 -695 696 0
-696 756 0
14 -696 697 0
-697 757 0
15 -697 698 0
-698 758 0
16 -698 699 0
-699 759 0
17 -699 700 0
-700 760 0
18 -700 701 0
-701 761 0
19 -701 702 0
-702 762 0
20 -702 703 0
-703 763 0
21 -703 704 0
-704 764 0
22 -704 705 0
-705 765 0
23 -705 706 0
-706 766 0
24 -706 707 0
-707 767 0
25 -707 708 0
-708 768 0
26 -708 709 0
-709 769 0
27 -709 710 0
-710 770 0
28 -710 711 0
-711 771 0
29 -711 712 0
-712 772 0
30 -712 713 0
-713 773 0
31 -713 714 0
-714 774 0
32 -714 715 0
-715 775 0
33 -715 716 0
-716 776 0
34 -716 717 0
-717 777 0
35 -717 718 0
-718 778 0
36 -718 719 0
-719 779 0
37 -719 720 0
-720 780 0
38 -720 721 0
-721 781 0
39 -721 722 0
-722 782 0
40 -722 723 0
-723 783 0
41 -723 724 0
-724 784 0
42 -724 725 0
-725 785 0
43 -725 726 0
-726 786 0
44 -726 727 0
-727 787 0
45 -727 728 0
-728 788 0
46 -728 729 0
-729 789 0
47 -729 730 0
-730 790 0
48 -730 731 0
-731 791 0
49 -731 732 0
-732 792 0
50 -732 733 0
-733 793 0
51 -733 734 0
-734 794 0
52 -734 735 0
-735 795 0
53 -735 736 0
-736 796 0
54 -736 737 0
-737 797 0
55 -737 738 0
-738 798 0
56 -738 739 0
-739 799 0
57 -739 740 0
-740 800 0
58 -740 741 0
-741 801 0
59 -741 742 0
-742 802 0
60 -742 743 0
-743 803 0
61 -743 744 0
-744 804 0
62 -744 745 0
-745 805 0
63 -745 746 0
-746 806 0
64 -746 747 0
-747 807 0
65 -747 748 0
-748 808 0
66 -748 749 0
-749 809 0
67 -749 750 0
-750 810 0
68 -750 751 0
-751 811 0
69 -751 752 0
-752 812 0
70 -752 0
11 753 0
-753 813 0
12 -753 754 0
-754 814 0
13 -754 755 0
-755 815 0
14 -755 756 0
-756 816 0
15 -756 757 0
-757 817 0
16 -757 758 0
-758 818 0
17 -758 759 0
-759 819 0
18 -759 760 0
-760 820 0
19 -760 761 0
-761 821 0
20 -761 762 0
-762 822 0
21 -762 763 0
-763 823 0
22 -763 764 0
-764 824 0
23 -764 765 0
-765 825 0
24 -765 766 0
-766 826 0
25 -766 767 0
-767 827 0
26 -767 768 0
-768 828 0
27 -768 769 0
-769 829 0
28 -769 770 0
-770 830 0
29 -770 771 0
-771 831 0
30 -771 772 0
-772 832 0
31 -772 773 0
-773 833 0
32 -773 774 0
-774 834 0
33 -774 775 0
-775 835 0
34 -775 776 0
-776 836 0
35 -776 777 0
-777 837 0
36 -777 778 0
-778 838 0
37 -778 779 0
-779 839 0
38 -779 780 0
-780 840 0
39 -780 781 0
-781 841 0
40 -781 782 0
-782 842 0
41 -782 783 0
-783 843 0
42 -783 784 0
-784 844 0
43 -784 785 0
-785 845 0
44 -785 786 0
-786 846 0
45 -786 787 0
-787 847 0
46 -787 788 0
-788 848 0
47 -788 789 0
-789 849 0
48 -789 790 0
-790 850 0
49 -790 791 0
-791 851 0
50 -791 792 0
-792 852 0
51 -792 793 0
-793 853 0
52 -793 794 0
-794 854 0
53 -794 795 0
-795 855 0
54 -795 796 0
-796 856 0
55 -796 797 0
-797 857 0
56 -797 798 0
-798 858 0
57 -798 799 0
-799 859 0
58 -799 800 0
-800 860 0
59 -800 801 0
-801 861 0
60 -801 802 0
-802 862 0
61 -802 803 0
-803 863 0
62 -803 804 0
-804 864 0
63 -804 805 0
-805 865 0
64 -805 806 0
-806 866 0
65 -806 807 0
-807 867 0
66 -807 808 0
-808 868 0
67 -808 809 0
-809 869 0
68 -809 810 0
-810 870 0
69 -810 811 0
-811 871 0
70 -811 812 0
-812 872 0
71 -812 0
12 813 0
-813 873 0
13 -813 814 0
-814 874 0
14 -814 815 0
-815 875 0
15 -815 816 0
-816 876 0
16 -816 817 0
-817 877 0
17 -817 818 0
-818 878 0
18 -818 819 0
-819 879 0
19 -819 820 0
-820 880 0
20 -820 821 0
-821 881 0
21 -821 822 0
-822 882 0
22 -822 823 0
-823 883 0
23 -823 824 0
-824 884 0
24 -824 825 0
-825 885 0
25 -825 826 0
-826 886 0
26 -826 827 0
-827 887 0
27 -827 828 0
-828 888 0
28 -828 829 0
-829 889 0
29 -829 830 0
-830 890 0
30 -830 831 0
-831 891 0
31 -831 832 0
-832 892 0
32 -832 833 0
-833 893 0
33 -833 834 0
-834 894 0
34 -834 835 0
-835 895 0
35 -835 836 0
-836 896 0
36 -836 837 0
-837 897 0
37 -837 838 0
-838 898 0
38 -838 839 0
-839 899 0
39 -839 840 0
-840 900 0
40 -840 841 0
-841 901 0
41 -841 842 0
-842 902 0
42 -842 843 0
-843 903 0
43 -843 844 0
-844 904 0
44 -844 845 0
-845 905 0
45 -845 846 0
-846 906 0
46 -846 847 0
-847 907 0
47 -847 848 0
-848 908 0
48 -848 849 0
-849 909 0
49 -849 850 0
-850 910 0
50 -850 851 0
-851 911 0
51 -851 852 0
-852 912 0
52 -852 853 0
-853 913 0
53 -853 854 0
-854 914 0
54 -854 855 0
-855 915 0
55 -855 856 0
-856 916 0
56 -856 857 0
-857 917 0
57 -857 858 0
-858 918 0
58 -858 859 0
-859 919 0
59 -859 860 0
-860 920 0
60 -860 861 0
-861 921 0
61 -861 862 0
-862 922 0
62 -862 863 0
-863 923 0
63 -863 864 0
-864 924 0
64 -864 865 0
-865 925 0
65 -865 866 0
-866 926 0
66 -866 867 0
-867 927 0
67 -867 868 0
-868 928 0
68 -868 869 0
-869 929 0
69 -869 870 0
-870 930 0
70 -870 871 0
-871 931 0
71 -871 872 0
-872 932 0
72 -872 0
13 873 0
-873 933 0
14 -873 874 0
-874 934 0
15 -874 875 0
-875 935 0
16 -875 876 0
-876 936 0
17 -876 877 0
-877 937 0
18 -877 878 0
-878 938 0
19 -878 879 0
-879 939 0
20 -879 880 0
-880 940 0
21 -880 881 0
-881 941 0
22 -881 882 0
-882 942 0
23 -882 883 0
-883 943 0
24 -883 884 0
-884 944 0
25 -884 885 0
-885 945 0
26 -885 886 0
-886 946 0
27 -886 887 0
-887 947 0
28 -887 888 0
-888 948 0
29 -888 889 0
-889 949 0
30 -889 890 0
-890 950 0
31 -890 891 0
-891 951 0
32 -891 892 0
-892 952 0
33 -892 893 0
-893 953 0
34 -893 894 0
-894 954 0
35 -894 895 0
-895 955 0
36 -895 896 0
-896 956 0
37 -896 897 0
-897 957 0
38 -897 898 0
-898 958 0
39 -898 899 0
-899 959 0
40 -899 900 0
-900 960 0
41 -900 901 0
-901 961 0
42 -901 902 0
-902 962 0
43 -902 903 0
-903 963 0
44 -903 904 0
-904 964 0
45 -904 905 0
-905 965 0
46 -905 906 0
-906 966 0
47 -906 907 0
-907 967 0
48 -907 908 0
-908 968 0
49 -908 909 0
-909 969 0
50 -909 910 0
-910 970 0
51 -910 911 0
-911 971 0
52 -911 912 0
-912 972 0
53 -912 913 0
-913 973 0
54 -913 914 0
-914 974 0
55 -914 915 0
-915 975 0
56 -915 916 0
-916 976 0
57 -916 917 0
-917 977 0
58 -917 918 0
-918 978 0
59 -918 919 0
-919 979 0
60 -919 920 0
-920 980 0
61 -920 921 0
-921 981 0
62 -921 922 0
-922 982 0
63 -922 923 0
-923 983 0
64 -923 924 0
-924 984 0
65 -924 925 0
-925 985 0
66 -925 926 0
-926 986 0
67 -926 927 0
-927 987 0
68 -927 928 0
-928 988 0
69 -928 929 0
-929 989 0
70 -929 930 0
-930 990 0
71 -930 931 0
-931 991 0
72 -931 932 0
-932 992 0
73 -932 0
14 933 0
-933 993 0
15 -933 934 0
-934 994 0
16 -934 935 0
-935 995 0
17 -935 936 0
-936 996 0
18 -936 937 0
-937 997 0
19 -937 938 0
-938 998 0
20 -938 939 0
-939 999 0
21 -939 940 0
-940 1000 0
22 -940 941 0
-941 1001 0
23 -941 942 0
-942 1002 0
24 -942 943 0
-943 1003 0
25 -943 944 0
-944 1004 0
26 -944 945 0
-945 1005 0
27 -945 946 0
-946 1006 0
28 -946 947 0
-947 1007 0
29 -947 948 0
-948 1008 0
30 -948 949 0
-949 1009 0
31 -949 950 0
-950 1010 0
32 -950 951 0
-951 1011 0
33 -951 952 0
-952 1012 0
34 -952 953 0
-953 1013 0
35 -953 954 0
-954 1014 0
36 -954 955 0
-955 1015 0
37 -955 956 0
-956 1016 0
38 -956 957 0
-957 1017 0
39 -957 958 0
-958 1018 0
40 -958 959 0
-959 1019 0
41 -959 960 0
-960 1020 0
42 -960 961 0
-961 1021 0
43 -961 962 0
-962 1022 0
44 -962 963 0
-963 1023 0
45 -963 964 0
-964 1024 0
46 -964 965 0
-965 1025 0
47 -965 966 0
-966 1026 0
48 -966 967 0
-967 1027 0
49 -967 968 0
-968 1028 0
50 -968 969 0
-969 1029 0
51 -969 970 0
-970 1030 0
52 -970 971 0
-971 1031 0
53 -971 972 0
-972 1032 0
54 -972 973 0
-973 1033 0
55 -973 974 0
-974 1034 0
56 -974 975 0
-975 1035 0
57 -975 976 0
-976 1036 0
58 -976 977 0
-977 1037 0
59 -977 978 0
-978 1038 0
60 -978 979 0
-979 1039 0
61 -979 980 0
-980 1040 0
62 -980 981 0
-981 1041 0
63 -981 982 0
-982 1042 0
64 -982 983 0
-983 1043 0
65 -983 984 0
-984 1044 0
66 -984 985 0
-985 1045 0
67 -985 986 0
-986 1046 0
68 -986 987 0
-987 1047 0
69 -987 988 0
-988 1048 0
70 -988 989 0
-989 1049 0
71 -989 990 0
-990 1050 0
72 -990 991 0
-991 1051 0
73 -991 992 0
-992 1052 0
74 -992 0
15 993 0
-993 1053 0
16 -993 994 0
-994 1054 0
17 -994 995 0
-995 1055 0
18 -995 996 0
-996 1056 0
19 -996 997 0
-997 1057 0
20 -997 998 0
-998 1058 0
21 -998 999 0
-999 1059 0
22 -999 1000 0
-1000 1060 0
23 -1000 1001 0
-1001 1061 0
24 -1001 1002 0
-1002 1062 0
25 -1002 1003 0
-1003 1063 0
26 -1003 1004 0
-1004 1064 0
27 -1004 1005 0
-1005 1065 0
28 -1005 1006 0
-1006 1066 0
29 -1006 1007 0
-1007 1067 0
30 -1007 1008 0
-1008 1068 0
31 -1008 1009 0
-1009 1069 0
32 -1009 1010 0
-1010 1070 0
33 -1010 1011 0
-1011 1071 0
34 -1011 1012 0
-1012 1072 0
35 -1012 1013 0
-1013 1073 0
36 -1013 1014 0
-1014 1074 0
37 -1014 1015 0
-1015 1075 0
38 -1015 1016 0
-1016 1076 0
39 -1016 1017 0
-1017 1077 0
40 -1017 1018 0
-1018 1078 0
41 -1018 1019 0
-1019 1079 0
42 -1019 1020 0
-1020 1080 0
43 -1020 1021 0
-1021 1081 0
44 -1021 1022 0
-1022 1082 0
45 -1022 1023 0
-1023 1083 0
46 -1023 1024 0
-1024 1084 0
47 -1024 1025 0
-1025 1085 0
48 -1025 1026 0
-1026 1086 0
49 -1026 1027 0
-1027 1087 0
50 -1027 1028 0
-1028 1088 0
51 -1028 1029 0
-1029 1089 0
52 -1029 1030 0
-1030 1090 0
53 -1030 1031 0
-1031 1091 0
54 -1031 1032 0
-1032 1092 0
55 -1032 1033 0
-1033 1093 0
56 -1033 1034 0
-1034 1094 0
57 -1034 1035 0
-1035 1095 0
58 -1035 1036 0
-1036 1096 0
59 -1036 1037 0
-1037 1097 0
60 -1037 1038 0
-1038 1098 0
61 -1038 1039 0
-1039 1099 0
62 -1039 1040 0
-1040 1100 0
63 -1040 1041 0
-1041 1101 0
64 -1041 1042 0
-1042 1102 0
65 -1042 1043 0
-1043 1103 0
66 -1043 1044 0
-1044 1104 0
67 -1044 1045 0
-1045 1105 0
68 -1045 1046 0
-1046 1106 0
69 -1046 1047 0
-1047 1107 0
70 -1047 1048 0
-1048 1108 0
71 -1048 1049 0
-1049 1109 0
72 -1049 1050 0
-1050 1110 0
73 -1050 1051 0
-1051 1111 0
74 -1051 1052 0
-1052 1112 0
75 -1052 0
16 1053 0
17 -1053 1054 0
18 -1054 1055 0
19 -1055 1056 0
20 -1056 1057 0
21 -1057 1058 0
22 -1058 1059 0
23 -1059 1060 0
24 -1060 1061 0
25 -1061 1062 0
26 -1062 1063 0
27 -1063 1064 0
28 -1064 1065 0
29 -1065 1066 0
30 -1066 1067 0
31 -1067 1068 0
32 -1068 1069 0
33 -1069 1070 0
34 -1070 1071 0
35 -1071 1072 0
36 -1072 1073 0
37 -1073 1074 0
38 -1074 1075 0
39 -1075 1076 0
40 -1076 1077 0
41 -1077 1078 0
42 -1078 1079 0
43 -1079 1080 0
44 -1080 1081 0
45 -1081 1082 0
46 -1082 1083 0
47 -1083 1084 0
48 -1084 1085 0
49 -1085 1086 0
50 -1086 1087 0
51 -1087 1088 0
52 -1088 1089 0
53 -1089 1090 0
54 -1090 1091 0
55 -1091 1092 0
56 -1092 1093 0
57 -1093 1094 0
58 -1094 1095 0
59 -1095 1096 0
60 -1096 1097 0
61 -1097 1098 0
62 -1098 1099 0
63 -1099 1100 0
64 -1100 1101 0
65 -1101 1102 0
66 -1102 1103 0
67 -1103 1104 0
68 -1104 1105 0
69 -1105 1106 0
70 -1106 1107 0
71 -1107 1108 0
72 -1108 1109 0
73 -1109 1110 0
74 -1110 1111 0
75 -1111 1112 0
76 -1112 0
-1 1113 0
-1113 1114 0
-2 -1113 1115 0
-1115 1116 0
-3 -1115 1117 0
-1117 1118 0
-4 -1117 1119 0
-1119 1120 0
-5 -1119 1121 0
-1121 1122 0
-6 -1121 1123 0
-1123 1124 0
-7 -1123 1125 0
-1125 1126 0
-8 -1125 1127 0
-1127 1128 0
-9 -1127 1129 0
-1129 1130 0
-10 -1129 1131 0
-1131 1132 0
-11 -1131 1133 0
-1133 1134 0
-12 -1133 1135 0
-1135 1136 0
-13 -1135 1137 0
-1137 1138 0
-14 -1137 1139 0
-1139 1140 0
-15 -1139 1141 0
-1141 1142 0
-16 -1141 1143 0
-1143 1144 0
-17 -1143 0
-2 1114 0
-1114 1145 0
-3 -1114 1116 0
-1116 1146 0
-4 -1116 1118 0
-1118 1147 0
-5 -1118 1120 0
-1120 1148 0
-6 -1120 1122 0
-1122 1149 0
-7 -1122 1124 0
-1124 1150 0
-8 -1124 1126 0
-1126 1151 0
-9 -1126 1128 0
-1128 1152 0
-10 -1128 1130 0
-1130 1153 0
-11 -1130 1132 0
-1132 1154 0
-12 -1132 1134 0
-1134 1155 0
-13 -1134 1136 0
-1136 1156 0
-14 -1136 1138 0
-1138 1157 0
-15 -1138 1140 0
-1140 1158 0
-16 -1140 1142 0
-1142 1159 0
-17 -1142 1144 0
-1144 1160 0
-18 -1144 0
-3 1145 0
-1145 1161 0
-4 -1145 1146 0
-1146 1162 0
-5 -1146 1147 0
-1147 1163 0
-6 -1147 1148 0
-1148 1164 0
-7 -1148 1149 0
-1149 1165 0
-8 -1149 1150 0
-1150 1166 0
-9 -1150 1151 0
-1151 1167 0
-10 -1151 1152 0
-1152 1168 0
-11 -1152 1153 0
-1153 1169 0
-12 -1153 1154 0
-1154 1170 0
-13 -1154 1155 0
-1155 1171 0
-14 -1155 1156 0
-1156 1172 0
-15 -1156 1157 0
-1157 1173 0
-16 -1157 1158 0
-1158 1174 0
-17 -1158 1159 0
-1159 1175 0
-18 -1159 1160 0
-1160 1176 0
-19 -1160 0
-4 1161 0
-1161 1177 0
-5 -1161 1162 0
-1162 1178 0
-6 -1162 1163 0
-1163 1179 0
-7 -1163 1164 0
-1164 1180 0
-8 -1164 1165 0
-1165 1181 0
-9 -1165 1166 0
-1166 1182 0
-10 -1166 1167 0
-1167 1183 0
-11 -1167 1168 0
-1168 1184 0
-12 -1168 1169 0
-1169 1185 0
-13 -1169 1170 0
-1170 1186 0
-14 -1170 1171 0
-1171 1187 0
-15 -1171 1172 0
-1172 1188 0
-16 -1172 1173 0
-1173 1189 0
-17 -1173 1174 0
-1174 1190 0
-18 -1174 1175 0
-1175 1191 0
-19 -1175 1176 0
-1176 1192 0
-20 -1176 0
-5 1177 0
-1177 1193 0
-6 -1177 1178 0
-1178 1194 0
-7 -1178 1179 0
-1179 1195 0
-8 -1179 1180 0
-1180 1196 0
-9 -1180 1181 0
-1181 1197 0
-10 -1181 1182 0
-1182 1198 0
-11 -1182 1183 0
-1183 1199 0
-12 -1183 1184 0
-1184 1200 0
-13 -1184 1185 0
-1185 1201 0
-14 -1185 1186 0
-1186 1202 0
-15 -1186 1187 0
-1187 1203 0
-16 -1187 1188 0
-1188 1204 0
-17 -1188 1189 0
-1189 1205 0
-18 -1189 1190 0
-1190 1206 0
-19 -1190 1191 0
-1191 1207 0
-20 -1191 1192 0
-1192 1208 0
-21 -1192 0
-6 1193 0
-1193 1209 0
-7 -1193 1194 0
-1194 1210 0
-8 -1194 1195 0
-1195 1211 0
-9 -1195 1196 0
-1196 1212 0
-10 -1196 1197 0
-1197 1213 0
-11 -1197 1198 0
-1198 1214 0
-12 -1198 1199 0
-1199 1215 0
-13 -1199 1200 0
-1200 1216 0
-14 -1200 1201 0
-1201 1217 0
-15 -1201 1202 0
-1202 1218 0
-16 -1202 1203 0
-1203 1219 0
-17 -1203 1204 0
-1204 1220 0
-18 -1204 1205 0
-1205 1221 0
-19 -1205 1206 0
-1206 1222 0
-20 -1206 1207 0
-1207 1223 0
-21 -1207 1208 0
-1208 1224 0
-22 -1208 0
-7 1209 0
-1209 1225 0
-8 -1209 1210 0
-1210 1226 0
-9 -1210 1211 0
-1211 1227 0
-10 -1211 1212 0
-1212 1228 0
-11 -1212 1213 0
-1213 1229 0
-12 -1213 1214 0
-1214 1230 0
-13 -1214 1215 0
-1215 1231 0
-14 -1215 1216 0
-1216 1232 0
-15 -1216 1217 0
-1217 1233 0
-16 -1217 1218 0
-1218 1234 0
-17 -1218 1219 0
-1219 1235 0
-18 -1219 1220 0
-1220 1236 0
-19 -1220 1221 0
-1221 1237 0
-20 -1221 1222 0
-1222 1238 0
-21 -1222 1223 0
-1223 1239 0
-22 -1223 1224 0
-1224 1240 0
-23 -1224 0
-8 1225 0
-1225 1241 0
-9 -1225 1226 0
-1226 1242 0
-10 -1226 1227 0
-1227 1243 0
-11 -1227 1228 0
-1228 1244 0
-12 -1228 1229 0
-1229 1245 0
-13 -1229 1230 0
-1230 1246 0
-14 -1230 1231 0
-1231 1247 0
-15 -1231 1232 0
-1232 1248 0
-16 -1232 1233 0
-1233 1249 0
-17 -1233 1234 0
-1234 1250 0
-18 -1234 1235 0
-1235 1251 0
-19 -1235 1236 0
-1236 1252 0
-20 -1236 1237 0
-1237 1253 0
-21 -1237 1238 0
-1238 1254 0
-22 -1238 1239 0
-1239 1255 0
-23 -1239 1240 0
-1240 1256 0
-24 -1240 0
-9 1241 0
-1241 1257 0
-10 -1241 1242 0
-1242 1258 0
-11 -1242 1243 0
-1243 1259 0
-12 -1243 1244 0
-1244 1260 0
-13 -1244 1245 0
-1245 1261 0
-14 -1245 1246 0
-1246 1262 0
-15 -1246 1247 0
-1247 1263 0
-16 -1247 1248 0
-1248 1264 0
-17 -1248 1249 0
-1249 1265 0
-18 -1249 1250 0
-1250 1266 0
-19 -1250 1251 0
-1251 1267 0
-20 -1251 1252 0
-1252 1268 0
-21 -1252 1253 0
-1253 1269 0
-22 -1253 1254 0
-1254 1270 0
-23 -1254 1255 0
-1255 1271 0
-24 -1255 1256 0
-1256 1272 0
-25 -1256 0
-10 1257 0
-1257 1273 0
-11 -1257 1258 0
-1258 1274 0
-12 -1258 1259 0
-1259 1275 0
-13 -1259 1260 0
-1260 1276 0
-14 -1260 1261 0
-1261 1277 0
-15 -1261 1262 0
-1262 1278 0
-16 -1262 1263 0
-1263 1279 0
-17 -1263 1264 0
-1264 1280 0
-18 -1264 1265 0
-1265 1281 0
-19 -1265 1266 0
-1266 1282 0
-20 -1266 1267 0
-1267 1283 0
-21 -1267 1268 0
-1268 1284 0
-22 -1268 1269 0
-1269 1285 0
-23 -1269 1270 0
-1270 1286 0
-24 -1270 1271 0
-1271 1287 0
-25 -1271 1272 0
-1272 1288 0
-26 -1272 0
-11 1273 0
-1273 1289 0
-12 -1273 1274 0
-1274 1290 0
-13 -1274 1275 0
-1275 1291 0
-14 -1275 1276 0
-1276 1292 0
-15 -1276 1277 0
-1277 1293 0
-16 -1277 1278 0
-1278 1294 0
-17 -1278 1279 0
-1279 1295 0
-18 -1279 1280 0
-1280 1296 0
-19 -1280 1281 0
-1281 1297 0
-20 -1281 1282 0
-1282 1298 0
-21 -1282 1283 0
-1283 1299 0
-22 -1283 1284 0
-1284 1300 0
-23 -1284 1285 0
-1285 1301 0
-24 -1285 1286 0
-1286 1302 0
-25 -1286 1287 0
-1287 1303 0
-26 -1287 1288 0
-1288 1304 0
-27 -1288 0
-12 1289 0
-1289 1305 0
-13 -1289 1290 0
-1290 1306 0
-14 -1290 1291 0
-1291 1307 0
-15 -1291 1292 0
-1292 1308 0
-16 -1292 1293 0
-1293 1309 0
-17 -1293 1294 0
-1294 1310 0
-18 -1294 1295 0
-1295 1311 0
-19 -1295 1296 0
-1296 1312 0
-20 -1296 1297 0
-1297 1313 0
-21 -1297 1298 0
-1298 1314 0
-22 -1298 1299 0
-1299 1315 0
-23 -1299 1300 0
-1300 1316 0
-24 -1300 1301 0
-1301 1317 0
-25 -1301 1302 0
-1302 1318 0
-26 -1302 1303 0
-1303 1319 0
-27 -1303 1304 0
-1304 1320 0
-28 -1304 0
-13 1305 0
-1305 1321 0
-14 -1305 1306 0
-1306 1322 0
-15 -1306 1307 0
-1307 1323 0
-16 -1307 1308 0
-1308 1324 0
-17 -1308 1309 0
-1309 1325 0
-18 -1309 1310 0
-1310 1326 0
-19 -1310 1311 0
-1311 1327 0
-20 -1311 1312 0
-1312 1328 0
-21 -1312 1313 0
-1313 1329 0
-22 -1313 1314 0
-1314 1330 0
-23 -1314 1315 0
-1315 1331 0
-24 -1315 1316 0
-1316 1332 0
-25 -1316 1317 0
-1317 1333 0
-26 -1317 1318 0
-1318 1334 0
-27 -1318 1319 0
-1319 1335 0
-28 -1319 1320 0
-1320 1336 0
-29 -1320 0
-14 1321 0
-1321 1337 0
-15 -1321 1322 0
-1322 1338 0
-16 -1322 1323 0
-1323 1339 0
-17 -1323 1324 0
-1324 1340 0
-18 -1324 1325 0
-1325 1341 0
-19 -1325 1326 0
-1326 1342 0
-20 -1326 1327 0
-1327 1343 0
-21 -1327 1328 0
-1328 1344 0
-22 -1328 1329 0
-1329 1345 0
-23 -1329 1330 0
-1330 1346 0
-24 -1330 1331 0
-1331 1347 0
-25 -1331 1332 0
-1332 1348 0
-26 -1332 1333 0
-1333 1349 0
-27 -1333 1334 0
-1334 1350 0
-28 -1334 1335 0
-1335 1351 0
-29 -1335 1336 0
-1336 1352 0
-30 -1336 0
-15 1337 0
-1337 1353 0
-16 -1337 1338 0
-1338 1354 0
-17 -1338 1339 0
-1339 1355 0
-18 -1339 1340 0
-1340 1356 0
-19 -1340 1341 0
-1341 1357 0
-20 -1341 1342 0
-1342 1358 0
-21 -1342 1343 0
-1343 1359 0
-22 -1343 1344 0
-1344 1360 0
-23 -1344 1345 0
-1345 1361 0
-24 -1345 1346 0
-1346 1362 0
-25 -1346 1347 0
-1347 1363 0
-26 -1347 1348 0
-1348 1364 0
-27 -1348 1349 0
-1349 1365 0
-28 -1349 1350 0
-1350 1366 0
-29 -1350 1351 0
-1351 1367 0
-30 -1351 1352 0
-1352 1368 0
-31 -1352 0
-16 1353 0
-1353 1369 0
-17 -1353 1354 0
-1354 1370 0
-18 -1354 1355 0
-1355 1371 0
-19 -1355 1356 0
-1356 1372 0
-20 -1356 1357 0
-1357 1373 0
-21 -1357 1358 0
-1358 1374 0
-22 -1358 1359 0
-1359 1375 0
-23 -1359 1360 0
-1360 1376 0
-24 -1360 1361 0
-1361 1377 0
-25 -1361 1362 0
-1362 1378 0
-26 -1362 1363 0
-1363 1379 0
-27 -1363 1364 0
-1364 1380 0
-28 -1364 1365 0
-1365 1381 0
-29 -1365 1366 0
-1366 1382 0
-30 -1366 1367 0
-1367 1383 0
-31 -1367 1368 0
-1368 1384 0
-32 -1368 0
-17 1369 0
-1369 1385 0
-18 -1369 1370 0
-1370 1386 0
-19 -1370 1371 0
-1371 1387 0
-20 -1371 1372 0
-1372 1388 0
-21 -1372 1373 0
-1373 1389 0
-22 -1373 1374 0
-1374 1390 0
-23 -1374 1375 0
-1375 1391 0
-24 -1375 1376 0
-1376 1392 0
-25 -1376 1377 0
-1377 1393 0
-26 -1377 1378 0
-1378 1394 0
-27 -1378 1379 0
-1379 1395 0
-28 -1379 1380 0
-1380 1396 0
-29 -1380 1381 0
-1381 1397 0
-30 -1381 1382 0
-1382 1398 0
-31 -1382 1383 0
-1383 1399 0
-32 -1383 1384 0
-1384 1400 0
-33 -1384 0
-18 1385 0
-1385 1401 0
-19 -1385 1386 0
-1386 1402 0
-20 -1386 1387 0
-1387 1403 0
-21 -1387 1388 0
-1388 1404 0
-22 -1388 1389 0
-1389 1405 0
-23 -1389 1390 0
-1390 1406 0
-24 -1390 1391 0
-1391 1407 0
-25 -1391 1392 0
-1392 1408 0
-26 -1392 1393 0
-1393 1409 0
-27 -1393 1394 0
-1394 1410 0
-28 -1394 1395 0
-1395 1411 0
-29 -1395 1396 0
-1396 1412 0
-30 -1396 1397 0
-1397 1413 0
-31 -1397 1398 0
-1398 1414 0
-32 -1398 1399 0
-1399 1415 0
-33 -1399 1400 0
-1400 1416 0
-34 -1400 0
-19 1401 0
-1401 1417 0
-20 -1401 1402 0
-1402 1418 0
-21 -1402 1403 0
-1403 1419 0
-22 -1403 1404 0
-1404 1420 0
-23 -1404 1405 0
-1405 1421 0
-24 -1405 1406 0
-1406 1422 0
-25 -1406 1407 0
-1407 1423 0
-26 -1407 1408 0
-1408 1424 0
-27 -1408 1409 0
-1409 1425 0
-28 -1409 1410 0
-1410 1426 0
-29 -1410 1411 0
-1411 1427 0
-30 -1411 1412 0
-1412 1428 0
-31 -1412 1413 0
-1413 1429 0
-32 -1413 1414 0
-1414 1430 0
-33 -1414 1415 0
-1415 1431 0
-34 -1415 1416 0
-1416 1432 0
-35 -1416 0
-20 1417 0
-1417 1433 0
-21 -1417 1418 0
-1418 1434 0
-22 -1418 1419 0
-1419 1435 0
-23 -1419 1420 0
-1420 1436 0
-24 -1420 1421 0
-1421 1437 0
-25 -1421 1422 0
-1422 1438 0
-26 -1422 1423 0
-1423 1439 0
-27 -1423 1424 0
-1424 1440 0
-28 -1424 1425 0
-1425 1441 0
-29 -1425 1426 0
-1426 1442 0
-30 -1426 1427 0
-1427 1443 0
-31 -1427 1428 0
-1428 1444 0
-32 -1428 1429 0
-1429 1445 0
-33 -1429 1430 0
-1430 1446 0
-34 -1430 1431 0
-1431 1447 0
-35 -1431 1432 0
-1432 1448 0
-36 -1432 0
-21 1433 0
-1433 1449 0
-22 -1433 1434 0
-1434 1450 0
-23 -1434 1435 0
-1435 1451 0
-24 -1435 1436 0
-1436 1452 0
-25 -1436 1437 0
-1437 1453 0
-26 -1437 1438 0
-1438 1454 0
-27 -1438 1439 0
-1439 1455 0
-28 -1439 1440 0
-1440 1456 0
-29 -1440 1441 0
-1441 1457 0
-30 -1441 1442 0
-1442 1458 0
-31 -1442 1443 0
-1443 1459 0
-32 -1443 1444 0
-1444 1460 0
-33 -1444 1445 0
-1445 1461 0
-34 -1445 1446 0
-1446 1462 0
-35 -1446 1447 0
-1447 1463 0
-36 -1447 1448 0
-1448 1464 0
-37 -1448 0
-22 1449 0
-1449 1465 0
-23 -1449 1450 0
-1450 1466 0
-24 -1450 1451 0
-1451 1467 0
-25 -1451 1452 0
-1452 1468 0
-26 -1452 1453 0
-1453 1469 0
-27 -1453 1454 0
-1454 1470 0
-28 -1454 1455 0
-1455 1471 0
-29 -1455 1456 0
-1456 1472 0
-30 -1456 1457 0
-1457 1473 0
-31 -1457 1458 0
-1458 1474 0
-32 -1458 1459 0
-1459 1475 0
-33 -1459 1460 0
-1460 1476 0
-34 -1460 1461 0
-1461 1477 0
-35 -1461 1462 0
-1462 1478 0
-36 -1462 1463 0
-1463 1479 0
-37 -1463 1464 0
-1464 1480 0
-38 -1464 0
-23 1465 0
-1465 1481 0
-24 -1465 1466 0
-1466 1482 0
-25 -1466 1467 0
-1467 1483 0
-26 -1467 1468 0
-1468 1484 0
-27 -1468 1469 0
-1469 1485 0
-28 -1469 1470 0
-1470 1486 0
-29 -1470 1471 0
-1471 1487 0
-30 -1471 1472 0
-1472 1488 0
-31 -1472 1473 0
-1473 1489 0
-32 -1473 1474 0
-1474 1490 0
-33 -1474 1475 0
-1475 1491 0
-34 -1475 1476 0
-1476 1492 0
-35 -1476 1477 0
-1477 1493 0
-36 -1477 1478 0
-1478 1494 0
-37 -1478 1479 0
-1479 1495 0
-38 -1479 1480 0
-1480 1496 0
-39 -1480 0
-24 1481 0
-1481 1497 0
-25 -1481 1482 0
-1482 1498 0
-26 -1482 1483 0
-1483 1499 0
-27 -1483 1484 0
-1484 1500 0
-28 -1484 1485 0
-1485 1501 0
-29 -1485 1486 0
-1486 1502 0
-30 -1486 1487 0
-1487 1503 0
-31 -1487 1488 0
-1488 1504 0
-32 -1488 1489 0
-1489 1505 0
-33 -1489 1490 0
-1490 1506 0
-34 -1490 1491 0
-1491 1507 0
-35 -1491 1492 0
-1492 1508 0
-36 -1492 1493 0
-1493 1509 0
-37 -1493 1494 0
-1494 1510 0
-38 -1494 1495 0
-1495 1511 0
-39 -1495 1496 0
-1496 1512 0
-40 -1496 0
-25 1497 0
-1497 1513 0
-26 -1497 1498 0
-1498 1514 0
-27 -1498 1499 0
-1499 1515 0
-28 -1499 1500 0
-1500 1516 0
-29 -1500 1501 0
-1501 1517 0
-30 -1501 1502 0
-1502 1518 0
-31 -1502 1503 0
-1503 1519 0
-32 -1503 1504 0
-1504 1520 0
-33 -1504 1505 0
-1505 1521 0
-34 -1505 1506 0
-1506 1522 0
-35 -1506 1507 0
-1507 1523 0
-36 -1507 1508 0
-1508 1524 0
-37 -1508 1509 0
-1509 1525 0
-38 -1509 1510 0
-1510 1526 0
-39 -1510 1511 0
-1511 1527 0
-40 -1511 1512 0
-1512 1528 0
-41 -1512 0
-26 1513 0
-1513 1529 0
-27 -1513 1514 0
-1514 1530 0
-28 -1514 1515 0
-1515 1531 0
-29 -1515 1516 0
-1516 1532 0
-30 -1516 1517 0
-1517 1533 0
-31 -1517 1518 0
-1518 1534 0
-32 -1518 1519 0
-1519 1535 0
-33 -1519 1520 0
-1520 1536 0
-34 -1520 1521 0
-1521 1537 0
-35 -1521 1522 0
-1522 1538 0
-36 -1522 1523 0
-1523 1539 0
-37 -1523 1524 0
-1524 1540 0
-38 -1524 1525 0
-1525 1541 0
-39 -1525 1526 0
-1526 1542 0
-40 -1526 1527 0
-1527 1543 0
-41 -1527 1528 0
-1528 1544 0
-42 -1528 0
-27 1529 0
-1529 1545 0
-28 -1529 1530 0
-1530 1546 0
-29 -1530 1531 0
-1531 1547 0
-30 -1531 1532 0
-1532 1548 0
-31 -1532 1533 0
-1533 1549 0
-32 -1533 1534 0
-1534 1550 0
-33 -1534 1535 0
-1535 1551 0
-34 -1535 1536 0
-1536 1552 0
-35 -1536 1537 0
-1537 1553 0
-36 -1537 1538 0
-1538 1554 0
-37 -1538 1539 0
-1539 1555 0
-38 -1539 1540 0
-1540 1556 0
-39 -1540 1541 0
-1541 1557 0
-40 -1541 1542 0
-1542 1558 0
-41 -1542 1543 0
-1543 1559 0
-42 -1543 1544 0
-1544 1560 0
-43 -1544 0
-28 1545 0
-1545 1561 0
-29 -1545 1546 0
-1546 1562 0
-30 -1546 1547 0
-1547 1563 0
-31 -1547 1548 0
-1548 1564 0
-32 -1548 1549 0
-1549 1565 0
-33 -1549 1550 0
-1550 1566 0
-34 -1550 1551 0
-1551 1567 0
-35 -1551 1552 0
-1552 1568 0
-36 -1552 1553 0
-1553 1569 0
-37 -1553 1554 0
-1554 1570 0
-38 -1554 1555 0
-1555 1571 0
-39 -1555 1556 0
-1556 1572 0
-40 -1556 1557 0
-1557 1573 0
-41 -1557 1558 0
-1558 1574 0
-42 -1558 1559 0
-1559 1575 0
-43 -1559 1560 0
-1560 1576 0
-44 -1560 0
-29 1561 0
-1561 1577 0
-30 -1561 1562 0
-1562 1578 0
-31 -1562 1563 0
-1563 1579 0
-32 -1563 1564 0
-1564 1580 0
-33 -1564 1565 0
-1565 1581 0
-34 -1565 1566 0
-1566 1582 0
-35 -1566 1567 0
-1567 1583 0
-36 -1567 1568 0
-1568 1584 0
-37 -1568 1569 0
-1569 1585 0
-38 -1569 1570 0
-1570 1586 0
-39 -1570 1571 0
-1571 1587 0
-40 -1571 1572 0
-1572 1588 0
-41 -1572 1573 0
-1573 1589 0
-42 -1573 1574 0
-1574 1590 0
-43 -1574 1575 0
-1575 1591 0
-44 -1575 1576 0
-1576 1592 0
-45 -1576 0
-30 1577 0
-1577 1593 0
-31 -1577 1578 0
-1578 1594 0
-32 -1578 1579 0
-1579 1595 0
-33 -1579 1580 0
-1580 1596 0
-34 -1580 1581 0
-1581 1597 0
-35 -1581 1582 0
-1582 1598 0
-36 -1582 1583 0
-1583 1599 0
-37 -1583 1584 0
-1584 1600 0
-38 -1584 1585 0
-1585 1601 0
-39 -1585 1586 0
-1586 1602 0
-40 -1586 1587 0
-1587 1603 0
-41 -1587 1588 0
-1588 1604 0
-42 -1588 1589 0
-1589 1605 0
-43 -1589 1590 0
-1590 1606 0
-44 -1590 1591 0
-1591 1607 0
-45 -1591 1592 0
-1592 1608 0
-46 -1592 0
-31 1593 0
-1593 1609 0
-32 -1593 1594 0
-1594 1610 0
-33 -1594 1595 0
-1595 1611 0
-34 -1595 1596 0
-1596 1612 0
-35 -1596 1597 0
-1597 1613 0
-36 -1597 1598 0
-1598 1614 0
-37 -1598 1599 0
-1599 1615 0
-38 -1599 1600 0
-1600 1616 0
-39 -1600 1601 0
-1601 1617 0
-40 -1601 1602 0
-1602 1618 0
-41 -1602 1603 0
-1603 1619 0
-42 -1603 1604 0
-1604 1620 0
-43 -1604 1605 0
-1605 1621 0
-44 -1605 1606 0
-1606 1622 0
-45 -1606 1607 0
-1607 1623 0
-46 -1607 1608 0
-1608 1624 0
-47 -1608 0
-32 1609 0
-1609 1625 0
-33 -1609 1610 0
-1610 1626 0
-34 -1610 1611 0
-1611 1627 0
-35 -1611 1612 0
-1612 1628 0
-36 -1612 1613 0
-1613 1629 0
-37 -1613 1614 0
-1614 1630 0
-38 -1614 1615 0
-1615 1631 0
-39 -1615 1616 0
-1616 1632 0
-40 -1616 1617 0
-1617 1633 0
-41 -1617 1618 0
-1618 1634 0
-42 -1618 1619 0
-1619 1635 0
-43 -1619 1620 0
-1620 1636 0
-44 -1620 1621 0
-1621 1637 0
-45 -1621 1622 0
-1622 1638 0
-46 -1622 1623 0
-1623 1639 0
-47 -1623 1624 0
-1624 1640 0
-48 -1624 0
-33 1625 0
-1625 1641 0
-34 -1625 1626 0
-1626 1642 0
-35 -1626 1627 0
-1627 1643 0
-36 -1627 1628 0
-1628 1644 0
-37 -1628 1629 0
-1629 1645 0
-38 -1629 1630 0
-1630 1646 0
-39 -1630 1631 0
-1631 1647 0
-40 -1631 1632 0
-1632 1648 0
-41 -1632 1633 0
-1633 1649 0
-42 -1633 1634 0
-1634 1650 0
-43 -1634 1635 0
-1635 1651 0
-44 -1635 1636 0
-1636 1652 0
-45 -1636 1637 0
-1637 1653 0
-46 -1637 1638 0
-1638 1654 0
-47 -1638 1639 0
-1639 1655 0
-48 -1639 1640 0
-1640 1656 0
-49 -1640 0
-34 1641 0
-1641 1657 0
-35 -1641 1642 0
-1642 1658 0
-36 -1642 1643 0
-1643 1659 0
-37 -1643 1644 0
-1644 1660 0
-38 -1644 1645 0
-1645 1661 0
-39 -1645 1646 0
-1646 1662 0
-40 -1646 1647 0
-1647 1663 0
-41 -1647 1648 0
-1648 1664 0
-42 -1648 1649 0
-1649 1665 0
-43 -1649 1650 0
-1650 1666 0
-44 -1650 1651 0
-1651 1667 0
-45 -1651 1652 0
-1652 1668 0
-46 -1652 1653 0
-1653 1669 0
-47 -1653 1654 0
-1654 1670 0
-48 -1654 1655 0
-1655 1671 0
-49 -1655 1656 0
-1656 1672 0
-50 -1656 0
-35 1657 0
-1657 1673 0
-36 -1657 1658 0
-1658 1674 0
-37 -1658 1659 0
-1659 1675 0
-38 -1659 1660 0
-1660 1676 0
-39 -1660 1661 0
-1661 1677 0
-40 -1661 1662 0
-1662 1678 0
-41 -1662 1663 0
-1663 1679 0
-42 -1663 1664 0
-1664 1680 0
-43 -1664 1665 0
-1665 1681 0
-44 -1665 1666 0
-1666 1682 0
-45 -1666 1667 0
-1667 1683 0
-46 -1667 1668 0
-1668 1684 0
-47 -1668 1669 0
-1669 1685 0
-48 -1669 1670 0
-1670 1686 0
-49 -1670 1671 0
-1671 1687 0
-50 -1671 1672 0
-1672 1688 0
-51 -1672 0
-36 1673 0
-1673 1689 0
-37 -1673 1674 0
-1674 1690 0
-38 -1674 1675 0
-1675 1691 0
-39 -1675 1676 0
-1676 1692 0
-40 -1676 1677 0
-1677 1693 0
-41 -1677 1678 0
-1678 1694 0
-42 -1678 1679 0
-1679 1695 0
-43 -1679 1680 0
-1680 1696 0
-44 -1680 1681 0
-1681 1697 0
-45 -1681 1682 0
-1682 1698 0
-46 -1682 1683 0
-1683 1699 0
-47 -1683 1684 0
-1684 1700 0
-48 -1684 1685 0
-1685 1701 0
-49 -1685 1686 0
-1686 1702 0
-50 -1686 1687 0
-1687 1703 0
-51 -1687 1688 0
-1688 1704 0
-52 -1688 0
-37 1689 0
-1689 1705 0
-38 -1689 1690 0
-1690 1706 0
-39 -1690 1691 0
-1691 1707 0
-40 -1691 1692 0
-1692 1708 0
-41 -1692 1693 0
-1693 1709 0
-42 -1693 1694 0
-1694 1710 0
-43 -1694 1695 0
-1695 1711 0
-44 -1695 1696 0
-1696 1712 0
-45 -1696 1697 0
-1697 1713 0
-46 -1697 1698 0
-1698 1714 0
-47 -1698 1699 0
-1699 1715 0
-48 -1699 1700 0
-1700 1716 0
-49 -1700 1701 0
-1701 1717 0
-50 -1701 1702 0
-1702 1718 0
-51 -1702 1703 0
-1703 1719 0
-52 -1703 1704 0
-1704 1720 0
-53 -1704 0
-38 1705 0
-1705 1721 0
-39 -1705 1706 0
-1706 1722 0
-40 -1706 1707 0
-1707 1723 0
-41 -1707 1708 0
-1708 1724 0
-42 -1708 1709 0
-1709 1725 0
-43 -1709 1710 0
-1710 1726 0
-44 -1710 1711 0
-1711 1727 0
-45 -1711 1712 0
-1712 1728 0
-46 -1712 1713 0
-1713 1729 0
-47 -1713 1714 0
-1714 1730 0
-48 -1714 1715 0
-1715 1731 0
-49 -1715 1716 0
-1716 1732 0
-50 -1716 1717 0
-1717 1733 0
-51 -1717 1718 0
-1718 1734 0
-52 -1718 1719 0
-1719 1735 0
-53 -1719 1720 0
-1720 1736 0
-54 -1720 0
-39 1721 0
-1721 1737 0
-40 -1721 1722 0
-1722 1738 0
-41 -1722 1723 0
-1723 1739 0
-42 -1723 1724 0
-1724 1740 0
-43 -1724 1725 0
-1725 1741 0
-44 -1725 1726 0
-1726 1742 0
-45 -1726 1727 0
-1727 1743 0
-46 -1727 1728 0
-1728 1744 0
-47 -1728 1729 0
-1729 1745 0
-48 -1729 1730 0
-1730 1746 0
-49 -1730 1731 0
-1731 1747 0
-50 -1731 1732 0
-1732 1748 0
-51 -1732 1733 0
-1733 1749 0
-52 -1733 1734 0
-1734 1750 0
-53 -1734 1735 0
-1735 1751 0
-54 -1735 1736 0
-1736 1752 0
-55 -1736 0
-40 1737 0
-1737 1753 0
-41 -1737 1738 0
-1738 1754 0
-42 -1738 1739 0
-1739 1755 0
-43 -1739 1740 0
-1740 1756 0
-44 -1740 1741 0
-1741 1757 0
-45 -1741 1742 0
-1742 1758 0
-46 -1742 1743 0
-1743 1759 0
-47 -1743 1744 0
-1744 1760 0
-48 -1744 1745 0
-1745 1761 0
-49 -1745 1746 0
-1746 1762 0
-50 -1746 1747 0
-1747 1763 0
-51 -1747 1748 0
-1748 1764 0
-52 -1748 1749 0
-1749 1765 0
-53 -1749 1750 0
-1750 1766 0
-54 -1750 1751 0
-1751 1767 0
-55 -1751 1752 0
-1752 1768 0
-56 -1752 0
-41 1753 0
-1753 1769 0
-42 -1753 1754 0
-1754 1770 0
-43 -1754 1755 0
-1755 1771 0
-44 -1755 1756 0
-1756 1772 0
-45 -1756 1757 0
-1757 1773 0
-46 -1757 1758 0
-1758 1774 0
-47 -1758 1759 0
-1759 1775 0
-48 -1759 1760 0
-1760 1776 0
-49 -1760 1761 0
-1761 1777 0
-50 -1761 1762 0
-1762 1778 0
-51 -1762 1763 0
-1763 1779 0
-52 -1763 1764 0
-1764 1780 0
-53 -1764 1765 0
-1765 1781 0
-54 -1765 1766 0
-1766 1782 0
-55 -1766 1767 0
-1767 1783 0
-56 -1767 1768 0
-1768 1784 0
-57 -1768 0
-42 1769 0
-1769 1785 0
-43 -1769 1770 0
-1770 1786 0
-44 -1770 1771 0
-1771 1787 0
-45 -1771 1772 0
-1772 1788 0
-46 -1772 1773 0
-1773 1789 0
-47 -1773 1774 0
-1774 1790 0
-48 -1774 1775 0
-1775 1791 0
-49 -1775 1776 0
-1776 1792 0
-50 -1776 1777 0
-1777 1793 0
-51 -1777 1778 0
-1778 1794 0
-52 -1778 1779 0
-1779 1795 0
-53 -1779 1780 0
-1780 1796 0
-54 -1780 1781 0
-1781 1797 0
-55 -1781 1782 0
-1782 1798 0
-56 -1782 1783 0
-1783 1799 0
-57 -1783 1784 0
-1784 1800 0
-58 -1784 0
-43 1785 0
-1785 1801 0
-44 -1785 1786 0
-1786 1802 0
-45 -1786 1787 0
-1787 1803 0
-46 -1787 1788 0
-1788 1804 0
-47 -1788 1789 0
-1789 1805 0
-48 -1789 1790 0
-1790 1806 0
-49 -1790 1791 0
-1791 1807 0
-50 -1791 1792 0
-1792 1808 0
-51 -1792 1793 0
-1793 1809 0
-52 -1793 1794 0
-1794 1810 0
-53 -1794 1795 0
-1795 1811 0
-54 -1795 1796 0
-1796 1812 0
-55 -1796 1797 0
-1797 1813 0
-56 -1797 1798 0
-1798 1814 0
-57 -1798 1799 0
-1799 1815 0
-58 -1799 1800 0
-1800 1816 0
-59 -1800 0
-44 1801 0
-1801 1817 0
-45 -1801 1802 0
-1802 1818 0
-46 -1802 1803 0
-1803 1819 0
-47 -1803 1804 0
-1804 1820 0
-48 -1804 1805 0
-1805 1821 0
-49 -1805 1806 0
-1806 1822 0
-50 -1806 1807 0
-1807 1823 0
-51 -1807 1808 0
-1808 1824 0
-52 -1808 1809 0
-1809 1825 0
-53 -1809 1810 0
-1810 1826 0
-54 -1810 1811 0
-1811 1827 0
-55 -1811 1812 0
-1812 1828 0
-56 -1812 1813 0
-1813 1829 0
-57 -1813 1814 0
-1814 1830 0
-58 -1814 1815 0
-1815 1831 0
-59 -1815 1816 0
-1816 1832 0
-60 -1816 0
-45 1817 0
-1817 1833 0
-46 -1817 1818 0
-1818 1834 0
-47 -1818 1819 0
-1819 1835 0
-48 -1819 1820 0
-1820 1836 0
-49 -1820 1821 0
-1821 1837 0
-50 -1821 1822 0
-1822 1838 0
-51 -1822 1823 0
-1823 1839 0
-52 -1823 1824 0
-1824 1840 0
-53 -1824 1825 0
-1825 1841 0
-54 -1825 1826 0
-1826 1842 0
-55 -1826 1827 0
-1827 1843 0
-56 -1827 1828 0
-1828 1844 0
-57 -1828 1829 0
-1829 1845 0
-58 -1829 1830 0
-1830 1846 0
-59 -1830 1831 0
-1831 1847 0
-60 -1831 1832 0
-1832 1848 0
-61 -1832 0
-46 1833 0
-1833 1849 0
-47 -1833 1834 0
-1834 1850 0
-48 -1834 1835 0
-1835 1851 0
-49 -1835 1836 0
-1836 1852 0
-50 -1836 1837 0
-1837 1853 0
-51 -1837 1838 0
-1838 1854 0
-52 -1838 1839 0
-1839 1855 0
-53 -1839 1840 0
-1840 1856 0
-54 -1840 1841 0
-1841 1857 0
-55 -1841 1842 0
-1842 1858 0
-56 -1842 1843 0
-1843 1859 0
-57 -1843 1844 0
-1844 1860 0
-58 -1844 1845 0
-1845 1861 0
-59 -1845 1846 0
-1846 1862 0
-60 -1846 1847 0
-1847 1863 0
-61 -1847 1848 0
-1848 1864 0
-62 -1848 0
-47 1849 0
-1849 1865 0
-48 -1849 1850 0
-1850 1866 0
-49 -1850 1851 0
-1851 1867 0
-50 -1851 1852 0
-1852 1868 0
-51 -1852 1853 0
-1853 1869 0
-52 -1853 1854 0
-1854 1870 0
-53 -1854 1855 0
-1855 1871 0
-54 -1855 1856 0
-1856 1872 0
-55 -1856 1857 0
-1857 1873 0
-56 -1857 1858 0
-1858 1874 0
-57 -1858 1859 0
-1859 1875 0
-58 -1859 1860 0
-1860 1876 0
-59 -1860 1861 0
-1861 1877 0
-60 -1861 1862 0
-1862 1878 0
-61 -1862 1863 0
-1863 1879 0
-62 -1863 1864 0
-1864 1880 0
-63 -1864 0
-48 1865 0
-1865 1881 0
-49 -1865 1866 0
-1866 1882 0
-50 -1866 1867 0
-1867 1883 0
-51 -1867 1868 0
-1868 1884 0
-52 -1868 1869 0
-1869 1885 0
-53 -1869 1870 0
-1870 1886 0
-54 -1870 1871 0
-1871 1887 0
-55 -1871 1872 0
-1872 1888 0
-56 -1872 1873 0
-1873 1889 0
-57 -1873 1874 0
-1874 1890 0
-58 -1874 1875 0
-1875 1891 0
-59 -1875 1876 0
-1876 1892 0
-60 -1876 1877 0
-1877 1893 0
-61 -1877 1878 0
-1878 1894 0
-62 -1878 1879 0
-1879 1895 0
-63 -1879 1880 0
-1880 1896 0
-64 -1880 0
-49 1881 0
-1881 1897 0
-50 -1881 1882 0
-1882 1898 0
-51 -1882 1883 0
-1883 1899 0
-52 -1883 1884 0
-1884 1900 0
-53 -1884 1885 0
-1885 1901 0
-54 -1885 1886 0
-1886 1902 0
-55 -1886 1887 0
-1887 1903 0
-56 -1887 1888 0
-1888 1904 0
-57 -1888 1889 0
-1889 1905 0
-58 -1889 1890 0
-1890 1906 0
-59 -1890 1891 0
-1891 1907 0
-60 -1891 1892 0
-1892 1908 0
-61 -1892 1893 0
-1893 1909 0
-62 -1893 1894 0
-1894 1910 0
-63 -1894 1895 0
-1895 1911 0
-64 -1895 1896 0
-1896 1912 0
-65 -1896 0
-50 1897 0
-1897 1913 0
-51 -1897 1898 0
-1898 1914 0
-52 -1898 1899 0
-1899 1915 0
-53 -1899 1900 0
-1900 1916 0
-54 -1900 1901 0
-1901 1917 0
-55 -1901 1902 0
-1902 1918 0
-56 -1902 1903 0
-1903 1919 0
-57 -1903 1904 0
-1904 1920 0
-58 -1904 1905 0
-1905 1921 0
-59 -1905 1906 0
-1906 1922 0
-60 -1906 1907 0
-1907 1923 0
-61 -1907 1908 0
-1908 1924 0
-62 -1908 1909 0
-1909 1925 0
-63 -1909 1910 0
-1910 1926 0
-64 -1910 1911 0
-1911 1927 0
-65 -1911 1912 0
-1912 1928 0
-66 -1912 0
-51 1913 0
-1913 1929 0
-52 -1913 1914 0
-1914 1930 0
-53 -1914 1915 0
-1915 1931 0
-54 -1915 1916 0
-1916 1932 0
-55 -1916 1917 0
-1917 1933 0
-56 -1917 1918 0
-1918 1934 0
-57 -1918 1919 0
-1919 1935 0
-58 -1919 1920 0
-1920 1936 0
-59 -1920 1921 0
-1921 1937 0
-60 -1921 1922 0
-1922 1938 0
-61 -1922 1923 0
-1923 1939 0
-62 -1923 1924 0
-1924 1940 0
-63 -1924 1925 0
-1925 1941 0
-64 -1925 1926 0
-1926 1942 0
-65 -1926 1927 0
-1927 1943 0
-66 -1927 1928 0
-1928 1944 0
-67 -1928 0
-52 1929 0
-1929 1945 0
-53 -1929 1930 0
-1930 1946 0
-54 -1930 1931 0
-1931 1947 0
-55 -1931 1932 0
-1932 1948 0
-56 -1932 1933 0
-1933 1949 0
-57 -1933 1934 0
-1934 1950 0
-58 -1934 1935 0
-1935 1951 0
-59 -1935 1936 0
-1936 1952 0
-60 -1936 1937 0
-1937 1953 0
-61 -1937 1938 0
-1938 1954 0
-62 -1938 1939 0
-1939 1955 0
-63 -1939 1940 0
-1940 1956 0
-64 -1940 1941 0
-1941 1957 0
-65 -1941 1942 0
-1942 1958 0
-66 -1942 1943 0
-1943 1959 0
-67 -1943 1944 0
-1944 1960 0
-68 -1944 0
-53 1945 0
-1945 1961 0
-54 -1945 1946 0
-1946 1962 0
-55 -1946 1947 0
-1947 1963 0
-56 -1947 1948 0
-1948 1964 0
-57 -1948 1949 0
-1949 1965 0
-58 -1949 1950 0
-1950 1966 0
-59 -1950 1951 0
-1951 1967 0
-60 -1951 1952 0
-1952 1968 0
-61 -1952 1953 0
-1953 1969 0
-62 -1953 1954 0
-1954 1970 0
-63 -1954 1955 0
-1955 1971 0
-64 -1955 1956 0
-1956 1972 0
-65 -1956 1957 0
-1957 1973 0
-66 -1957 1958 0
-1958 1974 0
-67 -1958 1959 0
-1959 1975 0
-68 -1959 1960 0
-1960 1976 0
-69 -1960 0
-54 1961 0
-1961 1977 0
-55 -1961 1962 0
-1962 1978 0
-56 -1962 1963 0
-1963 1979 0
-57 -1963 1964 0
-1964 1980 0
-58 -1964 1965 0
-1965 1981 0
-59 -1965 1966 0
-1966 1982 0
-60 -1966 1967 0
-1967 1983 0
-61 -1967 1968 0
-1968 1984 0
-62 -1968 1969 0
-1969 1985 0
-63 -1969 1970 0
-1970 1986 0
-64 -1970 1971 0
-1971 1987 0
-65 -1971 1972 0
-1972 1988 0
-66 -1972 1973 0
-1973 1989 0
-67 -1973 1974 0
-1974 1990 0
-68 -1974 1975 0
-1975 1991 0
-69 -1975 1976 0
-1976 1992 0
-70 -1976 0
-55 1977 0
-1977 1993 0
-56 -1977 1978 0
-1978 1994 0
-57 -1978 1979 0
-1979 1995 0
-58 -1979 1980 0
-1980 1996 0
-59 -1980 1981 0
-1981 1997 0
-60 -1981 1982 0
-1982 1998 0
-61 -1982 1983 0
-1983 1999 0
-62 -1983 1984 0
-1984 2000 0
-63 -1984 1985 0
-1985 2001 0
-64 -1985 1986 0
-1986 2002 0
-65 -1986 1987 0
-1987 2003 0
-66 -1987 1988 0
-1988 2004 0
-67 -1988 1989 0
-1989 2005 0
-68 -1989 1990 0
-1990 2006 0
-69 -1990 1991 0
-1991 2007 0
-70 -1991 1992 0
-1992 2008 0
-71 -1992 0
-56 1993 0
-1993 2009 0
-57 -1993 1994 0
-1994 2010 0
-58 -1994 1995 0
-1995 2011 0
-59 -1995 1996 0
-1996 2012 0
-60 -1996 1997 0
-1997 2013 0
-61 -1997 1998 0
-1998 2014 0
-62 -1998 1999 0
-1999 2015 0
-63 -1999 2000 0
-2000 2016 0
-64 -2000 2001 0
-2001 2017 0
-65 -2001 2002 0
-2002 2018 0
-66 -2002 2003 0
-2003 2019 0
-67 -2003 2004 0
-2004 2020 0
-68 -2004 2005 0
-2005 2021 0
-69 -2005 2006 0
-2006 2022 0
-70 -2006 2007 0
-2007 2023 0
-71 -2007 2008 0
-2008 2024 0
-72 -2008 0
-57 2009 0
-2009 2025 0
-58 -2009 2010 0
-2010 2026 0
-59 -2010 2011 0
-2011 2027 0
-60 -2011 2012 0
-2012 2028 0
-61 -2012 2013 0
-2013 2029 0
-62 -2013 2014 0
-2014 2030 0
-63 -2014 2015 0
-2015 2031 0
-64 -2015 2016 0
-2016 2032 0
-65 -2016 2017 0
-2017 2033 0
-66 -2017 2018 0
-2018 2034 0
-67 -2018 2019 0
-2019 2035 0
-68 -2019 2020 0
-2020 2036 0
-69 -2020 2021 0
-2021 2037 0
-70 -2021 2022 0
-2022 2038 0
-71 -2022 2023 0
-2023 2039 0
-72 -2023 2024 0
-2024 2040 0
-73 -2024 0
-58 2025 0
-2025 2041 0
-59 -2025 2026 0
-2026 2042 0
-60 -2026 2027 0
-2027 2043 0
-61 -2027 2028 0
-2028 2044 0
-62 -2028 2029 0
-2029 2045 0
-63 -2029 2030 0
-2030 2046 0
-64 -2030 2031 0
-2031 2047 0
-65 -2031 2032 0
-2032 2048 0
-66 -2032 2033 0
-2033 2049 0
-67 -2033 2034 0
-2034 2050 0
-68 -2034 2035 0
-2035 2051 0
-69 -2035 2036 0
-2036 2052 0
-70 -2036 2037 0
-2037 2053 0
-71 -2037 2038 0
-2038 2054 0
-72 -2038 2039 0
-2039 2055 0
-73 -2039 2040 0
-2040 2056 0
-74 -2040 0
-59 2041 0
-2041 2057 0
-60 -2041 2042 0
-2042 2058 0
-61 -2042 2043 0
-2043 2059 0
-62 -2043 2044 0
-2044 2060 0
-63 -2044 2045 0
-2045 2061 0
-64 -2045 2046 0
-2046 2062 0
-65 -2046 2047 0
-2047 2063 0
-66 -2047 2048 0
-2048 2064 0
-67 -2048 2049 0
-2049 2065 0
-68 -2049 2050 0
-2050 2066 0
-69 -2050 2051 0
-2051 2067 0
-70 -2051 2052 0
-2052 2068 0
-71 -2052 2053 0
-2053 2069 0
-72 -2053 2054 0
-2054 2070 0
-73 -2054 2055 0
-2055 2071 0
-74 -2055 2056 0
-2056 2072 0
-75 -2056 0
-60 2057 0
-61 -2057 2058 0
-62 -2058 2059 0
-63 -2059 2060 0
-64 -2060 2061 0
-65 -2061 2062 0
-66 -2062 2063 0
-67 -2063 2064 0
-68 -2064 2065 0
-69 -2065 2066 0
-70 -2066 2067 0
-71 -2067 2068 0
-72 -2068 2069 0
-73 -2069 2070 0
-74 -2070 2071 0
-75 -2071 2072 0
-76 -2072 0
-77 2073 0
-2073 2074 0
-78 -2073 2075 0
-2075 2076 0
-79 -2075 2077 0
-2077 2078 0
-80 -2077 2079 0
-2079 2080 0
-81 -2079 2081 0
-2081 2082 0
-82 -2081 2083 0
-2083 2084 0
-83 -2083 2085 0
-2085 2086 0
-84 -2085 2087 0
-2087 2088 0
-85 -2087 2089 0
-2089 2090 0
-86 -2089 0
-78 2074 0
-2074 2091 0
-79 -2074 2076 0
-2076 2092 0
-80 -2076 2078 0
-2078 2093 0
-81 -2078 2080 0
-2080 2094 0
-82 -2080 2082 0
-2082 2095 0
-83 -2082 2084 0
-2084 2096 0
-84 -2084 2086 0
-2086 2097 0
-85 -2086 2088 0
-2088 2098 0
-86 -2088 2090 0
-2090 2099 0
-87 -2090 0
-79 2091 0
-2091 2100 0
-80 -2091 2092 0
-2092 2101 0
-81 -2092 2093 0
-2093 2102 0
-82 -2093 2094 0
-2094 2103 0
-83 -2094 2095 0
-2095 2104 0
-84 -2095 2096 0
-2096 2105 0
-85 -2096 2097 0
-2097 2106 0
-86 -2097 2098 0
-2098 2107 0
-87 -2098 2099 0
-2099 2108 0
-88 -2099 0
-80 2100 0
-2100 2109 0
-81 -2100 2101 0
-2101 2110 0
-82 -2101 2102 0
-2102 2111 0
-83 -2102 2103 0
-2103 2112 0
-84 -2103 2104 0
-2104 2113 0
-85 -2104 2105 0
-2105 2114 0
-86 -2105 2106 0
-2106 2115 0
-87 -2106 2107 0
-2107 2116 0
-88 -2107 2108 0
-2108 2117 0
-89 -2108 0
-81 2109 0
-2109 2118 0
-82 -2109 2110 0
-2110 2119 0
-83 -2110 2111 0
-2111 2120 0
-84 -2111 2112 0
-2112 2121 0
-85 -2112 2113 0
-2113 2122 0
-86 -2113 2114 0
-2114 2123 0
-87 -2114 2115 0
-2115 2124 0
-88 -2115 2116 0
-2116 2125 0
-89 -2116 2117 0
-2117 2126 0
-90 -2117 0
-82 2118 0
-2118 2127 0
-83 -2118 2119 0
-2119 2128 0
-84 -2119 2120 0
-2120 2129 0
-85 -2120 2121 0
-2121 2130 0
-86 -2121 2122 0
-2122 2131 0
-87 -2122 2123 0
-2123 2132 0
-88 -2123 2124 0
-2124 2133 0
-89 -2124 2125 0
-2125 2134 0
-90 -2125 2126 0
-2126 2135 0
-91 -2126 0
-83 2127 0
-2127 2136 0
-84 -2127 2128 0
-2128 2137 0
-85 -2128 2129 0
-2129 2138 0
-86 -2129 2130 0
-2130 2139 0
-87 -2130 2131 0
-2131 2140 0
-88 -2131 2132 0
-2132 2141 0
-89 -2132 2133 0
-2133 2142 0
-90 -2133 2134 0
-2134 2143 0
-91 -2134 2135 0
-2135 2144 0
-92 -2135 0
-84 2136 0
-2136 2145 0
-85 -2136 2137 0
-2137 2146 0
-86 -2137 2138 0
-2138 2147 0
-87 -2138 2139 0
-2139 2148 0
-88 -2139 2140 0
-2140 2149 0
-89 -2140 2141 0
-2141 2150 0
-90 -2141 2142 0
-2142 2151 0
-91 -2142 2143 0
-2143 2152 0
-92 -2143 2144 0
-2144 2153 0
-93 -2144 0
-85 2145 0
-2145 2154 0
-86 -2145 2146 0
-2146 2155 0
-87 -2146 2147 0
-2147 2156 0
-88 -2147 2148 0
-2148 2157 0
-89 -2148 2149 0
-2149 2158 0
-90 -2149 2150 0
-2150 2159 0
-91 -2150 2151 0
-2151 2160 0
-92 -2151 2152 0
-2152 2161 0
-93 -2152 2153 0
-2153 2162 0
-94 -2153 0
-86 2154 0
-2154 2163 0
-87 -2154 2155 0
-2155 2164 0
-88 -2155 2156 0
-2156 2165 0
-89 -2156 2157 0
-2157 2166 0
-90 -2157 2158 0
-2158 2167 0
-91 -2158 2159 0
-2159 2168 0
-92 -2159 2160 0
-2160 2169 0
-93 -2160 2161 0
-2161 2170 0
-94 -2161 2162 0
-2162 2171 0
-95 -2162 0
-87 2163 0
-2163 2172 0
-88 -2163 2164 0
-2164 2173 0
-89 -2164 2165 0
-2165 2174 0
-90 -2165 2166 0
-2166 2175 0
-91 -2166 2167 0
-2167 2176 0
-92 -2167 2168 0
-2168 2177 0
-93 -2168 2169 0
-2169 2178 0
-94 -2169 2170 0
-2170 2179 0
-95 -2170 2171 0
-2171 2180 0
-96 -2171 0
-88 2172 0
-2172 2181 0
-89 -2172 2173 0
-2173 2182 0
-90 -2173 2174 0
-2174 2183 0
-91 -2174 2175 0
-2175 2184 0
-92 -2175 2176 0
-2176 2185 0
-93 -2176 2177 0
-2177 2186 0
-94 -2177 2178 0
-2178 2187 0
-95 -2178 2179 0
-2179 2188 0
-96 -2179 2180 0
-2180 2189 0
-97 -2180 0
-89 2181 0
-2181 2190 0
-90 -2181 2182 0
-2182 2191 0
-91 -2182 2183 0
-2183 2192 0
-92 -2183 2184 0
-2184 2193 0
-93 -2184 2185 0
-2185 2194 0
-94 -2185 2186 0
-2186 2195 0
-95 -2186 2187 0
-2187 2196 0
-96 -2187 2188 0
-2188 2197 0
-97 -2188 2189 0
-2189 2198 0
-98 -2189 0
-90 2190 0
-2190 2199 0
-91 -2190 2191 0
-2191 2200 0
-92 -2191 2192 0
-2192 2201 0
-93 -2192 2193 0
-2193 2202 0
-94 -2193 2194 0
-2194 2203 0
-95 -2194 2195 0
-2195 2204 0
-96 -2195 2196 0
-2196 2205 0
-97 -2196 2197 0
-2197 2206 0
-98 -2197 2198 0
-2198 2207 0
-99 -2198 0
-91 2199 0
-2199 2208 0
-92 -2199 2200 0
-2200 2209 0
-93 -2200 2201 0
-2201 2210 0
-94 -2201 2202 0
-2202 2211 0
-95 -2202 2203 0
-2203 2212 0
-96 -2203 2204 0
-2204 2213 0
-97 -2204 2205 0
-2205 2214 0
-98 -2205 2206 0
-2206 2215 0
-99 -2206 2207 0
-2207 2216 0
-100 -2207 0
-92 2208 0
-2208 2217 0
-93 -2208 2209 0
-2209 2218 0
-94 -2209 2210 0
-2210 2219 0
-95 -2210 2211 0
-2211 2220 0
-96 -2211 2212 0
-2212 2221 0
-97 -2212 2213 0
-2213 2222 0
-98 -2213 2214 0
-2214 2223 0
-99 -2214 2215 0
-2215 2224 0
-100 -2215 2216 0
-2216 2225 0
-101 -2216 0
-93 2217 0
-2217 2226 0
-94 -2217 2218 0
-2218 2227 0
-95 -2218 2219 0
-2219 2228 0
-96 -2219 2220 0
-2220 2229 0
-97 -2220 2221 0
-2221 2230 0
-98 -2221 2222 0
-2222 2231 0
-99 -2222 2223 0
-2223 2232 0
-100 -2223 2224 0
-2224 2233 0
-101 -2224 2225 0
-2225 2234 0
-102 -2225 0
-94 2226 0
-2226 2235 0
-95 -2226 2227 0
-2227 2236 0
-96 -2227 2228 0
-2228 2237 0
-97 -2228 2229 0
-2229 2238 0
-98 -2229 2230 0
-2230 2239 0
-99 -2230 2231 0
-2231 2240 0
-100 -2231 2232 0
-2232 2241 0
-101 -2232 2233 0
-2233 2242 0
-102 -2233 2234 0
-2234 2243 0
-103 -2234 0
-95 2235 0
-2235 2244 0
-96 -2235 2236 0
-2236 2245 0
-97 -2236 2237 0
-2237 2246 0
-98 -2237 2238 0
-2238 2247 0
-99 -2238 2239 0
-2239 2248 0
-100 -2239 2240 0
-2240 2249 0
-101 -2240 2241 0
-2241 2250 0
-102 -2241 2242 0
-2242 2251 0
-103 -2242 2243 0
-2243 2252 0
-104 -2243 0
-96 2244 0
-2244 2253 0
-97 -2244 2245 0
-2245 2254 0
-98 -2245 2246 0
-2246 2255 0
-99 -2246 2247 0
-2247 2256 0
-100 -2247 2248 0
-2248 2257 0
-101 -2248 2249 0
-2249 2258 0
-102 -2249 2250 0
-2250 2259 0
-103 -2250 2251 0
-2251 2260 0
-104 -2251 2252 0
-2252 2261 0
-105 -2252 0
-97 2253 0
-2253 2262 0
-98 -2253 2254 0
-2254 2263 0
-99 -2254 2255 0
-2255 2264 0
-100 -2255 2256 0
-2256 2265 0
-101 -2256 2257 0
-2257 2266 0
-102 -2257 2258 0
-2258 2267 0
-103 -2258 2259 0
-2259 2268 0
-104 -2259 2260 0
-2260 2269 0
-105 -2260 2261 0
-2261 2270 0
-106 -2261 0
-98 2262 0
-2262 2271 0
-99 -2262 2263 0
-2263 2272 0
-100 -2263 2264 0
-2264 2273 0
-101 -2264 2265 0
-2265 2274 0
-102 -2265 2266 0
-2266 2275 0
-103 -2266 2267 0
-2267 2276 0
-104 -2267 2268 0
-2268 2277 0
-105 -2268 2269 0
-2269 2278 0
-106 -2269 2270 0
-2270 2279 0
-107 -2270 0
-99 2271 0
-2271 2280 0
-100 -2271 2272 0
-2272 2281 0
-101 -2272 2273 0
-2273 2282 0
-102 -2273 2274 0
-2274 2283 0
-103 -2274 2275 0
-2275 2284 0
-104 -2275 2276 0
-2276 2285 0
-105 -2276 2277 0
-2277 2286 0
-106 -2277 2278 0
-2278 2287 0
-107 -2278 2279 0
-2279 2288 0
-108 -2279 0
-100 2280 0
-2280 2289 0
-101 -2280 2281 0
-2281 2290 0
-102 -2281 2282 0
-2282 2291 0
-103 -2282 2283 0
-2283 2292 0
-104 -2283 2284 0
-2284 2293 0
-105 -2284 2285 0
-2285 2294 0
-106 -2285 2286 0
-2286 2295 0
-107 -2286 2287 0
-2287 2296 0
-108 -2287 2288 0
-2288 2297 0
-109 -2288 0
-101 2289 0
-2289 2298 0
-102 -2289 2290 0
-2290 2299 0
-103 -2290 2291 0
-2291 2300 0
-104 -2291 2292 0
-2292 2301 0
-105 -2292 2293 0
-2293 2302 0
-106 -2293 2294 0
-2294 2303 0
-107 -2294 2295 0
-2295 2304 0
-108 -2295 2296 0
-2296 2305 0
-109 -2296 2297 0
-2297 2306 0
-110 -2297 0
-102 2298 0
-2298 2307 0
-103 -2298 2299 0
-2299 2308 0
-104 -2299 2300 0
-2300 2309 0
-105 -2300 2301 0
-2301 2310 0
-106 -2301 2302 0
-2302 2311 0
-107 -2302 2303 0
-2303 2312 0
-108 -2303 2304 0
-2304 2313 0
-109 -2304 2305 0
-2305 2314 0
-110 -2305 2306 0
-2306 2315 0
-111 -2306 0
-103 2307 0
-2307 2316 0
-104 -2307 2308 0
-2308 2317 0
-105 -2308 2309 0
-2309 2318 0
-106 -2309 2310 0
-2310 2319 0
-107 -2310 2311 0
-2311 2320 0
-108 -2311 2312 0
-2312 2321 0
-109 -2312 2313 0
-2313 2322 0
-110 -2313 2314 0
-2314 2323 0
-111 -2314 2315 0
-2315 2324 0
-112 -2315 0
-104 2316 0
-2316 2325 0
-105 -2316 2317 0
-2317 2326 0
-106 -2317 2318 0
-2318 2327 0
-107 -2318 2319 0
-2319 2328 0
-108 -2319 2320 0
-2320 2329 0
-109 -2320 2321 0
-2321 2330 0
-110 -2321 2322 0
-2322 2331 0
-111 -2322 2323 0
-2323 2332 0
-112 -2323 2324 0
-2324 2333 0
-113 -2324 0
-105 2325 0
-2325 2334 0
-106 -2325 2326 0
-2326 2335 0
-107 -2326 2327 0
-2327 2336 0
-108 -2327 2328 0
-2328 2337 0
-109 -2328 2329 0
-2329 2338 0
-110 -2329 2330 0
-2330 2339 0
-111 -2330 2331 0
-2331 2340 0
-112 -2331 2332 0
-2332 2341 0
-113 -2332 2333 0
-2333 2342 0
-114 -2333 0
-106 2334 0
-2334 2343 0
-107 -2334 2335 0
-2335 2344 0
-108 -2335 2336 0
-2336 2345 0
-109 -2336 2337 0
-2337 2346 0
-110 -2337 2338 0
-2338 2347 0
-111 -2338 2339 0
-2339 2348 0
-112 -2339 2340 0
-2340 2349 0
-113 -2340 2341 0
-2341 2350 0
-114 -2341 2342 0
-2342 2351 0
-115 -2342 0
-107 2343 0
-2343 2352 0
-108 -2343 2344 0
-2344 2353 0
-109 -2344 2345 0
-2345 2354 0
-110 -2345 2346 0
-2346 2355 0
-111 -2346 2347 0
-2347 2356 0
-112 -2347 2348 0
-2348 2357 0
-113 -2348 2349 0
-2349 2358 0
-114 -2349 2350 0
-2350 2359 0
-115 -2350 2351 0
-2351 2360 0
-116 -2351 0
-108 2352 0
-2352 2361 0
-109 -2352 2353 0
-2353 2362 0
-110 -2353 2354 0
-2354 2363 0
-111 -2354 2355 0
-2355 2364 0
-112 -2355 2356 0
-2356 2365 0
-113 -2356 2357 0
-2357 2366 0
-114 -2357 2358 0
-2358 2367 0
-115 -2358 2359 0
-2359 2368 0
-116 -2359 2360 0
-2360 2369 0
-117 -2360 0
-109 2361 0
-2361 2370 0
-110 -2361 2362 0
-2362 2371 0
-111 -2362 2363 0
-2363 2372 0
-112 -2363 2364 0
-2364 2373 0
-113 -2364 2365 0
-2365 2374 0
-114 -2365 2366 0
-2366 2375 0
-115 -2366 2367 0
-2367 2376 0
-116 -2367 2368 0
-2368 2377 0
-117 -2368 2369 0
-2369 2378 0
-118 -2369 0
-110 2370 0
-2370 2379 0
-111 -2370 2371 0
-2371 2380 0
-112 -2371 2372 0
-2372 2381 0
-113 -2372 2373 0
-2373 2382 0
-114 -2373 2374 0
-2374 2383 0
-115 -2374 2375 0
-2375 2384 0
-116 -2375 2376 0
-2376 2385 0
-117 -2376 2377 0
-2377 2386 0
-118 -2377 2378 0
-2378 2387 0
-119 -2378 0
-111 2379 0
-2379 2388 0
-112 -2379 2380 0
-2380 2389 0
-113 -2380 2381 0
-2381 2390 0
-114 -2381 2382 0
-2382 2391 0
-115 -2382 2383 0
-2383 2392 0
-116 -2383 2384 0
-2384 2393 0
-117 -2384 2385 0
-2385 2394 0
-118 -2385 2386 0
-2386 2395 0
-119 -2386 2387 0
-2387 2396 0
-120 -2387 0
-112 2388 0
-2388 2397 0
-113 -2388 2389 0
-2389 2398 0
-114 -2389 2390 0
-2390 2399 0
-115 -2390 2391 0
-2391 2400 0
-116 -2391 2392 0
-2392 2401 0
-117 -2392 2393 0
-2393 2402 0
-118 -2393 2394 0
-2394 2403 0
-119 -2394 2395 0
-2395 2404 0
-120 -2395 2396 0
-2396 2405 0
-121 -2396 0
-113 2397 0
-2397 2406 0
-114 -2397 2398 0
-2398 2407 0
-115 -2398 2399 0
-2399 2408 0
-116 -2399 2400 0
-2400 2409 0
-117 -2400 2401 0
-2401 2410 0
-118 -2401 2402 0
-2402 2411 0
-119 -2402 2403 0
-2403 2412 0
-120 -2403 2404 0
-2404 2413 0
-121 -2404 2405 0
-2405 2414 0
-122 -2405 0
-114 2406 0
-2406 2415 0
-115 -2406 2407 0
-2407 2416 0
-116 -2407 2408 0
-2408 2417 0
-117 -2408 2409 0
-2409 2418 0
-118 -2409 2410 0
-2410 2419 0
-119 -2410 2411 0
-2411 2420 0
-120 -2411 2412 0
-2412 2421 0
-121 -2412 2413 0
-2413 2422 0
-122 -2413 2414 0
-2414 2423 0
-123 -2414 0
-115 2415 0
-2415 2424 0
-116 -2415 2416 0
-2416 2425 0
-117 -2416 2417 0
-2417 2426 0
-118 -2417 2418 0
-2418 2427 0
-119 -2418 2419 0
-2419 2428 0
-120 -2419 2420 0
-2420 2429 0
-121 -2420 2421 0
-2421 2430 0
-122 -2421 2422 0
-2422 2431 0
-123 -2422 2423 0
-2423 2432 0
-124 -2423 0
-116 2424 0
-2424 2433 0
-117 -2424 2425 0
-2425 2434 0
-118 -2425 2426 0
-2426 2435 0
-119 -2426 2427 0
-2427 2436 0
-120 -2427 2428 0
-2428 2437 0
-121 -2428 2429 0
-2429 2438 0
-122 -2429 2430 0
-2430 2439 0
-123 -2430 2431 0
-2431 2440 0
-124 -2431 2432 0
-2432 2441 0
-125 -2432 0
-117 2433 0
-2433 2442 0
-118 -2433 2434 0
-2434 2443 0
-119 -2434 2435 0
-2435 2444 0
-120 -2435 2436 0
-2436 2445 0
-121 -2436 2437 0
-2437 2446 0
-122 -2437 2438 0
-2438 2447 0
-123 -2438 2439 0
-2439 2448 0
-124 -2439 2440 0
-2440 2449 0
-125 -2440 2441 0
-2441 2450 0
-126 -2441 0
-118 2442 0
-2442 2451 0
-119 -2442 2443 0
-2443 2452 0
-120 -2443 2444 0
-2444 2453 0
-121 -2444 2445 0
-2445 2454 0
-122 -2445 2446 0
-2446 2455 0
-123 -2446 2447 0
-2447 2456 0
-124 -2447 2448 0
-2448 2457 0
-125 -2448 2449 0
-2449 2458 0
-126 -2449 2450 0
-2450 2459 0
-127 -2450 0
-119 2451 0
-2451 2460 0
-120 -2451 2452 0
-2452 2461 0
-121 -2452 2453 0
-2453 2462 0
-122 -2453 2454 0
-2454 2463 0
-123 -2454 2455 0
-2455 2464 0
-124 -2455 2456 0
-2456 2465 0
-125 -2456 2457 0
-2457 2466 0
-126 -2457 2458 0
-2458 2467 0
-127 -2458 2459 0
-2459 2468 0
-128 -2459 0
-120 2460 0
-2460 2469 0
-121 -2460 2461 0
-2461 2470 0
-122 -2461 2462 0
-2462 2471 0
-123 -2462 2463 0
-2463 2472 0
-124 -2463 2464 0
-2464 2473 0
-125 -2464 2465 0
-2465 2474 0
-126 -2465 2466 0
-2466 2475 0
-127 -2466 2467 0
-2467 2476 0
-128 -2467 2468 0
-2468 2477 0
-129 -2468 0
-121 2469 0
-2469 2478 0
-122 -2469 2470 0
-2470 2479 0
-123 -2470 2471 0
-2471 2480 0
-124 -2471 2472 0
-2472 2481 0
-125 -2472 2473 0
-2473 2482 0
-126 -2473 2474 0
-2474 2483 0
-127 -2474 2475 0
-2475 2484 0
-128 -2475 2476 0
-2476 2485 0
-129 -2476 2477 0
-2477 2486 0
-130 -2477 0
-122 2478 0
-2478 2487 0
-123 -2478 2479 0
-2479 2488 0
-124 -2479 2480 0
-2480 2489 0
-125 -2480 2481 0
-2481 2490 0
-126 -2481 2482 0
-2482 2491 0
-127 -2482 2483 0
-2483 2492 0
-128 -2483 2484 0
-2484 2493 0
-129 -2484 2485 0
-2485 2494 0
-130 -2485 2486 0
-2486 2495 0
-131 -2486 0
-123 2487 0
-2487 2496 0
-124 -2487 2488 0
-2488 2497 0
-125 -2488 2489 0
-2489 2498 0
-126 -2489 2490 0
-2490 2499 0
-127 -2490 2491 0
-2491 2500 0
-128 -2491 2492 0
-2492 2501 0
-129 -2492 2493 0
-2493 2502 0
-130 -2493 2494 0
-2494 2503 0
-131 -2494 2495 0
-2495 2504 0
-132 -2495 0
-124 2496 0
-2496 2505 0
-125 -2496 2497 0
-2497 2506 0
-126 -2497 2498 0
-2498 2507 0
-127 -2498 2499 0
-2499 2508 0
-128 -2499 2500 0
-2500 2509 0
-129 -2500 2501 0
-2501 2510 0
-130 -2501 2502 0
-2502 2511 0
-131 -2502 2503 0
-2503 2512 0
-132 -2503 2504 0
-2504 2513 0
-133 -2504 0
-125 2505 0
-2505 2514 0
-126 -2505 2506 0
-2506 2515 0
-127 -2506 2507 0
-2507 2516 0
-128 -2507 2508 0
-2508 2517 0
-129 -2508 2509 0
-2509 2518 0
-130 -2509 2510 0
-2510 2519 0
-131 -2510 2511 0
-2511 2520 0
-132 -2511 2512 0
-2512 2521 0
-133 -2512 2513 0
-2513 2522 0
-134 -2513 0
-126 2514 0
-2514 2523 0
-127 -2514 2515 0
-2515 2524 0
-128 -2515 2516 0
-2516 2525 0
-129 -2516 2517 0
-2517 2526 0
-130 -2517 2518 0
-2518 2527 0
-131 -2518 2519 0
-2519 2528 0
-132 -2519 2520 0
-2520 2529 0
-133 -2520 2521 0
-2521 2530 0
-134 -2521 2522 0
-2522 2531 0
-135 -2522 0
-127 2523 0
-2523 2532 0
-128 -2523 2524 0
-2524 2533 0
-129 -2524 2525 0
-2525 2534 0
-130 -2525 2526 0
-2526 2535 0
-131 -2526 2527 0
-2527 2536 0
-132 -2527 2528 0
-2528 2537 0
-133 -2528 2529 0
-2529 2538 0
-134 -2529 2530 0
-2530 2539 0
-135 -2530 2531 0
-2531 2540 0
-136 -2531 0
-128 2532 0
-2532 2541 0
-129 -2532 2533 0
-2533 2542 0
-130 -2533 2534 0
-2534 2543 0
-131 -2534 2535 0
-2535 2544 0
-132 -2535 2536 0
-2536 2545 0
-133 -2536 2537 0
-2537 2546 0
-134 -2537 2538 0
-2538 2547 0
-135 -2538 2539 0
-2539 2548 0
-136 -2539 2540 0
-2540 2549 0
-137 -2540 0
-129 2541 0
-2541 2550 0
-130 -2541 2542 0
-2542 2551 0
-131 -2542 2543 0
-2543 2552 0
-132 -2543 2544 0
-2544 2553 0
-133 -2544 2545 0
-2545 2554 0
-134 -2545 2546 0
-2546 2555 0
-135 -2546 2547 0
-2547 2556 0
-136 -2547 2548 0
-2548 2557 0
-137 -2548 2549 0
-2549 2558 0
-138 -2549 0
-130 2550 0
-2550 2559 0
-131 -2550 2551 0
-2551 2560 0
-132 -2551 2552 0
-2552 2561 0
-133 -2552 2553 0
-2553 2562 0
-134 -2553 2554 0
-2554 2563 0
-135 -2554 2555 0
-2555 2564 0
-136 -2555 2556 0
-2556 2565 0
-137 -2556 2557 0
-2557 2566 0
-138 -2557 2558 0
-2558 2567 0
-139 -2558 0
-131 2559 0
-2559 2568 0
-132 -2559 2560 0
-2560 2569 0
-133 -2560 2561 0
-2561 2570 0
-134 -2561 2562 0
-2562 2571 0
-135 -2562 2563 0
-2563 2572 0
-136 -2563 2564 0
-2564 2573 0
-137 -2564 2565 0
-2565 2574 0
-138 -2565 2566 0
-2566 2575 0
-139 -2566 2567 0
-2567 2576 0
-140 -2567 0
-132 2568 0
-2568 2577 0
-133 -2568 2569 0
-2569 2578 0
-134 -2569 2570 0
-2570 2579 0
-135 -2570 2571 0
-2571 2580 0
-136 -2571 2572 0
-2572 2581 0
-137 -2572 2573 0
-2573 2582 0
-138 -2573 2574 0
-2574 2583 0
-139 -2574 2575 0
-2575 2584 0
-140 -2575 2576 0
-2576 2585 0
-141 -2576 0
-133 2577 0
-2577 2586 0
-134 -2577 2578 0
-2578 2587 0
-135 -2578 2579 0
-2579 2588 0
-136 -2579 2580 0
-2580 2589 0
-137 -2580 2581 0
-2581 2590 0
-138 -2581 2582 0
-2582 2591 0
-139 -2582 2583 0
-2583 2592 0
-140 -2583 2584 0
-2584 2593 0
-141 -2584 2585 0
-2585 2594 0
-142 -2585 0
-134 2586 0
-2586 2595 0
-135 -2586 2587 0
-2587 2596 0
-136 -2587 2588 0
-2588 2597 0
-137 -2588 2589 0
-2589 2598 0
-138 -2589 2590 0
-2590 2599 0
-139 -2590 2591 0
-2591 2600 0
-140 -2591 2592 0
-2592 2601 0
-141 -2592 2593 0
-2593 2602 0
-142 -2593 2594 0
-2594 2603 0
-143 -2594 0
-135 2595 0
-2595 2604 0
-136 -2595 2596 0
-2596 2605 0
-137 -2596 2597 0
-2597 2606 0
-138 -2597 2598 0
-2598 2607 0
-139 -2598 2599 0
-2599 2608 0
-140 -2599 2600 0
-2600 2609 0
-141 -2600 2601 0
-2601 2610 0
-142 -2601 2602 0
-2602 2611 0
-143 -2602 2603 0
-2603 2612 0
-144 -2603 0
-136 2604 0
-2604 2613 0
-137 -2604 2605 0
-2605 2614 0
-138 -2605 2606 0
-2606 2615 0
-139 -2606 2607 0
-2607 2616 0
-140 -2607 2608 0
-2608 2617 0
-141 -2608 2609 0
-2609 2618 0
-142 -2609 2610 0
-2610 2619 0
-143 -2610 2611 0
-2611 2620 0
-144 -2611 2612 0
-2612 2621 0
-145 -2612 0
-137 2613 0
-2613 2622 0
-138 -2613 2614 0
-2614 2623 0
-139 -2614 2615 0
-2615 2624 0
-140 -2615 2616 0
-2616 2625 0
-141 -2616 2617 0
-2617 2626 0
-142 -2617 2618 0
-2618 2627 0
-143 -2618 2619 0
-2619 2628 0
-144 -2619 2620 0
-2620 2629 0
-145 -2620 2621 0
-2621 2630 0
-146 -2621 0
-138 2622 0
-2622 2631 0
-139 -2622 2623 0
-2623 2632 0
-140 -2623 2624 0
-2624 2633 0
-141 -2624 2625 0
-2625 2634 0
-142 -2625 2626 0
-2626 2635 0
-143 -2626 2627 0
-2627 2636 0
-144 -2627 2628 0
-2628 2637 0
-145 -2628 2629 0
-2629 2638 0
-146 -2629 2630 0
-2630 2639 0
-147 -2630 0
-139 2631 0
-2631 2640 0
-140 -2631 2632 0
-2632 2641 0
-141 -2632 2633 0
-2633 2642 0
-142 -2633 2634 0
-2634 2643 0
-143 -2634 2635 0
-2635 2644 0
-144 -2635 2636 0
-2636 2645 0
-145 -2636 2637 0
-2637 2646 0
-146 -2637 2638 0
-2638 2647 0
-147 -2638 2639 0
-2639 2648 0
-148 -2639 0
-140 2640 0
-2640 2649 0
-141 -2640 2641 0
-2641 2650 0
-142 -2641 2642 0
-2642 2651 0
-143 -2642 2643 0
-2643 2652 0
-144 -2643 2644 0
-2644 2653 0
-145 -2644 2645 0
-2645 2654 0
-146 -2645 2646 0
-2646 2655 0
-147 -2646 2647 0
-2647 2656 0
-148 -2647 2648 0
-2648 2657 0
-149 -2648 0
-141 2649 0
-2649 2658 0
-142 -2649 2650 0
-2650 2659 0
-143 -2650 2651 0
-2651 2660 0
-144 -2651 2652 0
-2652 2661 0
-145 -2652 2653 0
-2653 2662 0
-146 -2653 2654 0
-2654 2663 0
-147 -2654 2655 0
-2655 2664 0
-148 -2655 2656 0
-2656 2665 0
-149 -2656 2657 0
-2657 2666 0
-150 -2657 0
-142 2658 0
-2658 2667 0
-143 -2658 2659 0
-2659 2668 0
-144 -2659 2660 0
-2660 2669 0
-145 -2660 2661 0
-2661 2670 0
-146 -2661 2662 0
-2662 2671 0
-147 -2662 2663 0
-2663 2672 0
-148 -2663 2664 0
-2664 2673 0
-149 -2664 2665 0
-2665 2674 0
-150 -2665 2666 0
-2666 2675 0
-151 -2666 0
-143 2667 0
-144 -2667 2668 0
-145 -2668 2669 0
-146 -2669 2670 0
-147 -2670 2671 0
-148 -2671 2672 0
-149 -2672 2673 0
-150 -2673 2674 0
-151 -2674 2675 0
-152 -2675 0
1 39 0
