p cnf 2331 4781
-69 -1 0
-69 2 34 35 0
-2 1 69 0
-34 1 69 0
-35 1 69 0
-70 -2 0
-70 1 3 36 0
-1 2 70 0
-3 2 70 0
-36 2 70 0
-71 -3 0
-71 2 4 37 0
-2 3 71 0
-4 3 71 0
-37 3 71 0
-72 -4 0
-72 3 5 38 0
-3 4 72 0
-5 4 72 0
-38 4 72 0
-73 -5 0
-73 4 6 39 0
-4 5 73 0
-6 5 73 0
-39 5 73 0
-74 -6 0
-74 5 7 40 0
-5 6 74 0
-7 6 74 0
-40 6 74 0
-75 -7 0
-75 6 8 41 0
-6 7 75 0
-8 7 75 0
-41 7 75 0
-76 -8 0
-76 7 9 42 0
-7 8 76 0
-9 8 76 0
-42 8 76 0
-77 -9 0
-77 8 10 43 0
-8 9 77 0
-10 9 77 0
-43 9 77 0
-78 -10 0
-78 9 11 44 0
-9 10 78 0
-11 10 78 0
-44 10 78 0
-79 -11 0
-79 10 12 45 0
-10 11 79 0
-12 11 79 0
-45 11 79 0
-80 -12 0
-80 11 13 46 0
-11 12 80 0
-13 12 80 0
-46 12 80 0
-81 -13 0
-81 12 14 47 0
-12 13 81 0
-14 13 81 0
-47 13 81 0
-82 -14 0
-82 13 15 48 0
-13 14 82 0
-15 14 82 0
-48 14 82 0
-83 -15 0
-83 14 16 49 0
-14 15 83 0
-16 15 83 0
-49 15 83 0
-84 -16 0
-84 15 17 50 0
-15 16 84 0
-17 16 84 0
-50 16 84 0
-85 -17 0
-85 16 18 51 0
-16 17 85 0
-18 17 85 0
-51 17 85 0
-86 -18 0
-86 17 19 52 0
-17 18 86 0
-19 18 86 0
-52 18 86 0
-87 -19 0
-87 18 20 53 0
-18 19 87 0
-20 19 87 0
-53 19 87 0
-88 -20 0
-88 19 21 54 0
-19 20 88 0
-21 20 88 0
-54 20 88 0
-89 -21 0
-89 20 22 55 0
-20 21 89 0
-22 21 89 0
-55 21 89 0
-90 -22 0
-90 21 23 56 0
-21 22 90 0
-23 22 90 0
-56 22 90 0
-91 -23 0
-91 22 24 57 0
-22 23 91 0
-24 23 91 0
-57 23 91 0
-92 -24 0
-92 23 25 58 0
-23 24 92 0
-25 24 92 0
-58 24 92 0
-93 -25 0
-93 24 26 59 0
-24 25 93 0
-26 25 93 0
-59 25 93 0
-94 -26 0
-94 25 27 60 0
-25 26 94 0
-27 26 94 0
-60 26 94 0
-95 -27 0
-95 26 28 61 0
-26 27 95 0
-28 27 95 0
-61 27 95 0
-96 -28 0
-96 27 29 62 0
-27 28 96 0
-29 28 96 0
-62 28 96 0
-97 -29 0
-97 28 30 63 0
-28 29 97 0
-30 29 97 0
-63 29 97 0
-98 -30 0
-98 29 31 64 0
-29 30 98 0
-31 30 98 0
-64 30 98 0
-99 -31 0
-99 30 32 65 0
-30 31 99 0
-32 31 99 0
-65 31 99 0
-100 -32 0
-100 31 33 66 0
-31 32 100 0
-33 32 100 0
-66 32 100 0
-101 -33 0
-101 32 34 67 0
-32 33 101 0
-34 33 101 0
-67 33 101 0
-102 -34 0
-102 1 33 68 0
-1 34 102 0
-33 34 102 0
-68 34 102 0
-103 -35 0
-103 1 39 65 0
-1 35 103 0
-39 35 103 0
-65 35 103 0
-104 -36 0
-104 2 40 66 0
-2 36 104 0
-40 36 104 0
-66 36 104 0
-105 -37 0
-105 3 41 67 0
-3 37 105 0
-41 37 105 0
-67 37 105 0
-106 -38 0
-106 4 42 68 0
-4 38 106 0
-42 38 106 0
-68 38 106 0
-107 -39 0
-107 5 35 43 0
-5 39 107 0
-35 39 107 0
-43 39 107 0
-108 -40 0
-108 6 36 44 0
-6 40 108 0
-36 40 108 0
-44 40 108 0
-109 -41 0
-109 7 37 45 0
-7 41 109 0
-37 41 109 0
-45 41 109 0
-110 -42 0
-110 8 38 46 0
-8 42 110 0
-38 42 110 0
-46 42 110 0
-111 -43 0
-111 9 39 47 0
-9 43 111 0
-39 43 111 0
-47 43 111 0
-112 -44 0
-112 10 40 48 0
-10 44 112 0
-40 44 112 0
-48 44 112 0
-113 -45 0
-113 11 41 49 0
-11 45 113 0
-41 45 113 0
-49 45 113 0
-114 -46 0
-114 12 42 50 0
-12 46 114 0
-42 46 114 0
-50 46 114 0
-115 -47 0
-115 13 43 51 0
-13 47 115 0
-43 47 115 0
-51 47 115 0
-116 -48 0
-116 14 44 52 0
-14 48 116 0
-44 48 116 0
-52 48 116 0
-117 -49 0
-117 15 45 53 0
-15 49 117 0
-45 49 117 0
-53 49 117 0
-118 -50 0
-118 16 46 54 0
-16 50 118 0
-46 50 118 0
-54 50 118 0
-119 -51 0
-119 17 47 55 0
-17 51 119 0
-47 51 119 0
-55 51 119 0
-120 -52 0
-120 18 48 56 0
-18 52 120 0
-48 52 120 0
-56 52 120 0
-121 -53 0
-121 19 49 57 0
-19 53 121 0
-49 53 121 0
-57 53 121 0
-122 -54 0
-122 20 50 58 0
-20 54 122 0
-50 54 122 0
-58 54 122 0
-123 -55 0
-123 21 51 59 0
-21 55 123 0
-51 55 123 0
-59 55 123 0
-124 -56 0
-124 22 52 60 0
-22 56 124 0
-52 56 124 0
-60 56 124 0
-125 -57 0
-125 23 53 61 0
-23 57 125 0
-53 57 125 0
-61 57 125 0
-126 -58 0
-126 24 54 62 0
-24 58 126 0
-54 58 126 0
-62 58 126 0
-127 -59 0
-127 25 55 63 0
-25 59 127 0
-55 59 127 0
-63 59 127 0
-128 -60 0
-128 26 56 64 0
-26 60 128 0
-56 60 128 0
-64 60 128 0
-129 -61 0
-129 27 57 65 0
-27 61 129 0
-57 61 129 0
-65 61 129 0
-130 -62 0
-130 28 58 66 0
-28 62 130 0
-58 62 130 0
-66 62 130 0
-131 -63 0
-131 29 59 67 0
-29 63 131 0
-59 63 131 0
-67 63 131 0
-132 -64 0
-132 30 60 68 0
-30 64 132 0
-60 64 132 0
-68 64 132 0
-133 -65 0
-133 31 35 61 0
-31 65 133 0
-35 65 133 0
-61 65 133 0
-134 -66 0
-134 32 36 62 0
-32 66 134 0
-36 66 134 0
-62 66 134 0
-135 -67 0
-135 33 37 63 0
-33 67 135 0
-37 67 135 0
-63 67 135 0
-136 -68 0
-136 34 38 64 0
-34 68 136 0
-38 68 136 0
-64 68 136 0
1 137 0
-137 138 0
2 -137 139 0
-139 140 0
3 -139 141 0
-141 142 0
4 -141 143 0
-143 144 0
5 -143 145 0
-145 146 0
6 -145 147 0
-147 148 0
7 -147 149 0
-149 150 0
8 -149 151 0
-151 152 0
9 -151 153 0
-153 154 0
10 -153 155 0
-155 156 0
11 -155 157 0
-157 158 0
12 -157 159 0
-159 160 0
13 -159 161 0
-161 162 0
14 -161 163 0
-163 164 0
15 -163 165 0
-165 166 0
16 -165 167 0
-167 168 0
17 -167 169 0
-169 170 0
18 -169 171 0
-171 172 0
19 -171 173 0
-173 174 0
20 -173 175 0
-175 176 0
21 -175 177 0
-177 178 0
22 -177 179 0
-179 180 0
23 -179 181 0
-181 182 0
24 -181 183 0
-183 184 0
25 -183 185 0
-185 186 0
26 -185 187 0
-187 188 0
27 -187 189 0
-189 190 0
28 -189 191 0
-191 192 0
29 -191 193 0
-193 194 0
30 -193 195 0
-195 196 0
31 -195 197 0
-197 198 0
32 -197 199 0
-199 200 0
33 -199 201 0
-201 202 0
34 -201 203 0
-203 204 0
35 -203 205 0
-205 206 0
36 -205 207 0
-207 208 0
37 -207 209 0
-209 210 0
38 -209 211 0
-211 212 0
39 -211 213 0
-213 214 0
40 -213 215 0
-215 216 0
41 -215 217 0
-217 218 0
42 -217 219 0
-219 220 0
43 -219 221 0
-221 222 0
44 -221 223 0
-223 224 0
45 -223 225 0
-225 226 0
46 -225 227 0
-227 228 0
47 -227 229 0
-229 230 0
48 -229 231 0
-231 232 0
49 -231 233 0
-233 234 0
50 -233 235 0
-235 236 0
51 -235 237 0
-237 238 0
52 -237 239 0
-239 240 0
53 -239 0
2 138 0
-138 241 0
3 -138 140 0
-140 242 0
4 -140 142 0
-142 243 0
5 -142 144 0
-144 244 0
6 -144 146 0
-146 245 0
7 -146 148 0
-148 246 0
8 -148 150 0
-150 247 0
9 -150 152 0
-152 248 0
10 -152 154 0
-154 249 0
11 -154 156 0
-156 250 0
12 -156 158 0
-158 251 0
13 -158 160 0
-160 252 0
14 -160 162 0
-162 253 0
15 -162 164 0
-164 254 0
16 -164 166 0
-166 255 0
17 -166 168 0
-168 256 0
18 -168 170 0
-170 257 0
19 -170 172 0
-172 258 0
20 -172 174 0
-174 259 0
21 -174 176 0
-176 260 0
22 -176 178 0
-178 261 0
23 -178 180 0
-180 262 0
24 -180 182 0
-182 263 0
25 -182 184 0
-184 264 0
26 -184 186 0
-186 265 0
27 -186 188 0
-188 266 0
28 -188 190 0
-190 267 0
29 -190 192 0
-192 268 0
30 -192 194 0
-194 269 0
31 -194 196 0
-196 270 0
32 -196 198 0
-198 271 0
33 -198 200 0
-200 272 0
34 -200 202 0
-202 273 0
35 -202 204 0
-204 274 0
36 -204 206 0
-206 275 0
37 -206 208 0
-208 276 0
38 -208 210 0
-210 277 0
39 -210 212 0
-212 278 0
40 -212 214 0
-214 279 0
41 -214 216 0
-216 280 0
42 -216 218 0
-218 281 0
43 -218 220 0
-220 282 0
44 -220 222 0
-222 283 0
45 -222 224 0
-224 284 0
46 -224 226 0
-226 285 0
47 -226 228 0
-228 286 0
48 -228 230 0
-230 287 0
49 -230 232 0
-232 288 0
50 -232 234 0
-234 289 0
51 -234 236 0
-236 290 0
52 -236 238 0
-238 291 0
53 -238 240 0
-240 292 0
54 -240 0
3 241 0
-241 293 0
4 -241 242 0
-242 294 0
5 -242 243 0
-243 295 0
6 -243 244 0
-244 296 0
7 -244 245 0
-245 297 0
8 -245 246 0
-246 298 0
9 -246 247 0
-247 299 0
10 -247 248 0
-248 300 0
11 -248 249 0
-249 301 0
12 -249 250 0
-250 302 0
13 -250 251 0
-251 303 0
14 -251 252 0
-252 304 0
15 -252 253 0
-253 305 0
16 -253 254 0
-254 306 0
17 -254 255 0
-255 307 0
18 -255 256 0
-256 308 0
19 -256 257 0
-257 309 0
20 -257 258 0
-258 310 0
21 -258 259 0
-259 311 0
22 -259 260 0
-260 312 0
23 -260 261 0
-261 313 0
24 -261 262 0
-262 314 0
25 -262 263 0
-263 315 0
26 -263 264 0
-264 316 0
27 -264 265 0
-265 317 0
28 -265 266 0
-266 318 0
29 -266 267 0
-267 319 0
30 -267 268 0
-268 320 0
31 -268 269 0
-269 321 0
32 -269 270 0
-270 322 0
33 -270 271 0
-271 323 0
34 -271 272 0
-272 324 0
35 -272 273 0
-273 325 0
36 -273 274 0
-274 326 0
37 -274 275 0
-275 327 0
38 -275 276 0
-276 328 0
39 -276 277 0
-277 329 0
40 -277 278 0
-278 330 0
41 -278 279 0
-279 331 0
42 -279 280 0
-280 332 0
43 -280 281 0
-281 333 0
44 -281 282 0
-282 334 0
45 -282 283 0
-283 335 0
46 -283 284 0
-284 336 0
47 -284 285 0
-285 337 0
48 -285 286 0
-286 338 0
49 -286 287 0
-287 339 0
50 -287 288 0
-288 340 0
51 -288 289 0
-289 341 0
52 -289 290 0
-290 342 0
53 -290 291 0
-291 343 0
54 -291 292 0
-292 344 0
55 -292 0
4 293 0
-293 345 0
5 -293 294 0
-294 346 0
6 -294 295 0
-295 347 0
7 -295 296 0
-296 348 0
8 -296 297 0
-297 349 0
9 -297 298 0
-298 350 0
10 -298 299 0
-299 351 0
11 -299 300 0
-300 352 0
12 -300 301 0
-301 353 0
13 -301 302 0
-302 354 0
14 -302 303 0
-303 355 0
15 -303 304 0
-304 356 0
16 -304 305 0
-305 357 0
17 -305 306 0
-306 358 0
18 -306 307 0
-307 359 0
19 -307 308 0
-308 360 0
20 -308 309 0
-309 361 0
21 -309 310 0
-310 362 0
22 -310 311 0
-311 363 0
23 -311 312 0
-312 364 0
24 -312 313 0
-313 365 0
25 -313 314 0
-314 366 0
26 -314 315 0
-315 367 0
27 -315 316 0
-316 368 0
28 -316 317 0
-317 369 0
29 -317 318 0
-318 370 0
30 -318 319 0
-319 371 0
31 -319 320 0
-320 372 0
32 -320 321 0
-321 373 0
33 -321 322 0
-322 374 0
34 -322 323 0
-323 375 0
35 -323 324 0
-324 376 0
36 -324 325 0
-325 377 0
37 -325 326 0
-326 378 0
38 -326 327 0
-327 379 0
39 -327 328 0
-328 380 0
40 -328 329 0
-329 381 0
41 -329 330 0
-330 382 0
42 -330 331 0
-331 383 0
43 -331 332 0
-332 384 0
44 -332 333 0
-333 385 0
45 -333 334 0
-334 386 0
46 -334 335 0
-335 387 0
47 -335 336 0
-336 388 0
48 -336 337 0
-337 389 0
49 -337 338 0
-338 390 0
50 -338 339 0
-339 391 0
51 -339 340 0
-340 392 0
52 -340 341 0
-341 393 0
53 -341 342 0
-342 394 0
54 -342 343 0
-343 395 0
55 -343 344 0
-344 396 0
56 -344 0
5 345 0
-345 397 0
6 -345 346 0
-346 398 0
7 -346 347 0
-347 399 0
8 -347 348 0
-348 400 0
9 -348 349 0
-349 401 0
10 -349 350 0
-350 402 0
11 -350 351 0
-351 403 0
12 -351 352 0
-352 404 0
13 -352 353 0
-353 405 0
14 -353 354 0
-354 406 0
15 -354 355 0
-355 407 0
16 -355 356 0
-356 408 0
17 -356 357 0
-357 409 0
18 -357 358 0
-358 410 0
19 -358 359 0
-359 411 0
20 -359 360 0
-360 412 0
21 -360 361 0
-361 413 0
22 -361 362 0
-362 414 0
23 -362 363 0
-363 415 0
24 -363 364 0
-364 416 0
25 -364 365 0
-365 417 0
26 -365 366 0
-366 418 0
27 -366 367 0
-367 419 0
28 -367 368 0
-368 420 0
29 -368 369 0
-369 421 0
30 -369 370 0
-370 422 0
31 -370 371 0
-371 423 0
32 -371 372 0
-372 424 0
33 -372 373 0
-373 425 0
34 -373 374 0
-374 426 0
35 -374 375 0
-375 427 0
36 -375 376 0
-376 428 0
37 -376 377 0
-377 429 0
38 -377 378 0
-378 430 0
39 -378 379 0
-379 431 0
40 -379 380 0
-380 432 0
41 -380 381 0
-381 433 0
42 -381 382 0
-382 434 0
43 -382 383 0
-383 435 0
44 -383 384 0
-384 436 0
45 -384 385 0
-385 437 0
46 -385 386 0
-386 438 0
47 -386 387 0
-387 439 0
48 -387 388 0
-388 440 0
49 -388 389 0
-389 441 0
50 -389 390 0
-390 442 0
51 -390 391 0
-391 443 0
52 -391 392 0
-392 444 0
53 -392 393 0
-393 445 0
54 -393 394 0
-394 446 0
55 -394 395 0
-395 447 0
56 -395 396 0
-396 448 0
57 -396 0
6 397 0
-397 449 0
7 -397 398 0
-398 450 0
8 -398 399 0
-399 451 0
9 -399 400 0
-400 452 0
10 -400 401 0
-401 453 0
11 -401 402 0
-402 454 0
12 -402 403 0
-403 455 0
13 -403 404 0
-404 456 0
14 -404 405 0
-405 457 0
15 -405 406 0
-406 458 0
16 -406 407 0
-407 459 0
17 -407 408 0
-408 460 0
18 -408 409 0
-409 461 0
19 -409 410 0
-410 462 0
20 -410 411 0
-411 463 0
21 -411 412 0
-412 464 0
22 -412 413 0
-413 465 0
23 -413 414 0
-414 466 0
24 -414 415 0
-415 467 0
25 -415 416 0
-416 468 0
26 -416 417 0
-417 469 0
27 -417 418 0
-418 470 0
28 -418 419 0
-419 471 0
29 -419 420 0
-420 472 0
30 -420 421 0
-421 473 0
31 -421 422 0
-422 474 0
32 -422 423 0
-423 475 0
33 -423 424 0
-424 476 0
34 -424 425 0
-425 477 0
35 -425 426 0
-426 478 0
36 -426 427 0
-427 479 0
37 -427 428 0
-428 480 0
38 -428 429 0
-429 481 0
39 -429 430 0
-430 482 0
40 -430 431 0
-431 483 0
41 -431 432 0
-432 484 0
42 -432 433 0
-433 485 0
43 -433 434 0
-434 486 0
44 -434 435 0
-435 487 0
45 -435 436 0
-436 488 0
46 -436 437 0
-437 489 0
47 -437 438 0
-438 490 0
48 -438 439 0
-439 491 0
49 -439 440 0
-440 492 0
50 -440 441 0
-441 493 0
51 -441 442 0
-442 494 0
52 -442 443 0
-443 495 0
53 -443 444 0
-444 496 0
54 -444 445 0
-445 497 0
55 -445 446 0
-446 498 0
56 -446 447 0
-447 499 0
57 -447 448 0
-448 500 0
58 -448 0
7 449 0
-449 501 0
8 -449 450 0
-450 502 0
9 -450 451 0
-451 503 0
10 -451 452 0
-452 504 0
11 -452 453 0
-453 505 0
12 -453 454 0
-454 506 0
13 -454 455 0
-455 507 0
14 -455 456 0
-456 508 0
15 -456 457 0
-457 509 0
16 -457 458 0
-458 510 0
17 -458 459 0
-459 511 0
18 -459 460 0
-460 512 0
19 -460 461 0
-461 513 0
20 -461 462 0
-462 514 0
21 -462 463 0
-463 515 0
22 -463 464 0
-464 516 0
23 -464 465 0
-465 517 0
24 -465 466 0
-466 518 0
25 -466 467 0
-467 519 0
26 -467 468 0
-468 520 0
27 -468 469 0
-469 521 0
28 -469 470 0
-470 522 0
29 -470 471 0
-471 523 0
30 -471 472 0
-472 524 0
31 -472 473 0
-473 525 0
32 -473 474 0
-474 526 0
33 -474 475 0
-475 527 0
34 -475 476 0
-476 528 0
35 -476 477 0
-477 529 0
36 -477 478 0
-478 530 0
37 -478 479 0
-479 531 0
38 -479 480 0
-480 532 0
39 -480 481 0
-481 533 0
40 -481 482 0
-482 534 0
41 -482 483 0
-483 535 0
42 -483 484 0
-484 536 0
43 -484 485 0
-485 537 0
44 -485 486 0
-486 538 0
45 -486 487 0
-487 539 0
46 -487 488 0
-488 540 0
47 -488 489 0
-489 541 0
48 -489 490 0
-490 542 0
49 -490 491 0
-491 543 0
50 -491 492 0
-492 544 0
51 -492 493 0
-493 545 0
52 -493 494 0
-494 546 0
53 -494 495 0
-495 547 0
54 -495 496 0
-496 548 0
55 -496 497 0
-497 549 0
56 -497 498 0
-498 550 0
57 -498 499 0
-499 551 0
58 -499 500 0
-500 552 0
59 -500 0
8 501 0
-501 553 0
9 -501 502 0
-502 554 0
10 -502 503 0
-503 555 0
11 -503 504 0
-504 556 0
12 -504 505 0
-505 557 0
13 -505 506 0
-506 558 0
14 -506 507 0
-507 559 0
15 -507 508 0
-508 560 0
16 -508 509 0
-509 561 0
17 -509 510 0
-510 562 0
18 -510 511 0
-511 563 0
19 -511 512 0
-512 564 0
20 -512 513 0
-513 565 0
21 -513 514 0
-514 566 0
22 -514 515 0
-515 567 0
23 -515 516 0
-516 568 0
24 -516 517 0
-517 569 0
25 -517 518 0
-518 570 0
26 -518 519 0
-519 571 0
27 -519 520 0
-520 572 0
28 -520 521 0
-521 573 0
29 -521 522 0
-522 574 0
30 -522 523 0
-523 575 0
31 -523 524 0
-524 576 0
32 -524 525 0
-525 577 0
33 -525 526 0
-526 578 0
34 -526 527 0
-527 579 0
35 -527 528 0
-528 580 0
36 -528 529 0
-529 581 0
37 -529 530 0
-530 582 0
38 -530 531 0
-531 583 0
39 -531 532 0
-532 584 0
40 -532 533 0
-533 585 0
41 -533 534 0
-534 586 0
42 -534 535 0
-535 587 0
43 -535 536 0
-536 588 0
44 -536 537 0
-537 589 0
45 -537 538 0
-538 590 0
46 -538 539 0
-539 591 0
47 -539 540 0
-540 592 0
48 -540 541 0
-541 593 0
49 -541 542 0
-542 594 0
50 -542 543 0
-543 595 0
51 -543 544 0
-544 596 0
52 -544 545 0
-545 597 0
53 -545 546 0
-546 598 0
54 -546 547 0
-547 599 0
55 -547 548 0
-548 600 0
56 -548 549 0
-549 601 0
57 -549 550 0
-550 602 0
58 -550 551 0
-551 603 0
59 -551 552 0
-552 604 0
60 -552 0
9 553 0
-553 605 0
10 -553 554 0
-554 606 0
11 -554 555 0
-555 607 0
12 -555 556 0
-556 608 0
13 -556 557 0
-557 609 0
14 -557 558 0
-558 610 0
15 -558 559 0
-559 611 0
16 -559 560 0
-560 612 0
17 -560 561 0
-561 613 0
18 -561 562 0
-562 614 0
19 -562 563 0
-563 615 0
20 -563 564 0
-564 616 0
21 -564 565 0
-565 617 0
22 -565 566 0
-566 618 0
23 -566 567 0
-567 619 0
24 -567 568 0
-568 620 0
25 -568 569 0
-569 621 0
26 -569 570 0
-570 622 0
27 -570 571 0
-571 623 0
28 -571 572 0
-572 624 0
29 -572 573 0
-573 625 0
30 -573 574 0
-574 626 0
31 -574 575 0
-575 627 0
32 -575 576 0
-576 628 0
33 -576 577 0
-577 629 0
34 -577 578 0
-578 630 0
35 -578 579 0
-579 631 0
36 -579 580 0
-580 632 0
37 -580 581 0
-581 633 0
38 -581 582 0
-582 634 0
39 -582 583 0
-583 635 0
40 -583 584 0
-584 636 0
41 -584 585 0
-585 637 0
42 -585 586 0
-586 638 0
43 -586 587 0
-587 639 0
44 -587 588 0
-588 640 0
45 -588 589 0
-589 641 0
46 -589 590 0
-590 642 0
47 -590 591 0
-591 643 0
48 -591 592 0
-592 644 0
49 -592 593 0
-593 645 0
50 -593 594 0
-594 646 0
51 -594 595 0
-595 647 0
52 -595 596 0
-596 648 0
53 -596 597 0
-597 649 0
54 -597 598 0
-598 650 0
55 -598 599 0
-599 651 0
56 -599 600 0
-600 652 0
57 -600 601 0
-601 653 0
58 -601 602 0
-602 654 0
59 -602 603 0
-603 655 0
60 -603 604 0
-604 656 0
61 -604 0
10 605 0
-605 657 0
11 -605 606 0
-606 658 0
12 -606 607 0
-607 659 0
13 -607 608 0
-608 660 0
14 -608 609 0
-609 661 0
15 -609 610 0
-610 662 0
16 -610 611 0
-611 663 0
17 -611 612 0
-612 664 0
18 -612 613 0
-613 665 0
19 -613 614 0
-614 666 0
20 -614 615 0
-615 667 0
21 -615 616 0
-616 668 0
22 -616 617 0
-617 669 0
23 -617 618 0
-618 670 0
24 -618 619 0
-619 671 0
25 -619 620 0
-620 672 0
26 -620 621 0
-621 673 0
27 -621 622 0
-622 674 0
28 -622 623 0
-623 675 0
29 -623 624 0
-624 676 0
30 -624 625 0
-625 677 0
31 -625 626 0
-626 678 0
32 -626 627 0
-627 679 0
33 -627 628 0
-628 680 0
34 -628 629 0
-629 681 0
35 -629 630 0
-630 682 0
36 -630 631 0
-631 683 0
37 -631 632 0
-632 684 0
38 -632 633 0
-633 685 0
39 -633 634 0
-634 686 0
40 -634 635 0
-635 687 0
41 -635 636 0
-636 688 0
42 -636 637 0
-637 689 0
43 -637 638 0
-638 690 0
44 -638 639 0
-639 691 0
45 -639 640 0
-640 692 0
46 -640 641 0
-641 693 0
47 -641 642 0
-642 694 0
48 -642 643 0
-643 695 0
49 -643 644 0
-644 696 0
50 -644 645 0
-645 697 0
51 -645 646 0
-646 698 0
52 -646 647 0
-647 699 0
53 -647 648 0
-648 700 0
54 -648 649 0
-649 701 0
55 -649 650 0
-650 702 0
56 -650 651 0
-651 703 0
57 -651 652 0
-652 704 0
58 -652 653 0
-653 705 0
59 -653 654 0
-654 706 0
60 -654 655 0
-655 707 0
61 -655 656 0
-656 708 0
62 -656 0
11 657 0
-657 709 0
12 -657 658 0
-658 710 0
13 -658 659 0
-659 711 0
14 -659 660 0
-660 712 0
15 -660 661 0
-661 713 0
16 -661 662 0
-662 714 0
17 -662 663 0
-663 715 0
18 -663 664 0
-664 716 0
19 -664 665 0
-665 717 0
20 -665 666 0
-666 718 0
21 -666 667 0
-667 719 0
22 -667 668 0
-668 720 0
23 -668 669 0
-669 721 0
24 -669 670 0
-670 722 0
25 -670 671 0
-671 723 0
26 -671 672 0
-672 724 0
27 -672 673 0
-673 725 0
28 -673 674 0
-674 726 0
29 -674 675 0
-675 727 0
30 -675 676 0
-676 728 0
31 -676 677 0
-677 729 0
32 -677 678 0
-678 730 0
33 -678 679 0
-679 731 0
34 -679 680 0
-680 732 0
35 -680 681 0
-681 733 0
36 -681 682 0
-682 734 0
37 -682 683 0
-683 735 0
38 -683 684 0
-684 736 0
39 -684 685 0
-685 737 0
40 -685 686 0
-686 738 0
41 -686 687 0
-687 739 0
42 -687 688 0
-688 740 0
43 -688 689 0
-689 741 0
44 -689 690 0
-690 742 0
45 -690 691 0
-691 743 0
46 -691 692 0
-692 744 0
47 -692 693 0
-693 745 0
48 -693 694 0
-694 746 0
49 -694 695 0
-695 747 0
50 -695 696 0
-696 748 0
51 -696 697 0
-697 749 0
52 -697 698 0
-698 750 0
53 -698 699 0
-699 751 0
54 -699 700 0
-700 752 0
55 -700 701 0
-701 753 0
56 -701 702 0
-702 754 0
57 -702 703 0
-703 755 0
58 -703 704 0
-704 756 0
59 -704 705 0
-705 757 0
60 -705 706 0
-706 758 0
61 -706 707 0
-707 759 0
62 -707 708 0
-708 760 0
63 -708 0
12 709 0
-709 761 0
13 -709 710 0
-710 762 0
14 -710 711 0
-711 763 0
15 -711 712 0
-712 764 0
16 -712 713 0
-713 765 0
17 -713 714 0
-714 766 0
18 -714 715 0
-715 767 0
19 -715 716 0
-716 768 0
20 -716 717 0
-717 769 0
21 -717 718 0
-718 770 0
22 -718 719 0
-719 771 0
23 -719 720 0
-720 772 0
24 -720 721 0
-721 773 0
25 -721 722 0
-722 774 0
26 -722 723 0
-723 775 0
27 -723 724 0
-724 776 0
28 -724 725 0
-725 777 0
29 -725 726 0
-726 778 0
30 -726 727 0
-727 779 0
31 -727 728 0
-728 780 0
32 -728 729 0
-729 781 0
33 -729 730 0
-730 782 0
34 -730 731 0
-731 783 0
35 -731 732 0
-732 784 0
36 -732 733 0
-733 785 0
37 -733 734 0
-734 786 0
38 -734 735 0
-735 787 0
39 -735 736 0
-736 788 0
40 -736 737 0
-737 789 0
41 -737 738 0
-738 790 0
42 -738 739 0
-739 791 0
43 -739 740 0
-740 792 0
44 -740 741 0
-741 793 0
45 -741 742 0
-742 794 0
46 -742 743 0
-743 795 0
47 -743 744 0
-744 796 0
48 -744 745 0
-745 797 0
49 -745 746 0
-746 798 0
50 -746 747 0
-747 799 0
51 -747 748 0
-748 800 0
52 -748 749 0
-749 801 0
53 -749 750 0
-750 802 0
54 -750 751 0
-751 803 0
55 -751 752 0
-752 804 0
56 -752 753 0
-753 805 0
57 -753 754 0
-754 806 0
58 -754 755 0
-755 807 0
59 -755 756 0
-756 808 0
60 -756 757 0
-757 809 0
61 -757 758 0
-758 810 0
62 -758 759 0
-759 811 0
63 -759 760 0
-760 812 0
64 -760 0
13 761 0
-761 813 0
14 -761 762 0
-762 814 0
15 -762 763 0
-763 815 0
16 -763 764 0
-764 816 0
17 -764 765 0
-765 817 0
18 -765 766 0
-766 818 0
19 -766 767 0
-767 819 0
20 -767 768 0
-768 820 0
21 -768 769 0
-769 821 0
22 -769 770 0
-770 822 0
23 -770 771 0
-771 823 0
24 -771 772 0
-772 824 0
25 -772 773 0
-773 825 0
26 -773 774 0
-774 826 0
27 -774 775 0
-775 827 0
28 -775 776 0
-776 828 0
29 -776 777 0
-777 829 0
30 -777 778 0
-778 830 0
31 -778 779 0
-779 831 0
32 -779 780 0
-780 832 0
33 -780 781 0
-781 833 0
34 -781 782 0
-782 834 0
35 -782 783 0
-783 835 0
36 -783 784 0
-784 836 0
37 -784 785 0
-785 837 0
38 -785 786 0
-786 838 0
39 -786 787 0
-787 839 0
40 -787 788 0
-788 840 0
41 -788 789 0
-789 841 0
42 -789 790 0
-790 842 0
43 -790 791 0
-791 843 0
44 -791 792 0
-792 844 0
45 -792 793 0
-793 845 0
46 -793 794 0
-794 846 0
47 -794 795 0
-795 847 0
48 -795 796 0
-796 848 0
49 -796 797 0
-797 849 0
50 -797 798 0
-798 850 0
51 -798 799 0
-799 851 0
52 -799 800 0
-800 852 0
53 -800 801 0
-801 853 0
54 -801 802 0
-802 854 0
55 -802 803 0
-803 855 0
56 -803 804 0
-804 856 0
57 -804 805 0
-805 857 0
58 -805 806 0
-806 858 0
59 -806 807 0
-807 859 0
60 -807 808 0
-808 860 0
61 -808 809 0
-809 861 0
62 -809 810 0
-810 862 0
63 -810 811 0
-811 863 0
64 -811 812 0
-812 864 0
65 -812 0
14 813 0
-813 865 0
15 -813 814 0
-814 866 0
16 -814 815 0
-815 867 0
17 -815 816 0
-816 868 0
18 -816 817 0
-817 869 0
19 -817 818 0
-818 870 0
20 -818 819 0
-819 871 0
21 -819 820 0
-820 872 0
22 -820 821 0
-821 873 0
23 -821 822 0
-822 874 0
24 -822 823 0
-823 875 0
25 -823 824 0
-824 876 0
26 -824 825 0
-825 877 0
27 -825 826 0
-826 878 0
28 -826 827 0
-827 879 0
29 -827 828 0
-828 880 0
30 -828 829 0
-829 881 0
31 -829 830 0
-830 882 0
32 -830 831 0
-831 883 0
33 -831 832 0
-832 884 0
34 -832 833 0
-833 885 0
35 -833 834 0
-834 886 0
36 -834 835 0
-835 887 0
37 -835 836 0
-836 888 0
38 -836 837 0
-837 889 0
39 -837 838 0
-838 890 0
40 -838 839 0
-839 891 0
41 -839 840 0
-840 892 0
42 -840 841 0
-841 893 0
43 -841 842 0
-842 894 0
44 -842 843 0
-843 895 0
45 -843 844 0
-844 896 0
46 -844 845 0
-845 897 0
47 -845 846 0
-846 898 0
48 -846 847 0
-847 899 0
49 -847 848 0
-848 900 0
50 -848 849 0
-849 901 0
51 -849 850 0
-850 902 0
52 -850 851 0
-851 903 0
53 -851 852 0
-852 904 0
54 -852 853 0
-853 905 0
55 -853 854 0
-854 906 0
56 -854 855 0
-855 907 0
57 -855 856 0
-856 908 0
58 -856 857 0
-857 909 0
59 -857 858 0
-858 910 0
60 -858 859 0
-859 911 0
61 -859 860 0
-860 912 0
62 -860 861 0
-861 913 0
63 -861 862 0
-862 914 0
64 -862 863 0
-863 915 0
65 -863 864 0
-864 916 0
66 -864 0
15 865 0
-865 917 0
16 -865 866 0
-866 918 0
17 -866 867 0
-867 919 0
18 -867 868 0
-868 920 0
19 -868 869 0
-869 921 0
20 -869 870 0
-870 922 0
21 -870 871 0
-871 923 0
22 -871 872 0
-872 924 0
23 -872 873 0
-873 925 0
24 -873 874 0
-874 926 0
25 -874 875 0
-875 927 0
26 -875 876 0
-876 928 0
27 -876 877 0
-877 929 0
28 -877 878 0
-878 930 0
29 -878 879 0
-879 931 0
30 -879 880 0
-880 932 0
31 -880 881 0
-881 933 0
32 -881 882 0
-882 934 0
33 -882 883 0
-883 935 0
34 -883 884 0
-884 936 0
35 -884 885 0
-885 937 0
36 -885 886 0
-886 938 0
37 -886 887 0
-887 939 0
38 -887 888 0
-888 940 0
39 -888 889 0
-889 941 0
40 -889 890 0
-890 942 0
41 -890 891 0
-891 943 0
42 -891 892 0
-892 944 0
43 -892 893 0
-893 945 0
44 -893 894 0
-894 946 0
45 -894 895 0
-895 947 0
46 -895 896 0
-896 948 0
47 -896 897 0
-897 949 0
48 -897 898 0
-898 950 0
49 -898 899 0
-899 951 0
50 -899 900 0
-900 952 0
51 -900 901 0
-901 953 0
52 -901 902 0
-902 954 0
53 -902 903 0
-903 955 0
54 -903 904 0
-904 956 0
55 -904 905 0
-905 957 0
56 -905 906 0
-906 958 0
57 -906 907 0
-907 959 0
58 -907 908 0
-908 960 0
59 -908 909 0
-909 961 0
60 -909 910 0
-910 962 0
61 -910 911 0
-911 963 0
62 -911 912 0
-912 964 0
63 -912 913 0
-913 965 0
64 -913 914 0
-914 966 0
65 -914 915 0
-915 967 0
66 -915 916 0
-916 968 0
67 -916 0
16 917 0
17 -917 918 0
18 -918 919 0
19 -919 920 0
20 -920 921 0
21 -921 922 0
22 -922 923 0
23 -923 924 0
24 -924 925 0
25 -925 926 0
26 -926 927 0
27 -927 928 0
28 -928 929 0
29 -929 930 0
30 -930 931 0
31 -931 932 0
32 -932 933 0
33 -933 934 0
34 -934 935 0
35 -935 936 0
36 -936 937 0
37 -937 938 0
38 -938 939 0
39 -939 940 0
40 -940 941 0
41 -941 942 0
42 -942 943 0
43 -943 944 0
44 -944 945 0
45 -945 946 0
46 -946 947 0
47 -947 948 0
48 -948 949 0
49 -949 950 0
50 -950 951 0
51 -951 952 0
52 -952 953 0
53 -953 954 0
54 -954 955 0
55 -955 956 0
56 -956 957 0
57 -957 958 0
58 -958 959 0
59 -959 960 0
60 -960 961 0
61 -961 962 0
62 -962 963 0
63 -963 964 0
64 -964 965 0
65 -965 966 0
66 -966 967 0
67 -967 968 0
68 -968 0
-1 969 0
-969 970 0
-2 -969 971 0
-971 972 0
-3 -971 973 0
-973 974 0
-4 -973 975 0
-975 976 0
-5 -975 977 0
-977 978 0
-6 -977 979 0
-979 980 0
-7 -979 981 0
-981 982 0
-8 -981 983 0
-983 984 0
-9 -983 985 0
-985 986 0
-10 -985 987 0
-987 988 0
-11 -987 989 0
-989 990 0
-12 -989 991 0
-991 992 0
-13 -991 993 0
-993 994 0
-14 -993 995 0
-995 996 0
-15 -995 997 0
-997 998 0
-16 -997 999 0
-999 1000 0
-17 -999 0
-2 970 0
-970 1001 0
-3 -970 972 0
-972 1002 0
-4 -972 974 0
-974 1003 0
-5 -974 976 0
-976 1004 0
-6 -976 978 0
-978 1005 0
-7 -978 980 0
-980 1006 0
-8 -980 982 0
-982 1007 0
-9 -982 984 0
-984 1008 0
-10 -984 986 0
-986 1009 0
-11 -986 988 0
-988 1010 0
-12 -988 990 0
-990 1011 0
-13 -990 992 0
-992 1012 0
-14 -992 994 0
-994 1013 0
-15 -994 996 0
-996 1014 0
-16 -996 998 0
-998 1015 0
-17 -998 1000 0
-1000 1016 0
-18 -1000 0
-3 1001 0
-1001 1017 0
-4 -1001 1002 0
-1002 1018 0
-5 -1002 1003 0
-1003 1019 0
-6 -1003 1004 0
-1004 1020 0
-7 -1004 1005 0
-1005 1021 0
-8 -1005 1006 0
-1006 1022 0
-9 -1006 1007 0
-1007 1023 0
-10 -1007 1008 0
-1008 1024 0
-11 -1008 1009 0
-1009 1025 0
-12 -1009 1010 0
-1010 1026 0
-13 -1010 1011 0
-1011 1027 0
-14 -1011 1012 0
-1012 1028 0
-15 -1012 1013 0
-1013 1029 0
-16 -1013 1014 0
-1014 1030 0
-17 -1014 1015 0
-1015 1031 0
-18 -1015 1016 0
-1016 1032 0
-19 -1016 0
-4 1017 0
-1017 1033 0
-5 -1017 1018 0
-1018 1034 0
-6 -1018 1019 0
-1019 1035 0
-7 -1019 1020 0
-1020 1036 0
-8 -1020 1021 0
-1021 1037 0
-9 -1021 1022 0
-1022 1038 0
-10 -1022 1023 0
-1023 1039 0
-11 -1023 1024 0
-1024 1040 0
-12 -1024 1025 0
-1025 1041 0
-13 -1025 1026 0
-1026 1042 0
-14 -1026 1027 0
-1027 1043 0
-15 -1027 1028 0
-1028 1044 0
-16 -1028 1029 0
-1029 1045 0
-17 -1029 1030 0
-1030 1046 0
-18 -1030 1031 0
-1031 1047 0
-19 -1031 1032 0
-1032 1048 0
-20 -1032 0
-5 1033 0
-1033 1049 0
-6 -1033 1034 0
-1034 1050 0
-7 -1034 1035 0
-1035 1051 0
-8 -1035 1036 0
-1036 1052 0
-9 -1036 1037 0
-1037 1053 0
-10 -1037 1038 0
-1038 1054 0
-11 -1038 1039 0
-1039 1055 0
-12 -1039 1040 0
-1040 1056 0
-13 -1040 1041 0
-1041 1057 0
-14 -1041 1042 0
-1042 1058 0
-15 -1042 1043 0
-1043 1059 0
-16 -1043 1044 0
-1044 1060 0
-17 -1044 1045 0
-1045 1061 0
-18 -1045 1046 0
-1046 1062 0
-19 -1046 1047 0
-1047 1063 0
-20 -1047 1048 0
-1048 1064 0
-21 -1048 0
-6 1049 0
-1049 1065 0
-7 -1049 1050 0
-1050 1066 0
-8 -1050 1051 0
-1051 1067 0
-9 -1051 1052 0
-1052 1068 0
-10 -1052 1053 0
-1053 1069 0
-11 -1053 1054 0
-1054 1070 0
-12 -1054 1055 0
-1055 1071 0
-13 -1055 1056 0
-1056 1072 0
-14 -1056 1057 0
-1057 1073 0
-15 -1057 1058 0
-1058 1074 0
-16 -1058 1059 0
-1059 1075 0
-17 -1059 1060 0
-1060 1076 0
-18 -1060 1061 0
-1061 1077 0
-19 -1061 1062 0
-1062 1078 0
-20 -1062 1063 0
-1063 1079 0
-21 -1063 1064 0
-1064 1080 0
-22 -1064 0
-7 1065 0
-1065 1081 0
-8 -1065 1066 0
-1066 1082 0
-9 -1066 1067 0
-1067 1083 0
-10 -1067 1068 0
-1068 1084 0
-11 -1068 1069 0
-1069 1085 0
-12 -1069 1070 0
-1070 1086 0
-13 -1070 1071 0
-1071 1087 0
-14 -1071 1072 0
-1072 1088 0
-15 -1072 1073 0
-1073 1089 0
-16 -1073 1074 0
-1074 1090 0
-17 -1074 1075 0
-1075 1091 0
-18 -1075 1076 0
-1076 1092 0
-19 -1076 1077 0
-1077 1093 0
-20 -1077 1078 0
-1078 1094 0
-21 -1078 1079 0
-1079 1095 0
-22 -1079 1080 0
-1080 1096 0
-23 -1080 0
-8 1081 0
-1081 1097 0
-9 -1081 1082 0
-1082 1098 0
-10 -1082 1083 0
-1083 1099 0
-11 -1083 1084 0
-1084 1100 0
-12 -1084 1085 0
-1085 1101 0
-13 -1085 1086 0
-1086 1102 0
-14 -1086 1087 0
-1087 1103 0
-15 -1087 1088 0
-1088 1104 0
-16 -1088 1089 0
-1089 1105 0
-17 -1089 1090 0
-1090 1106 0
-18 -1090 1091 0
-1091 1107 0
-19 -1091 1092 0
-1092 1108 0
-20 -1092 1093 0
-1093 1109 0
-21 -1093 1094 0
-1094 1110 0
-22 -1094 1095 0
-1095 1111 0
-23 -1095 1096 0
-1096 1112 0
-24 -1096 0
-9 1097 0
-1097 1113 0
-10 -1097 1098 0
-1098 1114 0
-11 -1098 1099 0
-1099 1115 0
-12 -1099 1100 0
-1100 1116 0
-13 -1100 1101 0
-1101 1117 0
-14 -1101 1102 0
-1102 1118 0
-15 -1102 1103 0
-1103 1119 0
-16 -1103 1104 0
-1104 1120 0
-17 -1104 1105 0
-1105 1121 0
-18 -1105 1106 0
-1106 1122 0
-19 -1106 1107 0
-1107 1123 0
-20 -1107 1108 0
-1108 1124 0
-21 -1108 1109 0
-1109 1125 0
-22 -1109 1110 0
-1110 1126 0
-23 -1110 1111 0
-1111 1127 0
-24 -1111 1112 0
-1112 1128 0
-25 -1112 0
-10 1113 0
-1113 1129 0
-11 -1113 1114 0
-1114 1130 0
-12 -1114 1115 0
-1115 1131 0
-13 -1115 1116 0
-1116 1132 0
-14 -1116 1117 0
-1117 1133 0
-15 -1117 1118 0
-1118 1134 0
-16 -1118 1119 0
-1119 1135 0
-17 -1119 1120 0
-1120 1136 0
-18 -1120 1121 0
-1121 1137 0
-19 -1121 1122 0
-1122 1138 0
-20 -1122 1123 0
-1123 1139 0
-21 -1123 1124 0
-1124 1140 0
-22 -1124 1125 0
-1125 1141 0
-23 -1125 1126 0
-1126 1142 0
-24 -1126 1127 0
-1127 1143 0
-25 -1127 1128 0
-1128 1144 0
-26 -1128 0
-11 1129 0
-1129 1145 0
-12 -1129 1130 0
-1130 1146 0
-13 -1130 1131 0
-1131 1147 0
-14 -1131 1132 0
-1132 1148 0
-15 -1132 1133 0
-1133 1149 0
-16 -1133 1134 0
-1134 1150 0
-17 -1134 1135 0
-1135 1151 0
-18 -1135 1136 0
-1136 1152 0
-19 -1136 1137 0
-1137 1153 0
-20 -1137 1138 0
-1138 1154 0
-21 -1138 1139 0
-1139 1155 0
-22 -1139 1140 0
-1140 1156 0
-23 -1140 1141 0
-1141 1157 0
-24 -1141 1142 0
-1142 1158 0
-25 -1142 1143 0
-1143 1159 0
-26 -1143 1144 0
-1144 1160 0
-27 -1144 0
-12 1145 0
-1145 1161 0
-13 -1145 1146 0
-1146 1162 0
-14 -1146 1147 0
-1147 1163 0
-15 -1147 1148 0
-1148 1164 0
-16 -1148 1149 0
-1149 1165 0
-17 -1149 1150 0
-1150 1166 0
-18 -1150 1151 0
-1151 1167 0
-19 -1151 1152 0
-1152 1168 0
-20 -1152 1153 0
-1153 1169 0
-21 -1153 1154 0
-1154 1170 0
-22 -1154 1155 0
-1155 1171 0
-23 -1155 1156 0
-1156 1172 0
-24 -1156 1157 0
-1157 1173 0
-25 -1157 1158 0
-1158 1174 0
-26 -1158 1159 0
-1159 1175 0
-27 -1159 1160 0
-1160 1176 0
-28 -1160 0
-13 1161 0
-1161 1177 0
-14 -1161 1162 0
-1162 1178 0
-15 -1162 1163 0
-1163 1179 0
-16 -1163 1164 0
-1164 1180 0
-17 -1164 1165 0
-1165 1181 0
-18 -1165 1166 0
-1166 1182 0
-19 -1166 1167 0
-1167 1183 0
-20 -1167 1168 0
-1168 1184 0
-21 -1168 1169 0
-1169 1185 0
-22 -1169 1170 0
-1170 1186 0
-23 -1170 1171 0
-1171 1187 0
-24 -1171 1172 0
-1172 1188 0
-25 -1172 1173 0
-1173 1189 0
-26 -1173 1174 0
-1174 1190 0
-27 -1174 1175 0
-1175 1191 0
-28 -1175 1176 0
-1176 1192 0
-29 -1176 0
-14 1177 0
-1177 1193 0
-15 -1177 1178 0
-1178 1194 0
-16 -1178 1179 0
-1179 1195 0
-17 -1179 1180 0
-1180 1196 0
-18 -1180 1181 0
-1181 1197 0
-19 -1181 1182 0
-1182 1198 0
-20 -1182 1183 0
-1183 1199 0
-21 -1183 1184 0
-1184 1200 0
-22 -1184 1185 0
-1185 1201 0
-23 -1185 1186 0
-1186 1202 0
-24 -1186 1187 0
-1187 1203 0
-25 -1187 1188 0
-1188 1204 0
-26 -1188 1189 0
-1189 1205 0
-27 -1189 1190 0
-1190 1206 0
-28 -1190 1191 0
-1191 1207 0
-29 -1191 1192 0
-1192 1208 0
-30 -1192 0
-15 1193 0
-1193 1209 0
-16 -1193 1194 0
-1194 1210 0
-17 -1194 1195 0
-1195 1211 0
-18 -1195 1196 0
-1196 1212 0
-19 -1196 1197 0
-1197 1213 0
-20 -1197 1198 0
-1198 1214 0
-21 -1198 1199 0
-1199 1215 0
-22 -1199 1200 0
-1200 1216 0
-23 -1200 1201 0
-1201 1217 0
-24 -1201 1202 0
-1202 1218 0
-25 -1202 1203 0
-1203 1219 0
-26 -1203 1204 0
-1204 1220 0
-27 -1204 1205 0
-1205 1221 0
-28 -1205 1206 0
-1206 1222 0
-29 -1206 1207 0
-1207 1223 0
-30 -1207 1208 0
-1208 1224 0
-31 -1208 0
-16 1209 0
-1209 1225 0
-17 -1209 1210 0
-1210 1226 0
-18 -1210 1211 0
-1211 1227 0
-19 -1211 1212 0
-1212 1228 0
-20 -1212 1213 0
-1213 1229 0
-21 -1213 1214 0
-1214 1230 0
-22 -1214 1215 0
-1215 1231 0
-23 -1215 1216 0
-1216 1232 0
-24 -1216 1217 0
-1217 1233 0
-25 -1217 1218 0
-1218 1234 0
-26 -1218 1219 0
-1219 1235 0
-27 -1219 1220 0
-1220 1236 0
-28 -1220 1221 0
-1221 1237 0
-29 -1221 1222 0
-1222 1238 0
-30 -1222 1223 0
-1223 1239 0
-31 -1223 1224 0
-1224 1240 0
-32 -1224 0
-17 1225 0
-1225 1241 0
-18 -1225 1226 0
-1226 1242 0
-19 -1226 1227 0
-1227 1243 0
-20 -1227 1228 0
-1228 1244 0
-21 -1228 1229 0
-1229 1245 0
-22 -1229 1230 0
-1230 1246 0
-23 -1230 1231 0
-1231 1247 0
-24 -1231 1232 0
-1232 1248 0
-25 -1232 1233 0
-1233 1249 0
-26 -1233 1234 0
-1234 1250 0
-27 -1234 1235 0
-1235 1251 0
-28 -1235 1236 0
-1236 1252 0
-29 -1236 1237 0
-1237 1253 0
-30 -1237 1238 0
-1238 1254 0
-31 -1238 1239 0
-1239 1255 0
-32 -1239 1240 0
-1240 1256 0
-33 -1240 0
-18 1241 0
-1241 1257 0
-19 -1241 1242 0
-1242 1258 0
-20 -1242 1243 0
-1243 1259 0
-21 -1243 1244 0
-1244 1260 0
-22 -1244 1245 0
-1245 1261 0
-23 -1245 1246 0
-1246 1262 0
-24 -1246 1247 0
-1247 1263 0
-25 -1247 1248 0
-1248 1264 0
-26 -1248 1249 0
-1249 1265 0
-27 -1249 1250 0
-1250 1266 0
-28 -1250 1251 0
-1251 1267 0
-29 -1251 1252 0
-1252 1268 0
-30 -1252 1253 0
-1253 1269 0
-31 -1253 1254 0
-1254 1270 0
-32 -1254 1255 0
-1255 1271 0
-33 -1255 1256 0
-1256 1272 0
-34 -1256 0
-19 1257 0
-1257 1273 0
-20 -1257 1258 0
-1258 1274 0
-21 -1258 1259 0
-1259 1275 0
-22 -1259 1260 0
-1260 1276 0
-23 -1260 1261 0
-1261 1277 0
-24 -1261 1262 0
-1262 1278 0
-25 -1262 1263 0
-1263 1279 0
-26 -1263 1264 0
-1264 1280 0
-27 -1264 1265 0
-1265 1281 0
-28 -1265 1266 0
-1266 1282 0
-29 -1266 1267 0
-1267 1283 0
-30 -1267 1268 0
-1268 1284 0
-31 -1268 1269 0
-1269 1285 0
-32 -1269 1270 0
-1270 1286 0
-33 -1270 1271 0
-1271 1287 0
-34 -1271 1272 0
-1272 1288 0
-35 -1272 0
-20 1273 0
-1273 1289 0
-21 -1273 1274 0
-1274 1290 0
-22 -1274 1275 0
-1275 1291 0
-23 -1275 1276 0
-1276 1292 0
-24 -1276 1277 0
-1277 1293 0
-25 -1277 1278 0
-1278 1294 0
-26 -1278 1279 0
-1279 1295 0
-27 -1279 1280 0
-1280 1296 0
-28 -1280 1281 0
-1281 1297 0
-29 -1281 1282 0
-1282 1298 0
-30 -1282 1283 0
-1283 1299 0
-31 -1283 1284 0
-1284 1300 0
-32 -1284 1285 0
-1285 1301 0
-33 -1285 1286 0
-1286 1302 0
-34 -1286 1287 0
-1287 1303 0
-35 -1287 1288 0
-1288 1304 0
-36 -1288 0
-21 1289 0
-1289 1305 0
-22 -1289 1290 0
-1290 1306 0
-23 -1290 1291 0
-1291 1307 0
-24 -1291 1292 0
-1292 1308 0
-25 -1292 1293 0
-1293 1309 0
-26 -1293 1294 0
-1294 1310 0
-27 -1294 1295 0
-1295 1311 0
-28 -1295 1296 0
-1296 1312 0
-29 -1296 1297 0
-1297 1313 0
-30 -1297 1298 0
-1298 1314 0
-31 -1298 1299 0
-1299 1315 0
-32 -1299 1300 0
-1300 1316 0
-33 -1300 1301 0
-1301 1317 0
-34 -1301 1302 0
-1302 1318 0
-35 -1302 1303 0
-1303 1319 0
-36 -1303 1304 0
-1304 1320 0
-37 -1304 0
-22 1305 0
-1305 1321 0
-23 -1305 1306 0
-1306 1322 0
-24 -1306 1307 0
-1307 1323 0
-25 -1307 1308 0
-1308 1324 0
-26 -1308 1309 0
-1309 1325 0
-27 -1309 1310 0
-1310 1326 0
-28 -1310 1311 0
-1311 1327 0
-29 -1311 1312 0
-1312 1328 0
-30 -1312 1313 0
-1313 1329 0
-31 -1313 1314 0
-1314 1330 0
-32 -1314 1315 0
-1315 1331 0
-33 -1315 1316 0
-1316 1332 0
-34 -1316 1317 0
-1317 1333 0
-35 -1317 1318 0
-1318 1334 0
-36 -1318 1319 0
-1319 1335 0
-37 -1319 1320 0
-1320 1336 0
-38 -1320 0
-23 1321 0
-1321 1337 0
-24 -1321 1322 0
-1322 1338 0
-25 -1322 1323 0
-1323 1339 0
-26 -1323 1324 0
-1324 1340 0
-27 -1324 1325 0
-1325 1341 0
-28 -1325 1326 0
-1326 1342 0
-29 -1326 1327 0
-1327 1343 0
-30 -1327 1328 0
-1328 1344 0
-31 -1328 1329 0
-1329 1345 0
-32 -1329 1330 0
-1330 1346 0
-33 -1330 1331 0
-1331 1347 0
-34 -1331 1332 0
-1332 1348 0
-35 -1332 1333 0
-1333 1349 0
-36 -1333 1334 0
-1334 1350 0
-37 -1334 1335 0
-1335 1351 0
-38 -1335 1336 0
-1336 1352 0
-39 -1336 0
-24 1337 0
-1337 1353 0
-25 -1337 1338 0
-1338 1354 0
-26 -1338 1339 0
-1339 1355 0
-27 -1339 1340 0
-1340 1356 0
-28 -1340 1341 0
-1341 1357 0
-29 -1341 1342 0
-1342 1358 0
-30 -1342 1343 0
-1343 1359 0
-31 -1343 1344 0
-1344 1360 0
-32 -1344 1345 0
-1345 1361 0
-33 -1345 1346 0
-1346 1362 0
-34 -1346 1347 0
-1347 1363 0
-35 -1347 1348 0
-1348 1364 0
-36 -1348 1349 0
-1349 1365 0
-37 -1349 1350 0
-1350 1366 0
-38 -1350 1351 0
-1351 1367 0
-39 -1351 1352 0
-1352 1368 0
-40 -1352 0
-25 1353 0
-1353 1369 0
-26 -1353 1354 0
-1354 1370 0
-27 -1354 1355 0
-1355 1371 0
-28 -1355 1356 0
-1356 1372 0
-29 -1356 1357 0
-1357 1373 0
-30 -1357 1358 0
-1358 1374 0
-31 -1358 1359 0
-1359 1375 0
-32 -1359 1360 0
-1360 1376 0
-33 -1360 1361 0
-1361 1377 0
-34 -1361 1362 0
-1362 1378 0
-35 -1362 1363 0
-1363 1379 0
-36 -1363 1364 0
-1364 1380 0
-37 -1364 1365 0
-1365 1381 0
-38 -1365 1366 0
-1366 1382 0
-39 -1366 1367 0
-1367 1383 0
-40 -1367 1368 0
-1368 1384 0
-41 -1368 0
-26 1369 0
-1369 1385 0
-27 -1369 1370 0
-1370 1386 0
-28 -1370 1371 0
-1371 1387 0
-29 -1371 1372 0
-1372 1388 0
-30 -1372 1373 0
-1373 1389 0
-31 -1373 1374 0
-1374 1390 0
-32 -1374 1375 0
-1375 1391 0
-33 -1375 1376 0
-1376 1392 0
-34 -1376 1377 0
-1377 1393 0
-35 -1377 1378 0
-1378 1394 0
-36 -1378 1379 0
-1379 1395 0
-37 -1379 1380 0
-1380 1396 0
-38 -1380 1381 0
-1381 1397 0
-39 -1381 1382 0
-1382 1398 0
-40 -1382 1383 0
-1383 1399 0
-41 -1383 1384 0
-1384 1400 0
-42 -1384 0
-27 1385 0
-1385 1401 0
-28 -1385 1386 0
-1386 1402 0
-29 -1386 1387 0
-1387 1403 0
-30 -1387 1388 0
-1388 1404 0
-31 -1388 1389 0
-1389 1405 0
-32 -1389 1390 0
-1390 1406 0
-33 -1390 1391 0
-1391 1407 0
-34 -1391 1392 0
-1392 1408 0
-35 -1392 1393 0
-1393 1409 0
-36 -1393 1394 0
-1394 1410 0
-37 -1394 1395 0
-1395 1411 0
-38 -1395 1396 0
-1396 1412 0
-39 -1396 1397 0
-1397 1413 0
-40 -1397 1398 0
-1398 1414 0
-41 -1398 1399 0
-1399 1415 0
-42 -1399 1400 0
-1400 1416 0
-43 -1400 0
-28 1401 0
-1401 1417 0
-29 -1401 1402 0
-1402 1418 0
-30 -1402 1403 0
-1403 1419 0
-31 -1403 1404 0
-1404 1420 0
-32 -1404 1405 0
-1405 1421 0
-33 -1405 1406 0
-1406 1422 0
-34 -1406 1407 0
-1407 1423 0
-35 -1407 1408 0
-1408 1424 0
-36 -1408 1409 0
-1409 1425 0
-37 -1409 1410 0
-1410 1426 0
-38 -1410 1411 0
-1411 1427 0
-39 -1411 1412 0
-1412 1428 0
-40 -1412 1413 0
-1413 1429 0
-41 -1413 1414 0
-1414 1430 0
-42 -1414 1415 0
-1415 1431 0
-43 -1415 1416 0
-1416 1432 0
-44 -1416 0
-29 1417 0
-1417 1433 0
-30 -1417 1418 0
-1418 1434 0
-31 -1418 1419 0
-1419 1435 0
-32 -1419 1420 0
-1420 1436 0
-33 -1420 1421 0
-1421 1437 0
-34 -1421 1422 0
-1422 1438 0
-35 -1422 1423 0
-1423 1439 0
-36 -1423 1424 0
-1424 1440 0
-37 -1424 1425 0
-1425 1441 0
-38 -1425 1426 0
-1426 1442 0
-39 -1426 1427 0
-1427 1443 0
-40 -1427 1428 0
-1428 1444 0
-41 -1428 1429 0
-1429 1445 0
-42 -1429 1430 0
-1430 1446 0
-43 -1430 1431 0
-1431 1447 0
-44 -1431 1432 0
-1432 1448 0
-45 -1432 0
-30 1433 0
-1433 1449 0
-31 -1433 1434 0
-1434 1450 0
-32 -1434 1435 0
-1435 1451 0
-33 -1435 1436 0
-1436 1452 0
-34 -1436 1437 0
-1437 1453 0
-35 -1437 1438 0
-1438 1454 0
-36 -1438 1439 0
-1439 1455 0
-37 -1439 1440 0
-1440 1456 0
-38 -1440 1441 0
-1441 1457 0
-39 -1441 1442 0
-1442 1458 0
-40 -1442 1443 0
-1443 1459 0
-41 -1443 1444 0
-1444 1460 0
-42 -1444 1445 0
-1445 1461 0
-43 -1445 1446 0
-1446 1462 0
-44 -1446 1447 0
-1447 1463 0
-45 -1447 1448 0
-1448 1464 0
-46 -1448 0
-31 1449 0
-1449 1465 0
-32 -1449 1450 0
-1450 1466 0
-33 -1450 1451 0
-1451 1467 0
-34 -1451 1452 0
-1452 1468 0
-35 -1452 1453 0
-1453 1469 0
-36 -1453 1454 0
-1454 1470 0
-37 -1454 1455 0
-1455 1471 0
-38 -1455 1456 0
-1456 1472 0
-39 -1456 1457 0
-1457 1473 0
-40 -1457 1458 0
-1458 1474 0
-41 -1458 1459 0
-1459 1475 0
-42 -1459 1460 0
-1460 1476 0
-43 -1460 1461 0
-1461 1477 0
-44 -1461 1462 0
-1462 1478 0
-45 -1462 1463 0
-1463 1479 0
-46 -1463 1464 0
-1464 1480 0
-47 -1464 0
-32 1465 0
-1465 1481 0
-33 -1465 1466 0
-1466 1482 0
-34 -1466 1467 0
-1467 1483 0
-35 -1467 1468 0
-1468 1484 0
-36 -1468 1469 0
-1469 1485 0
-37 -1469 1470 0
-1470 1486 0
-38 -1470 1471 0
-1471 1487 0
-39 -1471 1472 0
-1472 1488 0
-40 -1472 1473 0
-1473 1489 0
-41 -1473 1474 0
-1474 1490 0
-42 -1474 1475 0
-1475 1491 0
-43 -1475 1476 0
-1476 1492 0
-44 -1476 1477 0
-1477 1493 0
-45 -1477 1478 0
-1478 1494 0
-46 -1478 1479 0
-1479 1495 0
-47 -1479 1480 0
-1480 1496 0
-48 -1480 0
-33 1481 0
-1481 1497 0
-34 -1481 1482 0
-1482 1498 0
-35 -1482 1483 0
-1483 1499 0
-36 -1483 1484 0
-1484 1500 0
-37 -1484 1485 0
-1485 1501 0
-38 -1485 1486 0
-1486 1502 0
-39 -1486 1487 0
-1487 1503 0
-40 -1487 1488 0
-1488 1504 0
-41 -1488 1489 0
-1489 1505 0
-42 -1489 1490 0
-1490 1506 0
-43 -1490 1491 0
-1491 1507 0
-44 -1491 1492 0
-1492 1508 0
-45 -1492 1493 0
-1493 1509 0
-46 -1493 1494 0
-1494 1510 0
-47 -1494 1495 0
-1495 1511 0
-48 -1495 1496 0
-1496 1512 0
-49 -1496 0
-34 1497 0
-1497 1513 0
-35 -1497 1498 0
-1498 1514 0
-36 -1498 1499 0
-1499 1515 0
-37 -1499 1500 0
-1500 1516 0
-38 -1500 1501 0
-1501 1517 0
-39 -1501 1502 0
-1502 1518 0
-40 -1502 1503 0
-1503 1519 0
-41 -1503 1504 0
-1504 1520 0
-42 -1504 1505 0
-1505 1521 0
-43 -1505 1506 0
-1506 1522 0
-44 -1506 1507 0
-1507 1523 0
-45 -1507 1508 0
-1508 1524 0
-46 -1508 1509 0
-1509 1525 0
-47 -1509 1510 0
-1510 1526 0
-48 -1510 1511 0
-1511 1527 0
-49 -1511 1512 0
-1512 1528 0
-50 -1512 0
-35 1513 0
-1513 1529 0
-36 -1513 1514 0
-1514 1530 0
-37 -1514 1515 0
-1515 1531 0
-38 -1515 1516 0
-1516 1532 0
-39 -1516 1517 0
-1517 1533 0
-40 -1517 1518 0
-1518 1534 0
-41 -1518 1519 0
-1519 1535 0
-42 -1519 1520 0
-1520 1536 0
-43 -1520 1521 0
-1521 1537 0
-44 -1521 1522 0
-1522 1538 0
-45 -1522 1523 0
-1523 1539 0
-46 -1523 1524 0
-1524 1540 0
-47 -1524 1525 0
-1525 1541 0
-48 -1525 1526 0
-1526 1542 0
-49 -1526 1527 0
-1527 1543 0
-50 -1527 1528 0
-1528 1544 0
-51 -1528 0
-36 1529 0
-1529 1545 0
-37 -1529 1530 0
-1530 1546 0
-38 -1530 1531 0
-1531 1547 0
-39 -1531 1532 0
-1532 1548 0
-40 -1532 1533 0
-1533 1549 0
-41 -1533 1534 0
-1534 1550 0
-42 -1534 1535 0
-1535 1551 0
-43 -1535 1536 0
-1536 1552 0
-44 -1536 1537 0
-1537 1553 0
-45 -1537 1538 0
-1538 1554 0
-46 -1538 1539 0
-1539 1555 0
-47 -1539 1540 0
-1540 1556 0
-48 -1540 1541 0
-1541 1557 0
-49 -1541 1542 0
-1542 1558 0
-50 -1542 1543 0
-1543 1559 0
-51 -1543 1544 0
-1544 1560 0
-52 -1544 0
-37 1545 0
-1545 1561 0
-38 -1545 1546 0
-1546 1562 0
-39 -1546 1547 0
-1547 1563 0
-40 -1547 1548 0
-1548 1564 0
-41 -1548 1549 0
-1549 1565 0
-42 -1549 1550 0
-1550 1566 0
-43 -1550 1551 0
-1551 1567 0
-44 -1551 1552 0
-1552 1568 0
-45 -1552 1553 0
-1553 1569 0
-46 -1553 1554 0
-1554 1570 0
-47 -1554 1555 0
-1555 1571 0
-48 -1555 1556 0
-1556 1572 0
-49 -1556 1557 0
-1557 1573 0
-50 -1557 1558 0
-1558 1574 0
-51 -1558 1559 0
-1559 1575 0
-52 -1559 1560 0
-1560 1576 0
-53 -1560 0
-38 1561 0
-1561 1577 0
-39 -1561 1562 0
-1562 1578 0
-40 -1562 1563 0
-1563 1579 0
-41 -1563 1564 0
-1564 1580 0
-42 -1564 1565 0
-1565 1581 0
-43 -1565 1566 0
-1566 1582 0
-44 -1566 1567 0
-1567 1583 0
-45 -1567 1568 0
-1568 1584 0
-46 -1568 1569 0
-1569 1585 0
-47 -1569 1570 0
-1570 1586 0
-48 -1570 1571 0
-1571 1587 0
-49 -1571 1572 0
-1572 1588 0
-50 -1572 1573 0
-1573 1589 0
-51 -1573 1574 0
-1574 1590 0
-52 -1574 1575 0
-1575 1591 0
-53 -1575 1576 0
-1576 1592 0
-54 -1576 0
-39 1577 0
-1577 1593 0
-40 -1577 1578 0
-1578 1594 0
-41 -1578 1579 0
-1579 1595 0
-42 -1579 1580 0
-1580 1596 0
-43 -1580 1581 0
-1581 1597 0
-44 -1581 1582 0
-1582 1598 0
-45 -1582 1583 0
-1583 1599 0
-46 -1583 1584 0
-1584 1600 0
-47 -1584 1585 0
-1585 1601 0
-48 -1585 1586 0
-1586 1602 0
-49 -1586 1587 0
-1587 1603 0
-50 -1587 1588 0
-1588 1604 0
-51 -1588 1589 0
-1589 1605 0
-52 -1589 1590 0
-1590 1606 0
-53 -1590 1591 0
-1591 1607 0
-54 -1591 1592 0
-1592 1608 0
-55 -1592 0
-40 1593 0
-1593 1609 0
-41 -1593 1594 0
-1594 1610 0
-42 -1594 1595 0
-1595 1611 0
-43 -1595 1596 0
-1596 1612 0
-44 -1596 1597 0
-1597 1613 0
-45 -1597 1598 0
-1598 1614 0
-46 -1598 1599 0
-1599 1615 0
-47 -1599 1600 0
-1600 1616 0
-48 -1600 1601 0
-1601 1617 0
-49 -1601 1602 0
-1602 1618 0
-50 -1602 1603 0
-1603 1619 0
-51 -1603 1604 0
-1604 1620 0
-52 -1604 1605 0
-1605 1621 0
-53 -1605 1606 0
-1606 1622 0
-54 -1606 1607 0
-1607 1623 0
-55 -1607 1608 0
-1608 1624 0
-56 -1608 0
-41 1609 0
-1609 1625 0
-42 -1609 1610 0
-1610 1626 0
-43 -1610 1611 0
-1611 1627 0
-44 -1611 1612 0
-1612 1628 0
-45 -1612 1613 0
-1613 1629 0
-46 -1613 1614 0
-1614 1630 0
-47 -1614 1615 0
-1615 1631 0
-48 -1615 1616 0
-1616 1632 0
-49 -1616 1617 0
-1617 1633 0
-50 -1617 1618 0
-1618 1634 0
-51 -1618 1619 0
-1619 1635 0
-52 -1619 1620 0
-1620 1636 0
-53 -1620 1621 0
-1621 1637 0
-54 -1621 1622 0
-1622 1638 0
-55 -1622 1623 0
-1623 1639 0
-56 -1623 1624 0
-1624 1640 0
-57 -1624 0
-42 1625 0
-1625 1641 0
-43 -1625 1626 0
-1626 1642 0
-44 -1626 1627 0
-1627 1643 0
-45 -1627 1628 0
-1628 1644 0
-46 -1628 1629 0
-1629 1645 0
-47 -1629 1630 0
-1630 1646 0
-48 -1630 1631 0
-1631 1647 0
-49 -1631 1632 0
-1632 1648 0
-50 -1632 1633 0
-1633 1649 0
-51 -1633 1634 0
-1634 1650 0
-52 -1634 1635 0
-1635 1651 0
-53 -1635 1636 0
-1636 1652 0
-54 -1636 1637 0
-1637 1653 0
-55 -1637 1638 0
-1638 1654 0
-56 -1638 1639 0
-1639 1655 0
-57 -1639 1640 0
-1640 1656 0
-58 -1640 0
-43 1641 0
-1641 1657 0
-44 -1641 1642 0
-1642 1658 0
-45 -1642 1643 0
-1643 1659 0
-46 -1643 1644 0
-1644 1660 0
-47 -1644 1645 0
-1645 1661 0
-48 -1645 1646 0
-1646 1662 0
-49 -1646 1647 0
-1647 1663 0
-50 -1647 1648 0
-1648 1664 0
-51 -1648 1649 0
-1649 1665 0
-52 -1649 1650 0
-1650 1666 0
-53 -1650 1651 0
-1651 1667 0
-54 -1651 1652 0
-1652 1668 0
-55 -1652 1653 0
-1653 1669 0
-56 -1653 1654 0
-1654 1670 0
-57 -1654 1655 0
-1655 1671 0
-58 -1655 1656 0
-1656 1672 0
-59 -1656 0
-44 1657 0
-1657 1673 0
-45 -1657 1658 0
-1658 1674 0
-46 -1658 1659 0
-1659 1675 0
-47 -1659 1660 0
-1660 1676 0
-48 -1660 1661 0
-1661 1677 0
-49 -1661 1662 0
-1662 1678 0
-50 -1662 1663 0
-1663 1679 0
-51 -1663 1664 0
-1664 1680 0
-52 -1664 1665 0
-1665 1681 0
-53 -1665 1666 0
-1666 1682 0
-54 -1666 1667 0
-1667 1683 0
-55 -1667 1668 0
-1668 1684 0
-56 -1668 1669 0
-1669 1685 0
-57 -1669 1670 0
-1670 1686 0
-58 -1670 1671 0
-1671 1687 0
-59 -1671 1672 0
-1672 1688 0
-60 -1672 0
-45 1673 0
-1673 1689 0
-46 -1673 1674 0
-1674 1690 0
-47 -1674 1675 0
-1675 1691 0
-48 -1675 1676 0
-1676 1692 0
-49 -1676 1677 0
-1677 1693 0
-50 -1677 1678 0
-1678 1694 0
-51 -1678 1679 0
-1679 1695 0
-52 -1679 1680 0
-1680 1696 0
-53 -1680 1681 0
-1681 1697 0
-54 -1681 1682 0
-1682 1698 0
-55 -1682 1683 0
-1683 1699 0
-56 -1683 1684 0
-1684 1700 0
-57 -1684 1685 0
-1685 1701 0
-58 -1685 1686 0
-1686 1702 0
-59 -1686 1687 0
-1687 1703 0
-60 -1687 1688 0
-1688 1704 0
-61 -1688 0
-46 1689 0
-1689 1705 0
-47 -1689 1690 0
-1690 1706 0
-48 -1690 1691 0
-1691 1707 0
-49 -1691 1692 0
-1692 1708 0
-50 -1692 1693 0
-1693 1709 0
-51 -1693 1694 0
-1694 1710 0
-52 -1694 1695 0
-1695 1711 0
-53 -1695 1696 0
-1696 1712 0
-54 -1696 1697 0
-1697 1713 0
-55 -1697 1698 0
-1698 1714 0
-56 -1698 1699 0
-1699 1715 0
-57 -1699 1700 0
-1700 1716 0
-58 -1700 1701 0
-1701 1717 0
-59 -1701 1702 0
-1702 1718 0
-60 -1702 1703 0
-1703 1719 0
-61 -1703 1704 0
-1704 1720 0
-62 -1704 0
-47 1705 0
-1705 1721 0
-48 -1705 1706 0
-1706 1722 0
-49 -1706 1707 0
-1707 1723 0
-50 -1707 1708 0
-1708 1724 0
-51 -1708 1709 0
-1709 1725 0
-52 -1709 1710 0
-1710 1726 0
-53 -1710 1711 0
-1711 1727 0
-54 -1711 1712 0
-1712 1728 0
-55 -1712 1713 0
-1713 1729 0
-56 -1713 1714 0
-1714 1730 0
-57 -1714 1715 0
-1715 1731 0
-58 -1715 1716 0
-1716 1732 0
-59 -1716 1717 0
-1717 1733 0
-60 -1717 1718 0
-1718 1734 0
-61 -1718 1719 0
-1719 1735 0
-62 -1719 1720 0
-1720 1736 0
-63 -1720 0
-48 1721 0
-1721 1737 0
-49 -1721 1722 0
-1722 1738 0
-50 -1722 1723 0
-1723 1739 0
-51 -1723 1724 0
-1724 1740 0
-52 -1724 1725 0
-1725 1741 0
-53 -1725 1726 0
-1726 1742 0
-54 -1726 1727 0
-1727 1743 0
-55 -1727 1728 0
-1728 1744 0
-56 -1728 1729 0
-1729 1745 0
-57 -1729 1730 0
-1730 1746 0
-58 -1730 1731 0
-1731 1747 0
-59 -1731 1732 0
-1732 1748 0
-60 -1732 1733 0
-1733 1749 0
-61 -1733 1734 0
-1734 1750 0
-62 -1734 1735 0
-1735 1751 0
-63 -1735 1736 0
-1736 1752 0
-64 -1736 0
-49 1737 0
-1737 1753 0
-50 -1737 1738 0
-1738 1754 0
-51 -1738 1739 0
-1739 1755 0
-52 -1739 1740 0
-1740 1756 0
-53 -1740 1741 0
-1741 1757 0
-54 -1741 1742 0
-1742 1758 0
-55 -1742 1743 0
-1743 1759 0
-56 -1743 1744 0
-1744 1760 0
-57 -1744 1745 0
-1745 1761 0
-58 -1745 1746 0
-1746 1762 0
-59 -1746 1747 0
-1747 1763 0
-60 -1747 1748 0
-1748 1764 0
-61 -1748 1749 0
-1749 1765 0
-62 -1749 1750 0
-1750 1766 0
-63 -1750 1751 0
-1751 1767 0
-64 -1751 1752 0
-1752 1768 0
-65 -1752 0
-50 1753 0
-1753 1769 0
-51 -1753 1754 0
-1754 1770 0
-52 -1754 1755 0
-1755 1771 0
-53 -1755 1756 0
-1756 1772 0
-54 -1756 1757 0
-1757 1773 0
-55 -1757 1758 0
-1758 1774 0
-56 -1758 1759 0
-1759 1775 0
-57 -1759 1760 0
-1760 1776 0
-58 -1760 1761 0
-1761 1777 0
-59 -1761 1762 0
-1762 1778 0
-60 -1762 1763 0
-1763 1779 0
-61 -1763 1764 0
-1764 1780 0
-62 -1764 1765 0
-1765 1781 0
-63 -1765 1766 0
-1766 1782 0
-64 -1766 1767 0
-1767 1783 0
-65 -1767 1768 0
-1768 1784 0
-66 -1768 0
-51 1769 0
-1769 1785 0
-52 -1769 1770 0
-1770 1786 0
-53 -1770 1771 0
-1771 1787 0
-54 -1771 1772 0
-1772 1788 0
-55 -1772 1773 0
-1773 1789 0
-56 -1773 1774 0
-1774 1790 0
-57 -1774 1775 0
-1775 1791 0
-58 -1775 1776 0
-1776 1792 0
-59 -1776 1777 0
-1777 1793 0
-60 -1777 1778 0
-1778 1794 0
-61 -1778 1779 0
-1779 1795 0
-62 -1779 1780 0
-1780 1796 0
-63 -1780 1781 0
-1781 1797 0
-64 -1781 1782 0
-1782 1798 0
-65 -1782 1783 0
-1783 1799 0
-66 -1783 1784 0
-1784 1800 0
-67 -1784 0
-52 1785 0
-53 -1785 1786 0
-54 -1786 1787 0
-55 -1787 1788 0
-56 -1788 1789 0
-57 -1789 1790 0
-58 -1790 1791 0
-59 -1791 1792 0
-60 -1792 1793 0
-61 -1793 1794 0
-62 -1794 1795 0
-63 -1795 1796 0
-64 -1796 1797 0
-65 -1797 1798 0
-66 -1798 1799 0
-67 -1799 1800 0
-68 -1800 0
-69 1801 0
-1801 1802 0
-70 -1801 1803 0
-1803 1804 0
-71 -1803 1805 0
-1805 1806 0
-72 -1805 1807 0
-1807 1808 0
-73 -1807 1809 0
-1809 1810 0
-74 -1809 1811 0
-1811 1812 0
-75 -1811 1813 0
-1813 1814 0
-76 -1813 1815 0
-1815 1816 0
-77 -1815 1817 0
-1817 1818 0
-78 -1817 0
-70 1802 0
-1802 1819 0
-71 -1802 1804 0
-1804 1820 0
-72 -1804 1806 0
-1806 1821 0
-73 -1806 1808 0
-1808 1822 0
-74 -1808 1810 0
-1810 1823 0
-75 -1810 1812 0
-1812 1824 0
-76 -1812 1814 0
-1814 1825 0
-77 -1814 1816 0
-1816 1826 0
-78 -1816 1818 0
-1818 1827 0
-79 -1818 0
-71 1819 0
-1819 1828 0
-72 -1819 1820 0
-1820 1829 0
-73 -1820 1821 0
-1821 1830 0
-74 -1821 1822 0
-1822 1831 0
-75 -1822 1823 0
-1823 1832 0
-76 -1823 1824 0
-1824 1833 0
-77 -1824 1825 0
-1825 1834 0
-78 -1825 1826 0
-1826 1835 0
-79 -1826 1827 0
-1827 1836 0
-80 -1827 0
-72 1828 0
-1828 1837 0
-73 -1828 1829 0
-1829 1838 0
-74 -1829 1830 0
-1830 1839 0
-75 -1830 1831 0
-1831 1840 0
-76 -1831 1832 0
-1832 1841 0
-77 -1832 1833 0
-1833 1842 0
-78 -1833 1834 0
-1834 1843 0
-79 -1834 1835 0
-1835 1844 0
-80 -1835 1836 0
-1836 1845 0
-81 -1836 0
-73 1837 0
-1837 1846 0
-74 -1837 1838 0
-1838 1847 0
-75 -1838 1839 0
-1839 1848 0
-76 -1839 1840 0
-1840 1849 0
-77 -1840 1841 0
-1841 1850 0
-78 -1841 1842 0
-1842 1851 0
-79 -1842 1843 0
-1843 1852 0
-80 -1843 1844 0
-1844 1853 0
-81 -1844 1845 0
-1845 1854 0
-82 -1845 0
-74 1846 0
-1846 1855 0
-75 -1846 1847 0
-1847 1856 0
-76 -1847 1848 0
-1848 1857 0
-77 -1848 1849 0
-1849 1858 0
-78 -1849 1850 0
-1850 1859 0
-79 -1850 1851 0
-1851 1860 0
-80 -1851 1852 0
-1852 1861 0
-81 -1852 1853 0
-1853 1862 0
-82 -1853 1854 0
-1854 1863 0
-83 -1854 0
-75 1855 0
-1855 1864 0
-76 -1855 1856 0
-1856 1865 0
-77 -1856 1857 0
-1857 1866 0
-78 -1857 1858 0
-1858 1867 0
-79 -1858 1859 0
-1859 1868 0
-80 -1859 1860 0
-1860 1869 0
-81 -1860 1861 0
-1861 1870 0
-82 -1861 1862 0
-1862 1871 0
-83 -1862 1863 0
-1863 1872 0
-84 -1863 0
-76 1864 0
-1864 1873 0
-77 -1864 1865 0
-1865 1874 0
-78 -1865 1866 0
-1866 1875 0
-79 -1866 1867 0
-1867 1876 0
-80 -1867 1868 0
-1868 1877 0
-81 -1868 1869 0
-1869 1878 0
-82 -1869 1870 0
-1870 1879 0
-83 -1870 1871 0
-1871 1880 0
-84 -1871 1872 0
-1872 1881 0
-85 -1872 0
-77 1873 0
-1873 1882 0
-78 -1873 1874 0
-1874 1883 0
-79 -1874 1875 0
-1875 1884 0
-80 -1875 1876 0
-1876 1885 0
-81 -1876 1877 0
-1877 1886 0
-82 -1877 1878 0
-1878 1887 0
-83 -1878 1879 0
-1879 1888 0
-84 -1879 1880 0
-1880 1889 0
-85 -1880 1881 0
-1881 1890 0
-86 -1881 0
-78 1882 0
-1882 1891 0
-79 -1882 1883 0
-1883 1892 0
-80 -1883 1884 0
-1884 1893 0
-81 -1884 1885 0
-1885 1894 0
-82 -1885 1886 0
-1886 1895 0
-83 -1886 1887 0
-1887 1896 0
-84 -1887 1888 0
-1888 1897 0
-85 -1888 1889 0
-1889 1898 0
-86 -1889 1890 0
-1890 1899 0
-87 -1890 0
-79 1891 0
-1891 1900 0
-80 -1891 1892 0
-1892 1901 0
-81 -1892 1893 0
-1893 1902 0
-82 -1893 1894 0
-1894 1903 0
-83 -1894 1895 0
-1895 1904 0
-84 -1895 1896 0
-1896 1905 0
-85 -1896 1897 0
-1897 1906 0
-86 -1897 1898 0
-1898 1907 0
-87 -1898 1899 0
-1899 1908 0
-88 -1899 0
-80 1900 0
-1900 1909 0
-81 -1900 1901 0
-1901 1910 0
-82 -1901 1902 0
-1902 1911 0
-83 -1902 1903 0
-1903 1912 0
-84 -1903 1904 0
-1904 1913 0
-85 -1904 1905 0
-1905 1914 0
-86 -1905 1906 0
-1906 1915 0
-87 -1906 1907 0
-1907 1916 0
-88 -1907 1908 0
-1908 1917 0
-89 -1908 0
-81 1909 0
-1909 1918 0
-82 -1909 1910 0
-1910 1919 0
-83 -1910 1911 0
-1911 1920 0
-84 -1911 1912 0
-1912 1921 0
-85 -1912 1913 0
-1913 1922 0
-86 -1913 1914 0
-1914 1923 0
-87 -1914 1915 0
-1915 1924 0
-88 -1915 1916 0
-1916 1925 0
-89 -1916 1917 0
-1917 1926 0
-90 -1917 0
-82 1918 0
-1918 1927 0
-83 -1918 1919 0
-1919 1928 0
-84 -1919 1920 0
-1920 1929 0
-85 -1920 1921 0
-1921 1930 0
-86 -1921 1922 0
-1922 1931 0
-87 -1922 1923 0
-1923 1932 0
-88 -1923 1924 0
-1924 1933 0
-89 -1924 1925 0
-1925 1934 0
-90 -1925 1926 0
-1926 1935 0
-91 -1926 0
-83 1927 0
-1927 1936 0
-84 -1927 1928 0
-1928 1937 0
-85 -1928 1929 0
-1929 1938 0
-86 -1929 1930 0
-1930 1939 0
-87 -1930 1931 0
-1931 1940 0
-88 -1931 1932 0
-1932 1941 0
-89 -1932 1933 0
-1933 1942 0
-90 -1933 1934 0
-1934 1943 0
-91 -1934 1935 0
-1935 1944 0
-92 -1935 0
-84 1936 0
-1936 1945 0
-85 -1936 1937 0
-1937 1946 0
-86 -1937 1938 0
-1938 1947 0
-87 -1938 1939 0
-1939 1948 0
-88 -1939 1940 0
-1940 1949 0
-89 -1940 1941 0
-1941 1950 0
-90 -1941 1942 0
-1942 1951 0
-91 -1942 1943 0
-1943 1952 0
-92 -1943 1944 0
-1944 1953 0
-93 -1944 0
-85 1945 0
-1945 1954 0
-86 -1945 1946 0
-1946 1955 0
-87 -1946 1947 0
-1947 1956 0
-88 -1947 1948 0
-1948 1957 0
-89 -1948 1949 0
-1949 1958 0
-90 -1949 1950 0
-1950 1959 0
-91 -1950 1951 0
-1951 1960 0
-92 -1951 1952 0
-1952 1961 0
-93 -1952 1953 0
-1953 1962 0
-94 -1953 0
-86 1954 0
-1954 1963 0
-87 -1954 1955 0
-1955 1964 0
-88 -1955 1956 0
-1956 1965 0
-89 -1956 1957 0
-1957 1966 0
-90 -1957 1958 0
-1958 1967 0
-91 -1958 1959 0
-1959 1968 0
-92 -1959 1960 0
-1960 1969 0
-93 -1960 1961 0
-1961 1970 0
-94 -1961 1962 0
-1962 1971 0
-95 -1962 0
-87 1963 0
-1963 1972 0
-88 -1963 1964 0
-1964 1973 0
-89 -1964 1965 0
-1965 1974 0
-90 -1965 1966 0
-1966 1975 0
-91 -1966 1967 0
-1967 1976 0
-92 -1967 1968 0
-1968 1977 0
-93 -1968 1969 0
-1969 1978 0
-94 -1969 1970 0
-1970 1979 0
-95 -1970 1971 0
-1971 1980 0
-96 -1971 0
-88 1972 0
-1972 1981 0
-89 -1972 1973 0
-1973 1982 0
-90 -1973 1974 0
-1974 1983 0
-91 -1974 1975 0
-1975 1984 0
-92 -1975 1976 0
-1976 1985 0
-93 -1976 1977 0
-1977 1986 0
-94 -1977 1978 0
-1978 1987 0
-95 -1978 1979 0
-1979 1988 0
-96 -1979 1980 0
-1980 1989 0
-97 -1980 0
-89 1981 0
-1981 1990 0
-90 -1981 1982 0
-1982 1991 0
-91 -1982 1983 0
-1983 1992 0
-92 -1983 1984 0
-1984 1993 0
-93 -1984 1985 0
-1985 1994 0
-94 -1985 1986 0
-1986 1995 0
-95 -1986 1987 0
-1987 1996 0
-96 -1987 1988 0
-1988 1997 0
-97 -1988 1989 0
-1989 1998 0
-98 -1989 0
-90 1990 0
-1990 1999 0
-91 -1990 1991 0
-1991 2000 0
-92 -1991 1992 0
-1992 2001 0
-93 -1992 1993 0
-1993 2002 0
-94 -1993 1994 0
-1994 2003 0
-95 -1994 1995 0
-1995 2004 0
-96 -1995 1996 0
-1996 2005 0
-97 -1996 1997 0
-1997 2006 0
-98 -1997 1998 0
-1998 2007 0
-99 -1998 0
-91 1999 0
-1999 2008 0
-92 -1999 2000 0
-2000 2009 0
-93 -2000 2001 0
-2001 2010 0
-94 -2001 2002 0
-2002 2011 0
-95 -2002 2003 0
-2003 2012 0
-96 -2003 2004 0
-2004 2013 0
-97 -2004 2005 0
-2005 2014 0
-98 -2005 2006 0
-2006 2015 0
-99 -2006 2007 0
-2007 2016 0
-100 -2007 0
-92 2008 0
-2008 2017 0
-93 -2008 2009 0
-2009 2018 0
-94 -2009 2010 0
-2010 2019 0
-95 -2010 2011 0
-2011 2020 0
-96 -2011 2012 0
-2012 2021 0
-97 -2012 2013 0
-2013 2022 0
-98 -2013 2014 0
-2014 2023 0
-99 -2014 2015 0
-2015 2024 0
-100 -2015 2016 0
-2016 2025 0
-101 -2016 0
-93 2017 0
-2017 2026 0
-94 -2017 2018 0
-2018 2027 0
-95 -2018 2019 0
-2019 2028 0
-96 -2019 2020 0
-2020 2029 0
-97 -2020 2021 0
-2021 2030 0
-98 -2021 2022 0
-2022 2031 0
-99 -2022 2023 0
-2023 2032 0
-100 -2023 2024 0
-2024 2033 0
-101 -2024 2025 0
-2025 2034 0
-102 -2025 0
-94 2026 0
-2026 2035 0
-95 -2026 2027 0
-2027 2036 0
-96 -2027 2028 0
-2028 2037 0
-97 -2028 2029 0
-2029 2038 0
-98 -2029 2030 0
-2030 2039 0
-99 -2030 2031 0
-2031 2040 0
-100 -2031 2032 0
-2032 2041 0
-101 -2032 2033 0
-2033 2042 0
-102 -2033 2034 0
-2034 2043 0
-103 -2034 0
-95 2035 0
-2035 2044 0
-96 -2035 2036 0
-2036 2045 0
-97 -2036 2037 0
-2037 2046 0
-98 -2037 2038 0
-2038 2047 0
-99 -2038 2039 0
-2039 2048 0
-100 -2039 2040 0
-2040 2049 0
-101 -2040 2041 0
-2041 2050 0
-102 -2041 2042 0
-2042 2051 0
-103 -2042 2043 0
-2043 2052 0
-104 -2043 0
-96 2044 0
-2044 2053 0
-97 -2044 2045 0
-2045 2054 0
-98 -2045 2046 0
-2046 2055 0
-99 -2046 2047 0
-2047 2056 0
-100 -2047 2048 0
-2048 2057 0
-101 -2048 2049 0
-2049 2058 0
-102 -2049 2050 0
-2050 2059 0
-103 -2050 2051 0
-2051 2060 0
-104 -2051 2052 0
-2052 2061 0
-105 -2052 0
-97 2053 0
-2053 2062 0
-98 -2053 2054 0
-2054 2063 0
-99 -2054 2055 0
-2055 2064 0
-100 -2055 2056 0
-2056 2065 0
-101 -2056 2057 0
-2057 2066 0
-102 -2057 2058 0
-2058 2067 0
-103 -2058 2059 0
-2059 2068 0
-104 -2059 2060 0
-2060 2069 0
-105 -2060 2061 0
-2061 2070 0
-106 -2061 0
-98 2062 0
-2062 2071 0
-99 -2062 2063 0
-2063 2072 0
-100 -2063 2064 0
-2064 2073 0
-101 -2064 2065 0
-2065 2074 0
-102 -2065 2066 0
-2066 2075 0
-103 -2066 2067 0
-2067 2076 0
-104 -2067 2068 0
-2068 2077 0
-105 -2068 2069 0
-2069 2078 0
-106 -2069 2070 0
-2070 2079 0
-107 -2070 0
-99 2071 0
-2071 2080 0
-100 -2071 2072 0
-2072 2081 0
-101 -2072 2073 0
-2073 2082 0
-102 -2073 2074 0
-2074 2083 0
-103 -2074 2075 0
-2075 2084 0
-104 -2075 2076 0
-2076 2085 0
-105 -2076 2077 0
-2077 2086 0
-106 -2077 2078 0
-2078 2087 0
-107 -2078 2079 0
-2079 2088 0
-108 -2079 0
-100 2080 0
-2080 2089 0
-101 -2080 2081 0
-2081 2090 0
-102 -2081 2082 0
-2082 2091 0
-103 -2082 2083 0
-2083 2092 0
-104 -2083 2084 0
-2084 2093 0
-105 -2084 2085 0
-2085 2094 0
-106 -2085 2086 0
-2086 2095 0
-107 -2086 2087 0
-2087 2096 0
-108 -2087 2088 0
-2088 2097 0
-109 -2088 0
-101 2089 0
-2089 2098 0
-102 -2089 2090 0
-2090 2099 0
-103 -2090 2091 0
-2091 2100 0
-104 -2091 2092 0
-2092 2101 0
-105 -2092 2093 0
-2093 2102 0
-106 -2093 2094 0
-2094 2103 0
-107 -2094 2095 0
-2095 2104 0
-108 -2095 2096 0
-2096 2105 0
-109 -2096 2097 0
-2097 2106 0
-110 -2097 0
-102 2098 0
-2098 2107 0
-103 -2098 2099 0
-2099 2108 0
-104 -2099 2100 0
-2100 2109 0
-105 -2100 2101 0
-2101 2110 0
-106 -2101 2102 0
-2102 2111 0
-107 -2102 2103 0
-2103 2112 0
-108 -2103 2104 0
-2104 2113 0
-109 -2104 2105 0
-2105 2114 0
-110 -2105 2106 0
-2106 2115 0
-111 -2106 0
-103 2107 0
-2107 2116 0
-104 -2107 2108 0
-2108 2117 0
-105 -2108 2109 0
-2109 2118 0
-106 -2109 2110 0
-2110 2119 0
-107 -2110 2111 0
-2111 2120 0
-108 -2111 2112 0
-2112 2121 0
-109 -2112 2113 0
-2113 2122 0
-110 -2113 2114 0
-2114 2123 0
-111 -2114 2115 0
-2115 2124 0
-112 -2115 0
-104 2116 0
-2116 2125 0
-105 -2116 2117 0
-2117 2126 0
-106 -2117 2118 0
-2118 2127 0
-107 -2118 2119 0
-2119 2128 0
-108 -2119 2120 0
-2120 2129 0
-109 -2120 2121 0
-2121 2130 0
-110 -2121 2122 0
-2122 2131 0
-111 -2122 2123 0
-2123 2132 0
-112 -2123 2124 0
-2124 2133 0
-113 -2124 0
-105 2125 0
-2125 2134 0
-106 -2125 2126 0
-2126 2135 0
-107 -2126 2127 0
-2127 2136 0
-108 -2127 2128 0
-2128 2137 0
-109 -2128 2129 0
-2129 2138 0
-110 -2129 2130 0
-2130 2139 0
-111 -2130 2131 0
-2131 2140 0
-112 -2131 2132 0
-2132 2141 0
-113 -2132 2133 0
-2133 2142 0
-114 -2133 0
-106 2134 0
-2134 2143 0
-107 -2134 2135 0
-2135 2144 0
-108 -2135 2136 0
-2136 2145 0
-109 -2136 2137 0
-2137 2146 0
-110 -2137 2138 0
-2138 2147 0
-111 -2138 2139 0
-2139 2148 0
-112 -2139 2140 0
-2140 2149 0
-113 -2140 2141 0
-2141 2150 0
-114 -2141 2142 0
-2142 2151 0
-115 -2142 0
-107 2143 0
-2143 2152 0
-108 -2143 2144 0
-2144 2153 0
-109 -2144 2145 0
-2145 2154 0
-110 -2145 2146 0
-2146 2155 0
-111 -2146 2147 0
-2147 2156 0
-112 -2147 2148 0
-2148 2157 0
-113 -2148 2149 0
-2149 2158 0
-114 -2149 2150 0
-2150 2159 0
-115 -2150 2151 0
-2151 2160 0
-116 -2151 0
-108 2152 0
-2152 2161 0
-109 -2152 2153 0
-2153 2162 0
-110 -2153 2154 0
-2154 2163 0
-111 -2154 2155 0
-2155 2164 0
-112 -2155 2156 0
-2156 2165 0
-113 -2156 2157 0
-2157 2166 0
-114 -2157 2158 0
-2158 2167 0
-115 -2158 2159 0
-2159 2168 0
-116 -2159 2160 0
-2160 2169 0
-117 -2160 0
-109 2161 0
-2161 2170 0
-110 -2161 2162 0
-2162 2171 0
-111 -2162 2163 0
-2163 2172 0
-112 -2163 2164 0
-2164 2173 0
-113 -2164 2165 0
-2165 2174 0
-114 -2165 2166 0
-2166 2175 0
-115 -2166 2167 0
-2167 2176 0
-116 -2167 2168 0
-2168 2177 0
-117 -2168 2169 0
-2169 2178 0
-118 -2169 0
-110 2170 0
-2170 2179 0
-111 -2170 2171 0
-2171 2180 0
-112 -2171 2172 0
-2172 2181 0
-113 -2172 2173 0
-2173 2182 0
-114 -2173 2174 0
-2174 2183 0
-115 -2174 2175 0
-2175 2184 0
-116 -2175 2176 0
-2176 2185 0
-117 -2176 2177 0
-2177 2186 0
-118 -2177 2178 0
-2178 2187 0
-119 -2178 0
-111 2179 0
-2179 2188 0
-112 -2179 2180 0
-2180 2189 0
-113 -2180 2181 0
-2181 2190 0
-114 -2181 2182 0
-2182 2191 0
-115 -2182 2183 0
-2183 2192 0
-116 -2183 2184 0
-2184 2193 0
-117 -2184 2185 0
-2185 2194 0
-118 -2185 2186 0
-2186 2195 0
-119 -2186 2187 0
-2187 2196 0
-120 -2187 0
-112 2188 0
-2188 2197 0
-113 -2188 2189 0
-2189 2198 0
-114 -2189 2190 0
-2190 2199 0
-115 -2190 2191 0
-2191 2200 0
-116 -2191 2192 0
-2192 2201 0
-117 -2192 2193 0
-2193 2202 0
-118 -2193 2194 0
-2194 2203 0
-119 -2194 2195 0
-2195 2204 0
-120 -2195 2196 0
-2196 2205 0
-121 -2196 0
-113 2197 0
-2197 2206 0
-114 -2197 2198 0
-2198 2207 0
-115 -2198 2199 0
-2199 2208 0
-116 -2199 2200 0
-2200 2209 0
-117 -2200 2201 0
-2201 2210 0
-118 -2201 2202 0
-2202 2211 0
-119 -2202 2203 0
-2203 2212 0
-120 -2203 2204 0
-2204 2213 0
-121 -2204 2205 0
-2205 2214 0
-122 -2205 0
-114 2206 0
-2206 2215 0
-115 -2206 2207 0
-2207 2216 0
-116 -2207 2208 0
-2208 2217 0
-117 -2208 2209 0
-2209 2218 0
-118 -2209 2210 0
-2210 2219 0
-119 -2210 2211 0
-2211 2220 0
-120 -2211 2212 0
-2212 2221 0
-121 -2212 2213 0
-2213 2222 0
-122 -2213 2214 0
-2214 2223 0
-123 -2214 0
-115 2215 0
-2215 2224 0
-116 -2215 2216 0
-2216 2225 0
-117 -2216 2217 0
-2217 2226 0
-118 -2217 2218 0
-2218 2227 0
-119 -2218 2219 0
-2219 2228 0
-120 -2219 2220 0
-2220 2229 0
-121 -2220 2221 0
-2221 2230 0
-122 -2221 2222 0
-2222 2231 0
-123 -2222 2223 0
-2223 2232 0
-124 -2223 0
-116 2224 0
-2224 2233 0
-117 -2224 2225 0
-2225 2234 0
-118 -2225 2226 0
-2226 2235 0
-119 -2226 2227 0
-2227 2236 0
-120 -2227 2228 0
-2228 2237 0
-121 -2228 2229 0
-2229 2238 0
-122 -2229 2230 0
-2230 2239 0
-123 -2230 2231 0
-2231 2240 0
-124 -2231 2232 0
-2232 2241 0
-125 -2232 0
-117 2233 0
-2233 2242 0
-118 -2233 2234 0
-2234 2243 0
-119 -2234 2235 0
-2235 2244 0
-120 -2235 2236 0
-2236 2245 0
-121 -2236 2237 0
-2237 2246 0
-122 -2237 2238 0
-2238 2247 0
-123 -2238 2239 0
-2239 2248 0
-124 -2239 2240 0
-2240 2249 0
-125 -2240 2241 0
-2241 2250 0
-126 -2241 0
-118 2242 0
-2242 2251 0
-119 -2242 2243 0
-2243 2252 0
-120 -2243 2244 0
-2244 2253 0
-121 -2244 2245 0
-2245 2254 0
-122 -2245 2246 0
-2246 2255 0
-123 -2246 2247 0
-2247 2256 0
-124 -2247 2248 0
-2248 2257 0
-125 -2248 2249 0
-2249 2258 0
-126 -2249 2250 0
-2250 2259 0
-127 -2250 0
-119 2251 0
-2251 2260 0
-120 -2251 2252 0
-2252 2261 0
-121 -2252 2253 0
-2253 2262 0
-122 -2253 2254 0
-2254 2263 0
-123 -2254 2255 0
-2255 2264 0
-124 -2255 2256 0
-2256 2265 0
-125 -2256 2257 0
-2257 2266 0
-126 -2257 2258 0
-2258 2267 0
-127 -2258 2259 0
-2259 2268 0
-128 -2259 0
-120 2260 0
-2260 2269 0
-121 -2260 2261 0
-2261 2270 0
-122 -2261 2262 0
-2262 2271 0
-123 -2262 2263 0
-2263 2272 0
-124 -2263 2264 0
-2264 2273 0
-125 -2264 2265 0
-2265 2274 0
-126 -2265 2266 0
-2266 2275 0
-127 -2266 2267 0
-2267 2276 0
-128 -2267 2268 0
-2268 2277 0
-129 -2268 0
-121 2269 0
-2269 2278 0
-122 -2269 2270 0
-2270 2279 0
-123 -2270 2271 0
-2271 2280 0
-124 -2271 2272 0
-2272 2281 0
-125 -2272 2273 0
-2273 2282 0
-126 -2273 2274 0
-2274 2283 0
-127 -2274 2275 0
-2275 2284 0
-128 -2275 2276 0
-2276 2285 0
-129 -2276 2277 0
-2277 2286 0
-130 -2277 0
-122 2278 0
-2278 2287 0
-123 -2278 2279 0
-2279 2288 0
-124 -2279 2280 0
-2280 2289 0
-125 -2280 2281 0
-2281 2290 0
-126 -2281 2282 0
-2282 2291 0
-127 -2282 2283 0
-2283 2292 0
-128 -2283 2284 0
-2284 2293 0
-129 -2284 2285 0
-2285 2294 0
-130 -2285 2286 0
-2286 2295 0
-131 -2286 0
-123 2287 0
-2287 2296 0
-124 -2287 2288 0
-2288 2297 0
-125 -2288 2289 0
-2289 2298 0
-126 -2289 2290 0
-2290 2299 0
-127 -2290 2291 0
-2291 2300 0
-128 -2291 2292 0
-2292 2301 0
-129 -2292 2293 0
-2293 2302 0
-130 -2293 2294 0
-2294 2303 0
-131 -2294 2295 0
-2295 2304 0
-132 -2295 0
-124 2296 0
-2296 2305 0
-125 -2296 2297 0
-2297 2306 0
-126 -2297 2298 0
-2298 2307 0
-127 -2298 2299 0
-2299 2308 0
-128 -2299 2300 0
-2300 2309 0
-129 -2300 2301 0
-2301 2310 0
-130 -2301 2302 0
-2302 2311 0
-131 -2302 2303 0
-2303 2312 0
-132 -2303 2304 0
-2304 2313 0
-133 -2304 0
-125 2305 0
-2305 2314 0
-126 -2305 2306 0
-2306 2315 0
-127 -2306 2307 0
-2307 2316 0
-128 -2307 2308 0
-2308 2317 0
-129 -2308 2309 0
-2309 2318 0
-130 -2309 2310 0
-2310 2319 0
-131 -2310 2311 0
-2311 2320 0
-132 -2311 2312 0
-2312 2321 0
-133 -2312 2313 0
-2313 2322 0
-134 -2313 0
-126 2314 0
-2314 2323 0
-127 -2314 2315 0
-2315 2324 0
-128 -2315 2316 0
-2316 2325 0
-129 -2316 2317 0
-2317 2326 0
-130 -2317 2318 0
-2318 2327 0
-131 -2318 2319 0
-2319 2328 0
-132 -2319 2320 0
-2320 2329 0
-133 -2320 2321 0
-2321 2330 0
-134 -2321 2322 0
-2322 2331 0
-135 -2322 0
-127 2323 0
-128 -2323 2324 0
-129 -2324 2325 0
-130 -2325 2326 0
-131 -2326 2327 0
-132 -2327 2328 0
-133 -2328 2329 0
-134 -2329 2330 0
-135 -2330 2331 0
-136 -2331 0
1 35 0
