p cnf 7663 15693
-193 -1 0
-193 2 96 97 0
-2 1 193 0
-96 1 193 0
-97 1 193 0
-194 -2 0
-194 1 3 98 0
-1 2 194 0
-3 2 194 0
-98 2 194 0
-195 -3 0
-195 2 4 99 0
-2 3 195 0
-4 3 195 0
-99 3 195 0
-196 -4 0
-196 3 5 100 0
-3 4 196 0
-5 4 196 0
-100 4 196 0
-197 -5 0
-197 4 6 101 0
-4 5 197 0
-6 5 197 0
-101 5 197 0
-198 -6 0
-198 5 7 102 0
-5 6 198 0
-7 6 198 0
-102 6 198 0
-199 -7 0
-199 6 8 103 0
-6 7 199 0
-8 7 199 0
-103 7 199 0
-200 -8 0
-200 7 9 104 0
-7 8 200 0
-9 8 200 0
-104 8 200 0
-201 -9 0
-201 8 10 105 0
-8 9 201 0
-10 9 201 0
-105 9 201 0
-202 -10 0
-202 9 11 106 0
-9 10 202 0
-11 10 202 0
-106 10 202 0
-203 -11 0
-203 10 12 107 0
-10 11 203 0
-12 11 203 0
-107 11 203 0
-204 -12 0
-204 11 13 108 0
-11 12 204 0
-13 12 204 0
-108 12 204 0
-205 -13 0
-205 12 14 109 0
-12 13 205 0
-14 13 205 0
-109 13 205 0
-206 -14 0
-206 13 15 110 0
-13 14 206 0
-15 14 206 0
-110 14 206 0
-207 -15 0
-207 14 16 111 0
-14 15 207 0
-16 15 207 0
-111 15 207 0
-208 -16 0
-208 15 17 112 0
-15 16 208 0
-17 16 208 0
-112 16 208 0
-209 -17 0
-209 16 18 113 0
-16 17 209 0
-18 17 209 0
-113 17 209 0
-210 -18 0
-210 17 19 114 0
-17 18 210 0
-19 18 210 0
-114 18 210 0
-211 -19 0
-211 18 20 115 0
-18 19 211 0
-20 19 211 0
-115 19 211 0
-212 -20 0
-212 19 21 116 0
-19 20 212 0
-21 20 212 0
-116 20 212 0
-213 -21 0
-213 20 22 117 0
-20 21 213 0
-22 21 213 0
-117 21 213 0
-214 -22 0
-214 21 23 118 0
-21 22 214 0
-23 22 214 0
-118 22 214 0
-215 -23 0
-215 22 24 119 0
-22 23 215 0
-24 23 215 0
-119 23 215 0
-216 -24 0
-216 23 25 120 0
-23 24 216 0
-25 24 216 0
-120 24 216 0
-217 -25 0
-217 24 26 121 0
-24 25 217 0
-26 25 217 0
-121 25 217 0
-218 -26 0
-218 25 27 122 0
-25 26 218 0
-27 26 218 0
-122 26 218 0
-219 -27 0
-219 26 28 123 0
-26 27 219 0
-28 27 219 0
-123 27 219 0
-220 -28 0
-220 27 29 124 0
-27 28 220 0
-29 28 220 0
-124 28 220 0
-221 -29 0
-221 28 30 125 0
-28 29 221 0
-30 29 221 0
-125 29 221 0
-222 -30 0
-222 29 31 126 0
-29 30 222 0
-31 30 222 0
-126 30 222 0
-223 -31 0
-223 30 32 127 0
-30 31 223 0
-32 31 223 0
-127 31 223 0
-224 -32 0
-224 31 33 128 0
-31 32 224 0
-33 32 224 0
-128 32 224 0
-225 -33 0
-225 32 34 129 0
-32 33 225 0
-34 33 225 0
-129 33 225 0
-226 -34 0
-226 33 35 130 0
-33 34 226 0
-35 34 226 0
-130 34 226 0
-227 -35 0
-227 34 36 131 0
-34 35 227 0
-36 35 227 0
-131 35 227 0
-228 -36 0
-228 35 37 132 0
-35 36 228 0
-37 36 228 0
-132 36 228 0
-229 -37 0
-229 36 38 133 0
-36 37 229 0
-38 37 229 0
-133 37 229 0
-230 -38 0
-230 37 39 134 0
-37 38 230 0
-39 38 230 0
-134 38 230 0
-231 -39 0
-231 38 40 135 0
-38 39 231 0
-40 39 231 0
-135 39 231 0
-232 -40 0
-232 39 41 136 0
-39 40 232 0
-41 40 232 0
-136 40 232 0
-233 -41 0
-233 40 42 137 0
-40 41 233 0
-42 41 233 0
-137 41 233 0
-234 -42 0
-234 41 43 138 0
-41 42 234 0
-43 42 234 0
-138 42 234 0
-235 -43 0
-235 42 44 139 0
-42 43 235 0
-44 43 235 0
-139 43 235 0
-236 -44 0
-236 43 45 140 0
-43 44 236 0
-45 44 236 0
-140 44 236 0
-237 -45 0
-237 44 46 141 0
-44 45 237 0
-46 45 237 0
-141 45 237 0
-238 -46 0
-238 45 47 142 0
-45 46 238 0
-47 46 238 0
-142 46 238 0
-239 -47 0
-239 46 48 143 0
-46 47 239 0
-48 47 239 0
-143 47 239 0
-240 -48 0
-240 47 49 144 0
-47 48 240 0
-49 48 240 0
-144 48 240 0
-241 -49 0
-241 48 50 145 0
-48 49 241 0
-50 49 241 0
-145 49 241 0
-242 -50 0
-242 49 51 146 0
-49 50 242 0
-51 50 242 0
-146 50 242 0
-243 -51 0
-243 50 52 147 0
-50 51 243 0
-52 51 243 0
-147 51 243 0
-244 -52 0
-244 51 53 148 0
-51 52 244 0
-53 52 244 0
-148 52 244 0
-245 -53 0
-245 52 54 149 0
-52 53 245 0
-54 53 245 0
-149 53 245 0
-246 -54 0
-246 53 55 150 0
-53 54 246 0
-55 54 246 0
-150 54 246 0
-247 -55 0
-247 54 56 151 0
-54 55 247 0
-56 55 247 0
-151 55 247 0
-248 -56 0
-248 55 57 152 0
-55 56 248 0
-57 56 248 0
-152 56 248 0
-249 -57 0
-249 56 58 153 0
-56 57 249 0
-58 57 249 0
-153 57 249 0
-250 -58 0
-250 57 59 154 0
-57 58 250 0
-59 58 250 0
-154 58 250 0
-251 -59 0
-251 58 60 155 0
-58 59 251 0
-60 59 251 0
-155 59 251 0
-252 -60 0
-252 59 61 156 0
-59 60 252 0
-61 60 252 0
-156 60 252 0
-253 -61 0
-253 60 62 157 0
-60 61 253 0
-62 61 253 0
-157 61 253 0
-254 -62 0
-254 61 63 158 0
-61 62 254 0
-63 62 254 0
-158 62 254 0
-255 -63 0
-255 62 64 159 0
-62 63 255 0
-64 63 255 0
-159 63 255 0
-256 -64 0
-256 63 65 160 0
-63 64 256 0
-65 64 256 0
-160 64 256 0
-257 -65 0
-257 64 66 161 0
-64 65 257 0
-66 65 257 0
-161 65 257 0
-258 -66 0
-258 65 67 162 0
-65 66 258 0
-67 66 258 0
-162 66 258 0
-259 -67 0
-259 66 68 163 0
-66 67 259 0
-68 67 259 0
-163 67 259 0
-260 -68 0
-260 67 69 164 0
-67 68 260 0
-69 68 260 0
-164 68 260 0
-261 -69 0
-261 68 70 165 0
-68 69 261 0
-70 69 261 0
-165 69 261 0
-262 -70 0
-262 69 71 166 0
-69 70 262 0
-71 70 262 0
-166 70 262 0
-263 -71 0
-263 70 72 167 0
-70 71 263 0
-72 71 263 0
-167 71 263 0
-264 -72 0
-264 71 73 168 0
-71 72 264 0
-73 72 264 0
-168 72 264 0
-265 -73 0
-265 72 74 169 0
-72 73 265 0
-74 73 265 0
-169 73 265 0
-266 -74 0
-266 73 75 170 0
-73 74 266 0
-75 74 266 0
-170 74 266 0
-267 -75 0
-267 74 76 171 0
-74 75 267 0
-76 75 267 0
-171 75 267 0
-268 -76 0
-268 75 77 172 0
-75 76 268 0
-77 76 268 0
-172 76 268 0
-269 -77 0
-269 76 78 173 0
-76 77 269 0
-78 77 269 0
-173 77 269 0
-270 -78 0
-270 77 79 174 0
-77 78 270 0
-79 78 270 0
-174 78 270 0
-271 -79 0
-271 78 80 175 0
-78 79 271 0
-80 79 271 0
-175 79 271 0
-272 -80 0
-272 79 81 176 0
-79 80 272 0
-81 80 272 0
-176 80 272 0
-273 -81 0
-273 80 82 177 0
-80 81 273 0
-82 81 273 0
-177 81 273 0
-274 -82 0
-274 81 83 178 0
-81 82 274 0
-83 82 274 0
-178 82 274 0
-275 -83 0
-275 82 84 179 0
-82 83 275 0
-84 83 275 0
-179 83 275 0
-276 -84 0
-276 83 85 180 0
-83 84 276 0
-85 84 276 0
-180 84 276 0
-277 -85 0
-277 84 86 181 0
-84 85 277 0
-86 85 277 0
-181 85 277 0
-278 -86 0
-278 85 87 182 0
-85 86 278 0
-87 86 278 0
-182 86 278 0
-279 -87 0
-279 86 88 183 0
-86 87 279 0
-88 87 279 0
-183 87 279 0
-280 -88 0
-280 87 89 184 0
-87 88 280 0
-89 88 280 0
-184 88 280 0
-281 -89 0
-281 88 90 185 0
-88 89 281 0
-90 89 281 0
-185 89 281 0
-282 -90 0
-282 89 91 186 0
-89 90 282 0
-91 90 282 0
-186 90 282 0
-283 -91 0
-283 90 92 187 0
-90 91 283 0
-92 91 283 0
-187 91 283 0
-284 -92 0
-284 91 93 188 0
-91 92 284 0
-93 92 284 0
-188 92 284 0
-285 -93 0
-285 92 94 189 0
-92 93 285 0
-94 93 285 0
-189 93 285 0
-286 -94 0
-286 93 95 190 0
-93 94 286 0
-95 94 286 0
-190 94 286 0
-287 -95 0
-287 94 96 191 0
-94 95 287 0
-96 95 287 0
-191 95 287 0
-288 -96 0
-288 1 95 192 0
-1 96 288 0
-95 96 288 0
-192 96 288 0
-289 -97 0
-289 1 101 189 0
-1 97 289 0
-101 97 289 0
-189 97 289 0
-290 -98 0
-290 2 102 190 0
-2 98 290 0
-102 98 290 0
-190 98 290 0
-291 -99 0
-291 3 103 191 0
-3 99 291 0
-103 99 291 0
-191 99 291 0
-292 -100 0
-292 4 104 192 0
-4 100 292 0
-104 100 292 0
-192 100 292 0
-293 -101 0
-293 5 97 105 0
-5 101 293 0
-97 101 293 0
-105 101 293 0
-294 -102 0
-294 6 98 106 0
-6 102 294 0
-98 102 294 0
-106 102 294 0
-295 -103 0
-295 7 99 107 0
-7 103 295 0
-99 103 295 0
-107 103 295 0
-296 -104 0
-296 8 100 108 0
-8 104 296 0
-100 104 296 0
-108 104 296 0
-297 -105 0
-297 9 101 109 0
-9 105 297 0
-101 105 297 0
-109 105 297 0
-298 -106 0
-298 10 102 110 0
-10 106 298 0
-102 106 298 0
-110 106 298 0
-299 -107 0
-299 11 103 111 0
-11 107 299 0
-103 107 299 0
-111 107 299 0
-300 -108 0
-300 12 104 112 0
-12 108 300 0
-104 108 300 0
-112 108 300 0
-301 -109 0
-301 13 105 113 0
-13 109 301 0
-105 109 301 0
-113 109 301 0
-302 -110 0
-302 14 106 114 0
-14 110 302 0
-106 110 302 0
-114 110 302 0
-303 -111 0
-303 15 107 115 0
-15 111 303 0
-107 111 303 0
-115 111 303 0
-304 -112 0
-304 16 108 116 0
-16 112 304 0
-108 112 304 0
-116 112 304 0
-305 -113 0
-305 17 109 117 0
-17 113 305 0
-109 113 305 0
-117 113 305 0
-306 -114 0
-306 18 110 118 0
-18 114 306 0
-110 114 306 0
-118 114 306 0
-307 -115 0
-307 19 111 119 0
-19 115 307 0
-111 115 307 0
-119 115 307 0
-308 -116 0
-308 20 112 120 0
-20 116 308 0
-112 116 308 0
-120 116 308 0
-309 -117 0
-309 21 113 121 0
-21 117 309 0
-113 117 309 0
-121 117 309 0
-310 -118 0
-310 22 114 122 0
-22 118 310 0
-114 118 310 0
-122 118 310 0
-311 -119 0
-311 23 115 123 0
-23 119 311 0
-115 119 311 0
-123 119 311 0
-312 -120 0
-312 24 116 124 0
-24 120 312 0
-116 120 312 0
-124 120 312 0
-313 -121 0
-313 25 117 125 0
-25 121 313 0
-117 121 313 0
-125 121 313 0
-314 -122 0
-314 26 118 126 0
-26 122 314 0
-118 122 314 0
-126 122 314 0
-315 -123 0
-315 27 119 127 0
-27 123 315 0
-119 123 315 0
-127 123 315 0
-316 -124 0
-316 28 120 128 0
-28 124 316 0
-120 124 316 0
-128 124 316 0
-317 -125 0
-317 29 121 129 0
-29 125 317 0
-121 125 317 0
-129 125 317 0
-318 -126 0
-318 30 122 130 0
-30 126 318 0
-122 126 318 0
-130 126 318 0
-319 -127 0
-319 31 123 131 0
-31 127 319 0
-123 127 319 0
-131 127 319 0
-320 -128 0
-320 32 124 132 0
-32 128 320 0
-124 128 320 0
-132 128 320 0
-321 -129 0
-321 33 125 133 0
-33 129 321 0
-125 129 321 0
-133 129 321 0
-322 -130 0
-322 34 126 134 0
-34 130 322 0
-126 130 322 0
-134 130 322 0
-323 -131 0
-323 35 127 135 0
-35 131 323 0
-127 131 323 0
-135 131 323 0
-324 -132 0
-324 36 128 136 0
-36 132 324 0
-128 132 324 0
-136 132 324 0
-325 -133 0
-325 37 129 137 0
-37 133 325 0
-129 133 325 0
-137 133 325 0
-326 -134 0
-326 38 130 138 0
-38 134 326 0
-130 134 326 0
-138 134 326 0
-327 -135 0
-327 39 131 139 0
-39 135 327 0
-131 135 327 0
-139 135 327 0
-328 -136 0
-328 40 132 140 0
-40 136 328 0
-132 136 328 0
-140 136 328 0
-329 -137 0
-329 41 133 141 0
-41 137 329 0
-133 137 329 0
-141 137 329 0
-330 -138 0
-330 42 134 142 0
-42 138 330 0
-134 138 330 0
-142 138 330 0
-331 -139 0
-331 43 135 143 0
-43 139 331 0
-135 139 331 0
-143 139 331 0
-332 -140 0
-332 44 136 144 0
-44 140 332 0
-136 140 332 0
-144 140 332 0
-333 -141 0
-333 45 137 145 0
-45 141 333 0
-137 141 333 0
-145 141 333 0
-334 -142 0
-334 46 138 146 0
-46 142 334 0
-138 142 334 0
-146 142 334 0
-335 -143 0
-335 47 139 147 0
-47 143 335 0
-139 143 335 0
-147 143 335 0
-336 -144 0
-336 48 140 148 0
-48 144 336 0
-140 144 336 0
-148 144 336 0
-337 -145 0
-337 49 141 149 0
-49 145 337 0
-141 145 337 0
-149 145 337 0
-338 -146 0
-338 50 142 150 0
-50 146 338 0
-142 146 338 0
-150 146 338 0
-339 -147 0
-339 51 143 151 0
-51 147 339 0
-143 147 339 0
-151 147 339 0
-340 -148 0
-340 52 144 152 0
-52 148 340 0
-144 148 340 0
-152 148 340 0
-341 -149 0
-341 53 145 153 0
-53 149 341 0
-145 149 341 0
-153 149 341 0
-342 -150 0
-342 54 146 154 0
-54 150 342 0
-146 150 342 0
-154 150 342 0
-343 -151 0
-343 55 147 155 0
-55 151 343 0
-147 151 343 0
-155 151 343 0
-344 -152 0
-344 56 148 156 0
-56 152 344 0
-148 152 344 0
-156 152 344 0
-345 -153 0
-345 57 149 157 0
-57 153 345 0
-149 153 345 0
-157 153 345 0
-346 -154 0
-346 58 150 158 0
-58 154 346 0
-150 154 346 0
-158 154 346 0
-347 -155 0
-347 59 151 159 0
-59 155 347 0
-151 155 347 0
-159 155 347 0
-348 -156 0
-348 60 152 160 0
-60 156 348 0
-152 156 348 0
-160 156 348 0
-349 -157 0
-349 61 153 161 0
-61 157 349 0
-153 157 349 0
-161 157 349 0
-350 -158 0
-350 62 154 162 0
-62 158 350 0
-154 158 350 0
-162 158 350 0
-351 -159 0
-351 63 155 163 0
-63 159 351 0
-155 159 351 0
-163 159 351 0
-352 -160 0
-352 64 156 164 0
-64 160 352 0
-156 160 352 0
-164 160 352 0
-353 -161 0
-353 65 157 165 0
-65 161 353 0
-157 161 353 0
-165 161 353 0
-354 -162 0
-354 66 158 166 0
-66 162 354 0
-158 162 354 0
-166 162 354 0
-355 -163 0
-355 67 159 167 0
-67 163 355 0
-159 163 355 0
-167 163 355 0
-356 -164 0
-356 68 160 168 0
-68 164 356 0
-160 164 356 0
-168 164 356 0
-357 -165 0
-357 69 161 169 0
-69 165 357 0
-161 165 357 0
-169 165 357 0
-358 -166 0
-358 70 162 170 0
-70 166 358 0
-162 166 358 0
-170 166 358 0
-359 -167 0
-359 71 163 171 0
-71 167 359 0
-163 167 359 0
-171 167 359 0
-360 -168 0
-360 72 164 172 0
-72 168 360 0
-164 168 360 0
-172 168 360 0
-361 -169 0
-361 73 165 173 0
-73 169 361 0
-165 169 361 0
-173 169 361 0
-362 -170 0
-362 74 166 174 0
-74 170 362 0
-166 170 362 0
-174 170 362 0
-363 -171 0
-363 75 167 175 0
-75 171 363 0
-167 171 363 0
-175 171 363 0
-364 -172 0
-364 76 168 176 0
-76 172 364 0
-168 172 364 0
-176 172 364 0
-365 -173 0
-365 77 169 177 0
-77 173 365 0
-169 173 365 0
-177 173 365 0
-366 -174 0
-366 78 170 178 0
-78 174 366 0
-170 174 366 0
-178 174 366 0
-367 -175 0
-367 79 171 179 0
-79 175 367 0
-171 175 367 0
-179 175 367 0
-368 -176 0
-368 80 172 180 0
-80 176 368 0
-172 176 368 0
-180 176 368 0
-369 -177 0
-369 81 173 181 0
-81 177 369 0
-173 177 369 0
-181 177 369 0
-370 -178 0
-370 82 174 182 0
-82 178 370 0
-174 178 370 0
-182 178 370 0
-371 -179 0
-371 83 175 183 0
-83 179 371 0
-175 179 371 0
-183 179 371 0
-372 -180 0
-372 84 176 184 0
-84 180 372 0
-176 180 372 0
-184 180 372 0
-373 -181 0
-373 85 177 185 0
-85 181 373 0
-177 181 373 0
-185 181 373 0
-374 -182 0
-374 86 178 186 0
-86 182 374 0
-178 182 374 0
-186 182 374 0
-375 -183 0
-375 87 179 187 0
-87 183 375 0
-179 183 375 0
-187 183 375 0
-376 -184 0
-376 88 180 188 0
-88 184 376 0
-180 184 376 0
-188 184 376 0
-377 -185 0
-377 89 181 189 0
-89 185 377 0
-181 185 377 0
-189 185 377 0
-378 -186 0
-378 90 182 190 0
-90 186 378 0
-182 186 378 0
-190 186 378 0
-379 -187 0
-379 91 183 191 0
-91 187 379 0
-183 187 379 0
-191 187 379 0
-380 -188 0
-380 92 184 192 0
-92 188 380 0
-184 188 380 0
-192 188 380 0
-381 -189 0
-381 93 97 185 0
-93 189 381 0
-97 189 381 0
-185 189 381 0
-382 -190 0
-382 94 98 186 0
-94 190 382 0
-98 190 382 0
-186 190 382 0
-383 -191 0
-383 95 99 187 0
-95 191 383 0
-99 191 383 0
-187 191 383 0
-384 -192 0
-384 96 100 188 0
-96 192 384 0
-100 192 384 0
-188 192 384 0
1 385 0
-385 386 0
2 -385 387 0
-387 388 0
3 -387 389 0
-389 390 0
4 -389 391 0
-391 392 0
5 -391 393 0
-393 394 0
6 -393 395 0
-395 396 0
7 -395 397 0
-397 398 0
8 -397 399 0
-399 400 0
9 -399 401 0
-401 402 0
10 -401 403 0
-403 404 0
11 -403 405 0
-405 406 0
12 -405 407 0
-407 408 0
13 -407 409 0
-409 410 0
14 -409 411 0
-411 412 0
15 -411 413 0
-413 414 0
16 -413 415 0
-415 416 0
17 -415 417 0
-417 418 0
18 -417 419 0
-419 420 0
19 -419 421 0
-421 422 0
20 -421 423 0
-423 424 0
21 -423 425 0
-425 426 0
22 -425 427 0
-427 428 0
23 -427 429 0
-429 430 0
24 -429 431 0
-431 432 0
25 -431 433 0
-433 434 0
26 -433 435 0
-435 436 0
27 -435 437 0
-437 438 0
28 -437 439 0
-439 440 0
29 -439 441 0
-441 442 0
30 -441 443 0
-443 444 0
31 -443 445 0
-445 446 0
32 -445 447 0
-447 448 0
33 -447 449 0
-449 450 0
34 -449 451 0
-451 452 0
35 -451 453 0
-453 454 0
36 -453 455 0
-455 456 0
37 -455 457 0
-457 458 0
38 -457 459 0
-459 460 0
39 -459 461 0
-461 462 0
40 -461 463 0
-463 464 0
41 -463 465 0
-465 466 0
42 -465 467 0
-467 468 0
43 -467 469 0
-469 470 0
44 -469 471 0
-471 472 0
45 -471 473 0
-473 474 0
46 -473 475 0
-475 476 0
47 -475 477 0
-477 478 0
48 -477 479 0
-479 480 0
49 -479 481 0
-481 482 0
50 -481 483 0
-483 484 0
51 -483 485 0
-485 486 0
52 -485 487 0
-487 488 0
53 -487 489 0
-489 490 0
54 -489 491 0
-491 492 0
55 -491 493 0
-493 494 0
56 -493 495 0
-495 496 0
57 -495 497 0
-497 498 0
58 -497 499 0
-499 500 0
59 -499 501 0
-501 502 0
60 -501 503 0
-503 504 0
61 -503 505 0
-505 506 0
62 -505 507 0
-507 508 0
63 -507 509 0
-509 510 0
64 -509 511 0
-511 512 0
65 -511 513 0
-513 514 0
66 -513 515 0
-515 516 0
67 -515 517 0
-517 518 0
68 -517 519 0
-519 520 0
69 -519 521 0
-521 522 0
70 -521 523 0
-523 524 0
71 -523 525 0
-525 526 0
72 -525 527 0
-527 528 0
73 -527 529 0
-529 530 0
74 -529 531 0
-531 532 0
75 -531 533 0
-533 534 0
76 -533 535 0
-535 536 0
77 -535 537 0
-537 538 0
78 -537 539 0
-539 540 0
79 -539 541 0
-541 542 0
80 -541 543 0
-543 544 0
81 -543 545 0
-545 546 0
82 -545 547 0
-547 548 0
83 -547 549 0
-549 550 0
84 -549 551 0
-551 552 0
85 -551 553 0
-553 554 0
86 -553 555 0
-555 556 0
87 -555 557 0
-557 558 0
88 -557 559 0
-559 560 0
89 -559 561 0
-561 562 0
90 -561 563 0
-563 564 0
91 -563 565 0
-565 566 0
92 -565 567 0
-567 568 0
93 -567 569 0
-569 570 0
94 -569 571 0
-571 572 0
95 -571 573 0
-573 574 0
96 -573 575 0
-575 576 0
97 -575 577 0
-577 578 0
98 -577 579 0
-579 580 0
99 -579 581 0
-581 582 0
100 -581 583 0
-583 584 0
101 -583 585 0
-585 586 0
102 -585 587 0
-587 588 0
103 -587 589 0
-589 590 0
104 -589 591 0
-591 592 0
105 -591 593 0
-593 594 0
106 -593 595 0
-595 596 0
107 -595 597 0
-597 598 0
108 -597 599 0
-599 600 0
109 -599 601 0
-601 602 0
110 -601 603 0
-603 604 0
111 -603 605 0
-605 606 0
112 -605 607 0
-607 608 0
113 -607 609 0
-609 610 0
114 -609 611 0
-611 612 0
115 -611 613 0
-613 614 0
116 -613 615 0
-615 616 0
117 -615 617 0
-617 618 0
118 -617 619 0
-619 620 0
119 -619 621 0
-621 622 0
120 -621 623 0
-623 624 0
121 -623 625 0
-625 626 0
122 -625 627 0
-627 628 0
123 -627 629 0
-629 630 0
124 -629 631 0
-631 632 0
125 -631 633 0
-633 634 0
126 -633 635 0
-635 636 0
127 -635 637 0
-637 638 0
128 -637 639 0
-639 640 0
129 -639 641 0
-641 642 0
130 -641 643 0
-643 644 0
131 -643 645 0
-645 646 0
132 -645 647 0
-647 648 0
133 -647 649 0
-649 650 0
134 -649 651 0
-651 652 0
135 -651 653 0
-653 654 0
136 -653 655 0
-655 656 0
137 -655 657 0
-657 658 0
138 -657 659 0
-659 660 0
139 -659 661 0
-661 662 0
140 -661 663 0
-663 664 0
141 -663 665 0
-665 666 0
142 -665 667 0
-667 668 0
143 -667 669 0
-669 670 0
144 -669 671 0
-671 672 0
145 -671 673 0
-673 674 0
146 -673 675 0
-675 676 0
147 -675 677 0
-677 678 0
148 -677 679 0
-679 680 0
149 -679 681 0
-681 682 0
150 -681 683 0
-683 684 0
151 -683 685 0
-685 686 0
152 -685 687 0
-687 688 0
153 -687 689 0
-689 690 0
154 -689 691 0
-691 692 0
155 -691 693 0
-693 694 0
156 -693 695 0
-695 696 0
157 -695 697 0
-697 698 0
158 -697 699 0
-699 700 0
159 -699 701 0
-701 702 0
160 -701 703 0
-703 704 0
161 -703 705 0
-705 706 0
162 -705 707 0
-707 708 0
163 -707 709 0
-709 710 0
164 -709 711 0
-711 712 0
165 -711 713 0
-713 714 0
166 -713 715 0
-715 716 0
167 -715 717 0
-717 718 0
168 -717 719 0
-719 720 0
169 -719 721 0
-721 722 0
170 -721 723 0
-723 724 0
171 -723 725 0
-725 726 0
172 -725 727 0
-727 728 0
173 -727 729 0
-729 730 0
174 -729 731 0
-731 732 0
175 -731 733 0
-733 734 0
176 -733 735 0
-735 736 0
177 -735 0
2 386 0
-386 737 0
3 -386 388 0
-388 738 0
4 -388 390 0
-390 739 0
5 -390 392 0
-392 740 0
6 -392 394 0
-394 741 0
7 -394 396 0
-396 742 0
8 -396 398 0
-398 743 0
9 -398 400 0
-400 744 0
10 -400 402 0
-402 745 0
11 -402 404 0
-404 746 0
12 -404 406 0
-406 747 0
13 -406 408 0
-408 748 0
14 -408 410 0
-410 749 0
15 -410 412 0
-412 750 0
16 -412 414 0
-414 751 0
17 -414 416 0
-416 752 0
18 -416 418 0
-418 753 0
19 -418 420 0
-420 754 0
20 -420 422 0
-422 755 0
21 -422 424 0
-424 756 0
22 -424 426 0
-426 757 0
23 -426 428 0
-428 758 0
24 -428 430 0
-430 759 0
25 -430 432 0
-432 760 0
26 -432 434 0
-434 761 0
27 -434 436 0
-436 762 0
28 -436 438 0
-438 763 0
29 -438 440 0
-440 764 0
30 -440 442 0
-442 765 0
31 -442 444 0
-444 766 0
32 -444 446 0
-446 767 0
33 -446 448 0
-448 768 0
34 -448 450 0
-450 769 0
35 -450 452 0
-452 770 0
36 -452 454 0
-454 771 0
37 -454 456 0
-456 772 0
38 -456 458 0
-458 773 0
39 -458 460 0
-460 774 0
40 -460 462 0
-462 775 0
41 -462 464 0
-464 776 0
42 -464 466 0
-466 777 0
43 -466 468 0
-468 778 0
44 -468 470 0
-470 779 0
45 -470 472 0
-472 780 0
46 -472 474 0
-474 781 0
47 -474 476 0
-476 782 0
48 -476 478 0
-478 783 0
49 -478 480 0
-480 784 0
50 -480 482 0
-482 785 0
51 -482 484 0
-484 786 0
52 -484 486 0
-486 787 0
53 -486 488 0
-488 788 0
54 -488 490 0
-490 789 0
55 -490 492 0
-492 790 0
56 -492 494 0
-494 791 0
57 -494 496 0
-496 792 0
58 -496 498 0
-498 793 0
59 -498 500 0
-500 794 0
60 -500 502 0
-502 795 0
61 -502 504 0
-504 796 0
62 -504 506 0
-506 797 0
63 -506 508 0
-508 798 0
64 -508 510 0
-510 799 0
65 -510 512 0
-512 800 0
66 -512 514 0
-514 801 0
67 -514 516 0
-516 802 0
68 -516 518 0
-518 803 0
69 -518 520 0
-520 804 0
70 -520 522 0
-522 805 0
71 -522 524 0
-524 806 0
72 -524 526 0
-526 807 0
73 -526 528 0
-528 808 0
74 -528 530 0
-530 809 0
75 -530 532 0
-532 810 0
76 -532 534 0
-534 811 0
77 -534 536 0
-536 812 0
78 -536 538 0
-538 813 0
79 -538 540 0
-540 814 0
80 -540 542 0
-542 815 0
81 -542 544 0
-544 816 0
82 -544 546 0
-546 817 0
83 -546 548 0
-548 818 0
84 -548 550 0
-550 819 0
85 -550 552 0
-552 820 0
86 -552 554 0
-554 821 0
87 -554 556 0
-556 822 0
88 -556 558 0
-558 823 0
89 -558 560 0
-560 824 0
90 -560 562 0
-562 825 0
91 -562 564 0
-564 826 0
92 -564 566 0
-566 827 0
93 -566 568 0
-568 828 0
94 -568 570 0
-570 829 0
95 -570 572 0
-572 830 0
96 -572 574 0
-574 831 0
97 -574 576 0
-576 832 0
98 -576 578 0
-578 833 0
99 -578 580 0
-580 834 0
100 -580 582 0
-582 835 0
101 -582 584 0
-584 836 0
102 -584 586 0
-586 837 0
103 -586 588 0
-588 838 0
104 -588 590 0
-590 839 0
105 -590 592 0
-592 840 0
106 -592 594 0
-594 841 0
107 -594 596 0
-596 842 0
108 -596 598 0
-598 843 0
109 -598 600 0
-600 844 0
110 -600 602 0
-602 845 0
111 -602 604 0
-604 846 0
112 -604 606 0
-606 847 0
113 -606 608 0
-608 848 0
114 -608 610 0
-610 849 0
115 -610 612 0
-612 850 0
116 -612 614 0
-614 851 0
117 -614 616 0
-616 852 0
118 -616 618 0
-618 853 0
119 -618 620 0
-620 854 0
120 -620 622 0
-622 855 0
121 -622 624 0
-624 856 0
122 -624 626 0
-626 857 0
123 -626 628 0
-628 858 0
124 -628 630 0
-630 859 0
125 -630 632 0
-632 860 0
126 -632 634 0
-634 861 0
127 -634 636 0
-636 862 0
128 -636 638 0
-638 863 0
129 -638 640 0
-640 864 0
130 -640 642 0
-642 865 0
131 -642 644 0
-644 866 0
132 -644 646 0
-646 867 0
133 -646 648 0
-648 868 0
134 -648 650 0
-650 869 0
135 -650 652 0
-652 870 0
136 -652 654 0
-654 871 0
137 -654 656 0
-656 872 0
138 -656 658 0
-658 873 0
139 -658 660 0
-660 874 0
140 -660 662 0
-662 875 0
141 -662 664 0
-664 876 0
142 -664 666 0
-666 877 0
143 -666 668 0
-668 878 0
144 -668 670 0
-670 879 0
145 -670 672 0
-672 880 0
146 -672 674 0
-674 881 0
147 -674 676 0
-676 882 0
148 -676 678 0
-678 883 0
149 -678 680 0
-680 884 0
150 -680 682 0
-682 885 0
151 -682 684 0
-684 886 0
152 -684 686 0
-686 887 0
153 -686 688 0
-688 888 0
154 -688 690 0
-690 889 0
155 -690 692 0
-692 890 0
156 -692 694 0
-694 891 0
157 -694 696 0
-696 892 0
158 -696 698 0
-698 893 0
159 -698 700 0
-700 894 0
160 -700 702 0
-702 895 0
161 -702 704 0
-704 896 0
162 -704 706 0
-706 897 0
163 -706 708 0
-708 898 0
164 -708 710 0
-710 899 0
165 -710 712 0
-712 900 0
166 -712 714 0
-714 901 0
167 -714 716 0
-716 902 0
168 -716 718 0
-718 903 0
169 -718 720 0
-720 904 0
170 -720 722 0
-722 905 0
171 -722 724 0
-724 906 0
172 -724 726 0
-726 907 0
173 -726 728 0
-728 908 0
174 -728 730 0
-730 909 0
175 -730 732 0
-732 910 0
176 -732 734 0
-734 911 0
177 -734 736 0
-736 912 0
178 -736 0
3 737 0
-737 913 0
4 -737 738 0
-738 914 0
5 -738 739 0
-739 915 0
6 -739 740 0
-740 916 0
7 -740 741 0
-741 917 0
8 -741 742 0
-742 918 0
9 -742 743 0
-743 919 0
10 -743 744 0
-744 920 0
11 -744 745 0
-745 921 0
12 -745 746 0
-746 922 0
13 -746 747 0
-747 923 0
14 -747 748 0
-748 924 0
15 -748 749 0
-749 925 0
16 -749 750 0
-750 926 0
17 -750 751 0
-751 927 0
18 -751 752 0
-752 928 0
19 -752 753 0
-753 929 0
20 -753 754 0
-754 930 0
21 -754 755 0
-755 931 0
22 -755 756 0
-756 932 0
23 -756 757 0
-757 933 0
24 -757 758 0
-758 934 0
25 -758 759 0
-759 935 0
26 -759 760 0
-760 936 0
27 -760 761 0
-761 937 0
28 -761 762 0
-762 938 0
29 -762 763 0
-763 939 0
30 -763 764 0
-764 940 0
31 -764 765 0
-765 941 0
32 -765 766 0
-766 942 0
33 -766 767 0
-767 943 0
34 -767 768 0
-768 944 0
35 -768 769 0
-769 945 0
36 -769 770 0
-770 946 0
37 -770 771 0
-771 947 0
38 -771 772 0
-772 948 0
39 -772 773 0
-773 949 0
40 -773 774 0
-774 950 0
41 -774 775 0
-775 951 0
42 -775 776 0
-776 952 0
43 -776 777 0
-777 953 0
44 -777 778 0
-778 954 0
45 -778 779 0
-779 955 0
46 -779 780 0
-780 956 0
47 -780 781 0
-781 957 0
48 -781 782 0
-782 958 0
49 -782 783 0
-783 959 0
50 -783 784 0
-784 960 0
51 -784 785 0
-785 961 0
52 -785 786 0
-786 962 0
53 -786 787 0
-787 963 0
54 -787 788 0
-788 964 0
55 -788 789 0
-789 965 0
56 -789 790 0
-790 966 0
57 -790 791 0
-791 967 0
58 -791 792 0
-792 968 0
59 -792 793 0
-793 969 0
60 -793 794 0
-794 970 0
61 -794 795 0
-795 971 0
62 -795 796 0
-796 972 0
63 -796 797 0
-797 973 0
64 -797 798 0
-798 974 0
65 -798 799 0
-799 975 0
66 -799 800 0
-800 976 0
67 -800 801 0
-801 977 0
68 -801 802 0
-802 978 0
69 -802 803 0
-803 979 0
70 -803 804 0
-804 980 0
71 -804 805 0
-805 981 0
72 -805 806 0
-806 982 0
73 -806 807 0
-807 983 0
74 -807 808 0
-808 984 0
75 -808 809 0
-809 985 0
76 -809 810 0
-810 986 0
77 -810 811 0
-811 987 0
78 -811 812 0
-812 988 0
79 -812 813 0
-813 989 0
80 -813 814 0
-814 990 0
81 -814 815 0
-815 991 0
82 -815 816 0
-816 992 0
83 -816 817 0
-817 993 0
84 -817 818 0
-818 994 0
85 -818 819 0
-819 995 0
86 -819 820 0
-820 996 0
87 -820 821 0
-821 997 0
88 -821 822 0
-822 998 0
89 -822 823 0
-823 999 0
90 -823 824 0
-824 1000 0
91 -824 825 0
-825 1001 0
92 -825 826 0
-826 1002 0
93 -826 827 0
-827 1003 0
94 -827 828 0
-828 1004 0
95 -828 829 0
-829 1005 0
96 -829 830 0
-830 1006 0
97 -830 831 0
-831 1007 0
98 -831 832 0
-832 1008 0
99 -832 833 0
-833 1009 0
100 -833 834 0
-834 1010 0
101 -834 835 0
-835 1011 0
102 -835 836 0
-836 1012 0
103 -836 837 0
-837 1013 0
104 -837 838 0
-838 1014 0
105 -838 839 0
-839 1015 0
106 -839 840 0
-840 1016 0
107 -840 841 0
-841 1017 0
108 -841 842 0
-842 1018 0
109 -842 843 0
-843 1019 0
110 -843 844 0
-844 1020 0
111 -844 845 0
-845 1021 0
112 -845 846 0
-846 1022 0
113 -846 847 0
-847 1023 0
114 -847 848 0
-848 1024 0
115 -848 849 0
-849 1025 0
116 -849 850 0
-850 1026 0
117 -850 851 0
-851 1027 0
118 -851 852 0
-852 1028 0
119 -852 853 0
-853 1029 0
120 -853 854 0
-854 1030 0
121 -854 855 0
-855 1031 0
122 -855 856 0
-856 1032 0
123 -856 857 0
-857 1033 0
124 -857 858 0
-858 1034 0
125 -858 859 0
-859 1035 0
126 -859 860 0
-860 1036 0
127 -860 861 0
-861 1037 0
128 -861 862 0
-862 1038 0
129 -862 863 0
-863 1039 0
130 -863 864 0
-864 1040 0
131 -864 865 0
-865 1041 0
132 -865 866 0
-866 1042 0
133 -866 867 0
-867 1043 0
134 -867 868 0
-868 1044 0
135 -868 869 0
-869 1045 0
136 -869 870 0
-870 1046 0
137 -870 871 0
-871 1047 0
138 -871 872 0
-872 1048 0
139 -872 873 0
-873 1049 0
140 -873 874 0
-874 1050 0
141 -874 875 0
-875 1051 0
142 -875 876 0
-876 1052 0
143 -876 877 0
-877 1053 0
144 -877 878 0
-878 1054 0
145 -878 879 0
-879 1055 0
146 -879 880 0
-880 1056 0
147 -880 881 0
-881 1057 0
148 -881 882 0
-882 1058 0
149 -882 883 0
-883 1059 0
150 -883 884 0
-884 1060 0
151 -884 885 0
-885 1061 0
152 -885 886 0
-886 1062 0
153 -886 887 0
-887 1063 0
154 -887 888 0
-888 1064 0
155 -888 889 0
-889 1065 0
156 -889 890 0
-890 1066 0
157 -890 891 0
-891 1067 0
158 -891 892 0
-892 1068 0
159 -892 893 0
-893 1069 0
160 -893 894 0
-894 1070 0
161 -894 895 0
-895 1071 0
162 -895 896 0
-896 1072 0
163 -896 897 0
-897 1073 0
164 -897 898 0
-898 1074 0
165 -898 899 0
-899 1075 0
166 -899 900 0
-900 1076 0
167 -900 901 0
-901 1077 0
168 -901 902 0
-902 1078 0
169 -902 903 0
-903 1079 0
170 -903 904 0
-904 1080 0
171 -904 905 0
-905 1081 0
172 -905 906 0
-906 1082 0
173 -906 907 0
-907 1083 0
174 -907 908 0
-908 1084 0
175 -908 909 0
-909 1085 0
176 -909 910 0
-910 1086 0
177 -910 911 0
-911 1087 0
178 -911 912 0
-912 1088 0
179 -912 0
4 913 0
-913 1089 0
5 -913 914 0
-914 1090 0
6 -914 915 0
-915 1091 0
7 -915 916 0
-916 1092 0
8 -916 917 0
-917 1093 0
9 -917 918 0
-918 1094 0
10 -918 919 0
-919 1095 0
11 -919 920 0
-920 1096 0
12 -920 921 0
-921 1097 0
13 -921 922 0
-922 1098 0
14 -922 923 0
-923 1099 0
15 -923 924 0
-924 1100 0
16 -924 925 0
-925 1101 0
17 -925 926 0
-926 1102 0
18 -926 927 0
-927 1103 0
19 -927 928 0
-928 1104 0
20 -928 929 0
-929 1105 0
21 -929 930 0
-930 1106 0
22 -930 931 0
-931 1107 0
23 -931 932 0
-932 1108 0
24 -932 933 0
-933 1109 0
25 -933 934 0
-934 1110 0
26 -934 935 0
-935 1111 0
27 -935 936 0
-936 1112 0
28 -936 937 0
-937 1113 0
29 -937 938 0
-938 1114 0
30 -938 939 0
-939 1115 0
31 -939 940 0
-940 1116 0
32 -940 941 0
-941 1117 0
33 -941 942 0
-942 1118 0
34 -942 943 0
-943 1119 0
35 -943 944 0
-944 1120 0
36 -944 945 0
-945 1121 0
37 -945 946 0
-946 1122 0
38 -946 947 0
-947 1123 0
39 -947 948 0
-948 1124 0
40 -948 949 0
-949 1125 0
41 -949 950 0
-950 1126 0
42 -950 951 0
-951 1127 0
43 -951 952 0
-952 1128 0
44 -952 953 0
-953 1129 0
45 -953 954 0
-954 1130 0
46 -954 955 0
-955 1131 0
47 -955 956 0
-956 1132 0
48 -956 957 0
-957 1133 0
49 -957 958 0
-958 1134 0
50 -958 959 0
-959 1135 0
51 -959 960 0
-960 1136 0
52 -960 961 0
-961 1137 0
53 -961 962 0
-962 1138 0
54 -962 963 0
-963 1139 0
55 -963 964 0
-964 1140 0
56 -964 965 0
-965 1141 0
57 -965 966 0
-966 1142 0
58 -966 967 0
-967 1143 0
59 -967 968 0
-968 1144 0
60 -968 969 0
-969 1145 0
61 -969 970 0
-970 1146 0
62 -970 971 0
-971 1147 0
63 -971 972 0
-972 1148 0
64 -972 973 0
-973 1149 0
65 -973 974 0
-974 1150 0
66 -974 975 0
-975 1151 0
67 -975 976 0
-976 1152 0
68 -976 977 0
-977 1153 0
69 -977 978 0
-978 1154 0
70 -978 979 0
-979 1155 0
71 -979 980 0
-980 1156 0
72 -980 981 0
-981 1157 0
73 -981 982 0
-982 1158 0
74 -982 983 0
-983 1159 0
75 -983 984 0
-984 1160 0
76 -984 985 0
-985 1161 0
77 -985 986 0
-986 1162 0
78 -986 987 0
-987 1163 0
79 -987 988 0
-988 1164 0
80 -988 989 0
-989 1165 0
81 -989 990 0
-990 1166 0
82 -990 991 0
-991 1167 0
83 -991 992 0
-992 1168 0
84 -992 993 0
-993 1169 0
85 -993 994 0
-994 1170 0
86 -994 995 0
-995 1171 0
87 -995 996 0
-996 1172 0
88 -996 997 0
-997 1173 0
89 -997 998 0
-998 1174 0
90 -998 999 0
-999 1175 0
91 -999 1000 0
-1000 1176 0
92 -1000 1001 0
-1001 1177 0
93 -1001 1002 0
-1002 1178 0
94 -1002 1003 0
-1003 1179 0
95 -1003 1004 0
-1004 1180 0
96 -1004 1005 0
-1005 1181 0
97 -1005 1006 0
-1006 1182 0
98 -1006 1007 0
-1007 1183 0
99 -1007 1008 0
-1008 1184 0
100 -1008 1009 0
-1009 1185 0
101 -1009 1010 0
-1010 1186 0
102 -1010 1011 0
-1011 1187 0
103 -1011 1012 0
-1012 1188 0
104 -1012 1013 0
-1013 1189 0
105 -1013 1014 0
-1014 1190 0
106 -1014 1015 0
-1015 1191 0
107 -1015 1016 0
-1016 1192 0
108 -1016 1017 0
-1017 1193 0
109 -1017 1018 0
-1018 1194 0
110 -1018 1019 0
-1019 1195 0
111 -1019 1020 0
-1020 1196 0
112 -1020 1021 0
-1021 1197 0
113 -1021 1022 0
-1022 1198 0
114 -1022 1023 0
-1023 1199 0
115 -1023 1024 0
-1024 1200 0
116 -1024 1025 0
-1025 1201 0
117 -1025 1026 0
-1026 1202 0
118 -1026 1027 0
-1027 1203 0
119 -1027 1028 0
-1028 1204 0
120 -1028 1029 0
-1029 1205 0
121 -1029 1030 0
-1030 1206 0
122 -1030 1031 0
-1031 1207 0
123 -1031 1032 0
-1032 1208 0
124 -1032 1033 0
-1033 1209 0
125 -1033 1034 0
-1034 1210 0
126 -1034 1035 0
-1035 1211 0
127 -1035 1036 0
-1036 1212 0
128 -1036 1037 0
-1037 1213 0
129 -1037 1038 0
-1038 1214 0
130 -1038 1039 0
-1039 1215 0
131 -1039 1040 0
-1040 1216 0
132 -1040 1041 0
-1041 1217 0
133 -1041 1042 0
-1042 1218 0
134 -1042 1043 0
-1043 1219 0
135 -1043 1044 0
-1044 1220 0
136 -1044 1045 0
-1045 1221 0
137 -1045 1046 0
-1046 1222 0
138 -1046 1047 0
-1047 1223 0
139 -1047 1048 0
-1048 1224 0
140 -1048 1049 0
-1049 1225 0
141 -1049 1050 0
-1050 1226 0
142 -1050 1051 0
-1051 1227 0
143 -1051 1052 0
-1052 1228 0
144 -1052 1053 0
-1053 1229 0
145 -1053 1054 0
-1054 1230 0
146 -1054 1055 0
-1055 1231 0
147 -1055 1056 0
-1056 1232 0
148 -1056 1057 0
-1057 1233 0
149 -1057 1058 0
-1058 1234 0
150 -1058 1059 0
-1059 1235 0
151 -1059 1060 0
-1060 1236 0
152 -1060 1061 0
-1061 1237 0
153 -1061 1062 0
-1062 1238 0
154 -1062 1063 0
-1063 1239 0
155 -1063 1064 0
-1064 1240 0
156 -1064 1065 0
-1065 1241 0
157 -1065 1066 0
-1066 1242 0
158 -1066 1067 0
-1067 1243 0
159 -1067 1068 0
-1068 1244 0
160 -1068 1069 0
-1069 1245 0
161 -1069 1070 0
-1070 1246 0
162 -1070 1071 0
-1071 1247 0
163 -1071 1072 0
-1072 1248 0
164 -1072 1073 0
-1073 1249 0
165 -1073 1074 0
-1074 1250 0
166 -1074 1075 0
-1075 1251 0
167 -1075 1076 0
-1076 1252 0
168 -1076 1077 0
-1077 1253 0
169 -1077 1078 0
-1078 1254 0
170 -1078 1079 0
-1079 1255 0
171 -1079 1080 0
-1080 1256 0
172 -1080 1081 0
-1081 1257 0
173 -1081 1082 0
-1082 1258 0
174 -1082 1083 0
-1083 1259 0
175 -1083 1084 0
-1084 1260 0
176 -1084 1085 0
-1085 1261 0
177 -1085 1086 0
-1086 1262 0
178 -1086 1087 0
-1087 1263 0
179 -1087 1088 0
-1088 1264 0
180 -1088 0
5 1089 0
-1089 1265 0
6 -1089 1090 0
-1090 1266 0
7 -1090 1091 0
-1091 1267 0
8 -1091 1092 0
-1092 1268 0
9 -1092 1093 0
-1093 1269 0
10 -1093 1094 0
-1094 1270 0
11 -1094 1095 0
-1095 1271 0
12 -1095 1096 0
-1096 1272 0
13 -1096 1097 0
-1097 1273 0
14 -1097 1098 0
-1098 1274 0
15 -1098 1099 0
-1099 1275 0
16 -1099 1100 0
-1100 1276 0
17 -1100 1101 0
-1101 1277 0
18 -1101 1102 0
-1102 1278 0
19 -1102 1103 0
-1103 1279 0
20 -1103 1104 0
-1104 1280 0
21 -1104 1105 0
-1105 1281 0
22 -1105 1106 0
-1106 1282 0
23 -1106 1107 0
-1107 1283 0
24 -1107 1108 0
-1108 1284 0
25 -1108 1109 0
-1109 1285 0
26 -1109 1110 0
-1110 1286 0
27 -1110 1111 0
-1111 1287 0
28 -1111 1112 0
-1112 1288 0
29 -1112 1113 0
-1113 1289 0
30 -1113 1114 0
-1114 1290 0
31 -1114 1115 0
-1115 1291 0
32 -1115 1116 0
-1116 1292 0
33 -1116 1117 0
-1117 1293 0
34 -1117 1118 0
-1118 1294 0
35 -1118 1119 0
-1119 1295 0
36 -1119 1120 0
-1120 1296 0
37 -1120 1121 0
-1121 1297 0
38 -1121 1122 0
-1122 1298 0
39 -1122 1123 0
-1123 1299 0
40 -1123 1124 0
-1124 1300 0
41 -1124 1125 0
-1125 1301 0
42 -1125 1126 0
-1126 1302 0
43 -1126 1127 0
-1127 1303 0
44 -1127 1128 0
-1128 1304 0
45 -1128 1129 0
-1129 1305 0
46 -1129 1130 0
-1130 1306 0
47 -1130 1131 0
-1131 1307 0
48 -1131 1132 0
-1132 1308 0
49 -1132 1133 0
-1133 1309 0
50 -1133 1134 0
-1134 1310 0
51 -1134 1135 0
-1135 1311 0
52 -1135 1136 0
-1136 1312 0
53 -1136 1137 0
-1137 1313 0
54 -1137 1138 0
-1138 1314 0
55 -1138 1139 0
-1139 1315 0
56 -1139 1140 0
-1140 1316 0
57 -1140 1141 0
-1141 1317 0
58 -1141 1142 0
-1142 1318 0
59 -1142 1143 0
-1143 1319 0
60 -1143 1144 0
-1144 1320 0
61 -1144 1145 0
-1145 1321 0
62 -1145 1146 0
-1146 1322 0
63 -1146 1147 0
-1147 1323 0
64 -1147 1148 0
-1148 1324 0
65 -1148 1149 0
-1149 1325 0
66 -1149 1150 0
-1150 1326 0
67 -1150 1151 0
-1151 1327 0
68 -1151 1152 0
-1152 1328 0
69 -1152 1153 0
-1153 1329 0
70 -1153 1154 0
-1154 1330 0
71 -1154 1155 0
-1155 1331 0
72 -1155 1156 0
-1156 1332 0
73 -1156 1157 0
-1157 1333 0
74 -1157 1158 0
-1158 1334 0
75 -1158 1159 0
-1159 1335 0
76 -1159 1160 0
-1160 1336 0
77 -1160 1161 0
-1161 1337 0
78 -1161 1162 0
-1162 1338 0
79 -1162 1163 0
-1163 1339 0
80 -1163 1164 0
-1164 1340 0
81 -1164 1165 0
-1165 1341 0
82 -1165 1166 0
-1166 1342 0
83 -1166 1167 0
-1167 1343 0
84 -1167 1168 0
-1168 1344 0
85 -1168 1169 0
-1169 1345 0
86 -1169 1170 0
-1170 1346 0
87 -1170 1171 0
-1171 1347 0
88 -1171 1172 0
-1172 1348 0
89 -1172 1173 0
-1173 1349 0
90 -1173 1174 0
-1174 1350 0
91 -1174 1175 0
-1175 1351 0
92 -1175 1176 0
-1176 1352 0
93 -1176 1177 0
-1177 1353 0
94 -1177 1178 0
-1178 1354 0
95 -1178 1179 0
-1179 1355 0
96 -1179 1180 0
-1180 1356 0
97 -1180 1181 0
-1181 1357 0
98 -1181 1182 0
-1182 1358 0
99 -1182 1183 0
-1183 1359 0
100 -1183 1184 0
-1184 1360 0
101 -1184 1185 0
-1185 1361 0
102 -1185 1186 0
-1186 1362 0
103 -1186 1187 0
-1187 1363 0
104 -1187 1188 0
-1188 1364 0
105 -1188 1189 0
-1189 1365 0
106 -1189 1190 0
-1190 1366 0
107 -1190 1191 0
-1191 1367 0
108 -1191 1192 0
-1192 1368 0
109 -1192 1193 0
-1193 1369 0
110 -1193 1194 0
-1194 1370 0
111 -1194 1195 0
-1195 1371 0
112 -1195 1196 0
-1196 1372 0
113 -1196 1197 0
-1197 1373 0
114 -1197 1198 0
-1198 1374 0
115 -1198 1199 0
-1199 1375 0
116 -1199 1200 0
-1200 1376 0
117 -1200 1201 0
-1201 1377 0
118 -1201 1202 0
-1202 1378 0
119 -1202 1203 0
-1203 1379 0
120 -1203 1204 0
-1204 1380 0
121 -1204 1205 0
-1205 1381 0
122 -1205 1206 0
-1206 1382 0
123 -1206 1207 0
-1207 1383 0
124 -1207 1208 0
-1208 1384 0
125 -1208 1209 0
-1209 1385 0
126 -1209 1210 0
-1210 1386 0
127 -1210 1211 0
-1211 1387 0
128 -1211 1212 0
-1212 1388 0
129 -1212 1213 0
-1213 1389 0
130 -1213 1214 0
-1214 1390 0
131 -1214 1215 0
-1215 1391 0
132 -1215 1216 0
-1216 1392 0
133 -1216 1217 0
-1217 1393 0
134 -1217 1218 0
-1218 1394 0
135 -1218 1219 0
-1219 1395 0
136 -1219 1220 0
-1220 1396 0
137 -1220 1221 0
-1221 1397 0
138 -1221 1222 0
-1222 1398 0
139 -1222 1223 0
-1223 1399 0
140 -1223 1224 0
-1224 1400 0
141 -1224 1225 0
-1225 1401 0
142 -1225 1226 0
-1226 1402 0
143 -1226 1227 0
-1227 1403 0
144 -1227 1228 0
-1228 1404 0
145 -1228 1229 0
-1229 1405 0
146 -1229 1230 0
-1230 1406 0
147 -1230 1231 0
-1231 1407 0
148 -1231 1232 0
-1232 1408 0
149 -1232 1233 0
-1233 1409 0
150 -1233 1234 0
-1234 1410 0
151 -1234 1235 0
-1235 1411 0
152 -1235 1236 0
-1236 1412 0
153 -1236 1237 0
-1237 1413 0
154 -1237 1238 0
-1238 1414 0
155 -1238 1239 0
-1239 1415 0
156 -1239 1240 0
-1240 1416 0
157 -1240 1241 0
-1241 1417 0
158 -1241 1242 0
-1242 1418 0
159 -1242 1243 0
-1243 1419 0
160 -1243 1244 0
-1244 1420 0
161 -1244 1245 0
-1245 1421 0
162 -1245 1246 0
-1246 1422 0
163 -1246 1247 0
-1247 1423 0
164 -1247 1248 0
-1248 1424 0
165 -1248 1249 0
-1249 1425 0
166 -1249 1250 0
-1250 1426 0
167 -1250 1251 0
-1251 1427 0
168 -1251 1252 0
-1252 1428 0
169 -1252 1253 0
-1253 1429 0
170 -1253 1254 0
-1254 1430 0
171 -1254 1255 0
-1255 1431 0
172 -1255 1256 0
-1256 1432 0
173 -1256 1257 0
-1257 1433 0
174 -1257 1258 0
-1258 1434 0
175 -1258 1259 0
-1259 1435 0
176 -1259 1260 0
-1260 1436 0
177 -1260 1261 0
-1261 1437 0
178 -1261 1262 0
-1262 1438 0
179 -1262 1263 0
-1263 1439 0
180 -1263 1264 0
-1264 1440 0
181 -1264 0
6 1265 0
-1265 1441 0
7 -1265 1266 0
-1266 1442 0
8 -1266 1267 0
-1267 1443 0
9 -1267 1268 0
-1268 1444 0
10 -1268 1269 0
-1269 1445 0
11 -1269 1270 0
-1270 1446 0
12 -1270 1271 0
-1271 1447 0
13 -1271 1272 0
-1272 1448 0
14 -1272 1273 0
-1273 1449 0
15 -1273 1274 0
-1274 1450 0
16 -1274 1275 0
-1275 1451 0
17 -1275 1276 0
-1276 1452 0
18 -1276 1277 0
-1277 1453 0
19 -1277 1278 0
-1278 1454 0
20 -1278 1279 0
-1279 1455 0
21 -1279 1280 0
-1280 1456 0
22 -1280 1281 0
-1281 1457 0
23 -1281 1282 0
-1282 1458 0
24 -1282 1283 0
-1283 1459 0
25 -1283 1284 0
-1284 1460 0
26 -1284 1285 0
-1285 1461 0
27 -1285 1286 0
-1286 1462 0
28 -1286 1287 0
-1287 1463 0
29 -1287 1288 0
-1288 1464 0
30 -1288 1289 0
-1289 1465 0
31 -1289 1290 0
-1290 1466 0
32 -1290 1291 0
-1291 1467 0
33 -1291 1292 0
-1292 1468 0
34 -1292 1293 0
-1293 1469 0
35 -1293 1294 0
-1294 1470 0
36 -1294 1295 0
-1295 1471 0
37 -1295 1296 0
-1296 1472 0
38 -1296 1297 0
-1297 1473 0
39 -1297 1298 0
-1298 1474 0
40 -1298 1299 0
-1299 1475 0
41 -1299 1300 0
-1300 1476 0
42 -1300 1301 0
-1301 1477 0
43 -1301 1302 0
-1302 1478 0
44 -1302 1303 0
-1303 1479 0
45 -1303 1304 0
-1304 1480 0
46 -1304 1305 0
-1305 1481 0
47 -1305 1306 0
-1306 1482 0
48 -1306 1307 0
-1307 1483 0
49 -1307 1308 0
-1308 1484 0
50 -1308 1309 0
-1309 1485 0
51 -1309 1310 0
-1310 1486 0
52 -1310 1311 0
-1311 1487 0
53 -1311 1312 0
-1312 1488 0
54 -1312 1313 0
-1313 1489 0
55 -1313 1314 0
-1314 1490 0
56 -1314 1315 0
-1315 1491 0
57 -1315 1316 0
-1316 1492 0
58 -1316 1317 0
-1317 1493 0
59 -1317 1318 0
-1318 1494 0
60 -1318 1319 0
-1319 1495 0
61 -1319 1320 0
-1320 1496 0
62 -1320 1321 0
-1321 1497 0
63 -1321 1322 0
-1322 1498 0
64 -1322 1323 0
-1323 1499 0
65 -1323 1324 0
-1324 1500 0
66 -1324 1325 0
-1325 1501 0
67 -1325 1326 0
-1326 1502 0
68 -1326 1327 0
-1327 1503 0
69 -1327 1328 0
-1328 1504 0
70 -1328 1329 0
-1329 1505 0
71 -1329 1330 0
-1330 1506 0
72 -1330 1331 0
-1331 1507 0
73 -1331 1332 0
-1332 1508 0
74 -1332 1333 0
-1333 1509 0
75 -1333 1334 0
-1334 1510 0
76 -1334 1335 0
-1335 1511 0
77 -1335 1336 0
-1336 1512 0
78 -1336 1337 0
-1337 1513 0
79 -1337 1338 0
-1338 1514 0
80 -1338 1339 0
-1339 1515 0
81 -1339 1340 0
-1340 1516 0
82 -1340 1341 0
-1341 1517 0
83 -1341 1342 0
-1342 1518 0
84 -1342 1343 0
-1343 1519 0
85 -1343 1344 0
-1344 1520 0
86 -1344 1345 0
-1345 1521 0
87 -1345 1346 0
-1346 1522 0
88 -1346 1347 0
-1347 1523 0
89 -1347 1348 0
-1348 1524 0
90 -1348 1349 0
-1349 1525 0
91 -1349 1350 0
-1350 1526 0
92 -1350 1351 0
-1351 1527 0
93 -1351 1352 0
-1352 1528 0
94 -1352 1353 0
-1353 1529 0
95 -1353 1354 0
-1354 1530 0
96 -1354 1355 0
-1355 1531 0
97 -1355 1356 0
-1356 1532 0
98 -1356 1357 0
-1357 1533 0
99 -1357 1358 0
-1358 1534 0
100 -1358 1359 0
-1359 1535 0
101 -1359 1360 0
-1360 1536 0
102 -1360 1361 0
-1361 1537 0
103 -1361 1362 0
-1362 1538 0
104 -1362 1363 0
-1363 1539 0
105 -1363 1364 0
-1364 1540 0
106 -1364 1365 0
-1365 1541 0
107 -1365 1366 0
-1366 1542 0
108 -1366 1367 0
-1367 1543 0
109 -1367 1368 0
-1368 1544 0
110 -1368 1369 0
-1369 1545 0
111 -1369 1370 0
-1370 1546 0
112 -1370 1371 0
-1371 1547 0
113 -1371 1372 0
-1372 1548 0
114 -1372 1373 0
-1373 1549 0
115 -1373 1374 0
-1374 1550 0
116 -1374 1375 0
-1375 1551 0
117 -1375 1376 0
-1376 1552 0
118 -1376 1377 0
-1377 1553 0
119 -1377 1378 0
-1378 1554 0
120 -1378 1379 0
-1379 1555 0
121 -1379 1380 0
-1380 1556 0
122 -1380 1381 0
-1381 1557 0
123 -1381 1382 0
-1382 1558 0
124 -1382 1383 0
-1383 1559 0
125 -1383 1384 0
-1384 1560 0
126 -1384 1385 0
-1385 1561 0
127 -1385 1386 0
-1386 1562 0
128 -1386 1387 0
-1387 1563 0
129 -1387 1388 0
-1388 1564 0
130 -1388 1389 0
-1389 1565 0
131 -1389 1390 0
-1390 1566 0
132 -1390 1391 0
-1391 1567 0
133 -1391 1392 0
-1392 1568 0
134 -1392 1393 0
-1393 1569 0
135 -1393 1394 0
-1394 1570 0
136 -1394 1395 0
-1395 1571 0
137 -1395 1396 0
-1396 1572 0
138 -1396 1397 0
-1397 1573 0
139 -1397 1398 0
-1398 1574 0
140 -1398 1399 0
-1399 1575 0
141 -1399 1400 0
-1400 1576 0
142 -1400 1401 0
-1401 1577 0
143 -1401 1402 0
-1402 1578 0
144 -1402 1403 0
-1403 1579 0
145 -1403 1404 0
-1404 1580 0
146 -1404 1405 0
-1405 1581 0
147 -1405 1406 0
-1406 1582 0
148 -1406 1407 0
-1407 1583 0
149 -1407 1408 0
-1408 1584 0
150 -1408 1409 0
-1409 1585 0
151 -1409 1410 0
-1410 1586 0
152 -1410 1411 0
-1411 1587 0
153 -1411 1412 0
-1412 1588 0
154 -1412 1413 0
-1413 1589 0
155 -1413 1414 0
-1414 1590 0
156 -1414 1415 0
-1415 1591 0
157 -1415 1416 0
-1416 1592 0
158 -1416 1417 0
-1417 1593 0
159 -1417 1418 0
-1418 1594 0
160 -1418 1419 0
-1419 1595 0
161 -1419 1420 0
-1420 1596 0
162 -1420 1421 0
-1421 1597 0
163 -1421 1422 0
-1422 1598 0
164 -1422 1423 0
-1423 1599 0
165 -1423 1424 0
-1424 1600 0
166 -1424 1425 0
-1425 1601 0
167 -1425 1426 0
-1426 1602 0
168 -1426 1427 0
-1427 1603 0
169 -1427 1428 0
-1428 1604 0
170 -1428 1429 0
-1429 1605 0
171 -1429 1430 0
-1430 1606 0
172 -1430 1431 0
-1431 1607 0
173 -1431 1432 0
-1432 1608 0
174 -1432 1433 0
-1433 1609 0
175 -1433 1434 0
-1434 1610 0
176 -1434 1435 0
-1435 1611 0
177 -1435 1436 0
-1436 1612 0
178 -1436 1437 0
-1437 1613 0
179 -1437 1438 0
-1438 1614 0
180 -1438 1439 0
-1439 1615 0
181 -1439 1440 0
-1440 1616 0
182 -1440 0
7 1441 0
-1441 1617 0
8 -1441 1442 0
-1442 1618 0
9 -1442 1443 0
-1443 1619 0
10 -1443 1444 0
-1444 1620 0
11 -1444 1445 0
-1445 1621 0
12 -1445 1446 0
-1446 1622 0
13 -1446 1447 0
-1447 1623 0
14 -1447 1448 0
-1448 1624 0
15 -1448 1449 0
-1449 1625 0
16 -1449 1450 0
-1450 1626 0
17 -1450 1451 0
-1451 1627 0
18 -1451 1452 0
-1452 1628 0
19 -1452 1453 0
-1453 1629 0
20 -1453 1454 0
-1454 1630 0
21 -1454 1455 0
-1455 1631 0
22 -1455 1456 0
-1456 1632 0
23 -1456 1457 0
-1457 1633 0
24 -1457 1458 0
-1458 1634 0
25 -1458 1459 0
-1459 1635 0
26 -1459 1460 0
-1460 1636 0
27 -1460 1461 0
-1461 1637 0
28 -1461 1462 0
-1462 1638 0
29 -1462 1463 0
-1463 1639 0
30 -1463 1464 0
-1464 1640 0
31 -1464 1465 0
-1465 1641 0
32 -1465 1466 0
-1466 1642 0
33 -1466 1467 0
-1467 1643 0
34 -1467 1468 0
-1468 1644 0
35 -1468 1469 0
-1469 1645 0
36 -1469 1470 0
-1470 1646 0
37 -1470 1471 0
-1471 1647 0
38 -1471 1472 0
-1472 1648 0
39 -1472 1473 0
-1473 1649 0
40 -1473 1474 0
-1474 1650 0
41 -1474 1475 0
-1475 1651 0
42 -1475 1476 0
-1476 1652 0
43 -1476 1477 0
-1477 1653 0
44 -1477 1478 0
-1478 1654 0
45 -1478 1479 0
-1479 1655 0
46 -1479 1480 0
-1480 1656 0
47 -1480 1481 0
-1481 1657 0
48 -1481 1482 0
-1482 1658 0
49 -1482 1483 0
-1483 1659 0
50 -1483 1484 0
-1484 1660 0
51 -1484 1485 0
-1485 1661 0
52 -1485 1486 0
-1486 1662 0
53 -1486 1487 0
-1487 1663 0
54 -1487 1488 0
-1488 1664 0
55 -1488 1489 0
-1489 1665 0
56 -1489 1490 0
-1490 1666 0
57 -1490 1491 0
-1491 1667 0
58 -1491 1492 0
-1492 1668 0
59 -1492 1493 0
-1493 1669 0
60 -1493 1494 0
-1494 1670 0
61 -1494 1495 0
-1495 1671 0
62 -1495 1496 0
-1496 1672 0
63 -1496 1497 0
-1497 1673 0
64 -1497 1498 0
-1498 1674 0
65 -1498 1499 0
-1499 1675 0
66 -1499 1500 0
-1500 1676 0
67 -1500 1501 0
-1501 1677 0
68 -1501 1502 0
-1502 1678 0
69 -1502 1503 0
-1503 1679 0
70 -1503 1504 0
-1504 1680 0
71 -1504 1505 0
-1505 1681 0
72 -1505 1506 0
-1506 1682 0
73 -1506 1507 0
-1507 1683 0
74 -1507 1508 0
-1508 1684 0
75 -1508 1509 0
-1509 1685 0
76 -1509 1510 0
-1510 1686 0
77 -1510 1511 0
-1511 1687 0
78 -1511 1512 0
-1512 1688 0
79 -1512 1513 0
-1513 1689 0
80 -1513 1514 0
-1514 1690 0
81 -1514 1515 0
-1515 1691 0
82 -1515 1516 0
-1516 1692 0
83 -1516 1517 0
-1517 1693 0
84 -1517 1518 0
-1518 1694 0
85 -1518 1519 0
-1519 1695 0
86 -1519 1520 0
-1520 1696 0
87 -1520 1521 0
-1521 1697 0
88 -1521 1522 0
-1522 1698 0
89 -1522 1523 0
-1523 1699 0
90 -1523 1524 0
-1524 1700 0
91 -1524 1525 0
-1525 1701 0
92 -1525 1526 0
-1526 1702 0
93 -1526 1527 0
-1527 1703 0
94 -1527 1528 0
-1528 1704 0
95 -1528 1529 0
-1529 1705 0
96 -1529 1530 0
-1530 1706 0
97 -1530 1531 0
-1531 1707 0
98 -1531 1532 0
-1532 1708 0
99 -1532 1533 0
-1533 1709 0
100 -1533 1534 0
-1534 1710 0
101 -1534 1535 0
-1535 1711 0
102 -1535 1536 0
-1536 1712 0
103 -1536 1537 0
-1537 1713 0
104 -1537 1538 0
-1538 1714 0
105 -1538 1539 0
-1539 1715 0
106 -1539 1540 0
-1540 1716 0
107 -1540 1541 0
-1541 1717 0
108 -1541 1542 0
-1542 1718 0
109 -1542 1543 0
-1543 1719 0
110 -1543 1544 0
-1544 1720 0
111 -1544 1545 0
-1545 1721 0
112 -1545 1546 0
-1546 1722 0
113 -1546 1547 0
-1547 1723 0
114 -1547 1548 0
-1548 1724 0
115 -1548 1549 0
-1549 1725 0
116 -1549 1550 0
-1550 1726 0
117 -1550 1551 0
-1551 1727 0
118 -1551 1552 0
-1552 1728 0
119 -1552 1553 0
-1553 1729 0
120 -1553 1554 0
-1554 1730 0
121 -1554 1555 0
-1555 1731 0
122 -1555 1556 0
-1556 1732 0
123 -1556 1557 0
-1557 1733 0
124 -1557 1558 0
-1558 1734 0
125 -1558 1559 0
-1559 1735 0
126 -1559 1560 0
-1560 1736 0
127 -1560 1561 0
-1561 1737 0
128 -1561 1562 0
-1562 1738 0
129 -1562 1563 0
-1563 1739 0
130 -1563 1564 0
-1564 1740 0
131 -1564 1565 0
-1565 1741 0
132 -1565 1566 0
-1566 1742 0
133 -1566 1567 0
-1567 1743 0
134 -1567 1568 0
-1568 1744 0
135 -1568 1569 0
-1569 1745 0
136 -1569 1570 0
-1570 1746 0
137 -1570 1571 0
-1571 1747 0
138 -1571 1572 0
-1572 1748 0
139 -1572 1573 0
-1573 1749 0
140 -1573 1574 0
-1574 1750 0
141 -1574 1575 0
-1575 1751 0
142 -1575 1576 0
-1576 1752 0
143 -1576 1577 0
-1577 1753 0
144 -1577 1578 0
-1578 1754 0
145 -1578 1579 0
-1579 1755 0
146 -1579 1580 0
-1580 1756 0
147 -1580 1581 0
-1581 1757 0
148 -1581 1582 0
-1582 1758 0
149 -1582 1583 0
-1583 1759 0
150 -1583 1584 0
-1584 1760 0
151 -1584 1585 0
-1585 1761 0
152 -1585 1586 0
-1586 1762 0
153 -1586 1587 0
-1587 1763 0
154 -1587 1588 0
-1588 1764 0
155 -1588 1589 0
-1589 1765 0
156 -1589 1590 0
-1590 1766 0
157 -1590 1591 0
-1591 1767 0
158 -1591 1592 0
-1592 1768 0
159 -1592 1593 0
-1593 1769 0
160 -1593 1594 0
-1594 1770 0
161 -1594 1595 0
-1595 1771 0
162 -1595 1596 0
-1596 1772 0
163 -1596 1597 0
-1597 1773 0
164 -1597 1598 0
-1598 1774 0
165 -1598 1599 0
-1599 1775 0
166 -1599 1600 0
-1600 1776 0
167 -1600 1601 0
-1601 1777 0
168 -1601 1602 0
-1602 1778 0
169 -1602 1603 0
-1603 1779 0
170 -1603 1604 0
-1604 1780 0
171 -1604 1605 0
-1605 1781 0
172 -1605 1606 0
-1606 1782 0
173 -1606 1607 0
-1607 1783 0
174 -1607 1608 0
-1608 1784 0
175 -1608 1609 0
-1609 1785 0
176 -1609 1610 0
-1610 1786 0
177 -1610 1611 0
-1611 1787 0
178 -1611 1612 0
-1612 1788 0
179 -1612 1613 0
-1613 1789 0
180 -1613 1614 0
-1614 1790 0
181 -1614 1615 0
-1615 1791 0
182 -1615 1616 0
-1616 1792 0
183 -1616 0
8 1617 0
-1617 1793 0
9 -1617 1618 0
-1618 1794 0
10 -1618 1619 0
-1619 1795 0
11 -1619 1620 0
-1620 1796 0
12 -1620 1621 0
-1621 1797 0
13 -1621 1622 0
-1622 1798 0
14 -1622 1623 0
-1623 1799 0
15 -1623 1624 0
-1624 1800 0
16 -1624 1625 0
-1625 1801 0
17 -1625 1626 0
-1626 1802 0
18 -1626 1627 0
-1627 1803 0
19 -1627 1628 0
-1628 1804 0
20 -1628 1629 0
-1629 1805 0
21 -1629 1630 0
-1630 1806 0
22 -1630 1631 0
-1631 1807 0
23 -1631 1632 0
-1632 1808 0
24 -1632 1633 0
-1633 1809 0
25 -1633 1634 0
-1634 1810 0
26 -1634 1635 0
-1635 1811 0
27 -1635 1636 0
-1636 1812 0
28 -1636 1637 0
-1637 1813 0
29 -1637 1638 0
-1638 1814 0
30 -1638 1639 0
-1639 1815 0
31 -1639 1640 0
-1640 1816 0
32 -1640 1641 0
-1641 1817 0
33 -1641 1642 0
-1642 1818 0
34 -1642 1643 0
-1643 1819 0
35 -1643 1644 0
-1644 1820 0
36 -1644 1645 0
-1645 1821 0
37 -1645 1646 0
-1646 1822 0
38 -1646 1647 0
-1647 1823 0
39 -1647 1648 0
-1648 1824 0
40 -1648 1649 0
-1649 1825 0
41 -1649 1650 0
-1650 1826 0
42 -1650 1651 0
-1651 1827 0
43 -1651 1652 0
-1652 1828 0
44 -1652 1653 0
-1653 1829 0
45 -1653 1654 0
-1654 1830 0
46 -1654 1655 0
-1655 1831 0
47 -1655 1656 0
-1656 1832 0
48 -1656 1657 0
-1657 1833 0
49 -1657 1658 0
-1658 1834 0
50 -1658 1659 0
-1659 1835 0
51 -1659 1660 0
-1660 1836 0
52 -1660 1661 0
-1661 1837 0
53 -1661 1662 0
-1662 1838 0
54 -1662 1663 0
-1663 1839 0
55 -1663 1664 0
-1664 1840 0
56 -1664 1665 0
-1665 1841 0
57 -1665 1666 0
-1666 1842 0
58 -1666 1667 0
-1667 1843 0
59 -1667 1668 0
-1668 1844 0
60 -1668 1669 0
-1669 1845 0
61 -1669 1670 0
-1670 1846 0
62 -1670 1671 0
-1671 1847 0
63 -1671 1672 0
-1672 1848 0
64 -1672 1673 0
-1673 1849 0
65 -1673 1674 0
-1674 1850 0
66 -1674 1675 0
-1675 1851 0
67 -1675 1676 0
-1676 1852 0
68 -1676 1677 0
-1677 1853 0
69 -1677 1678 0
-1678 1854 0
70 -1678 1679 0
-1679 1855 0
71 -1679 1680 0
-1680 1856 0
72 -1680 1681 0
-1681 1857 0
73 -1681 1682 0
-1682 1858 0
74 -1682 1683 0
-1683 1859 0
75 -1683 1684 0
-1684 1860 0
76 -1684 1685 0
-1685 1861 0
77 -1685 1686 0
-1686 1862 0
78 -1686 1687 0
-1687 1863 0
79 -1687 1688 0
-1688 1864 0
80 -1688 1689 0
-1689 1865 0
81 -1689 1690 0
-1690 1866 0
82 -1690 1691 0
-1691 1867 0
83 -1691 1692 0
-1692 1868 0
84 -1692 1693 0
-1693 1869 0
85 -1693 1694 0
-1694 1870 0
86 -1694 1695 0
-1695 1871 0
87 -1695 1696 0
-1696 1872 0
88 -1696 1697 0
-1697 1873 0
89 -1697 1698 0
-1698 1874 0
90 -1698 1699 0
-1699 1875 0
91 -1699 1700 0
-1700 1876 0
92 -1700 1701 0
-1701 1877 0
93 -1701 1702 0
-1702 1878 0
94 -1702 1703 0
-1703 1879 0
95 -1703 1704 0
-1704 1880 0
96 -1704 1705 0
-1705 1881 0
97 -1705 1706 0
-1706 1882 0
98 -1706 1707 0
-1707 1883 0
99 -1707 1708 0
-1708 1884 0
100 -1708 1709 0
-1709 1885 0
101 -1709 1710 0
-1710 1886 0
102 -1710 1711 0
-1711 1887 0
103 -1711 1712 0
-1712 1888 0
104 -1712 1713 0
-1713 1889 0
105 -1713 1714 0
-1714 1890 0
106 -1714 1715 0
-1715 1891 0
107 -1715 1716 0
-1716 1892 0
108 -1716 1717 0
-1717 1893 0
109 -1717 1718 0
-1718 1894 0
110 -1718 1719 0
-1719 1895 0
111 -1719 1720 0
-1720 1896 0
112 -1720 1721 0
-1721 1897 0
113 -1721 1722 0
-1722 1898 0
114 -1722 1723 0
-1723 1899 0
115 -1723 1724 0
-1724 1900 0
116 -1724 1725 0
-1725 1901 0
117 -1725 1726 0
-1726 1902 0
118 -1726 1727 0
-1727 1903 0
119 -1727 1728 0
-1728 1904 0
120 -1728 1729 0
-1729 1905 0
121 -1729 1730 0
-1730 1906 0
122 -1730 1731 0
-1731 1907 0
123 -1731 1732 0
-1732 1908 0
124 -1732 1733 0
-1733 1909 0
125 -1733 1734 0
-1734 1910 0
126 -1734 1735 0
-1735 1911 0
127 -1735 1736 0
-1736 1912 0
128 -1736 1737 0
-1737 1913 0
129 -1737 1738 0
-1738 1914 0
130 -1738 1739 0
-1739 1915 0
131 -1739 1740 0
-1740 1916 0
132 -1740 1741 0
-1741 1917 0
133 -1741 1742 0
-1742 1918 0
134 -1742 1743 0
-1743 1919 0
135 -1743 1744 0
-1744 1920 0
136 -1744 1745 0
-1745 1921 0
137 -1745 1746 0
-1746 1922 0
138 -1746 1747 0
-1747 1923 0
139 -1747 1748 0
-1748 1924 0
140 -1748 1749 0
-1749 1925 0
141 -1749 1750 0
-1750 1926 0
142 -1750 1751 0
-1751 1927 0
143 -1751 1752 0
-1752 1928 0
144 -1752 1753 0
-1753 1929 0
145 -1753 1754 0
-1754 1930 0
146 -1754 1755 0
-1755 1931 0
147 -1755 1756 0
-1756 1932 0
148 -1756 1757 0
-1757 1933 0
149 -1757 1758 0
-1758 1934 0
150 -1758 1759 0
-1759 1935 0
151 -1759 1760 0
-1760 1936 0
152 -1760 1761 0
-1761 1937 0
153 -1761 1762 0
-1762 1938 0
154 -1762 1763 0
-1763 1939 0
155 -1763 1764 0
-1764 1940 0
156 -1764 1765 0
-1765 1941 0
157 -1765 1766 0
-1766 1942 0
158 -1766 1767 0
-1767 1943 0
159 -1767 1768 0
-1768 1944 0
160 -1768 1769 0
-1769 1945 0
161 -1769 1770 0
-1770 1946 0
162 -1770 1771 0
-1771 1947 0
163 -1771 1772 0
-1772 1948 0
164 -1772 1773 0
-1773 1949 0
165 -1773 1774 0
-1774 1950 0
166 -1774 1775 0
-1775 1951 0
167 -1775 1776 0
-1776 1952 0
168 -1776 1777 0
-1777 1953 0
169 -1777 1778 0
-1778 1954 0
170 -1778 1779 0
-1779 1955 0
171 -1779 1780 0
-1780 1956 0
172 -1780 1781 0
-1781 1957 0
173 -1781 1782 0
-1782 1958 0
174 -1782 1783 0
-1783 1959 0
175 -1783 1784 0
-1784 1960 0
176 -1784 1785 0
-1785 1961 0
177 -1785 1786 0
-1786 1962 0
178 -1786 1787 0
-1787 1963 0
179 -1787 1788 0
-1788 1964 0
180 -1788 1789 0
-1789 1965 0
181 -1789 1790 0
-1790 1966 0
182 -1790 1791 0
-1791 1967 0
183 -1791 1792 0
-1792 1968 0
184 -1792 0
9 1793 0
-1793 1969 0
10 -1793 1794 0
-1794 1970 0
11 -1794 1795 0
-1795 1971 0
12 -1795 1796 0
-1796 1972 0
13 -1796 1797 0
-1797 1973 0
14 -1797 1798 0
-1798 1974 0
15 -1798 1799 0
-1799 1975 0
16 -1799 1800 0
-1800 1976 0
17 -1800 1801 0
-1801 1977 0
18 -1801 1802 0
-1802 1978 0
19 -1802 1803 0
-1803 1979 0
20 -1803 1804 0
-1804 1980 0
21 -1804 1805 0
-1805 1981 0
22 -1805 1806 0
-1806 1982 0
23 -1806 1807 0
-1807 1983 0
24 -1807 1808 0
-1808 1984 0
25 -1808 1809 0
-1809 1985 0
26 -1809 1810 0
-1810 1986 0
27 -1810 1811 0
-1811 1987 0
28 -1811 1812 0
-1812 1988 0
29 -1812 1813 0
-1813 1989 0
30 -1813 1814 0
-1814 1990 0
31 -1814 1815 0
-1815 1991 0
32 -1815 1816 0
-1816 1992 0
33 -1816 1817 0
-1817 1993 0
34 -1817 1818 0
-1818 1994 0
35 -1818 1819 0
-1819 1995 0
36 -1819 1820 0
-1820 1996 0
37 -1820 1821 0
-1821 1997 0
38 -1821 1822 0
-1822 1998 0
39 -1822 1823 0
-1823 1999 0
40 -1823 1824 0
-1824 2000 0
41 -1824 1825 0
-1825 2001 0
42 -1825 1826 0
-1826 2002 0
43 -1826 1827 0
-1827 2003 0
44 -1827 1828 0
-1828 2004 0
45 -1828 1829 0
-1829 2005 0
46 -1829 1830 0
-1830 2006 0
47 -1830 1831 0
-1831 2007 0
48 -1831 1832 0
-1832 2008 0
49 -1832 1833 0
-1833 2009 0
50 -1833 1834 0
-1834 2010 0
51 -1834 1835 0
-1835 2011 0
52 -1835 1836 0
-1836 2012 0
53 -1836 1837 0
-1837 2013 0
54 -1837 1838 0
-1838 2014 0
55 -1838 1839 0
-1839 2015 0
56 -1839 1840 0
-1840 2016 0
57 -1840 1841 0
-1841 2017 0
58 -1841 1842 0
-1842 2018 0
59 -1842 1843 0
-1843 2019 0
60 -1843 1844 0
-1844 2020 0
61 -1844 1845 0
-1845 2021 0
62 -1845 1846 0
-1846 2022 0
63 -1846 1847 0
-1847 2023 0
64 -1847 1848 0
-1848 2024 0
65 -1848 1849 0
-1849 2025 0
66 -1849 1850 0
-1850 2026 0
67 -1850 1851 0
-1851 2027 0
68 -1851 1852 0
-1852 2028 0
69 -1852 1853 0
-1853 2029 0
70 -1853 1854 0
-1854 2030 0
71 -1854 1855 0
-1855 2031 0
72 -1855 1856 0
-1856 2032 0
73 -1856 1857 0
-1857 2033 0
74 -1857 1858 0
-1858 2034 0
75 -1858 1859 0
-1859 2035 0
76 -1859 1860 0
-1860 2036 0
77 -1860 1861 0
-1861 2037 0
78 -1861 1862 0
-1862 2038 0
79 -1862 1863 0
-1863 2039 0
80 -1863 1864 0
-1864 2040 0
81 -1864 1865 0
-1865 2041 0
82 -1865 1866 0
-1866 2042 0
83 -1866 1867 0
-1867 2043 0
84 -1867 1868 0
-1868 2044 0
85 -1868 1869 0
-1869 2045 0
86 -1869 1870 0
-1870 2046 0
87 -1870 1871 0
-1871 2047 0
88 -1871 1872 0
-1872 2048 0
89 -1872 1873 0
-1873 2049 0
90 -1873 1874 0
-1874 2050 0
91 -1874 1875 0
-1875 2051 0
92 -1875 1876 0
-1876 2052 0
93 -1876 1877 0
-1877 2053 0
94 -1877 1878 0
-1878 2054 0
95 -1878 1879 0
-1879 2055 0
96 -1879 1880 0
-1880 2056 0
97 -1880 1881 0
-1881 2057 0
98 -1881 1882 0
-1882 2058 0
99 -1882 1883 0
-1883 2059 0
100 -1883 1884 0
-1884 2060 0
101 -1884 1885 0
-1885 2061 0
102 -1885 1886 0
-1886 2062 0
103 -1886 1887 0
-1887 2063 0
104 -1887 1888 0
-1888 2064 0
105 -1888 1889 0
-1889 2065 0
106 -1889 1890 0
-1890 2066 0
107 -1890 1891 0
-1891 2067 0
108 -1891 1892 0
-1892 2068 0
109 -1892 1893 0
-1893 2069 0
110 -1893 1894 0
-1894 2070 0
111 -1894 1895 0
-1895 2071 0
112 -1895 1896 0
-1896 2072 0
113 -1896 1897 0
-1897 2073 0
114 -1897 1898 0
-1898 2074 0
115 -1898 1899 0
-1899 2075 0
116 -1899 1900 0
-1900 2076 0
117 -1900 1901 0
-1901 2077 0
118 -1901 1902 0
-1902 2078 0
119 -1902 1903 0
-1903 2079 0
120 -1903 1904 0
-1904 2080 0
121 -1904 1905 0
-1905 2081 0
122 -1905 1906 0
-1906 2082 0
123 -1906 1907 0
-1907 2083 0
124 -1907 1908 0
-1908 2084 0
125 -1908 1909 0
-1909 2085 0
126 -1909 1910 0
-1910 2086 0
127 -1910 1911 0
-1911 2087 0
128 -1911 1912 0
-1912 2088 0
129 -1912 1913 0
-1913 2089 0
130 -1913 1914 0
-1914 2090 0
131 -1914 1915 0
-1915 2091 0
132 -1915 1916 0
-1916 2092 0
133 -1916 1917 0
-1917 2093 0
134 -1917 1918 0
-1918 2094 0
135 -1918 1919 0
-1919 2095 0
136 -1919 1920 0
-1920 2096 0
137 -1920 1921 0
-1921 2097 0
138 -1921 1922 0
-1922 2098 0
139 -1922 1923 0
-1923 2099 0
140 -1923 1924 0
-1924 2100 0
141 -1924 1925 0
-1925 2101 0
142 -1925 1926 0
-1926 2102 0
143 -1926 1927 0
-1927 2103 0
144 -1927 1928 0
-1928 2104 0
145 -1928 1929 0
-1929 2105 0
146 -1929 1930 0
-1930 2106 0
147 -1930 1931 0
-1931 2107 0
148 -1931 1932 0
-1932 2108 0
149 -1932 1933 0
-1933 2109 0
150 -1933 1934 0
-1934 2110 0
151 -1934 1935 0
-1935 2111 0
152 -1935 1936 0
-1936 2112 0
153 -1936 1937 0
-1937 2113 0
154 -1937 1938 0
-1938 2114 0
155 -1938 1939 0
-1939 2115 0
156 -1939 1940 0
-1940 2116 0
157 -1940 1941 0
-1941 2117 0
158 -1941 1942 0
-1942 2118 0
159 -1942 1943 0
-1943 2119 0
160 -1943 1944 0
-1944 2120 0
161 -1944 1945 0
-1945 2121 0
162 -1945 1946 0
-1946 2122 0
163 -1946 1947 0
-1947 2123 0
164 -1947 1948 0
-1948 2124 0
165 -1948 1949 0
-1949 2125 0
166 -1949 1950 0
-1950 2126 0
167 -1950 1951 0
-1951 2127 0
168 -1951 1952 0
-1952 2128 0
169 -1952 1953 0
-1953 2129 0
170 -1953 1954 0
-1954 2130 0
171 -1954 1955 0
-1955 2131 0
172 -1955 1956 0
-1956 2132 0
173 -1956 1957 0
-1957 2133 0
174 -1957 1958 0
-1958 2134 0
175 -1958 1959 0
-1959 2135 0
176 -1959 1960 0
-1960 2136 0
177 -1960 1961 0
-1961 2137 0
178 -1961 1962 0
-1962 2138 0
179 -1962 1963 0
-1963 2139 0
180 -1963 1964 0
-1964 2140 0
181 -1964 1965 0
-1965 2141 0
182 -1965 1966 0
-1966 2142 0
183 -1966 1967 0
-1967 2143 0
184 -1967 1968 0
-1968 2144 0
185 -1968 0
10 1969 0
-1969 2145 0
11 -1969 1970 0
-1970 2146 0
12 -1970 1971 0
-1971 2147 0
13 -1971 1972 0
-1972 2148 0
14 -1972 1973 0
-1973 2149 0
15 -1973 1974 0
-1974 2150 0
16 -1974 1975 0
-1975 2151 0
17 -1975 1976 0
-1976 2152 0
18 -1976 1977 0
-1977 2153 0
19 -1977 1978 0
-1978 2154 0
20 -1978 1979 0
-1979 2155 0
21 -1979 1980 0
-1980 2156 0
22 -1980 1981 0
-1981 2157 0
23 -1981 1982 0
-1982 2158 0
24 -1982 1983 0
-1983 2159 0
25 -1983 1984 0
-1984 2160 0
26 -1984 1985 0
-1985 2161 0
27 -1985 1986 0
-1986 2162 0
28 -1986 1987 0
-1987 2163 0
29 -1987 1988 0
-1988 2164 0
30 -1988 1989 0
-1989 2165 0
31 -1989 1990 0
-1990 2166 0
32 -1990 1991 0
-1991 2167 0
33 -1991 1992 0
-1992 2168 0
34 -1992 1993 0
-1993 2169 0
35 -1993 1994 0
-1994 2170 0
36 -1994 1995 0
-1995 2171 0
37 -1995 1996 0
-1996 2172 0
38 -1996 1997 0
-1997 2173 0
39 -1997 1998 0
-1998 2174 0
40 -1998 1999 0
-1999 2175 0
41 -1999 2000 0
-2000 2176 0
42 -2000 2001 0
-2001 2177 0
43 -2001 2002 0
-2002 2178 0
44 -2002 2003 0
-2003 2179 0
45 -2003 2004 0
-2004 2180 0
46 -2004 2005 0
-2005 2181 0
47 -2005 2006 0
-2006 2182 0
48 -2006 2007 0
-2007 2183 0
49 -2007 2008 0
-2008 2184 0
50 -2008 2009 0
-2009 2185 0
51 -2009 2010 0
-2010 2186 0
52 -2010 2011 0
-2011 2187 0
53 -2011 2012 0
-2012 2188 0
54 -2012 2013 0
-2013 2189 0
55 -2013 2014 0
-2014 2190 0
56 -2014 2015 0
-2015 2191 0
57 -2015 2016 0
-2016 2192 0
58 -2016 2017 0
-2017 2193 0
59 -2017 2018 0
-2018 2194 0
60 -2018 2019 0
-2019 2195 0
61 -2019 2020 0
-2020 2196 0
62 -2020 2021 0
-2021 2197 0
63 -2021 2022 0
-2022 2198 0
64 -2022 2023 0
-2023 2199 0
65 -2023 2024 0
-2024 2200 0
66 -2024 2025 0
-2025 2201 0
67 -2025 2026 0
-2026 2202 0
68 -2026 2027 0
-2027 2203 0
69 -2027 2028 0
-2028 2204 0
70 -2028 2029 0
-2029 2205 0
71 -2029 2030 0
-2030 2206 0
72 -2030 2031 0
-2031 2207 0
73 -2031 2032 0
-2032 2208 0
74 -2032 2033 0
-2033 2209 0
75 -2033 2034 0
-2034 2210 0
76 -2034 2035 0
-2035 2211 0
77 -2035 2036 0
-2036 2212 0
78 -2036 2037 0
-2037 2213 0
79 -2037 2038 0
-2038 2214 0
80 -2038 2039 0
-2039 2215 0
81 -2039 2040 0
-2040 2216 0
82 -2040 2041 0
-2041 2217 0
83 -2041 2042 0
-2042 2218 0
84 -2042 2043 0
-2043 2219 0
85 -2043 2044 0
-2044 2220 0
86 -2044 2045 0
-2045 2221 0
87 -2045 2046 0
-2046 2222 0
88 -2046 2047 0
-2047 2223 0
89 -2047 2048 0
-2048 2224 0
90 -2048 2049 0
-2049 2225 0
91 -2049 2050 0
-2050 2226 0
92 -2050 2051 0
-2051 2227 0
93 -2051 2052 0
-2052 2228 0
94 -2052 2053 0
-2053 2229 0
95 -2053 2054 0
-2054 2230 0
96 -2054 2055 0
-2055 2231 0
97 -2055 2056 0
-2056 2232 0
98 -2056 2057 0
-2057 2233 0
99 -2057 2058 0
-2058 2234 0
100 -2058 2059 0
-2059 2235 0
101 -2059 2060 0
-2060 2236 0
102 -2060 2061 0
-2061 2237 0
103 -2061 2062 0
-2062 2238 0
104 -2062 2063 0
-2063 2239 0
105 -2063 2064 0
-2064 2240 0
106 -2064 2065 0
-2065 2241 0
107 -2065 2066 0
-2066 2242 0
108 -2066 2067 0
-2067 2243 0
109 -2067 2068 0
-2068 2244 0
110 -2068 2069 0
-2069 2245 0
111 -2069 2070 0
-2070 2246 0
112 -2070 2071 0
-2071 2247 0
113 -2071 2072 0
-2072 2248 0
114 -2072 2073 0
-2073 2249 0
115 -2073 2074 0
-2074 2250 0
116 -2074 2075 0
-2075 2251 0
117 -2075 2076 0
-2076 2252 0
118 -2076 2077 0
-2077 2253 0
119 -2077 2078 0
-2078 2254 0
120 -2078 2079 0
-2079 2255 0
121 -2079 2080 0
-2080 2256 0
122 -2080 2081 0
-2081 2257 0
123 -2081 2082 0
-2082 2258 0
124 -2082 2083 0
-2083 2259 0
125 -2083 2084 0
-2084 2260 0
126 -2084 2085 0
-2085 2261 0
127 -2085 2086 0
-2086 2262 0
128 -2086 2087 0
-2087 2263 0
129 -2087 2088 0
-2088 2264 0
130 -2088 2089 0
-2089 2265 0
131 -2089 2090 0
-2090 2266 0
132 -2090 2091 0
-2091 2267 0
133 -2091 2092 0
-2092 2268 0
134 -2092 2093 0
-2093 2269 0
135 -2093 2094 0
-2094 2270 0
136 -2094 2095 0
-2095 2271 0
137 -2095 2096 0
-2096 2272 0
138 -2096 2097 0
-2097 2273 0
139 -2097 2098 0
-2098 2274 0
140 -2098 2099 0
-2099 2275 0
141 -2099 2100 0
-2100 2276 0
142 -2100 2101 0
-2101 2277 0
143 -2101 2102 0
-2102 2278 0
144 -2102 2103 0
-2103 2279 0
145 -2103 2104 0
-2104 2280 0
146 -2104 2105 0
-2105 2281 0
147 -2105 2106 0
-2106 2282 0
148 -2106 2107 0
-2107 2283 0
149 -2107 2108 0
-2108 2284 0
150 -2108 2109 0
-2109 2285 0
151 -2109 2110 0
-2110 2286 0
152 -2110 2111 0
-2111 2287 0
153 -2111 2112 0
-2112 2288 0
154 -2112 2113 0
-2113 2289 0
155 -2113 2114 0
-2114 2290 0
156 -2114 2115 0
-2115 2291 0
157 -2115 2116 0
-2116 2292 0
158 -2116 2117 0
-2117 2293 0
159 -2117 2118 0
-2118 2294 0
160 -2118 2119 0
-2119 2295 0
161 -2119 2120 0
-2120 2296 0
162 -2120 2121 0
-2121 2297 0
163 -2121 2122 0
-2122 2298 0
164 -2122 2123 0
-2123 2299 0
165 -2123 2124 0
-2124 2300 0
166 -2124 2125 0
-2125 2301 0
167 -2125 2126 0
-2126 2302 0
168 -2126 2127 0
-2127 2303 0
169 -2127 2128 0
-2128 2304 0
170 -2128 2129 0
-2129 2305 0
171 -2129 2130 0
-2130 2306 0
172 -2130 2131 0
-2131 2307 0
173 -2131 2132 0
-2132 2308 0
174 -2132 2133 0
-2133 2309 0
175 -2133 2134 0
-2134 2310 0
176 -2134 2135 0
-2135 2311 0
177 -2135 2136 0
-2136 2312 0
178 -2136 2137 0
-2137 2313 0
179 -2137 2138 0
-2138 2314 0
180 -2138 2139 0
-2139 2315 0
181 -2139 2140 0
-2140 2316 0
182 -2140 2141 0
-2141 2317 0
183 -2141 2142 0
-2142 2318 0
184 -2142 2143 0
-2143 2319 0
185 -2143 2144 0
-2144 2320 0
186 -2144 0
11 2145 0
-2145 2321 0
12 -2145 2146 0
-2146 2322 0
13 -2146 2147 0
-2147 2323 0
14 -2147 2148 0
-2148 2324 0
15 -2148 2149 0
-2149 2325 0
16 -2149 2150 0
-2150 2326 0
17 -2150 2151 0
-2151 2327 0
18 -2151 2152 0
-2152 2328 0
19 -2152 2153 0
-2153 2329 0
20 -2153 2154 0
-2154 2330 0
21 -2154 2155 0
-2155 2331 0
22 -2155 2156 0
-2156 2332 0
23 -2156 2157 0
-2157 2333 0
24 -2157 2158 0
-2158 2334 0
25 -2158 2159 0
-2159 2335 0
26 -2159 2160 0
-2160 2336 0
27 -2160 2161 0
-2161 2337 0
28 -2161 2162 0
-2162 2338 0
29 -2162 2163 0
-2163 2339 0
30 -2163 2164 0
-2164 2340 0
31 -2164 2165 0
-2165 2341 0
32 -2165 2166 0
-2166 2342 0
33 -2166 2167 0
-2167 2343 0
34 -2167 2168 0
-2168 2344 0
35 -2168 2169 0
-2169 2345 0
36 -2169 2170 0
-2170 2346 0
37 -2170 2171 0
-2171 2347 0
38 -2171 2172 0
-2172 2348 0
39 -2172 2173 0
-2173 2349 0
40 -2173 2174 0
-2174 2350 0
41 -2174 2175 0
-2175 2351 0
42 -2175 2176 0
-2176 2352 0
43 -2176 2177 0
-2177 2353 0
44 -2177 2178 0
-2178 2354 0
45 -2178 2179 0
-2179 2355 0
46 -2179 2180 0
-2180 2356 0
47 -2180 2181 0
-2181 2357 0
48 -2181 2182 0
-2182 2358 0
49 -2182 2183 0
-2183 2359 0
50 -2183 2184 0
-2184 2360 0
51 -2184 2185 0
-2185 2361 0
52 -2185 2186 0
-2186 2362 0
53 -2186 2187 0
-2187 2363 0
54 -2187 2188 0
-2188 2364 0
55 -2188 2189 0
-2189 2365 0
56 -2189 2190 0
-2190 2366 0
57 -2190 2191 0
-2191 2367 0
58 -2191 2192 0
-2192 2368 0
59 -2192 2193 0
-2193 2369 0
60 -2193 2194 0
-2194 2370 0
61 -2194 2195 0
-2195 2371 0
62 -2195 2196 0
-2196 2372 0
63 -2196 2197 0
-2197 2373 0
64 -2197 2198 0
-2198 2374 0
65 -2198 2199 0
-2199 2375 0
66 -2199 2200 0
-2200 2376 0
67 -2200 2201 0
-2201 2377 0
68 -2201 2202 0
-2202 2378 0
69 -2202 2203 0
-2203 2379 0
70 -2203 2204 0
-2204 2380 0
71 -2204 2205 0
-2205 2381 0
72 -2205 2206 0
-2206 2382 0
73 -2206 2207 0
-2207 2383 0
74 -2207 2208 0
-2208 2384 0
75 -2208 2209 0
-2209 2385 0
76 -2209 2210 0
-2210 2386 0
77 -2210 2211 0
-2211 2387 0
78 -2211 2212 0
-2212 2388 0
79 -2212 2213 0
-2213 2389 0
80 -2213 2214 0
-2214 2390 0
81 -2214 2215 0
-2215 2391 0
82 -2215 2216 0
-2216 2392 0
83 -2216 2217 0
-2217 2393 0
84 -2217 2218 0
-2218 2394 0
85 -2218 2219 0
-2219 2395 0
86 -2219 2220 0
-2220 2396 0
87 -2220 2221 0
-2221 2397 0
88 -2221 2222 0
-2222 2398 0
89 -2222 2223 0
-2223 2399 0
90 -2223 2224 0
-2224 2400 0
91 -2224 2225 0
-2225 2401 0
92 -2225 2226 0
-2226 2402 0
93 -2226 2227 0
-2227 2403 0
94 -2227 2228 0
-2228 2404 0
95 -2228 2229 0
-2229 2405 0
96 -2229 2230 0
-2230 2406 0
97 -2230 2231 0
-2231 2407 0
98 -2231 2232 0
-2232 2408 0
99 -2232 2233 0
-2233 2409 0
100 -2233 2234 0
-2234 2410 0
101 -2234 2235 0
-2235 2411 0
102 -2235 2236 0
-2236 2412 0
103 -2236 2237 0
-2237 2413 0
104 -2237 2238 0
-2238 2414 0
105 -2238 2239 0
-2239 2415 0
106 -2239 2240 0
-2240 2416 0
107 -2240 2241 0
-2241 2417 0
108 -2241 2242 0
-2242 2418 0
109 -2242 2243 0
-2243 2419 0
110 -2243 2244 0
-2244 2420 0
111 -2244 2245 0
-2245 2421 0
112 -2245 2246 0
-2246 2422 0
113 -2246 2247 0
-2247 2423 0
114 -2247 2248 0
-2248 2424 0
115 -2248 2249 0
-2249 2425 0
116 -2249 2250 0
-2250 2426 0
117 -2250 2251 0
-2251 2427 0
118 -2251 2252 0
-2252 2428 0
119 -2252 2253 0
-2253 2429 0
120 -2253 2254 0
-2254 2430 0
121 -2254 2255 0
-2255 2431 0
122 -2255 2256 0
-2256 2432 0
123 -2256 2257 0
-2257 2433 0
124 -2257 2258 0
-2258 2434 0
125 -2258 2259 0
-2259 2435 0
126 -2259 2260 0
-2260 2436 0
127 -2260 2261 0
-2261 2437 0
128 -2261 2262 0
-2262 2438 0
129 -2262 2263 0
-2263 2439 0
130 -2263 2264 0
-2264 2440 0
131 -2264 2265 0
-2265 2441 0
132 -2265 2266 0
-2266 2442 0
133 -2266 2267 0
-2267 2443 0
134 -2267 2268 0
-2268 2444 0
135 -2268 2269 0
-2269 2445 0
136 -2269 2270 0
-2270 2446 0
137 -2270 2271 0
-2271 2447 0
138 -2271 2272 0
-2272 2448 0
139 -2272 2273 0
-2273 2449 0
140 -2273 2274 0
-2274 2450 0
141 -2274 2275 0
-2275 2451 0
142 -2275 2276 0
-2276 2452 0
143 -2276 2277 0
-2277 2453 0
144 -2277 2278 0
-2278 2454 0
145 -2278 2279 0
-2279 2455 0
146 -2279 2280 0
-2280 2456 0
147 -2280 2281 0
-2281 2457 0
148 -2281 2282 0
-2282 2458 0
149 -2282 2283 0
-2283 2459 0
150 -2283 2284 0
-2284 2460 0
151 -2284 2285 0
-2285 2461 0
152 -2285 2286 0
-2286 2462 0
153 -2286 2287 0
-2287 2463 0
154 -2287 2288 0
-2288 2464 0
155 -2288 2289 0
-2289 2465 0
156 -2289 2290 0
-2290 2466 0
157 -2290 2291 0
-2291 2467 0
158 -2291 2292 0
-2292 2468 0
159 -2292 2293 0
-2293 2469 0
160 -2293 2294 0
-2294 2470 0
161 -2294 2295 0
-2295 2471 0
162 -2295 2296 0
-2296 2472 0
163 -2296 2297 0
-2297 2473 0
164 -2297 2298 0
-2298 2474 0
165 -2298 2299 0
-2299 2475 0
166 -2299 2300 0
-2300 2476 0
167 -2300 2301 0
-2301 2477 0
168 -2301 2302 0
-2302 2478 0
169 -2302 2303 0
-2303 2479 0
170 -2303 2304 0
-2304 2480 0
171 -2304 2305 0
-2305 2481 0
172 -2305 2306 0
-2306 2482 0
173 -2306 2307 0
-2307 2483 0
174 -2307 2308 0
-2308 2484 0
175 -2308 2309 0
-2309 2485 0
176 -2309 2310 0
-2310 2486 0
177 -2310 2311 0
-2311 2487 0
178 -2311 2312 0
-2312 2488 0
179 -2312 2313 0
-2313 2489 0
180 -2313 2314 0
-2314 2490 0
181 -2314 2315 0
-2315 2491 0
182 -2315 2316 0
-2316 2492 0
183 -2316 2317 0
-2317 2493 0
184 -2317 2318 0
-2318 2494 0
185 -2318 2319 0
-2319 2495 0
186 -2319 2320 0
-2320 2496 0
187 -2320 0
12 2321 0
-2321 2497 0
13 -2321 2322 0
-2322 2498 0
14 -2322 2323 0
-2323 2499 0
15 -2323 2324 0
-2324 2500 0
16 -2324 2325 0
-2325 2501 0
17 -2325 2326 0
-2326 2502 0
18 -2326 2327 0
-2327 2503 0
19 -2327 2328 0
-2328 2504 0
20 -2328 2329 0
-2329 2505 0
21 -2329 2330 0
-2330 2506 0
22 -2330 2331 0
-2331 2507 0
23 -2331 2332 0
-2332 2508 0
24 -2332 2333 0
-2333 2509 0
25 -2333 2334 0
-2334 2510 0
26 -2334 2335 0
-2335 2511 0
27 -2335 2336 0
-2336 2512 0
28 -2336 2337 0
-2337 2513 0
29 -2337 2338 0
-2338 2514 0
30 -2338 2339 0
-2339 2515 0
31 -2339 2340 0
-2340 2516 0
32 -2340 2341 0
-2341 2517 0
33 -2341 2342 0
-2342 2518 0
34 -2342 2343 0
-2343 2519 0
35 -2343 2344 0
-2344 2520 0
36 -2344 2345 0
-2345 2521 0
37 -2345 2346 0
-2346 2522 0
38 -2346 2347 0
-2347 2523 0
39 -2347 2348 0
-2348 2524 0
40 -2348 2349 0
-2349 2525 0
41 -2349 2350 0
-2350 2526 0
42 -2350 2351 0
-2351 2527 0
43 -2351 2352 0
-2352 2528 0
44 -2352 2353 0
-2353 2529 0
45 -2353 2354 0
-2354 2530 0
46 -2354 2355 0
-2355 2531 0
47 -2355 2356 0
-2356 2532 0
48 -2356 2357 0
-2357 2533 0
49 -2357 2358 0
-2358 2534 0
50 -2358 2359 0
-2359 2535 0
51 -2359 2360 0
-2360 2536 0
52 -2360 2361 0
-2361 2537 0
53 -2361 2362 0
-2362 2538 0
54 -2362 2363 0
-2363 2539 0
55 -2363 2364 0
-2364 2540 0
56 -2364 2365 0
-2365 2541 0
57 -2365 2366 0
-2366 2542 0
58 -2366 2367 0
-2367 2543 0
59 -2367 2368 0
-2368 2544 0
60 -2368 2369 0
-2369 2545 0
61 -2369 2370 0
-2370 2546 0
62 -2370 2371 0
-2371 2547 0
63 -2371 2372 0
-2372 2548 0
64 -2372 2373 0
-2373 2549 0
65 -2373 2374 0
-2374 2550 0
66 -2374 2375 0
-2375 2551 0
67 -2375 2376 0
-2376 2552 0
68 -2376 2377 0
-2377 2553 0
69 -2377 2378 0
-2378 2554 0
70 -2378 2379 0
-2379 2555 0
71 -2379 2380 0
-2380 2556 0
72 -2380 2381 0
-2381 2557 0
73 -2381 2382 0
-2382 2558 0
74 -2382 2383 0
-2383 2559 0
75 -2383 2384 0
-2384 2560 0
76 -2384 2385 0
-2385 2561 0
77 -2385 2386 0
-2386 2562 0
78 -2386 2387 0
-2387 2563 0
79 -2387 2388 0
-2388 2564 0
80 -2388 2389 0
-2389 2565 0
81 -2389 2390 0
-2390 2566 0
82 -2390 2391 0
-2391 2567 0
83 -2391 2392 0
-2392 2568 0
84 -2392 2393 0
-2393 2569 0
85 -2393 2394 0
-2394 2570 0
86 -2394 2395 0
-2395 2571 0
87 -2395 2396 0
-2396 2572 0
88 -2396 2397 0
-2397 2573 0
89 -2397 2398 0
-2398 2574 0
90 -2398 2399 0
-2399 2575 0
91 -2399 2400 0
-2400 2576 0
92 -2400 2401 0
-2401 2577 0
93 -2401 2402 0
-2402 2578 0
94 -2402 2403 0
-2403 2579 0
95 -2403 2404 0
-2404 2580 0
96 -2404 2405 0
-2405 2581 0
97 -2405 2406 0
-2406 2582 0
98 -2406 2407 0
-2407 2583 0
99 -2407 2408 0
-2408 2584 0
100 -2408 2409 0
-2409 2585 0
101 -2409 2410 0
-2410 2586 0
102 -2410 2411 0
-2411 2587 0
103 -2411 2412 0
-2412 2588 0
104 -2412 2413 0
-2413 2589 0
105 -2413 2414 0
-2414 2590 0
106 -2414 2415 0
-2415 2591 0
107 -2415 2416 0
-2416 2592 0
108 -2416 2417 0
-2417 2593 0
109 -2417 2418 0
-2418 2594 0
110 -2418 2419 0
-2419 2595 0
111 -2419 2420 0
-2420 2596 0
112 -2420 2421 0
-2421 2597 0
113 -2421 2422 0
-2422 2598 0
114 -2422 2423 0
-2423 2599 0
115 -2423 2424 0
-2424 2600 0
116 -2424 2425 0
-2425 2601 0
117 -2425 2426 0
-2426 2602 0
118 -2426 2427 0
-2427 2603 0
119 -2427 2428 0
-2428 2604 0
120 -2428 2429 0
-2429 2605 0
121 -2429 2430 0
-2430 2606 0
122 -2430 2431 0
-2431 2607 0
123 -2431 2432 0
-2432 2608 0
124 -2432 2433 0
-2433 2609 0
125 -2433 2434 0
-2434 2610 0
126 -2434 2435 0
-2435 2611 0
127 -2435 2436 0
-2436 2612 0
128 -2436 2437 0
-2437 2613 0
129 -2437 2438 0
-2438 2614 0
130 -2438 2439 0
-2439 2615 0
131 -2439 2440 0
-2440 2616 0
132 -2440 2441 0
-2441 2617 0
133 -2441 2442 0
-2442 2618 0
134 -2442 2443 0
-2443 2619 0
135 -2443 2444 0
-2444 2620 0
136 -2444 2445 0
-2445 2621 0
137 -2445 2446 0
-2446 2622 0
138 -2446 2447 0
-2447 2623 0
139 -2447 2448 0
-2448 2624 0
140 -2448 2449 0
-2449 2625 0
141 -2449 2450 0
-2450 2626 0
142 -2450 2451 0
-2451 2627 0
143 -2451 2452 0
-2452 2628 0
144 -2452 2453 0
-2453 2629 0
145 -2453 2454 0
-2454 2630 0
146 -2454 2455 0
-2455 2631 0
147 -2455 2456 0
-2456 2632 0
148 -2456 2457 0
-2457 2633 0
149 -2457 2458 0
-2458 2634 0
150 -2458 2459 0
-2459 2635 0
151 -2459 2460 0
-2460 2636 0
152 -2460 2461 0
-2461 2637 0
153 -2461 2462 0
-2462 2638 0
154 -2462 2463 0
-2463 2639 0
155 -2463 2464 0
-2464 2640 0
156 -2464 2465 0
-2465 2641 0
157 -2465 2466 0
-2466 2642 0
158 -2466 2467 0
-2467 2643 0
159 -2467 2468 0
-2468 2644 0
160 -2468 2469 0
-2469 2645 0
161 -2469 2470 0
-2470 2646 0
162 -2470 2471 0
-2471 2647 0
163 -2471 2472 0
-2472 2648 0
164 -2472 2473 0
-2473 2649 0
165 -2473 2474 0
-2474 2650 0
166 -2474 2475 0
-2475 2651 0
167 -2475 2476 0
-2476 2652 0
168 -2476 2477 0
-2477 2653 0
169 -2477 2478 0
-2478 2654 0
170 -2478 2479 0
-2479 2655 0
171 -2479 2480 0
-2480 2656 0
172 -2480 2481 0
-2481 2657 0
173 -2481 2482 0
-2482 2658 0
174 -2482 2483 0
-2483 2659 0
175 -2483 2484 0
-2484 2660 0
176 -2484 2485 0
-2485 2661 0
177 -2485 2486 0
-2486 2662 0
178 -2486 2487 0
-2487 2663 0
179 -2487 2488 0
-2488 2664 0
180 -2488 2489 0
-2489 2665 0
181 -2489 2490 0
-2490 2666 0
182 -2490 2491 0
-2491 2667 0
183 -2491 2492 0
-2492 2668 0
184 -2492 2493 0
-2493 2669 0
185 -2493 2494 0
-2494 2670 0
186 -2494 2495 0
-2495 2671 0
187 -2495 2496 0
-2496 2672 0
188 -2496 0
13 2497 0
-2497 2673 0
14 -2497 2498 0
-2498 2674 0
15 -2498 2499 0
-2499 2675 0
16 -2499 2500 0
-2500 2676 0
17 -2500 2501 0
-2501 2677 0
18 -2501 2502 0
-2502 2678 0
19 -2502 2503 0
-2503 2679 0
20 -2503 2504 0
-2504 2680 0
21 -2504 2505 0
-2505 2681 0
22 -2505 2506 0
-2506 2682 0
23 -2506 2507 0
-2507 2683 0
24 -2507 2508 0
-2508 2684 0
25 -2508 2509 0
-2509 2685 0
26 -2509 2510 0
-2510 2686 0
27 -2510 2511 0
-2511 2687 0
28 -2511 2512 0
-2512 2688 0
29 -2512 2513 0
-2513 2689 0
30 -2513 2514 0
-2514 2690 0
31 -2514 2515 0
-2515 2691 0
32 -2515 2516 0
-2516 2692 0
33 -2516 2517 0
-2517 2693 0
34 -2517 2518 0
-2518 2694 0
35 -2518 2519 0
-2519 2695 0
36 -2519 2520 0
-2520 2696 0
37 -2520 2521 0
-2521 2697 0
38 -2521 2522 0
-2522 2698 0
39 -2522 2523 0
-2523 2699 0
40 -2523 2524 0
-2524 2700 0
41 -2524 2525 0
-2525 2701 0
42 -2525 2526 0
-2526 2702 0
43 -2526 2527 0
-2527 2703 0
44 -2527 2528 0
-2528 2704 0
45 -2528 2529 0
-2529 2705 0
46 -2529 2530 0
-2530 2706 0
47 -2530 2531 0
-2531 2707 0
48 -2531 2532 0
-2532 2708 0
49 -2532 2533 0
-2533 2709 0
50 -2533 2534 0
-2534 2710 0
51 -2534 2535 0
-2535 2711 0
52 -2535 2536 0
-2536 2712 0
53 -2536 2537 0
-2537 2713 0
54 -2537 2538 0
-2538 2714 0
55 -2538 2539 0
-2539 2715 0
56 -2539 2540 0
-2540 2716 0
57 -2540 2541 0
-2541 2717 0
58 -2541 2542 0
-2542 2718 0
59 -2542 2543 0
-2543 2719 0
60 -2543 2544 0
-2544 2720 0
61 -2544 2545 0
-2545 2721 0
62 -2545 2546 0
-2546 2722 0
63 -2546 2547 0
-2547 2723 0
64 -2547 2548 0
-2548 2724 0
65 -2548 2549 0
-2549 2725 0
66 -2549 2550 0
-2550 2726 0
67 -2550 2551 0
-2551 2727 0
68 -2551 2552 0
-2552 2728 0
69 -2552 2553 0
-2553 2729 0
70 -2553 2554 0
-2554 2730 0
71 -2554 2555 0
-2555 2731 0
72 -2555 2556 0
-2556 2732 0
73 -2556 2557 0
-2557 2733 0
74 -2557 2558 0
-2558 2734 0
75 -2558 2559 0
-2559 2735 0
76 -2559 2560 0
-2560 2736 0
77 -2560 2561 0
-2561 2737 0
78 -2561 2562 0
-2562 2738 0
79 -2562 2563 0
-2563 2739 0
80 -2563 2564 0
-2564 2740 0
81 -2564 2565 0
-2565 2741 0
82 -2565 2566 0
-2566 2742 0
83 -2566 2567 0
-2567 2743 0
84 -2567 2568 0
-2568 2744 0
85 -2568 2569 0
-2569 2745 0
86 -2569 2570 0
-2570 2746 0
87 -2570 2571 0
-2571 2747 0
88 -2571 2572 0
-2572 2748 0
89 -2572 2573 0
-2573 2749 0
90 -2573 2574 0
-2574 2750 0
91 -2574 2575 0
-2575 2751 0
92 -2575 2576 0
-2576 2752 0
93 -2576 2577 0
-2577 2753 0
94 -2577 2578 0
-2578 2754 0
95 -2578 2579 0
-2579 2755 0
96 -2579 2580 0
-2580 2756 0
97 -2580 2581 0
-2581 2757 0
98 -2581 2582 0
-2582 2758 0
99 -2582 2583 0
-2583 2759 0
100 -2583 2584 0
-2584 2760 0
101 -2584 2585 0
-2585 2761 0
102 -2585 2586 0
-2586 2762 0
103 -2586 2587 0
-2587 2763 0
104 -2587 2588 0
-2588 2764 0
105 -2588 2589 0
-2589 2765 0
106 -2589 2590 0
-2590 2766 0
107 -2590 2591 0
-2591 2767 0
108 -2591 2592 0
-2592 2768 0
109 -2592 2593 0
-2593 2769 0
110 -2593 2594 0
-2594 2770 0
111 -2594 2595 0
-2595 2771 0
112 -2595 2596 0
-2596 2772 0
113 -2596 2597 0
-2597 2773 0
114 -2597 2598 0
-2598 2774 0
115 -2598 2599 0
-2599 2775 0
116 -2599 2600 0
-2600 2776 0
117 -2600 2601 0
-2601 2777 0
118 -2601 2602 0
-2602 2778 0
119 -2602 2603 0
-2603 2779 0
120 -2603 2604 0
-2604 2780 0
121 -2604 2605 0
-2605 2781 0
122 -2605 2606 0
-2606 2782 0
123 -2606 2607 0
-2607 2783 0
124 -2607 2608 0
-2608 2784 0
125 -2608 2609 0
-2609 2785 0
126 -2609 2610 0
-2610 2786 0
127 -2610 2611 0
-2611 2787 0
128 -2611 2612 0
-2612 2788 0
129 -2612 2613 0
-2613 2789 0
130 -2613 2614 0
-2614 2790 0
131 -2614 2615 0
-2615 2791 0
132 -2615 2616 0
-2616 2792 0
133 -2616 2617 0
-2617 2793 0
134 -2617 2618 0
-2618 2794 0
135 -2618 2619 0
-2619 2795 0
136 -2619 2620 0
-2620 2796 0
137 -2620 2621 0
-2621 2797 0
138 -2621 2622 0
-2622 2798 0
139 -2622 2623 0
-2623 2799 0
140 -2623 2624 0
-2624 2800 0
141 -2624 2625 0
-2625 2801 0
142 -2625 2626 0
-2626 2802 0
143 -2626 2627 0
-2627 2803 0
144 -2627 2628 0
-2628 2804 0
145 -2628 2629 0
-2629 2805 0
146 -2629 2630 0
-2630 2806 0
147 -2630 2631 0
-2631 2807 0
148 -2631 2632 0
-2632 2808 0
149 -2632 2633 0
-2633 2809 0
150 -2633 2634 0
-2634 2810 0
151 -2634 2635 0
-2635 2811 0
152 -2635 2636 0
-2636 2812 0
153 -2636 2637 0
-2637 2813 0
154 -2637 2638 0
-2638 2814 0
155 -2638 2639 0
-2639 2815 0
156 -2639 2640 0
-2640 2816 0
157 -2640 2641 0
-2641 2817 0
158 -2641 2642 0
-2642 2818 0
159 -2642 2643 0
-2643 2819 0
160 -2643 2644 0
-2644 2820 0
161 -2644 2645 0
-2645 2821 0
162 -2645 2646 0
-2646 2822 0
163 -2646 2647 0
-2647 2823 0
164 -2647 2648 0
-2648 2824 0
165 -2648 2649 0
-2649 2825 0
166 -2649 2650 0
-2650 2826 0
167 -2650 2651 0
-2651 2827 0
168 -2651 2652 0
-2652 2828 0
169 -2652 2653 0
-2653 2829 0
170 -2653 2654 0
-2654 2830 0
171 -2654 2655 0
-2655 2831 0
172 -2655 2656 0
-2656 2832 0
173 -2656 2657 0
-2657 2833 0
174 -2657 2658 0
-2658 2834 0
175 -2658 2659 0
-2659 2835 0
176 -2659 2660 0
-2660 2836 0
177 -2660 2661 0
-2661 2837 0
178 -2661 2662 0
-2662 2838 0
179 -2662 2663 0
-2663 2839 0
180 -2663 2664 0
-2664 2840 0
181 -2664 2665 0
-2665 2841 0
182 -2665 2666 0
-2666 2842 0
183 -2666 2667 0
-2667 2843 0
184 -2667 2668 0
-2668 2844 0
185 -2668 2669 0
-2669 2845 0
186 -2669 2670 0
-2670 2846 0
187 -2670 2671 0
-2671 2847 0
188 -2671 2672 0
-2672 2848 0
189 -2672 0
14 2673 0
-2673 2849 0
15 -2673 2674 0
-2674 2850 0
16 -2674 2675 0
-2675 2851 0
17 -2675 2676 0
-2676 2852 0
18 -2676 2677 0
-2677 2853 0
19 -2677 2678 0
-2678 2854 0
20 -2678 2679 0
-2679 2855 0
21 -2679 2680 0
-2680 2856 0
22 -2680 2681 0
-2681 2857 0
23 -2681 2682 0
-2682 2858 0
24 -2682 2683 0
-2683 2859 0
25 -2683 2684 0
-2684 2860 0
26 -2684 2685 0
-2685 2861 0
27 -2685 2686 0
-2686 2862 0
28 -2686 2687 0
-2687 2863 0
29 -2687 2688 0
-2688 2864 0
30 -2688 2689 0
-2689 2865 0
31 -2689 2690 0
-2690 2866 0
32 -2690 2691 0
-2691 2867 0
33 -2691 2692 0
-2692 2868 0
34 -2692 2693 0
-2693 2869 0
35 -2693 2694 0
-2694 2870 0
36 -2694 2695 0
-2695 2871 0
37 -2695 2696 0
-2696 2872 0
38 -2696 2697 0
-2697 2873 0
39 -2697 2698 0
-2698 2874 0
40 -2698 2699 0
-2699 2875 0
41 -2699 2700 0
-2700 2876 0
42 -2700 2701 0
-2701 2877 0
43 -2701 2702 0
-2702 2878 0
44 -2702 2703 0
-2703 2879 0
45 -2703 2704 0
-2704 2880 0
46 -2704 2705 0
-2705 2881 0
47 -2705 2706 0
-2706 2882 0
48 -2706 2707 0
-2707 2883 0
49 -2707 2708 0
-2708 2884 0
50 -2708 2709 0
-2709 2885 0
51 -2709 2710 0
-2710 2886 0
52 -2710 2711 0
-2711 2887 0
53 -2711 2712 0
-2712 2888 0
54 -2712 2713 0
-2713 2889 0
55 -2713 2714 0
-2714 2890 0
56 -2714 2715 0
-2715 2891 0
57 -2715 2716 0
-2716 2892 0
58 -2716 2717 0
-2717 2893 0
59 -2717 2718 0
-2718 2894 0
60 -2718 2719 0
-2719 2895 0
61 -2719 2720 0
-2720 2896 0
62 -2720 2721 0
-2721 2897 0
63 -2721 2722 0
-2722 2898 0
64 -2722 2723 0
-2723 2899 0
65 -2723 2724 0
-2724 2900 0
66 -2724 2725 0
-2725 2901 0
67 -2725 2726 0
-2726 2902 0
68 -2726 2727 0
-2727 2903 0
69 -2727 2728 0
-2728 2904 0
70 -2728 2729 0
-2729 2905 0
71 -2729 2730 0
-2730 2906 0
72 -2730 2731 0
-2731 2907 0
73 -2731 2732 0
-2732 2908 0
74 -2732 2733 0
-2733 2909 0
75 -2733 2734 0
-2734 2910 0
76 -2734 2735 0
-2735 2911 0
77 -2735 2736 0
-2736 2912 0
78 -2736 2737 0
-2737 2913 0
79 -2737 2738 0
-2738 2914 0
80 -2738 2739 0
-2739 2915 0
81 -2739 2740 0
-2740 2916 0
82 -2740 2741 0
-2741 2917 0
83 -2741 2742 0
-2742 2918 0
84 -2742 2743 0
-2743 2919 0
85 -2743 2744 0
-2744 2920 0
86 -2744 2745 0
-2745 2921 0
87 -2745 2746 0
-2746 2922 0
88 -2746 2747 0
-2747 2923 0
89 -2747 2748 0
-2748 2924 0
90 -2748 2749 0
-2749 2925 0
91 -2749 2750 0
-2750 2926 0
92 -2750 2751 0
-2751 2927 0
93 -2751 2752 0
-2752 2928 0
94 -2752 2753 0
-2753 2929 0
95 -2753 2754 0
-2754 2930 0
96 -2754 2755 0
-2755 2931 0
97 -2755 2756 0
-2756 2932 0
98 -2756 2757 0
-2757 2933 0
99 -2757 2758 0
-2758 2934 0
100 -2758 2759 0
-2759 2935 0
101 -2759 2760 0
-2760 2936 0
102 -2760 2761 0
-2761 2937 0
103 -2761 2762 0
-2762 2938 0
104 -2762 2763 0
-2763 2939 0
105 -2763 2764 0
-2764 2940 0
106 -2764 2765 0
-2765 2941 0
107 -2765 2766 0
-2766 2942 0
108 -2766 2767 0
-2767 2943 0
109 -2767 2768 0
-2768 2944 0
110 -2768 2769 0
-2769 2945 0
111 -2769 2770 0
-2770 2946 0
112 -2770 2771 0
-2771 2947 0
113 -2771 2772 0
-2772 2948 0
114 -2772 2773 0
-2773 2949 0
115 -2773 2774 0
-2774 2950 0
116 -2774 2775 0
-2775 2951 0
117 -2775 2776 0
-2776 2952 0
118 -2776 2777 0
-2777 2953 0
119 -2777 2778 0
-2778 2954 0
120 -2778 2779 0
-2779 2955 0
121 -2779 2780 0
-2780 2956 0
122 -2780 2781 0
-2781 2957 0
123 -2781 2782 0
-2782 2958 0
124 -2782 2783 0
-2783 2959 0
125 -2783 2784 0
-2784 2960 0
126 -2784 2785 0
-2785 2961 0
127 -2785 2786 0
-2786 2962 0
128 -2786 2787 0
-2787 2963 0
129 -2787 2788 0
-2788 2964 0
130 -2788 2789 0
-2789 2965 0
131 -2789 2790 0
-2790 2966 0
132 -2790 2791 0
-2791 2967 0
133 -2791 2792 0
-2792 2968 0
134 -2792 2793 0
-2793 2969 0
135 -2793 2794 0
-2794 2970 0
136 -2794 2795 0
-2795 2971 0
137 -2795 2796 0
-2796 2972 0
138 -2796 2797 0
-2797 2973 0
139 -2797 2798 0
-2798 2974 0
140 -2798 2799 0
-2799 2975 0
141 -2799 2800 0
-2800 2976 0
142 -2800 2801 0
-2801 2977 0
143 -2801 2802 0
-2802 2978 0
144 -2802 2803 0
-2803 2979 0
145 -2803 2804 0
-2804 2980 0
146 -2804 2805 0
-2805 2981 0
147 -2805 2806 0
-2806 2982 0
148 -2806 2807 0
-2807 2983 0
149 -2807 2808 0
-2808 2984 0
150 -2808 2809 0
-2809 2985 0
151 -2809 2810 0
-2810 2986 0
152 -2810 2811 0
-2811 2987 0
153 -2811 2812 0
-2812 2988 0
154 -2812 2813 0
-2813 2989 0
155 -2813 2814 0
-2814 2990 0
156 -2814 2815 0
-2815 2991 0
157 -2815 2816 0
-2816 2992 0
158 -2816 2817 0
-2817 2993 0
159 -2817 2818 0
-2818 2994 0
160 -2818 2819 0
-2819 2995 0
161 -2819 2820 0
-2820 2996 0
162 -2820 2821 0
-2821 2997 0
163 -2821 2822 0
-2822 2998 0
164 -2822 2823 0
-2823 2999 0
165 -2823 2824 0
-2824 3000 0
166 -2824 2825 0
-2825 3001 0
167 -2825 2826 0
-2826 3002 0
168 -2826 2827 0
-2827 3003 0
169 -2827 2828 0
-2828 3004 0
170 -2828 2829 0
-2829 3005 0
171 -2829 2830 0
-2830 3006 0
172 -2830 2831 0
-2831 3007 0
173 -2831 2832 0
-2832 3008 0
174 -2832 2833 0
-2833 3009 0
175 -2833 2834 0
-2834 3010 0
176 -2834 2835 0
-2835 3011 0
177 -2835 2836 0
-2836 3012 0
178 -2836 2837 0
-2837 3013 0
179 -2837 2838 0
-2838 3014 0
180 -2838 2839 0
-2839 3015 0
181 -2839 2840 0
-2840 3016 0
182 -2840 2841 0
-2841 3017 0
183 -2841 2842 0
-2842 3018 0
184 -2842 2843 0
-2843 3019 0
185 -2843 2844 0
-2844 3020 0
186 -2844 2845 0
-2845 3021 0
187 -2845 2846 0
-2846 3022 0
188 -2846 2847 0
-2847 3023 0
189 -2847 2848 0
-2848 3024 0
190 -2848 0
15 2849 0
-2849 3025 0
16 -2849 2850 0
-2850 3026 0
17 -2850 2851 0
-2851 3027 0
18 -2851 2852 0
-2852 3028 0
19 -2852 2853 0
-2853 3029 0
20 -2853 2854 0
-2854 3030 0
21 -2854 2855 0
-2855 3031 0
22 -2855 2856 0
-2856 3032 0
23 -2856 2857 0
-2857 3033 0
24 -2857 2858 0
-2858 3034 0
25 -2858 2859 0
-2859 3035 0
26 -2859 2860 0
-2860 3036 0
27 -2860 2861 0
-2861 3037 0
28 -2861 2862 0
-2862 3038 0
29 -2862 2863 0
-2863 3039 0
30 -2863 2864 0
-2864 3040 0
31 -2864 2865 0
-2865 3041 0
32 -2865 2866 0
-2866 3042 0
33 -2866 2867 0
-2867 3043 0
34 -2867 2868 0
-2868 3044 0
35 -2868 2869 0
-2869 3045 0
36 -2869 2870 0
-2870 3046 0
37 -2870 2871 0
-2871 3047 0
38 -2871 2872 0
-2872 3048 0
39 -2872 2873 0
-2873 3049 0
40 -2873 2874 0
-2874 3050 0
41 -2874 2875 0
-2875 3051 0
42 -2875 2876 0
-2876 3052 0
43 -2876 2877 0
-2877 3053 0
44 -2877 2878 0
-2878 3054 0
45 -2878 2879 0
-2879 3055 0
46 -2879 2880 0
-2880 3056 0
47 -2880 2881 0
-2881 3057 0
48 -2881 2882 0
-2882 3058 0
49 -2882 2883 0
-2883 3059 0
50 -2883 2884 0
-2884 3060 0
51 -2884 2885 0
-2885 3061 0
52 -2885 2886 0
-2886 3062 0
53 -2886 2887 0
-2887 3063 0
54 -2887 2888 0
-2888 3064 0
55 -2888 2889 0
-2889 3065 0
56 -2889 2890 0
-2890 3066 0
57 -2890 2891 0
-2891 3067 0
58 -2891 2892 0
-2892 3068 0
59 -2892 2893 0
-2893 3069 0
60 -2893 2894 0
-2894 3070 0
61 -2894 2895 0
-2895 3071 0
62 -2895 2896 0
-2896 3072 0
63 -2896 2897 0
-2897 3073 0
64 -2897 2898 0
-2898 3074 0
65 -2898 2899 0
-2899 3075 0
66 -2899 2900 0
-2900 3076 0
67 -2900 2901 0
-2901 3077 0
68 -2901 2902 0
-2902 3078 0
69 -2902 2903 0
-2903 3079 0
70 -2903 2904 0
-2904 3080 0
71 -2904 2905 0
-2905 3081 0
72 -2905 2906 0
-2906 3082 0
73 -2906 2907 0
-2907 3083 0
74 -2907 2908 0
-2908 3084 0
75 -2908 2909 0
-2909 3085 0
76 -2909 2910 0
-2910 3086 0
77 -2910 2911 0
-2911 3087 0
78 -2911 2912 0
-2912 3088 0
79 -2912 2913 0
-2913 3089 0
80 -2913 2914 0
-2914 3090 0
81 -2914 2915 0
-2915 3091 0
82 -2915 2916 0
-2916 3092 0
83 -2916 2917 0
-2917 3093 0
84 -2917 2918 0
-2918 3094 0
85 -2918 2919 0
-2919 3095 0
86 -2919 2920 0
-2920 3096 0
87 -2920 2921 0
-2921 3097 0
88 -2921 2922 0
-2922 3098 0
89 -2922 2923 0
-2923 3099 0
90 -2923 2924 0
-2924 3100 0
91 -2924 2925 0
-2925 3101 0
92 -2925 2926 0
-2926 3102 0
93 -2926 2927 0
-2927 3103 0
94 -2927 2928 0
-2928 3104 0
95 -2928 2929 0
-2929 3105 0
96 -2929 2930 0
-2930 3106 0
97 -2930 2931 0
-2931 3107 0
98 -2931 2932 0
-2932 3108 0
99 -2932 2933 0
-2933 3109 0
100 -2933 2934 0
-2934 3110 0
101 -2934 2935 0
-2935 3111 0
102 -2935 2936 0
-2936 3112 0
103 -2936 2937 0
-2937 3113 0
104 -2937 2938 0
-2938 3114 0
105 -2938 2939 0
-2939 3115 0
106 -2939 2940 0
-2940 3116 0
107 -2940 2941 0
-2941 3117 0
108 -2941 2942 0
-2942 3118 0
109 -2942 2943 0
-2943 3119 0
110 -2943 2944 0
-2944 3120 0
111 -2944 2945 0
-2945 3121 0
112 -2945 2946 0
-2946 3122 0
113 -2946 2947 0
-2947 3123 0
114 -2947 2948 0
-2948 3124 0
115 -2948 2949 0
-2949 3125 0
116 -2949 2950 0
-2950 3126 0
117 -2950 2951 0
-2951 3127 0
118 -2951 2952 0
-2952 3128 0
119 -2952 2953 0
-2953 3129 0
120 -2953 2954 0
-2954 3130 0
121 -2954 2955 0
-2955 3131 0
122 -2955 2956 0
-2956 3132 0
123 -2956 2957 0
-2957 3133 0
124 -2957 2958 0
-2958 3134 0
125 -2958 2959 0
-2959 3135 0
126 -2959 2960 0
-2960 3136 0
127 -2960 2961 0
-2961 3137 0
128 -2961 2962 0
-2962 3138 0
129 -2962 2963 0
-2963 3139 0
130 -2963 2964 0
-2964 3140 0
131 -2964 2965 0
-2965 3141 0
132 -2965 2966 0
-2966 3142 0
133 -2966 2967 0
-2967 3143 0
134 -2967 2968 0
-2968 3144 0
135 -2968 2969 0
-2969 3145 0
136 -2969 2970 0
-2970 3146 0
137 -2970 2971 0
-2971 3147 0
138 -2971 2972 0
-2972 3148 0
139 -2972 2973 0
-2973 3149 0
140 -2973 2974 0
-2974 3150 0
141 -2974 2975 0
-2975 3151 0
142 -2975 2976 0
-2976 3152 0
143 -2976 2977 0
-2977 3153 0
144 -2977 2978 0
-2978 3154 0
145 -2978 2979 0
-2979 3155 0
146 -2979 2980 0
-2980 3156 0
147 -2980 2981 0
-2981 3157 0
148 -2981 2982 0
-2982 3158 0
149 -2982 2983 0
-2983 3159 0
150 -2983 2984 0
-2984 3160 0
151 -2984 2985 0
-2985 3161 0
152 -2985 2986 0
-2986 3162 0
153 -2986 2987 0
-2987 3163 0
154 -2987 2988 0
-2988 3164 0
155 -2988 2989 0
-2989 3165 0
156 -2989 2990 0
-2990 3166 0
157 -2990 2991 0
-2991 3167 0
158 -2991 2992 0
-2992 3168 0
159 -2992 2993 0
-2993 3169 0
160 -2993 2994 0
-2994 3170 0
161 -2994 2995 0
-2995 3171 0
162 -2995 2996 0
-2996 3172 0
163 -2996 2997 0
-2997 3173 0
164 -2997 2998 0
-2998 3174 0
165 -2998 2999 0
-2999 3175 0
166 -2999 3000 0
-3000 3176 0
167 -3000 3001 0
-3001 3177 0
168 -3001 3002 0
-3002 3178 0
169 -3002 3003 0
-3003 3179 0
170 -3003 3004 0
-3004 3180 0
171 -3004 3005 0
-3005 3181 0
172 -3005 3006 0
-3006 3182 0
173 -3006 3007 0
-3007 3183 0
174 -3007 3008 0
-3008 3184 0
175 -3008 3009 0
-3009 3185 0
176 -3009 3010 0
-3010 3186 0
177 -3010 3011 0
-3011 3187 0
178 -3011 3012 0
-3012 3188 0
179 -3012 3013 0
-3013 3189 0
180 -3013 3014 0
-3014 3190 0
181 -3014 3015 0
-3015 3191 0
182 -3015 3016 0
-3016 3192 0
183 -3016 3017 0
-3017 3193 0
184 -3017 3018 0
-3018 3194 0
185 -3018 3019 0
-3019 3195 0
186 -3019 3020 0
-3020 3196 0
187 -3020 3021 0
-3021 3197 0
188 -3021 3022 0
-3022 3198 0
189 -3022 3023 0
-3023 3199 0
190 -3023 3024 0
-3024 3200 0
191 -3024 0
16 3025 0
17 -3025 3026 0
18 -3026 3027 0
19 -3027 3028 0
20 -3028 3029 0
21 -3029 3030 0
22 -3030 3031 0
23 -3031 3032 0
24 -3032 3033 0
25 -3033 3034 0
26 -3034 3035 0
27 -3035 3036 0
28 -3036 3037 0
29 -3037 3038 0
30 -3038 3039 0
31 -3039 3040 0
32 -3040 3041 0
33 -3041 3042 0
34 -3042 3043 0
35 -3043 3044 0
36 -3044 3045 0
37 -3045 3046 0
38 -3046 3047 0
39 -3047 3048 0
40 -3048 3049 0
41 -3049 3050 0
42 -3050 3051 0
43 -3051 3052 0
44 -3052 3053 0
45 -3053 3054 0
46 -3054 3055 0
47 -3055 3056 0
48 -3056 3057 0
49 -3057 3058 0
50 -3058 3059 0
51 -3059 3060 0
52 -3060 3061 0
53 -3061 3062 0
54 -3062 3063 0
55 -3063 3064 0
56 -3064 3065 0
57 -3065 3066 0
58 -3066 3067 0
59 -3067 3068 0
60 -3068 3069 0
61 -3069 3070 0
62 -3070 3071 0
63 -3071 3072 0
64 -3072 3073 0
65 -3073 3074 0
66 -3074 3075 0
67 -3075 3076 0
68 -3076 3077 0
69 -3077 3078 0
70 -3078 3079 0
71 -3079 3080 0
72 -3080 3081 0
73 -3081 3082 0
74 -3082 3083 0
75 -3083 3084 0
76 -3084 3085 0
77 -3085 3086 0
78 -3086 3087 0
79 -3087 3088 0
80 -3088 3089 0
81 -3089 3090 0
82 -3090 3091 0
83 -3091 3092 0
84 -3092 3093 0
85 -3093 3094 0
86 -3094 3095 0
87 -3095 3096 0
88 -3096 3097 0
89 -3097 3098 0
90 -3098 3099 0
91 -3099 3100 0
92 -3100 3101 0
93 -3101 3102 0
94 -3102 3103 0
95 -3103 3104 0
96 -3104 3105 0
97 -3105 3106 0
98 -3106 3107 0
99 -3107 3108 0
100 -3108 3109 0
101 -3109 3110 0
102 -3110 3111 0
103 -3111 3112 0
104 -3112 3113 0
105 -3113 3114 0
106 -3114 3115 0
107 -3115 3116 0
108 -3116 3117 0
109 -3117 3118 0
110 -3118 3119 0
111 -3119 3120 0
112 -3120 3121 0
113 -3121 3122 0
114 -3122 3123 0
115 -3123 3124 0
116 -3124 3125 0
117 -3125 3126 0
118 -3126 3127 0
119 -3127 3128 0
120 -3128 3129 0
121 -3129 3130 0
122 -3130 3131 0
123 -3131 3132 0
124 -3132 3133 0
125 -3133 3134 0
126 -3134 3135 0
127 -3135 3136 0
128 -3136 3137 0
129 -3137 3138 0
130 -3138 3139 0
131 -3139 3140 0
132 -3140 3141 0
133 -3141 3142 0
134 -3142 3143 0
135 -3143 3144 0
136 -3144 3145 0
137 -3145 3146 0
138 -3146 3147 0
139 -3147 3148 0
140 -3148 3149 0
141 -3149 3150 0
142 -3150 3151 0
143 -3151 3152 0
144 -3152 3153 0
145 -3153 3154 0
146 -3154 3155 0
147 -3155 3156 0
148 -3156 3157 0
149 -3157 3158 0
150 -3158 3159 0
151 -3159 3160 0
152 -3160 3161 0
153 -3161 3162 0
154 -3162 3163 0
155 -3163 3164 0
156 -3164 3165 0
157 -3165 3166 0
158 -3166 3167 0
159 -3167 3168 0
160 -3168 3169 0
161 -3169 3170 0
162 -3170 3171 0
163 -3171 3172 0
164 -3172 3173 0
165 -3173 3174 0
166 -3174 3175 0
167 -3175 3176 0
168 -3176 3177 0
169 -3177 3178 0
170 -3178 3179 0
171 -3179 3180 0
172 -3180 3181 0
173 -3181 3182 0
174 -3182 3183 0
175 -3183 3184 0
176 -3184 3185 0
177 -3185 3186 0
178 -3186 3187 0
179 -3187 3188 0
180 -3188 3189 0
181 -3189 3190 0
182 -3190 3191 0
183 -3191 3192 0
184 -3192 3193 0
185 -3193 3194 0
186 -3194 3195 0
187 -3195 3196 0
188 -3196 3197 0
189 -3197 3198 0
190 -3198 3199 0
191 -3199 3200 0
192 -3200 0
-1 3201 0
-3201 3202 0
-2 -3201 3203 0
-3203 3204 0
-3 -3203 3205 0
-3205 3206 0
-4 -3205 3207 0
-3207 3208 0
-5 -3207 3209 0
-3209 3210 0
-6 -3209 3211 0
-3211 3212 0
-7 -3211 3213 0
-3213 3214 0
-8 -3213 3215 0
-3215 3216 0
-9 -3215 3217 0
-3217 3218 0
-10 -3217 3219 0
-3219 3220 0
-11 -3219 3221 0
-3221 3222 0
-12 -3221 3223 0
-3223 3224 0
-13 -3223 3225 0
-3225 3226 0
-14 -3225 3227 0
-3227 3228 0
-15 -3227 3229 0
-3229 3230 0
-16 -3229 3231 0
-3231 3232 0
-17 -3231 0
-2 3202 0
-3202 3233 0
-3 -3202 3204 0
-3204 3234 0
-4 -3204 3206 0
-3206 3235 0
-5 -3206 3208 0
-3208 3236 0
-6 -3208 3210 0
-3210 3237 0
-7 -3210 3212 0
-3212 3238 0
-8 -3212 3214 0
-3214 3239 0
-9 -3214 3216 0
-3216 3240 0
-10 -3216 3218 0
-3218 3241 0
-11 -3218 3220 0
-3220 3242 0
-12 -3220 3222 0
-3222 3243 0
-13 -3222 3224 0
-3224 3244 0
-14 -3224 3226 0
-3226 3245 0
-15 -3226 3228 0
-3228 3246 0
-16 -3228 3230 0
-3230 3247 0
-17 -3230 3232 0
-3232 3248 0
-18 -3232 0
-3 3233 0
-3233 3249 0
-4 -3233 3234 0
-3234 3250 0
-5 -3234 3235 0
-3235 3251 0
-6 -3235 3236 0
-3236 3252 0
-7 -3236 3237 0
-3237 3253 0
-8 -3237 3238 0
-3238 3254 0
-9 -3238 3239 0
-3239 3255 0
-10 -3239 3240 0
-3240 3256 0
-11 -3240 3241 0
-3241 3257 0
-12 -3241 3242 0
-3242 3258 0
-13 -3242 3243 0
-3243 3259 0
-14 -3243 3244 0
-3244 3260 0
-15 -3244 3245 0
-3245 3261 0
-16 -3245 3246 0
-3246 3262 0
-17 -3246 3247 0
-3247 3263 0
-18 -3247 3248 0
-3248 3264 0
-19 -3248 0
-4 3249 0
-3249 3265 0
-5 -3249 3250 0
-3250 3266 0
-6 -3250 3251 0
-3251 3267 0
-7 -3251 3252 0
-3252 3268 0
-8 -3252 3253 0
-3253 3269 0
-9 -3253 3254 0
-3254 3270 0
-10 -3254 3255 0
-3255 3271 0
-11 -3255 3256 0
-3256 3272 0
-12 -3256 3257 0
-3257 3273 0
-13 -3257 3258 0
-3258 3274 0
-14 -3258 3259 0
-3259 3275 0
-15 -3259 3260 0
-3260 3276 0
-16 -3260 3261 0
-3261 3277 0
-17 -3261 3262 0
-3262 3278 0
-18 -3262 3263 0
-3263 3279 0
-19 -3263 3264 0
-3264 3280 0
-20 -3264 0
-5 3265 0
-3265 3281 0
-6 -3265 3266 0
-3266 3282 0
-7 -3266 3267 0
-3267 3283 0
-8 -3267 3268 0
-3268 3284 0
-9 -3268 3269 0
-3269 3285 0
-10 -3269 3270 0
-3270 3286 0
-11 -3270 3271 0
-3271 3287 0
-12 -3271 3272 0
-3272 3288 0
-13 -3272 3273 0
-3273 3289 0
-14 -3273 3274 0
-3274 3290 0
-15 -3274 3275 0
-3275 3291 0
-16 -3275 3276 0
-3276 3292 0
-17 -3276 3277 0
-3277 3293 0
-18 -3277 3278 0
-3278 3294 0
-19 -3278 3279 0
-3279 3295 0
-20 -3279 3280 0
-3280 3296 0
-21 -3280 0
-6 3281 0
-3281 3297 0
-7 -3281 3282 0
-3282 3298 0
-8 -3282 3283 0
-3283 3299 0
-9 -3283 3284 0
-3284 3300 0
-10 -3284 3285 0
-3285 3301 0
-11 -3285 3286 0
-3286 3302 0
-12 -3286 3287 0
-3287 3303 0
-13 -3287 3288 0
-3288 3304 0
-14 -3288 3289 0
-3289 3305 0
-15 -3289 3290 0
-3290 3306 0
-16 -3290 3291 0
-3291 3307 0
-17 -3291 3292 0
-3292 3308 0
-18 -3292 3293 0
-3293 3309 0
-19 -3293 3294 0
-3294 3310 0
-20 -3294 3295 0
-3295 3311 0
-21 -3295 3296 0
-3296 3312 0
-22 -3296 0
-7 3297 0
-3297 3313 0
-8 -3297 3298 0
-3298 3314 0
-9 -3298 3299 0
-3299 3315 0
-10 -3299 3300 0
-3300 3316 0
-11 -3300 3301 0
-3301 3317 0
-12 -3301 3302 0
-3302 3318 0
-13 -3302 3303 0
-3303 3319 0
-14 -3303 3304 0
-3304 3320 0
-15 -3304 3305 0
-3305 3321 0
-16 -3305 3306 0
-3306 3322 0
-17 -3306 3307 0
-3307 3323 0
-18 -3307 3308 0
-3308 3324 0
-19 -3308 3309 0
-3309 3325 0
-20 -3309 3310 0
-3310 3326 0
-21 -3310 3311 0
-3311 3327 0
-22 -3311 3312 0
-3312 3328 0
-23 -3312 0
-8 3313 0
-3313 3329 0
-9 -3313 3314 0
-3314 3330 0
-10 -3314 3315 0
-3315 3331 0
-11 -3315 3316 0
-3316 3332 0
-12 -3316 3317 0
-3317 3333 0
-13 -3317 3318 0
-3318 3334 0
-14 -3318 3319 0
-3319 3335 0
-15 -3319 3320 0
-3320 3336 0
-16 -3320 3321 0
-3321 3337 0
-17 -3321 3322 0
-3322 3338 0
-18 -3322 3323 0
-3323 3339 0
-19 -3323 3324 0
-3324 3340 0
-20 -3324 3325 0
-3325 3341 0
-21 -3325 3326 0
-3326 3342 0
-22 -3326 3327 0
-3327 3343 0
-23 -3327 3328 0
-3328 3344 0
-24 -3328 0
-9 3329 0
-3329 3345 0
-10 -3329 3330 0
-3330 3346 0
-11 -3330 3331 0
-3331 3347 0
-12 -3331 3332 0
-3332 3348 0
-13 -3332 3333 0
-3333 3349 0
-14 -3333 3334 0
-3334 3350 0
-15 -3334 3335 0
-3335 3351 0
-16 -3335 3336 0
-3336 3352 0
-17 -3336 3337 0
-3337 3353 0
-18 -3337 3338 0
-3338 3354 0
-19 -3338 3339 0
-3339 3355 0
-20 -3339 3340 0
-3340 3356 0
-21 -3340 3341 0
-3341 3357 0
-22 -3341 3342 0
-3342 3358 0
-23 -3342 3343 0
-3343 3359 0
-24 -3343 3344 0
-3344 3360 0
-25 -3344 0
-10 3345 0
-3345 3361 0
-11 -3345 3346 0
-3346 3362 0
-12 -3346 3347 0
-3347 3363 0
-13 -3347 3348 0
-3348 3364 0
-14 -3348 3349 0
-3349 3365 0
-15 -3349 3350 0
-3350 3366 0
-16 -3350 3351 0
-3351 3367 0
-17 -3351 3352 0
-3352 3368 0
-18 -3352 3353 0
-3353 3369 0
-19 -3353 3354 0
-3354 3370 0
-20 -3354 3355 0
-3355 3371 0
-21 -3355 3356 0
-3356 3372 0
-22 -3356 3357 0
-3357 3373 0
-23 -3357 3358 0
-3358 3374 0
-24 -3358 3359 0
-3359 3375 0
-25 -3359 3360 0
-3360 3376 0
-26 -3360 0
-11 3361 0
-3361 3377 0
-12 -3361 3362 0
-3362 3378 0
-13 -3362 3363 0
-3363 3379 0
-14 -3363 3364 0
-3364 3380 0
-15 -3364 3365 0
-3365 3381 0
-16 -3365 3366 0
-3366 3382 0
-17 -3366 3367 0
-3367 3383 0
-18 -3367 3368 0
-3368 3384 0
-19 -3368 3369 0
-3369 3385 0
-20 -3369 3370 0
-3370 3386 0
-21 -3370 3371 0
-3371 3387 0
-22 -3371 3372 0
-3372 3388 0
-23 -3372 3373 0
-3373 3389 0
-24 -3373 3374 0
-3374 3390 0
-25 -3374 3375 0
-3375 3391 0
-26 -3375 3376 0
-3376 3392 0
-27 -3376 0
-12 3377 0
-3377 3393 0
-13 -3377 3378 0
-3378 3394 0
-14 -3378 3379 0
-3379 3395 0
-15 -3379 3380 0
-3380 3396 0
-16 -3380 3381 0
-3381 3397 0
-17 -3381 3382 0
-3382 3398 0
-18 -3382 3383 0
-3383 3399 0
-19 -3383 3384 0
-3384 3400 0
-20 -3384 3385 0
-3385 3401 0
-21 -3385 3386 0
-3386 3402 0
-22 -3386 3387 0
-3387 3403 0
-23 -3387 3388 0
-3388 3404 0
-24 -3388 3389 0
-3389 3405 0
-25 -3389 3390 0
-3390 3406 0
-26 -3390 3391 0
-3391 3407 0
-27 -3391 3392 0
-3392 3408 0
-28 -3392 0
-13 3393 0
-3393 3409 0
-14 -3393 3394 0
-3394 3410 0
-15 -3394 3395 0
-3395 3411 0
-16 -3395 3396 0
-3396 3412 0
-17 -3396 3397 0
-3397 3413 0
-18 -3397 3398 0
-3398 3414 0
-19 -3398 3399 0
-3399 3415 0
-20 -3399 3400 0
-3400 3416 0
-21 -3400 3401 0
-3401 3417 0
-22 -3401 3402 0
-3402 3418 0
-23 -3402 3403 0
-3403 3419 0
-24 -3403 3404 0
-3404 3420 0
-25 -3404 3405 0
-3405 3421 0
-26 -3405 3406 0
-3406 3422 0
-27 -3406 3407 0
-3407 3423 0
-28 -3407 3408 0
-3408 3424 0
-29 -3408 0
-14 3409 0
-3409 3425 0
-15 -3409 3410 0
-3410 3426 0
-16 -3410 3411 0
-3411 3427 0
-17 -3411 3412 0
-3412 3428 0
-18 -3412 3413 0
-3413 3429 0
-19 -3413 3414 0
-3414 3430 0
-20 -3414 3415 0
-3415 3431 0
-21 -3415 3416 0
-3416 3432 0
-22 -3416 3417 0
-3417 3433 0
-23 -3417 3418 0
-3418 3434 0
-24 -3418 3419 0
-3419 3435 0
-25 -3419 3420 0
-3420 3436 0
-26 -3420 3421 0
-3421 3437 0
-27 -3421 3422 0
-3422 3438 0
-28 -3422 3423 0
-3423 3439 0
-29 -3423 3424 0
-3424 3440 0
-30 -3424 0
-15 3425 0
-3425 3441 0
-16 -3425 3426 0
-3426 3442 0
-17 -3426 3427 0
-3427 3443 0
-18 -3427 3428 0
-3428 3444 0
-19 -3428 3429 0
-3429 3445 0
-20 -3429 3430 0
-3430 3446 0
-21 -3430 3431 0
-3431 3447 0
-22 -3431 3432 0
-3432 3448 0
-23 -3432 3433 0
-3433 3449 0
-24 -3433 3434 0
-3434 3450 0
-25 -3434 3435 0
-3435 3451 0
-26 -3435 3436 0
-3436 3452 0
-27 -3436 3437 0
-3437 3453 0
-28 -3437 3438 0
-3438 3454 0
-29 -3438 3439 0
-3439 3455 0
-30 -3439 3440 0
-3440 3456 0
-31 -3440 0
-16 3441 0
-3441 3457 0
-17 -3441 3442 0
-3442 3458 0
-18 -3442 3443 0
-3443 3459 0
-19 -3443 3444 0
-3444 3460 0
-20 -3444 3445 0
-3445 3461 0
-21 -3445 3446 0
-3446 3462 0
-22 -3446 3447 0
-3447 3463 0
-23 -3447 3448 0
-3448 3464 0
-24 -3448 3449 0
-3449 3465 0
-25 -3449 3450 0
-3450 3466 0
-26 -3450 3451 0
-3451 3467 0
-27 -3451 3452 0
-3452 3468 0
-28 -3452 3453 0
-3453 3469 0
-29 -3453 3454 0
-3454 3470 0
-30 -3454 3455 0
-3455 3471 0
-31 -3455 3456 0
-3456 3472 0
-32 -3456 0
-17 3457 0
-3457 3473 0
-18 -3457 3458 0
-3458 3474 0
-19 -3458 3459 0
-3459 3475 0
-20 -3459 3460 0
-3460 3476 0
-21 -3460 3461 0
-3461 3477 0
-22 -3461 3462 0
-3462 3478 0
-23 -3462 3463 0
-3463 3479 0
-24 -3463 3464 0
-3464 3480 0
-25 -3464 3465 0
-3465 3481 0
-26 -3465 3466 0
-3466 3482 0
-27 -3466 3467 0
-3467 3483 0
-28 -3467 3468 0
-3468 3484 0
-29 -3468 3469 0
-3469 3485 0
-30 -3469 3470 0
-3470 3486 0
-31 -3470 3471 0
-3471 3487 0
-32 -3471 3472 0
-3472 3488 0
-33 -3472 0
-18 3473 0
-3473 3489 0
-19 -3473 3474 0
-3474 3490 0
-20 -3474 3475 0
-3475 3491 0
-21 -3475 3476 0
-3476 3492 0
-22 -3476 3477 0
-3477 3493 0
-23 -3477 3478 0
-3478 3494 0
-24 -3478 3479 0
-3479 3495 0
-25 -3479 3480 0
-3480 3496 0
-26 -3480 3481 0
-3481 3497 0
-27 -3481 3482 0
-3482 3498 0
-28 -3482 3483 0
-3483 3499 0
-29 -3483 3484 0
-3484 3500 0
-30 -3484 3485 0
-3485 3501 0
-31 -3485 3486 0
-3486 3502 0
-32 -3486 3487 0
-3487 3503 0
-33 -3487 3488 0
-3488 3504 0
-34 -3488 0
-19 3489 0
-3489 3505 0
-20 -3489 3490 0
-3490 3506 0
-21 -3490 3491 0
-3491 3507 0
-22 -3491 3492 0
-3492 3508 0
-23 -3492 3493 0
-3493 3509 0
-24 -3493 3494 0
-3494 3510 0
-25 -3494 3495 0
-3495 3511 0
-26 -3495 3496 0
-3496 3512 0
-27 -3496 3497 0
-3497 3513 0
-28 -3497 3498 0
-3498 3514 0
-29 -3498 3499 0
-3499 3515 0
-30 -3499 3500 0
-3500 3516 0
-31 -3500 3501 0
-3501 3517 0
-32 -3501 3502 0
-3502 3518 0
-33 -3502 3503 0
-3503 3519 0
-34 -3503 3504 0
-3504 3520 0
-35 -3504 0
-20 3505 0
-3505 3521 0
-21 -3505 3506 0
-3506 3522 0
-22 -3506 3507 0
-3507 3523 0
-23 -3507 3508 0
-3508 3524 0
-24 -3508 3509 0
-3509 3525 0
-25 -3509 3510 0
-3510 3526 0
-26 -3510 3511 0
-3511 3527 0
-27 -3511 3512 0
-3512 3528 0
-28 -3512 3513 0
-3513 3529 0
-29 -3513 3514 0
-3514 3530 0
-30 -3514 3515 0
-3515 3531 0
-31 -3515 3516 0
-3516 3532 0
-32 -3516 3517 0
-3517 3533 0
-33 -3517 3518 0
-3518 3534 0
-34 -3518 3519 0
-3519 3535 0
-35 -3519 3520 0
-3520 3536 0
-36 -3520 0
-21 3521 0
-3521 3537 0
-22 -3521 3522 0
-3522 3538 0
-23 -3522 3523 0
-3523 3539 0
-24 -3523 3524 0
-3524 3540 0
-25 -3524 3525 0
-3525 3541 0
-26 -3525 3526 0
-3526 3542 0
-27 -3526 3527 0
-3527 3543 0
-28 -3527 3528 0
-3528 3544 0
-29 -3528 3529 0
-3529 3545 0
-30 -3529 3530 0
-3530 3546 0
-31 -3530 3531 0
-3531 3547 0
-32 -3531 3532 0
-3532 3548 0
-33 -3532 3533 0
-3533 3549 0
-34 -3533 3534 0
-3534 3550 0
-35 -3534 3535 0
-3535 3551 0
-36 -3535 3536 0
-3536 3552 0
-37 -3536 0
-22 3537 0
-3537 3553 0
-23 -3537 3538 0
-3538 3554 0
-24 -3538 3539 0
-3539 3555 0
-25 -3539 3540 0
-3540 3556 0
-26 -3540 3541 0
-3541 3557 0
-27 -3541 3542 0
-3542 3558 0
-28 -3542 3543 0
-3543 3559 0
-29 -3543 3544 0
-3544 3560 0
-30 -3544 3545 0
-3545 3561 0
-31 -3545 3546 0
-3546 3562 0
-32 -3546 3547 0
-3547 3563 0
-33 -3547 3548 0
-3548 3564 0
-34 -3548 3549 0
-3549 3565 0
-35 -3549 3550 0
-3550 3566 0
-36 -3550 3551 0
-3551 3567 0
-37 -3551 3552 0
-3552 3568 0
-38 -3552 0
-23 3553 0
-3553 3569 0
-24 -3553 3554 0
-3554 3570 0
-25 -3554 3555 0
-3555 3571 0
-26 -3555 3556 0
-3556 3572 0
-27 -3556 3557 0
-3557 3573 0
-28 -3557 3558 0
-3558 3574 0
-29 -3558 3559 0
-3559 3575 0
-30 -3559 3560 0
-3560 3576 0
-31 -3560 3561 0
-3561 3577 0
-32 -3561 3562 0
-3562 3578 0
-33 -3562 3563 0
-3563 3579 0
-34 -3563 3564 0
-3564 3580 0
-35 -3564 3565 0
-3565 3581 0
-36 -3565 3566 0
-3566 3582 0
-37 -3566 3567 0
-3567 3583 0
-38 -3567 3568 0
-3568 3584 0
-39 -3568 0
-24 3569 0
-3569 3585 0
-25 -3569 3570 0
-3570 3586 0
-26 -3570 3571 0
-3571 3587 0
-27 -3571 3572 0
-3572 3588 0
-28 -3572 3573 0
-3573 3589 0
-29 -3573 3574 0
-3574 3590 0
-30 -3574 3575 0
-3575 3591 0
-31 -3575 3576 0
-3576 3592 0
-32 -3576 3577 0
-3577 3593 0
-33 -3577 3578 0
-3578 3594 0
-34 -3578 3579 0
-3579 3595 0
-35 -3579 3580 0
-3580 3596 0
-36 -3580 3581 0
-3581 3597 0
-37 -3581 3582 0
-3582 3598 0
-38 -3582 3583 0
-3583 3599 0
-39 -3583 3584 0
-3584 3600 0
-40 -3584 0
-25 3585 0
-3585 3601 0
-26 -3585 3586 0
-3586 3602 0
-27 -3586 3587 0
-3587 3603 0
-28 -3587 3588 0
-3588 3604 0
-29 -3588 3589 0
-3589 3605 0
-30 -3589 3590 0
-3590 3606 0
-31 -3590 3591 0
-3591 3607 0
-32 -3591 3592 0
-3592 3608 0
-33 -3592 3593 0
-3593 3609 0
-34 -3593 3594 0
-3594 3610 0
-35 -3594 3595 0
-3595 3611 0
-36 -3595 3596 0
-3596 3612 0
-37 -3596 3597 0
-3597 3613 0
-38 -3597 3598 0
-3598 3614 0
-39 -3598 3599 0
-3599 3615 0
-40 -3599 3600 0
-3600 3616 0
-41 -3600 0
-26 3601 0
-3601 3617 0
-27 -3601 3602 0
-3602 3618 0
-28 -3602 3603 0
-3603 3619 0
-29 -3603 3604 0
-3604 3620 0
-30 -3604 3605 0
-3605 3621 0
-31 -3605 3606 0
-3606 3622 0
-32 -3606 3607 0
-3607 3623 0
-33 -3607 3608 0
-3608 3624 0
-34 -3608 3609 0
-3609 3625 0
-35 -3609 3610 0
-3610 3626 0
-36 -3610 3611 0
-3611 3627 0
-37 -3611 3612 0
-3612 3628 0
-38 -3612 3613 0
-3613 3629 0
-39 -3613 3614 0
-3614 3630 0
-40 -3614 3615 0
-3615 3631 0
-41 -3615 3616 0
-3616 3632 0
-42 -3616 0
-27 3617 0
-3617 3633 0
-28 -3617 3618 0
-3618 3634 0
-29 -3618 3619 0
-3619 3635 0
-30 -3619 3620 0
-3620 3636 0
-31 -3620 3621 0
-3621 3637 0
-32 -3621 3622 0
-3622 3638 0
-33 -3622 3623 0
-3623 3639 0
-34 -3623 3624 0
-3624 3640 0
-35 -3624 3625 0
-3625 3641 0
-36 -3625 3626 0
-3626 3642 0
-37 -3626 3627 0
-3627 3643 0
-38 -3627 3628 0
-3628 3644 0
-39 -3628 3629 0
-3629 3645 0
-40 -3629 3630 0
-3630 3646 0
-41 -3630 3631 0
-3631 3647 0
-42 -3631 3632 0
-3632 3648 0
-43 -3632 0
-28 3633 0
-3633 3649 0
-29 -3633 3634 0
-3634 3650 0
-30 -3634 3635 0
-3635 3651 0
-31 -3635 3636 0
-3636 3652 0
-32 -3636 3637 0
-3637 3653 0
-33 -3637 3638 0
-3638 3654 0
-34 -3638 3639 0
-3639 3655 0
-35 -3639 3640 0
-3640 3656 0
-36 -3640 3641 0
-3641 3657 0
-37 -3641 3642 0
-3642 3658 0
-38 -3642 3643 0
-3643 3659 0
-39 -3643 3644 0
-3644 3660 0
-40 -3644 3645 0
-3645 3661 0
-41 -3645 3646 0
-3646 3662 0
-42 -3646 3647 0
-3647 3663 0
-43 -3647 3648 0
-3648 3664 0
-44 -3648 0
-29 3649 0
-3649 3665 0
-30 -3649 3650 0
-3650 3666 0
-31 -3650 3651 0
-3651 3667 0
-32 -3651 3652 0
-3652 3668 0
-33 -3652 3653 0
-3653 3669 0
-34 -3653 3654 0
-3654 3670 0
-35 -3654 3655 0
-3655 3671 0
-36 -3655 3656 0
-3656 3672 0
-37 -3656 3657 0
-3657 3673 0
-38 -3657 3658 0
-3658 3674 0
-39 -3658 3659 0
-3659 3675 0
-40 -3659 3660 0
-3660 3676 0
-41 -3660 3661 0
-3661 3677 0
-42 -3661 3662 0
-3662 3678 0
-43 -3662 3663 0
-3663 3679 0
-44 -3663 3664 0
-3664 3680 0
-45 -3664 0
-30 3665 0
-3665 3681 0
-31 -3665 3666 0
-3666 3682 0
-32 -3666 3667 0
-3667 3683 0
-33 -3667 3668 0
-3668 3684 0
-34 -3668 3669 0
-3669 3685 0
-35 -3669 3670 0
-3670 3686 0
-36 -3670 3671 0
-3671 3687 0
-37 -3671 3672 0
-3672 3688 0
-38 -3672 3673 0
-3673 3689 0
-39 -3673 3674 0
-3674 3690 0
-40 -3674 3675 0
-3675 3691 0
-41 -3675 3676 0
-3676 3692 0
-42 -3676 3677 0
-3677 3693 0
-43 -3677 3678 0
-3678 3694 0
-44 -3678 3679 0
-3679 3695 0
-45 -3679 3680 0
-3680 3696 0
-46 -3680 0
-31 3681 0
-3681 3697 0
-32 -3681 3682 0
-3682 3698 0
-33 -3682 3683 0
-3683 3699 0
-34 -3683 3684 0
-3684 3700 0
-35 -3684 3685 0
-3685 3701 0
-36 -3685 3686 0
-3686 3702 0
-37 -3686 3687 0
-3687 3703 0
-38 -3687 3688 0
-3688 3704 0
-39 -3688 3689 0
-3689 3705 0
-40 -3689 3690 0
-3690 3706 0
-41 -3690 3691 0
-3691 3707 0
-42 -3691 3692 0
-3692 3708 0
-43 -3692 3693 0
-3693 3709 0
-44 -3693 3694 0
-3694 3710 0
-45 -3694 3695 0
-3695 3711 0
-46 -3695 3696 0
-3696 3712 0
-47 -3696 0
-32 3697 0
-3697 3713 0
-33 -3697 3698 0
-3698 3714 0
-34 -3698 3699 0
-3699 3715 0
-35 -3699 3700 0
-3700 3716 0
-36 -3700 3701 0
-3701 3717 0
-37 -3701 3702 0
-3702 3718 0
-38 -3702 3703 0
-3703 3719 0
-39 -3703 3704 0
-3704 3720 0
-40 -3704 3705 0
-3705 3721 0
-41 -3705 3706 0
-3706 3722 0
-42 -3706 3707 0
-3707 3723 0
-43 -3707 3708 0
-3708 3724 0
-44 -3708 3709 0
-3709 3725 0
-45 -3709 3710 0
-3710 3726 0
-46 -3710 3711 0
-3711 3727 0
-47 -3711 3712 0
-3712 3728 0
-48 -3712 0
-33 3713 0
-3713 3729 0
-34 -3713 3714 0
-3714 3730 0
-35 -3714 3715 0
-3715 3731 0
-36 -3715 3716 0
-3716 3732 0
-37 -3716 3717 0
-3717 3733 0
-38 -3717 3718 0
-3718 3734 0
-39 -3718 3719 0
-3719 3735 0
-40 -3719 3720 0
-3720 3736 0
-41 -3720 3721 0
-3721 3737 0
-42 -3721 3722 0
-3722 3738 0
-43 -3722 3723 0
-3723 3739 0
-44 -3723 3724 0
-3724 3740 0
-45 -3724 3725 0
-3725 3741 0
-46 -3725 3726 0
-3726 3742 0
-47 -3726 3727 0
-3727 3743 0
-48 -3727 3728 0
-3728 3744 0
-49 -3728 0
-34 3729 0
-3729 3745 0
-35 -3729 3730 0
-3730 3746 0
-36 -3730 3731 0
-3731 3747 0
-37 -3731 3732 0
-3732 3748 0
-38 -3732 3733 0
-3733 3749 0
-39 -3733 3734 0
-3734 3750 0
-40 -3734 3735 0
-3735 3751 0
-41 -3735 3736 0
-3736 3752 0
-42 -3736 3737 0
-3737 3753 0
-43 -3737 3738 0
-3738 3754 0
-44 -3738 3739 0
-3739 3755 0
-45 -3739 3740 0
-3740 3756 0
-46 -3740 3741 0
-3741 3757 0
-47 -3741 3742 0
-3742 3758 0
-48 -3742 3743 0
-3743 3759 0
-49 -3743 3744 0
-3744 3760 0
-50 -3744 0
-35 3745 0
-3745 3761 0
-36 -3745 3746 0
-3746 3762 0
-37 -3746 3747 0
-3747 3763 0
-38 -3747 3748 0
-3748 3764 0
-39 -3748 3749 0
-3749 3765 0
-40 -3749 3750 0
-3750 3766 0
-41 -3750 3751 0
-3751 3767 0
-42 -3751 3752 0
-3752 3768 0
-43 -3752 3753 0
-3753 3769 0
-44 -3753 3754 0
-3754 3770 0
-45 -3754 3755 0
-3755 3771 0
-46 -3755 3756 0
-3756 3772 0
-47 -3756 3757 0
-3757 3773 0
-48 -3757 3758 0
-3758 3774 0
-49 -3758 3759 0
-3759 3775 0
-50 -3759 3760 0
-3760 3776 0
-51 -3760 0
-36 3761 0
-3761 3777 0
-37 -3761 3762 0
-3762 3778 0
-38 -3762 3763 0
-3763 3779 0
-39 -3763 3764 0
-3764 3780 0
-40 -3764 3765 0
-3765 3781 0
-41 -3765 3766 0
-3766 3782 0
-42 -3766 3767 0
-3767 3783 0
-43 -3767 3768 0
-3768 3784 0
-44 -3768 3769 0
-3769 3785 0
-45 -3769 3770 0
-3770 3786 0
-46 -3770 3771 0
-3771 3787 0
-47 -3771 3772 0
-3772 3788 0
-48 -3772 3773 0
-3773 3789 0
-49 -3773 3774 0
-3774 3790 0
-50 -3774 3775 0
-3775 3791 0
-51 -3775 3776 0
-3776 3792 0
-52 -3776 0
-37 3777 0
-3777 3793 0
-38 -3777 3778 0
-3778 3794 0
-39 -3778 3779 0
-3779 3795 0
-40 -3779 3780 0
-3780 3796 0
-41 -3780 3781 0
-3781 3797 0
-42 -3781 3782 0
-3782 3798 0
-43 -3782 3783 0
-3783 3799 0
-44 -3783 3784 0
-3784 3800 0
-45 -3784 3785 0
-3785 3801 0
-46 -3785 3786 0
-3786 3802 0
-47 -3786 3787 0
-3787 3803 0
-48 -3787 3788 0
-3788 3804 0
-49 -3788 3789 0
-3789 3805 0
-50 -3789 3790 0
-3790 3806 0
-51 -3790 3791 0
-3791 3807 0
-52 -3791 3792 0
-3792 3808 0
-53 -3792 0
-38 3793 0
-3793 3809 0
-39 -3793 3794 0
-3794 3810 0
-40 -3794 3795 0
-3795 3811 0
-41 -3795 3796 0
-3796 3812 0
-42 -3796 3797 0
-3797 3813 0
-43 -3797 3798 0
-3798 3814 0
-44 -3798 3799 0
-3799 3815 0
-45 -3799 3800 0
-3800 3816 0
-46 -3800 3801 0
-3801 3817 0
-47 -3801 3802 0
-3802 3818 0
-48 -3802 3803 0
-3803 3819 0
-49 -3803 3804 0
-3804 3820 0
-50 -3804 3805 0
-3805 3821 0
-51 -3805 3806 0
-3806 3822 0
-52 -3806 3807 0
-3807 3823 0
-53 -3807 3808 0
-3808 3824 0
-54 -3808 0
-39 3809 0
-3809 3825 0
-40 -3809 3810 0
-3810 3826 0
-41 -3810 3811 0
-3811 3827 0
-42 -3811 3812 0
-3812 3828 0
-43 -3812 3813 0
-3813 3829 0
-44 -3813 3814 0
-3814 3830 0
-45 -3814 3815 0
-3815 3831 0
-46 -3815 3816 0
-3816 3832 0
-47 -3816 3817 0
-3817 3833 0
-48 -3817 3818 0
-3818 3834 0
-49 -3818 3819 0
-3819 3835 0
-50 -3819 3820 0
-3820 3836 0
-51 -3820 3821 0
-3821 3837 0
-52 -3821 3822 0
-3822 3838 0
-53 -3822 3823 0
-3823 3839 0
-54 -3823 3824 0
-3824 3840 0
-55 -3824 0
-40 3825 0
-3825 3841 0
-41 -3825 3826 0
-3826 3842 0
-42 -3826 3827 0
-3827 3843 0
-43 -3827 3828 0
-3828 3844 0
-44 -3828 3829 0
-3829 3845 0
-45 -3829 3830 0
-3830 3846 0
-46 -3830 3831 0
-3831 3847 0
-47 -3831 3832 0
-3832 3848 0
-48 -3832 3833 0
-3833 3849 0
-49 -3833 3834 0
-3834 3850 0
-50 -3834 3835 0
-3835 3851 0
-51 -3835 3836 0
-3836 3852 0
-52 -3836 3837 0
-3837 3853 0
-53 -3837 3838 0
-3838 3854 0
-54 -3838 3839 0
-3839 3855 0
-55 -3839 3840 0
-3840 3856 0
-56 -3840 0
-41 3841 0
-3841 3857 0
-42 -3841 3842 0
-3842 3858 0
-43 -3842 3843 0
-3843 3859 0
-44 -3843 3844 0
-3844 3860 0
-45 -3844 3845 0
-3845 3861 0
-46 -3845 3846 0
-3846 3862 0
-47 -3846 3847 0
-3847 3863 0
-48 -3847 3848 0
-3848 3864 0
-49 -3848 3849 0
-3849 3865 0
-50 -3849 3850 0
-3850 3866 0
-51 -3850 3851 0
-3851 3867 0
-52 -3851 3852 0
-3852 3868 0
-53 -3852 3853 0
-3853 3869 0
-54 -3853 3854 0
-3854 3870 0
-55 -3854 3855 0
-3855 3871 0
-56 -3855 3856 0
-3856 3872 0
-57 -3856 0
-42 3857 0
-3857 3873 0
-43 -3857 3858 0
-3858 3874 0
-44 -3858 3859 0
-3859 3875 0
-45 -3859 3860 0
-3860 3876 0
-46 -3860 3861 0
-3861 3877 0
-47 -3861 3862 0
-3862 3878 0
-48 -3862 3863 0
-3863 3879 0
-49 -3863 3864 0
-3864 3880 0
-50 -3864 3865 0
-3865 3881 0
-51 -3865 3866 0
-3866 3882 0
-52 -3866 3867 0
-3867 3883 0
-53 -3867 3868 0
-3868 3884 0
-54 -3868 3869 0
-3869 3885 0
-55 -3869 3870 0
-3870 3886 0
-56 -3870 3871 0
-3871 3887 0
-57 -3871 3872 0
-3872 3888 0
-58 -3872 0
-43 3873 0
-3873 3889 0
-44 -3873 3874 0
-3874 3890 0
-45 -3874 3875 0
-3875 3891 0
-46 -3875 3876 0
-3876 3892 0
-47 -3876 3877 0
-3877 3893 0
-48 -3877 3878 0
-3878 3894 0
-49 -3878 3879 0
-3879 3895 0
-50 -3879 3880 0
-3880 3896 0
-51 -3880 3881 0
-3881 3897 0
-52 -3881 3882 0
-3882 3898 0
-53 -3882 3883 0
-3883 3899 0
-54 -3883 3884 0
-3884 3900 0
-55 -3884 3885 0
-3885 3901 0
-56 -3885 3886 0
-3886 3902 0
-57 -3886 3887 0
-3887 3903 0
-58 -3887 3888 0
-3888 3904 0
-59 -3888 0
-44 3889 0
-3889 3905 0
-45 -3889 3890 0
-3890 3906 0
-46 -3890 3891 0
-3891 3907 0
-47 -3891 3892 0
-3892 3908 0
-48 -3892 3893 0
-3893 3909 0
-49 -3893 3894 0
-3894 3910 0
-50 -3894 3895 0
-3895 3911 0
-51 -3895 3896 0
-3896 3912 0
-52 -3896 3897 0
-3897 3913 0
-53 -3897 3898 0
-3898 3914 0
-54 -3898 3899 0
-3899 3915 0
-55 -3899 3900 0
-3900 3916 0
-56 -3900 3901 0
-3901 3917 0
-57 -3901 3902 0
-3902 3918 0
-58 -3902 3903 0
-3903 3919 0
-59 -3903 3904 0
-3904 3920 0
-60 -3904 0
-45 3905 0
-3905 3921 0
-46 -3905 3906 0
-3906 3922 0
-47 -3906 3907 0
-3907 3923 0
-48 -3907 3908 0
-3908 3924 0
-49 -3908 3909 0
-3909 3925 0
-50 -3909 3910 0
-3910 3926 0
-51 -3910 3911 0
-3911 3927 0
-52 -3911 3912 0
-3912 3928 0
-53 -3912 3913 0
-3913 3929 0
-54 -3913 3914 0
-3914 3930 0
-55 -3914 3915 0
-3915 3931 0
-56 -3915 3916 0
-3916 3932 0
-57 -3916 3917 0
-3917 3933 0
-58 -3917 3918 0
-3918 3934 0
-59 -3918 3919 0
-3919 3935 0
-60 -3919 3920 0
-3920 3936 0
-61 -3920 0
-46 3921 0
-3921 3937 0
-47 -3921 3922 0
-3922 3938 0
-48 -3922 3923 0
-3923 3939 0
-49 -3923 3924 0
-3924 3940 0
-50 -3924 3925 0
-3925 3941 0
-51 -3925 3926 0
-3926 3942 0
-52 -3926 3927 0
-3927 3943 0
-53 -3927 3928 0
-3928 3944 0
-54 -3928 3929 0
-3929 3945 0
-55 -3929 3930 0
-3930 3946 0
-56 -3930 3931 0
-3931 3947 0
-57 -3931 3932 0
-3932 3948 0
-58 -3932 3933 0
-3933 3949 0
-59 -3933 3934 0
-3934 3950 0
-60 -3934 3935 0
-3935 3951 0
-61 -3935 3936 0
-3936 3952 0
-62 -3936 0
-47 3937 0
-3937 3953 0
-48 -3937 3938 0
-3938 3954 0
-49 -3938 3939 0
-3939 3955 0
-50 -3939 3940 0
-3940 3956 0
-51 -3940 3941 0
-3941 3957 0
-52 -3941 3942 0
-3942 3958 0
-53 -3942 3943 0
-3943 3959 0
-54 -3943 3944 0
-3944 3960 0
-55 -3944 3945 0
-3945 3961 0
-56 -3945 3946 0
-3946 3962 0
-57 -3946 3947 0
-3947 3963 0
-58 -3947 3948 0
-3948 3964 0
-59 -3948 3949 0
-3949 3965 0
-60 -3949 3950 0
-3950 3966 0
-61 -3950 3951 0
-3951 3967 0
-62 -3951 3952 0
-3952 3968 0
-63 -3952 0
-48 3953 0
-3953 3969 0
-49 -3953 3954 0
-3954 3970 0
-50 -3954 3955 0
-3955 3971 0
-51 -3955 3956 0
-3956 3972 0
-52 -3956 3957 0
-3957 3973 0
-53 -3957 3958 0
-3958 3974 0
-54 -3958 3959 0
-3959 3975 0
-55 -3959 3960 0
-3960 3976 0
-56 -3960 3961 0
-3961 3977 0
-57 -3961 3962 0
-3962 3978 0
-58 -3962 3963 0
-3963 3979 0
-59 -3963 3964 0
-3964 3980 0
-60 -3964 3965 0
-3965 3981 0
-61 -3965 3966 0
-3966 3982 0
-62 -3966 3967 0
-3967 3983 0
-63 -3967 3968 0
-3968 3984 0
-64 -3968 0
-49 3969 0
-3969 3985 0
-50 -3969 3970 0
-3970 3986 0
-51 -3970 3971 0
-3971 3987 0
-52 -3971 3972 0
-3972 3988 0
-53 -3972 3973 0
-3973 3989 0
-54 -3973 3974 0
-3974 3990 0
-55 -3974 3975 0
-3975 3991 0
-56 -3975 3976 0
-3976 3992 0
-57 -3976 3977 0
-3977 3993 0
-58 -3977 3978 0
-3978 3994 0
-59 -3978 3979 0
-3979 3995 0
-60 -3979 3980 0
-3980 3996 0
-61 -3980 3981 0
-3981 3997 0
-62 -3981 3982 0
-3982 3998 0
-63 -3982 3983 0
-3983 3999 0
-64 -3983 3984 0
-3984 4000 0
-65 -3984 0
-50 3985 0
-3985 4001 0
-51 -3985 3986 0
-3986 4002 0
-52 -3986 3987 0
-3987 4003 0
-53 -3987 3988 0
-3988 4004 0
-54 -3988 3989 0
-3989 4005 0
-55 -3989 3990 0
-3990 4006 0
-56 -3990 3991 0
-3991 4007 0
-57 -3991 3992 0
-3992 4008 0
-58 -3992 3993 0
-3993 4009 0
-59 -3993 3994 0
-3994 4010 0
-60 -3994 3995 0
-3995 4011 0
-61 -3995 3996 0
-3996 4012 0
-62 -3996 3997 0
-3997 4013 0
-63 -3997 3998 0
-3998 4014 0
-64 -3998 3999 0
-3999 4015 0
-65 -3999 4000 0
-4000 4016 0
-66 -4000 0
-51 4001 0
-4001 4017 0
-52 -4001 4002 0
-4002 4018 0
-53 -4002 4003 0
-4003 4019 0
-54 -4003 4004 0
-4004 4020 0
-55 -4004 4005 0
-4005 4021 0
-56 -4005 4006 0
-4006 4022 0
-57 -4006 4007 0
-4007 4023 0
-58 -4007 4008 0
-4008 4024 0
-59 -4008 4009 0
-4009 4025 0
-60 -4009 4010 0
-4010 4026 0
-61 -4010 4011 0
-4011 4027 0
-62 -4011 4012 0
-4012 4028 0
-63 -4012 4013 0
-4013 4029 0
-64 -4013 4014 0
-4014 4030 0
-65 -4014 4015 0
-4015 4031 0
-66 -4015 4016 0
-4016 4032 0
-67 -4016 0
-52 4017 0
-4017 4033 0
-53 -4017 4018 0
-4018 4034 0
-54 -4018 4019 0
-4019 4035 0
-55 -4019 4020 0
-4020 4036 0
-56 -4020 4021 0
-4021 4037 0
-57 -4021 4022 0
-4022 4038 0
-58 -4022 4023 0
-4023 4039 0
-59 -4023 4024 0
-4024 4040 0
-60 -4024 4025 0
-4025 4041 0
-61 -4025 4026 0
-4026 4042 0
-62 -4026 4027 0
-4027 4043 0
-63 -4027 4028 0
-4028 4044 0
-64 -4028 4029 0
-4029 4045 0
-65 -4029 4030 0
-4030 4046 0
-66 -4030 4031 0
-4031 4047 0
-67 -4031 4032 0
-4032 4048 0
-68 -4032 0
-53 4033 0
-4033 4049 0
-54 -4033 4034 0
-4034 4050 0
-55 -4034 4035 0
-4035 4051 0
-56 -4035 4036 0
-4036 4052 0
-57 -4036 4037 0
-4037 4053 0
-58 -4037 4038 0
-4038 4054 0
-59 -4038 4039 0
-4039 4055 0
-60 -4039 4040 0
-4040 4056 0
-61 -4040 4041 0
-4041 4057 0
-62 -4041 4042 0
-4042 4058 0
-63 -4042 4043 0
-4043 4059 0
-64 -4043 4044 0
-4044 4060 0
-65 -4044 4045 0
-4045 4061 0
-66 -4045 4046 0
-4046 4062 0
-67 -4046 4047 0
-4047 4063 0
-68 -4047 4048 0
-4048 4064 0
-69 -4048 0
-54 4049 0
-4049 4065 0
-55 -4049 4050 0
-4050 4066 0
-56 -4050 4051 0
-4051 4067 0
-57 -4051 4052 0
-4052 4068 0
-58 -4052 4053 0
-4053 4069 0
-59 -4053 4054 0
-4054 4070 0
-60 -4054 4055 0
-4055 4071 0
-61 -4055 4056 0
-4056 4072 0
-62 -4056 4057 0
-4057 4073 0
-63 -4057 4058 0
-4058 4074 0
-64 -4058 4059 0
-4059 4075 0
-65 -4059 4060 0
-4060 4076 0
-66 -4060 4061 0
-4061 4077 0
-67 -4061 4062 0
-4062 4078 0
-68 -4062 4063 0
-4063 4079 0
-69 -4063 4064 0
-4064 4080 0
-70 -4064 0
-55 4065 0
-4065 4081 0
-56 -4065 4066 0
-4066 4082 0
-57 -4066 4067 0
-4067 4083 0
-58 -4067 4068 0
-4068 4084 0
-59 -4068 4069 0
-4069 4085 0
-60 -4069 4070 0
-4070 4086 0
-61 -4070 4071 0
-4071 4087 0
-62 -4071 4072 0
-4072 4088 0
-63 -4072 4073 0
-4073 4089 0
-64 -4073 4074 0
-4074 4090 0
-65 -4074 4075 0
-4075 4091 0
-66 -4075 4076 0
-4076 4092 0
-67 -4076 4077 0
-4077 4093 0
-68 -4077 4078 0
-4078 4094 0
-69 -4078 4079 0
-4079 4095 0
-70 -4079 4080 0
-4080 4096 0
-71 -4080 0
-56 4081 0
-4081 4097 0
-57 -4081 4082 0
-4082 4098 0
-58 -4082 4083 0
-4083 4099 0
-59 -4083 4084 0
-4084 4100 0
-60 -4084 4085 0
-4085 4101 0
-61 -4085 4086 0
-4086 4102 0
-62 -4086 4087 0
-4087 4103 0
-63 -4087 4088 0
-4088 4104 0
-64 -4088 4089 0
-4089 4105 0
-65 -4089 4090 0
-4090 4106 0
-66 -4090 4091 0
-4091 4107 0
-67 -4091 4092 0
-4092 4108 0
-68 -4092 4093 0
-4093 4109 0
-69 -4093 4094 0
-4094 4110 0
-70 -4094 4095 0
-4095 4111 0
-71 -4095 4096 0
-4096 4112 0
-72 -4096 0
-57 4097 0
-4097 4113 0
-58 -4097 4098 0
-4098 4114 0
-59 -4098 4099 0
-4099 4115 0
-60 -4099 4100 0
-4100 4116 0
-61 -4100 4101 0
-4101 4117 0
-62 -4101 4102 0
-4102 4118 0
-63 -4102 4103 0
-4103 4119 0
-64 -4103 4104 0
-4104 4120 0
-65 -4104 4105 0
-4105 4121 0
-66 -4105 4106 0
-4106 4122 0
-67 -4106 4107 0
-4107 4123 0
-68 -4107 4108 0
-4108 4124 0
-69 -4108 4109 0
-4109 4125 0
-70 -4109 4110 0
-4110 4126 0
-71 -4110 4111 0
-4111 4127 0
-72 -4111 4112 0
-4112 4128 0
-73 -4112 0
-58 4113 0
-4113 4129 0
-59 -4113 4114 0
-4114 4130 0
-60 -4114 4115 0
-4115 4131 0
-61 -4115 4116 0
-4116 4132 0
-62 -4116 4117 0
-4117 4133 0
-63 -4117 4118 0
-4118 4134 0
-64 -4118 4119 0
-4119 4135 0
-65 -4119 4120 0
-4120 4136 0
-66 -4120 4121 0
-4121 4137 0
-67 -4121 4122 0
-4122 4138 0
-68 -4122 4123 0
-4123 4139 0
-69 -4123 4124 0
-4124 4140 0
-70 -4124 4125 0
-4125 4141 0
-71 -4125 4126 0
-4126 4142 0
-72 -4126 4127 0
-4127 4143 0
-73 -4127 4128 0
-4128 4144 0
-74 -4128 0
-59 4129 0
-4129 4145 0
-60 -4129 4130 0
-4130 4146 0
-61 -4130 4131 0
-4131 4147 0
-62 -4131 4132 0
-4132 4148 0
-63 -4132 4133 0
-4133 4149 0
-64 -4133 4134 0
-4134 4150 0
-65 -4134 4135 0
-4135 4151 0
-66 -4135 4136 0
-4136 4152 0
-67 -4136 4137 0
-4137 4153 0
-68 -4137 4138 0
-4138 4154 0
-69 -4138 4139 0
-4139 4155 0
-70 -4139 4140 0
-4140 4156 0
-71 -4140 4141 0
-4141 4157 0
-72 -4141 4142 0
-4142 4158 0
-73 -4142 4143 0
-4143 4159 0
-74 -4143 4144 0
-4144 4160 0
-75 -4144 0
-60 4145 0
-4145 4161 0
-61 -4145 4146 0
-4146 4162 0
-62 -4146 4147 0
-4147 4163 0
-63 -4147 4148 0
-4148 4164 0
-64 -4148 4149 0
-4149 4165 0
-65 -4149 4150 0
-4150 4166 0
-66 -4150 4151 0
-4151 4167 0
-67 -4151 4152 0
-4152 4168 0
-68 -4152 4153 0
-4153 4169 0
-69 -4153 4154 0
-4154 4170 0
-70 -4154 4155 0
-4155 4171 0
-71 -4155 4156 0
-4156 4172 0
-72 -4156 4157 0
-4157 4173 0
-73 -4157 4158 0
-4158 4174 0
-74 -4158 4159 0
-4159 4175 0
-75 -4159 4160 0
-4160 4176 0
-76 -4160 0
-61 4161 0
-4161 4177 0
-62 -4161 4162 0
-4162 4178 0
-63 -4162 4163 0
-4163 4179 0
-64 -4163 4164 0
-4164 4180 0
-65 -4164 4165 0
-4165 4181 0
-66 -4165 4166 0
-4166 4182 0
-67 -4166 4167 0
-4167 4183 0
-68 -4167 4168 0
-4168 4184 0
-69 -4168 4169 0
-4169 4185 0
-70 -4169 4170 0
-4170 4186 0
-71 -4170 4171 0
-4171 4187 0
-72 -4171 4172 0
-4172 4188 0
-73 -4172 4173 0
-4173 4189 0
-74 -4173 4174 0
-4174 4190 0
-75 -4174 4175 0
-4175 4191 0
-76 -4175 4176 0
-4176 4192 0
-77 -4176 0
-62 4177 0
-4177 4193 0
-63 -4177 4178 0
-4178 4194 0
-64 -4178 4179 0
-4179 4195 0
-65 -4179 4180 0
-4180 4196 0
-66 -4180 4181 0
-4181 4197 0
-67 -4181 4182 0
-4182 4198 0
-68 -4182 4183 0
-4183 4199 0
-69 -4183 4184 0
-4184 4200 0
-70 -4184 4185 0
-4185 4201 0
-71 -4185 4186 0
-4186 4202 0
-72 -4186 4187 0
-4187 4203 0
-73 -4187 4188 0
-4188 4204 0
-74 -4188 4189 0
-4189 4205 0
-75 -4189 4190 0
-4190 4206 0
-76 -4190 4191 0
-4191 4207 0
-77 -4191 4192 0
-4192 4208 0
-78 -4192 0
-63 4193 0
-4193 4209 0
-64 -4193 4194 0
-4194 4210 0
-65 -4194 4195 0
-4195 4211 0
-66 -4195 4196 0
-4196 4212 0
-67 -4196 4197 0
-4197 4213 0
-68 -4197 4198 0
-4198 4214 0
-69 -4198 4199 0
-4199 4215 0
-70 -4199 4200 0
-4200 4216 0
-71 -4200 4201 0
-4201 4217 0
-72 -4201 4202 0
-4202 4218 0
-73 -4202 4203 0
-4203 4219 0
-74 -4203 4204 0
-4204 4220 0
-75 -4204 4205 0
-4205 4221 0
-76 -4205 4206 0
-4206 4222 0
-77 -4206 4207 0
-4207 4223 0
-78 -4207 4208 0
-4208 4224 0
-79 -4208 0
-64 4209 0
-4209 4225 0
-65 -4209 4210 0
-4210 4226 0
-66 -4210 4211 0
-4211 4227 0
-67 -4211 4212 0
-4212 4228 0
-68 -4212 4213 0
-4213 4229 0
-69 -4213 4214 0
-4214 4230 0
-70 -4214 4215 0
-4215 4231 0
-71 -4215 4216 0
-4216 4232 0
-72 -4216 4217 0
-4217 4233 0
-73 -4217 4218 0
-4218 4234 0
-74 -4218 4219 0
-4219 4235 0
-75 -4219 4220 0
-4220 4236 0
-76 -4220 4221 0
-4221 4237 0
-77 -4221 4222 0
-4222 4238 0
-78 -4222 4223 0
-4223 4239 0
-79 -4223 4224 0
-4224 4240 0
-80 -4224 0
-65 4225 0
-4225 4241 0
-66 -4225 4226 0
-4226 4242 0
-67 -4226 4227 0
-4227 4243 0
-68 -4227 4228 0
-4228 4244 0
-69 -4228 4229 0
-4229 4245 0
-70 -4229 4230 0
-4230 4246 0
-71 -4230 4231 0
-4231 4247 0
-72 -4231 4232 0
-4232 4248 0
-73 -4232 4233 0
-4233 4249 0
-74 -4233 4234 0
-4234 4250 0
-75 -4234 4235 0
-4235 4251 0
-76 -4235 4236 0
-4236 4252 0
-77 -4236 4237 0
-4237 4253 0
-78 -4237 4238 0
-4238 4254 0
-79 -4238 4239 0
-4239 4255 0
-80 -4239 4240 0
-4240 4256 0
-81 -4240 0
-66 4241 0
-4241 4257 0
-67 -4241 4242 0
-4242 4258 0
-68 -4242 4243 0
-4243 4259 0
-69 -4243 4244 0
-4244 4260 0
-70 -4244 4245 0
-4245 4261 0
-71 -4245 4246 0
-4246 4262 0
-72 -4246 4247 0
-4247 4263 0
-73 -4247 4248 0
-4248 4264 0
-74 -4248 4249 0
-4249 4265 0
-75 -4249 4250 0
-4250 4266 0
-76 -4250 4251 0
-4251 4267 0
-77 -4251 4252 0
-4252 4268 0
-78 -4252 4253 0
-4253 4269 0
-79 -4253 4254 0
-4254 4270 0
-80 -4254 4255 0
-4255 4271 0
-81 -4255 4256 0
-4256 4272 0
-82 -4256 0
-67 4257 0
-4257 4273 0
-68 -4257 4258 0
-4258 4274 0
-69 -4258 4259 0
-4259 4275 0
-70 -4259 4260 0
-4260 4276 0
-71 -4260 4261 0
-4261 4277 0
-72 -4261 4262 0
-4262 4278 0
-73 -4262 4263 0
-4263 4279 0
-74 -4263 4264 0
-4264 4280 0
-75 -4264 4265 0
-4265 4281 0
-76 -4265 4266 0
-4266 4282 0
-77 -4266 4267 0
-4267 4283 0
-78 -4267 4268 0
-4268 4284 0
-79 -4268 4269 0
-4269 4285 0
-80 -4269 4270 0
-4270 4286 0
-81 -4270 4271 0
-4271 4287 0
-82 -4271 4272 0
-4272 4288 0
-83 -4272 0
-68 4273 0
-4273 4289 0
-69 -4273 4274 0
-4274 4290 0
-70 -4274 4275 0
-4275 4291 0
-71 -4275 4276 0
-4276 4292 0
-72 -4276 4277 0
-4277 4293 0
-73 -4277 4278 0
-4278 4294 0
-74 -4278 4279 0
-4279 4295 0
-75 -4279 4280 0
-4280 4296 0
-76 -4280 4281 0
-4281 4297 0
-77 -4281 4282 0
-4282 4298 0
-78 -4282 4283 0
-4283 4299 0
-79 -4283 4284 0
-4284 4300 0
-80 -4284 4285 0
-4285 4301 0
-81 -4285 4286 0
-4286 4302 0
-82 -4286 4287 0
-4287 4303 0
-83 -4287 4288 0
-4288 4304 0
-84 -4288 0
-69 4289 0
-4289 4305 0
-70 -4289 4290 0
-4290 4306 0
-71 -4290 4291 0
-4291 4307 0
-72 -4291 4292 0
-4292 4308 0
-73 -4292 4293 0
-4293 4309 0
-74 -4293 4294 0
-4294 4310 0
-75 -4294 4295 0
-4295 4311 0
-76 -4295 4296 0
-4296 4312 0
-77 -4296 4297 0
-4297 4313 0
-78 -4297 4298 0
-4298 4314 0
-79 -4298 4299 0
-4299 4315 0
-80 -4299 4300 0
-4300 4316 0
-81 -4300 4301 0
-4301 4317 0
-82 -4301 4302 0
-4302 4318 0
-83 -4302 4303 0
-4303 4319 0
-84 -4303 4304 0
-4304 4320 0
-85 -4304 0
-70 4305 0
-4305 4321 0
-71 -4305 4306 0
-4306 4322 0
-72 -4306 4307 0
-4307 4323 0
-73 -4307 4308 0
-4308 4324 0
-74 -4308 4309 0
-4309 4325 0
-75 -4309 4310 0
-4310 4326 0
-76 -4310 4311 0
-4311 4327 0
-77 -4311 4312 0
-4312 4328 0
-78 -4312 4313 0
-4313 4329 0
-79 -4313 4314 0
-4314 4330 0
-80 -4314 4315 0
-4315 4331 0
-81 -4315 4316 0
-4316 4332 0
-82 -4316 4317 0
-4317 4333 0
-83 -4317 4318 0
-4318 4334 0
-84 -4318 4319 0
-4319 4335 0
-85 -4319 4320 0
-4320 4336 0
-86 -4320 0
-71 4321 0
-4321 4337 0
-72 -4321 4322 0
-4322 4338 0
-73 -4322 4323 0
-4323 4339 0
-74 -4323 4324 0
-4324 4340 0
-75 -4324 4325 0
-4325 4341 0
-76 -4325 4326 0
-4326 4342 0
-77 -4326 4327 0
-4327 4343 0
-78 -4327 4328 0
-4328 4344 0
-79 -4328 4329 0
-4329 4345 0
-80 -4329 4330 0
-4330 4346 0
-81 -4330 4331 0
-4331 4347 0
-82 -4331 4332 0
-4332 4348 0
-83 -4332 4333 0
-4333 4349 0
-84 -4333 4334 0
-4334 4350 0
-85 -4334 4335 0
-4335 4351 0
-86 -4335 4336 0
-4336 4352 0
-87 -4336 0
-72 4337 0
-4337 4353 0
-73 -4337 4338 0
-4338 4354 0
-74 -4338 4339 0
-4339 4355 0
-75 -4339 4340 0
-4340 4356 0
-76 -4340 4341 0
-4341 4357 0
-77 -4341 4342 0
-4342 4358 0
-78 -4342 4343 0
-4343 4359 0
-79 -4343 4344 0
-4344 4360 0
-80 -4344 4345 0
-4345 4361 0
-81 -4345 4346 0
-4346 4362 0
-82 -4346 4347 0
-4347 4363 0
-83 -4347 4348 0
-4348 4364 0
-84 -4348 4349 0
-4349 4365 0
-85 -4349 4350 0
-4350 4366 0
-86 -4350 4351 0
-4351 4367 0
-87 -4351 4352 0
-4352 4368 0
-88 -4352 0
-73 4353 0
-4353 4369 0
-74 -4353 4354 0
-4354 4370 0
-75 -4354 4355 0
-4355 4371 0
-76 -4355 4356 0
-4356 4372 0
-77 -4356 4357 0
-4357 4373 0
-78 -4357 4358 0
-4358 4374 0
-79 -4358 4359 0
-4359 4375 0
-80 -4359 4360 0
-4360 4376 0
-81 -4360 4361 0
-4361 4377 0
-82 -4361 4362 0
-4362 4378 0
-83 -4362 4363 0
-4363 4379 0
-84 -4363 4364 0
-4364 4380 0
-85 -4364 4365 0
-4365 4381 0
-86 -4365 4366 0
-4366 4382 0
-87 -4366 4367 0
-4367 4383 0
-88 -4367 4368 0
-4368 4384 0
-89 -4368 0
-74 4369 0
-4369 4385 0
-75 -4369 4370 0
-4370 4386 0
-76 -4370 4371 0
-4371 4387 0
-77 -4371 4372 0
-4372 4388 0
-78 -4372 4373 0
-4373 4389 0
-79 -4373 4374 0
-4374 4390 0
-80 -4374 4375 0
-4375 4391 0
-81 -4375 4376 0
-4376 4392 0
-82 -4376 4377 0
-4377 4393 0
-83 -4377 4378 0
-4378 4394 0
-84 -4378 4379 0
-4379 4395 0
-85 -4379 4380 0
-4380 4396 0
-86 -4380 4381 0
-4381 4397 0
-87 -4381 4382 0
-4382 4398 0
-88 -4382 4383 0
-4383 4399 0
-89 -4383 4384 0
-4384 4400 0
-90 -4384 0
-75 4385 0
-4385 4401 0
-76 -4385 4386 0
-4386 4402 0
-77 -4386 4387 0
-4387 4403 0
-78 -4387 4388 0
-4388 4404 0
-79 -4388 4389 0
-4389 4405 0
-80 -4389 4390 0
-4390 4406 0
-81 -4390 4391 0
-4391 4407 0
-82 -4391 4392 0
-4392 4408 0
-83 -4392 4393 0
-4393 4409 0
-84 -4393 4394 0
-4394 4410 0
-85 -4394 4395 0
-4395 4411 0
-86 -4395 4396 0
-4396 4412 0
-87 -4396 4397 0
-4397 4413 0
-88 -4397 4398 0
-4398 4414 0
-89 -4398 4399 0
-4399 4415 0
-90 -4399 4400 0
-4400 4416 0
-91 -4400 0
-76 4401 0
-4401 4417 0
-77 -4401 4402 0
-4402 4418 0
-78 -4402 4403 0
-4403 4419 0
-79 -4403 4404 0
-4404 4420 0
-80 -4404 4405 0
-4405 4421 0
-81 -4405 4406 0
-4406 4422 0
-82 -4406 4407 0
-4407 4423 0
-83 -4407 4408 0
-4408 4424 0
-84 -4408 4409 0
-4409 4425 0
-85 -4409 4410 0
-4410 4426 0
-86 -4410 4411 0
-4411 4427 0
-87 -4411 4412 0
-4412 4428 0
-88 -4412 4413 0
-4413 4429 0
-89 -4413 4414 0
-4414 4430 0
-90 -4414 4415 0
-4415 4431 0
-91 -4415 4416 0
-4416 4432 0
-92 -4416 0
-77 4417 0
-4417 4433 0
-78 -4417 4418 0
-4418 4434 0
-79 -4418 4419 0
-4419 4435 0
-80 -4419 4420 0
-4420 4436 0
-81 -4420 4421 0
-4421 4437 0
-82 -4421 4422 0
-4422 4438 0
-83 -4422 4423 0
-4423 4439 0
-84 -4423 4424 0
-4424 4440 0
-85 -4424 4425 0
-4425 4441 0
-86 -4425 4426 0
-4426 4442 0
-87 -4426 4427 0
-4427 4443 0
-88 -4427 4428 0
-4428 4444 0
-89 -4428 4429 0
-4429 4445 0
-90 -4429 4430 0
-4430 4446 0
-91 -4430 4431 0
-4431 4447 0
-92 -4431 4432 0
-4432 4448 0
-93 -4432 0
-78 4433 0
-4433 4449 0
-79 -4433 4434 0
-4434 4450 0
-80 -4434 4435 0
-4435 4451 0
-81 -4435 4436 0
-4436 4452 0
-82 -4436 4437 0
-4437 4453 0
-83 -4437 4438 0
-4438 4454 0
-84 -4438 4439 0
-4439 4455 0
-85 -4439 4440 0
-4440 4456 0
-86 -4440 4441 0
-4441 4457 0
-87 -4441 4442 0
-4442 4458 0
-88 -4442 4443 0
-4443 4459 0
-89 -4443 4444 0
-4444 4460 0
-90 -4444 4445 0
-4445 4461 0
-91 -4445 4446 0
-4446 4462 0
-92 -4446 4447 0
-4447 4463 0
-93 -4447 4448 0
-4448 4464 0
-94 -4448 0
-79 4449 0
-4449 4465 0
-80 -4449 4450 0
-4450 4466 0
-81 -4450 4451 0
-4451 4467 0
-82 -4451 4452 0
-4452 4468 0
-83 -4452 4453 0
-4453 4469 0
-84 -4453 4454 0
-4454 4470 0
-85 -4454 4455 0
-4455 4471 0
-86 -4455 4456 0
-4456 4472 0
-87 -4456 4457 0
-4457 4473 0
-88 -4457 4458 0
-4458 4474 0
-89 -4458 4459 0
-4459 4475 0
-90 -4459 4460 0
-4460 4476 0
-91 -4460 4461 0
-4461 4477 0
-92 -4461 4462 0
-4462 4478 0
-93 -4462 4463 0
-4463 4479 0
-94 -4463 4464 0
-4464 4480 0
-95 -4464 0
-80 4465 0
-4465 4481 0
-81 -4465 4466 0
-4466 4482 0
-82 -4466 4467 0
-4467 4483 0
-83 -4467 4468 0
-4468 4484 0
-84 -4468 4469 0
-4469 4485 0
-85 -4469 4470 0
-4470 4486 0
-86 -4470 4471 0
-4471 4487 0
-87 -4471 4472 0
-4472 4488 0
-88 -4472 4473 0
-4473 4489 0
-89 -4473 4474 0
-4474 4490 0
-90 -4474 4475 0
-4475 4491 0
-91 -4475 4476 0
-4476 4492 0
-92 -4476 4477 0
-4477 4493 0
-93 -4477 4478 0
-4478 4494 0
-94 -4478 4479 0
-4479 4495 0
-95 -4479 4480 0
-4480 4496 0
-96 -4480 0
-81 4481 0
-4481 4497 0
-82 -4481 4482 0
-4482 4498 0
-83 -4482 4483 0
-4483 4499 0
-84 -4483 4484 0
-4484 4500 0
-85 -4484 4485 0
-4485 4501 0
-86 -4485 4486 0
-4486 4502 0
-87 -4486 4487 0
-4487 4503 0
-88 -4487 4488 0
-4488 4504 0
-89 -4488 4489 0
-4489 4505 0
-90 -4489 4490 0
-4490 4506 0
-91 -4490 4491 0
-4491 4507 0
-92 -4491 4492 0
-4492 4508 0
-93 -4492 4493 0
-4493 4509 0
-94 -4493 4494 0
-4494 4510 0
-95 -4494 4495 0
-4495 4511 0
-96 -4495 4496 0
-4496 4512 0
-97 -4496 0
-82 4497 0
-4497 4513 0
-83 -4497 4498 0
-4498 4514 0
-84 -4498 4499 0
-4499 4515 0
-85 -4499 4500 0
-4500 4516 0
-86 -4500 4501 0
-4501 4517 0
-87 -4501 4502 0
-4502 4518 0
-88 -4502 4503 0
-4503 4519 0
-89 -4503 4504 0
-4504 4520 0
-90 -4504 4505 0
-4505 4521 0
-91 -4505 4506 0
-4506 4522 0
-92 -4506 4507 0
-4507 4523 0
-93 -4507 4508 0
-4508 4524 0
-94 -4508 4509 0
-4509 4525 0
-95 -4509 4510 0
-4510 4526 0
-96 -4510 4511 0
-4511 4527 0
-97 -4511 4512 0
-4512 4528 0
-98 -4512 0
-83 4513 0
-4513 4529 0
-84 -4513 4514 0
-4514 4530 0
-85 -4514 4515 0
-4515 4531 0
-86 -4515 4516 0
-4516 4532 0
-87 -4516 4517 0
-4517 4533 0
-88 -4517 4518 0
-4518 4534 0
-89 -4518 4519 0
-4519 4535 0
-90 -4519 4520 0
-4520 4536 0
-91 -4520 4521 0
-4521 4537 0
-92 -4521 4522 0
-4522 4538 0
-93 -4522 4523 0
-4523 4539 0
-94 -4523 4524 0
-4524 4540 0
-95 -4524 4525 0
-4525 4541 0
-96 -4525 4526 0
-4526 4542 0
-97 -4526 4527 0
-4527 4543 0
-98 -4527 4528 0
-4528 4544 0
-99 -4528 0
-84 4529 0
-4529 4545 0
-85 -4529 4530 0
-4530 4546 0
-86 -4530 4531 0
-4531 4547 0
-87 -4531 4532 0
-4532 4548 0
-88 -4532 4533 0
-4533 4549 0
-89 -4533 4534 0
-4534 4550 0
-90 -4534 4535 0
-4535 4551 0
-91 -4535 4536 0
-4536 4552 0
-92 -4536 4537 0
-4537 4553 0
-93 -4537 4538 0
-4538 4554 0
-94 -4538 4539 0
-4539 4555 0
-95 -4539 4540 0
-4540 4556 0
-96 -4540 4541 0
-4541 4557 0
-97 -4541 4542 0
-4542 4558 0
-98 -4542 4543 0
-4543 4559 0
-99 -4543 4544 0
-4544 4560 0
-100 -4544 0
-85 4545 0
-4545 4561 0
-86 -4545 4546 0
-4546 4562 0
-87 -4546 4547 0
-4547 4563 0
-88 -4547 4548 0
-4548 4564 0
-89 -4548 4549 0
-4549 4565 0
-90 -4549 4550 0
-4550 4566 0
-91 -4550 4551 0
-4551 4567 0
-92 -4551 4552 0
-4552 4568 0
-93 -4552 4553 0
-4553 4569 0
-94 -4553 4554 0
-4554 4570 0
-95 -4554 4555 0
-4555 4571 0
-96 -4555 4556 0
-4556 4572 0
-97 -4556 4557 0
-4557 4573 0
-98 -4557 4558 0
-4558 4574 0
-99 -4558 4559 0
-4559 4575 0
-100 -4559 4560 0
-4560 4576 0
-101 -4560 0
-86 4561 0
-4561 4577 0
-87 -4561 4562 0
-4562 4578 0
-88 -4562 4563 0
-4563 4579 0
-89 -4563 4564 0
-4564 4580 0
-90 -4564 4565 0
-4565 4581 0
-91 -4565 4566 0
-4566 4582 0
-92 -4566 4567 0
-4567 4583 0
-93 -4567 4568 0
-4568 4584 0
-94 -4568 4569 0
-4569 4585 0
-95 -4569 4570 0
-4570 4586 0
-96 -4570 4571 0
-4571 4587 0
-97 -4571 4572 0
-4572 4588 0
-98 -4572 4573 0
-4573 4589 0
-99 -4573 4574 0
-4574 4590 0
-100 -4574 4575 0
-4575 4591 0
-101 -4575 4576 0
-4576 4592 0
-102 -4576 0
-87 4577 0
-4577 4593 0
-88 -4577 4578 0
-4578 4594 0
-89 -4578 4579 0
-4579 4595 0
-90 -4579 4580 0
-4580 4596 0
-91 -4580 4581 0
-4581 4597 0
-92 -4581 4582 0
-4582 4598 0
-93 -4582 4583 0
-4583 4599 0
-94 -4583 4584 0
-4584 4600 0
-95 -4584 4585 0
-4585 4601 0
-96 -4585 4586 0
-4586 4602 0
-97 -4586 4587 0
-4587 4603 0
-98 -4587 4588 0
-4588 4604 0
-99 -4588 4589 0
-4589 4605 0
-100 -4589 4590 0
-4590 4606 0
-101 -4590 4591 0
-4591 4607 0
-102 -4591 4592 0
-4592 4608 0
-103 -4592 0
-88 4593 0
-4593 4609 0
-89 -4593 4594 0
-4594 4610 0
-90 -4594 4595 0
-4595 4611 0
-91 -4595 4596 0
-4596 4612 0
-92 -4596 4597 0
-4597 4613 0
-93 -4597 4598 0
-4598 4614 0
-94 -4598 4599 0
-4599 4615 0
-95 -4599 4600 0
-4600 4616 0
-96 -4600 4601 0
-4601 4617 0
-97 -4601 4602 0
-4602 4618 0
-98 -4602 4603 0
-4603 4619 0
-99 -4603 4604 0
-4604 4620 0
-100 -4604 4605 0
-4605 4621 0
-101 -4605 4606 0
-4606 4622 0
-102 -4606 4607 0
-4607 4623 0
-103 -4607 4608 0
-4608 4624 0
-104 -4608 0
-89 4609 0
-4609 4625 0
-90 -4609 4610 0
-4610 4626 0
-91 -4610 4611 0
-4611 4627 0
-92 -4611 4612 0
-4612 4628 0
-93 -4612 4613 0
-4613 4629 0
-94 -4613 4614 0
-4614 4630 0
-95 -4614 4615 0
-4615 4631 0
-96 -4615 4616 0
-4616 4632 0
-97 -4616 4617 0
-4617 4633 0
-98 -4617 4618 0
-4618 4634 0
-99 -4618 4619 0
-4619 4635 0
-100 -4619 4620 0
-4620 4636 0
-101 -4620 4621 0
-4621 4637 0
-102 -4621 4622 0
-4622 4638 0
-103 -4622 4623 0
-4623 4639 0
-104 -4623 4624 0
-4624 4640 0
-105 -4624 0
-90 4625 0
-4625 4641 0
-91 -4625 4626 0
-4626 4642 0
-92 -4626 4627 0
-4627 4643 0
-93 -4627 4628 0
-4628 4644 0
-94 -4628 4629 0
-4629 4645 0
-95 -4629 4630 0
-4630 4646 0
-96 -4630 4631 0
-4631 4647 0
-97 -4631 4632 0
-4632 4648 0
-98 -4632 4633 0
-4633 4649 0
-99 -4633 4634 0
-4634 4650 0
-100 -4634 4635 0
-4635 4651 0
-101 -4635 4636 0
-4636 4652 0
-102 -4636 4637 0
-4637 4653 0
-103 -4637 4638 0
-4638 4654 0
-104 -4638 4639 0
-4639 4655 0
-105 -4639 4640 0
-4640 4656 0
-106 -4640 0
-91 4641 0
-4641 4657 0
-92 -4641 4642 0
-4642 4658 0
-93 -4642 4643 0
-4643 4659 0
-94 -4643 4644 0
-4644 4660 0
-95 -4644 4645 0
-4645 4661 0
-96 -4645 4646 0
-4646 4662 0
-97 -4646 4647 0
-4647 4663 0
-98 -4647 4648 0
-4648 4664 0
-99 -4648 4649 0
-4649 4665 0
-100 -4649 4650 0
-4650 4666 0
-101 -4650 4651 0
-4651 4667 0
-102 -4651 4652 0
-4652 4668 0
-103 -4652 4653 0
-4653 4669 0
-104 -4653 4654 0
-4654 4670 0
-105 -4654 4655 0
-4655 4671 0
-106 -4655 4656 0
-4656 4672 0
-107 -4656 0
-92 4657 0
-4657 4673 0
-93 -4657 4658 0
-4658 4674 0
-94 -4658 4659 0
-4659 4675 0
-95 -4659 4660 0
-4660 4676 0
-96 -4660 4661 0
-4661 4677 0
-97 -4661 4662 0
-4662 4678 0
-98 -4662 4663 0
-4663 4679 0
-99 -4663 4664 0
-4664 4680 0
-100 -4664 4665 0
-4665 4681 0
-101 -4665 4666 0
-4666 4682 0
-102 -4666 4667 0
-4667 4683 0
-103 -4667 4668 0
-4668 4684 0
-104 -4668 4669 0
-4669 4685 0
-105 -4669 4670 0
-4670 4686 0
-106 -4670 4671 0
-4671 4687 0
-107 -4671 4672 0
-4672 4688 0
-108 -4672 0
-93 4673 0
-4673 4689 0
-94 -4673 4674 0
-4674 4690 0
-95 -4674 4675 0
-4675 4691 0
-96 -4675 4676 0
-4676 4692 0
-97 -4676 4677 0
-4677 4693 0
-98 -4677 4678 0
-4678 4694 0
-99 -4678 4679 0
-4679 4695 0
-100 -4679 4680 0
-4680 4696 0
-101 -4680 4681 0
-4681 4697 0
-102 -4681 4682 0
-4682 4698 0
-103 -4682 4683 0
-4683 4699 0
-104 -4683 4684 0
-4684 4700 0
-105 -4684 4685 0
-4685 4701 0
-106 -4685 4686 0
-4686 4702 0
-107 -4686 4687 0
-4687 4703 0
-108 -4687 4688 0
-4688 4704 0
-109 -4688 0
-94 4689 0
-4689 4705 0
-95 -4689 4690 0
-4690 4706 0
-96 -4690 4691 0
-4691 4707 0
-97 -4691 4692 0
-4692 4708 0
-98 -4692 4693 0
-4693 4709 0
-99 -4693 4694 0
-4694 4710 0
-100 -4694 4695 0
-4695 4711 0
-101 -4695 4696 0
-4696 4712 0
-102 -4696 4697 0
-4697 4713 0
-103 -4697 4698 0
-4698 4714 0
-104 -4698 4699 0
-4699 4715 0
-105 -4699 4700 0
-4700 4716 0
-106 -4700 4701 0
-4701 4717 0
-107 -4701 4702 0
-4702 4718 0
-108 -4702 4703 0
-4703 4719 0
-109 -4703 4704 0
-4704 4720 0
-110 -4704 0
-95 4705 0
-4705 4721 0
-96 -4705 4706 0
-4706 4722 0
-97 -4706 4707 0
-4707 4723 0
-98 -4707 4708 0
-4708 4724 0
-99 -4708 4709 0
-4709 4725 0
-100 -4709 4710 0
-4710 4726 0
-101 -4710 4711 0
-4711 4727 0
-102 -4711 4712 0
-4712 4728 0
-103 -4712 4713 0
-4713 4729 0
-104 -4713 4714 0
-4714 4730 0
-105 -4714 4715 0
-4715 4731 0
-106 -4715 4716 0
-4716 4732 0
-107 -4716 4717 0
-4717 4733 0
-108 -4717 4718 0
-4718 4734 0
-109 -4718 4719 0
-4719 4735 0
-110 -4719 4720 0
-4720 4736 0
-111 -4720 0
-96 4721 0
-4721 4737 0
-97 -4721 4722 0
-4722 4738 0
-98 -4722 4723 0
-4723 4739 0
-99 -4723 4724 0
-4724 4740 0
-100 -4724 4725 0
-4725 4741 0
-101 -4725 4726 0
-4726 4742 0
-102 -4726 4727 0
-4727 4743 0
-103 -4727 4728 0
-4728 4744 0
-104 -4728 4729 0
-4729 4745 0
-105 -4729 4730 0
-4730 4746 0
-106 -4730 4731 0
-4731 4747 0
-107 -4731 4732 0
-4732 4748 0
-108 -4732 4733 0
-4733 4749 0
-109 -4733 4734 0
-4734 4750 0
-110 -4734 4735 0
-4735 4751 0
-111 -4735 4736 0
-4736 4752 0
-112 -4736 0
-97 4737 0
-4737 4753 0
-98 -4737 4738 0
-4738 4754 0
-99 -4738 4739 0
-4739 4755 0
-100 -4739 4740 0
-4740 4756 0
-101 -4740 4741 0
-4741 4757 0
-102 -4741 4742 0
-4742 4758 0
-103 -4742 4743 0
-4743 4759 0
-104 -4743 4744 0
-4744 4760 0
-105 -4744 4745 0
-4745 4761 0
-106 -4745 4746 0
-4746 4762 0
-107 -4746 4747 0
-4747 4763 0
-108 -4747 4748 0
-4748 4764 0
-109 -4748 4749 0
-4749 4765 0
-110 -4749 4750 0
-4750 4766 0
-111 -4750 4751 0
-4751 4767 0
-112 -4751 4752 0
-4752 4768 0
-113 -4752 0
-98 4753 0
-4753 4769 0
-99 -4753 4754 0
-4754 4770 0
-100 -4754 4755 0
-4755 4771 0
-101 -4755 4756 0
-4756 4772 0
-102 -4756 4757 0
-4757 4773 0
-103 -4757 4758 0
-4758 4774 0
-104 -4758 4759 0
-4759 4775 0
-105 -4759 4760 0
-4760 4776 0
-106 -4760 4761 0
-4761 4777 0
-107 -4761 4762 0
-4762 4778 0
-108 -4762 4763 0
-4763 4779 0
-109 -4763 4764 0
-4764 4780 0
-110 -4764 4765 0
-4765 4781 0
-111 -4765 4766 0
-4766 4782 0
-112 -4766 4767 0
-4767 4783 0
-113 -4767 4768 0
-4768 4784 0
-114 -4768 0
-99 4769 0
-4769 4785 0
-100 -4769 4770 0
-4770 4786 0
-101 -4770 4771 0
-4771 4787 0
-102 -4771 4772 0
-4772 4788 0
-103 -4772 4773 0
-4773 4789 0
-104 -4773 4774 0
-4774 4790 0
-105 -4774 4775 0
-4775 4791 0
-106 -4775 4776 0
-4776 4792 0
-107 -4776 4777 0
-4777 4793 0
-108 -4777 4778 0
-4778 4794 0
-109 -4778 4779 0
-4779 4795 0
-110 -4779 4780 0
-4780 4796 0
-111 -4780 4781 0
-4781 4797 0
-112 -4781 4782 0
-4782 4798 0
-113 -4782 4783 0
-4783 4799 0
-114 -4783 4784 0
-4784 4800 0
-115 -4784 0
-100 4785 0
-4785 4801 0
-101 -4785 4786 0
-4786 4802 0
-102 -4786 4787 0
-4787 4803 0
-103 -4787 4788 0
-4788 4804 0
-104 -4788 4789 0
-4789 4805 0
-105 -4789 4790 0
-4790 4806 0
-106 -4790 4791 0
-4791 4807 0
-107 -4791 4792 0
-4792 4808 0
-108 -4792 4793 0
-4793 4809 0
-109 -4793 4794 0
-4794 4810 0
-110 -4794 4795 0
-4795 4811 0
-111 -4795 4796 0
-4796 4812 0
-112 -4796 4797 0
-4797 4813 0
-113 -4797 4798 0
-4798 4814 0
-114 -4798 4799 0
-4799 4815 0
-115 -4799 4800 0
-4800 4816 0
-116 -4800 0
-101 4801 0
-4801 4817 0
-102 -4801 4802 0
-4802 4818 0
-103 -4802 4803 0
-4803 4819 0
-104 -4803 4804 0
-4804 4820 0
-105 -4804 4805 0
-4805 4821 0
-106 -4805 4806 0
-4806 4822 0
-107 -4806 4807 0
-4807 4823 0
-108 -4807 4808 0
-4808 4824 0
-109 -4808 4809 0
-4809 4825 0
-110 -4809 4810 0
-4810 4826 0
-111 -4810 4811 0
-4811 4827 0
-112 -4811 4812 0
-4812 4828 0
-113 -4812 4813 0
-4813 4829 0
-114 -4813 4814 0
-4814 4830 0
-115 -4814 4815 0
-4815 4831 0
-116 -4815 4816 0
-4816 4832 0
-117 -4816 0
-102 4817 0
-4817 4833 0
-103 -4817 4818 0
-4818 4834 0
-104 -4818 4819 0
-4819 4835 0
-105 -4819 4820 0
-4820 4836 0
-106 -4820 4821 0
-4821 4837 0
-107 -4821 4822 0
-4822 4838 0
-108 -4822 4823 0
-4823 4839 0
-109 -4823 4824 0
-4824 4840 0
-110 -4824 4825 0
-4825 4841 0
-111 -4825 4826 0
-4826 4842 0
-112 -4826 4827 0
-4827 4843 0
-113 -4827 4828 0
-4828 4844 0
-114 -4828 4829 0
-4829 4845 0
-115 -4829 4830 0
-4830 4846 0
-116 -4830 4831 0
-4831 4847 0
-117 -4831 4832 0
-4832 4848 0
-118 -4832 0
-103 4833 0
-4833 4849 0
-104 -4833 4834 0
-4834 4850 0
-105 -4834 4835 0
-4835 4851 0
-106 -4835 4836 0
-4836 4852 0
-107 -4836 4837 0
-4837 4853 0
-108 -4837 4838 0
-4838 4854 0
-109 -4838 4839 0
-4839 4855 0
-110 -4839 4840 0
-4840 4856 0
-111 -4840 4841 0
-4841 4857 0
-112 -4841 4842 0
-4842 4858 0
-113 -4842 4843 0
-4843 4859 0
-114 -4843 4844 0
-4844 4860 0
-115 -4844 4845 0
-4845 4861 0
-116 -4845 4846 0
-4846 4862 0
-117 -4846 4847 0
-4847 4863 0
-118 -4847 4848 0
-4848 4864 0
-119 -4848 0
-104 4849 0
-4849 4865 0
-105 -4849 4850 0
-4850 4866 0
-106 -4850 4851 0
-4851 4867 0
-107 -4851 4852 0
-4852 4868 0
-108 -4852 4853 0
-4853 4869 0
-109 -4853 4854 0
-4854 4870 0
-110 -4854 4855 0
-4855 4871 0
-111 -4855 4856 0
-4856 4872 0
-112 -4856 4857 0
-4857 4873 0
-113 -4857 4858 0
-4858 4874 0
-114 -4858 4859 0
-4859 4875 0
-115 -4859 4860 0
-4860 4876 0
-116 -4860 4861 0
-4861 4877 0
-117 -4861 4862 0
-4862 4878 0
-118 -4862 4863 0
-4863 4879 0
-119 -4863 4864 0
-4864 4880 0
-120 -4864 0
-105 4865 0
-4865 4881 0
-106 -4865 4866 0
-4866 4882 0
-107 -4866 4867 0
-4867 4883 0
-108 -4867 4868 0
-4868 4884 0
-109 -4868 4869 0
-4869 4885 0
-110 -4869 4870 0
-4870 4886 0
-111 -4870 4871 0
-4871 4887 0
-112 -4871 4872 0
-4872 4888 0
-113 -4872 4873 0
-4873 4889 0
-114 -4873 4874 0
-4874 4890 0
-115 -4874 4875 0
-4875 4891 0
-116 -4875 4876 0
-4876 4892 0
-117 -4876 4877 0
-4877 4893 0
-118 -4877 4878 0
-4878 4894 0
-119 -4878 4879 0
-4879 4895 0
-120 -4879 4880 0
-4880 4896 0
-121 -4880 0
-106 4881 0
-4881 4897 0
-107 -4881 4882 0
-4882 4898 0
-108 -4882 4883 0
-4883 4899 0
-109 -4883 4884 0
-4884 4900 0
-110 -4884 4885 0
-4885 4901 0
-111 -4885 4886 0
-4886 4902 0
-112 -4886 4887 0
-4887 4903 0
-113 -4887 4888 0
-4888 4904 0
-114 -4888 4889 0
-4889 4905 0
-115 -4889 4890 0
-4890 4906 0
-116 -4890 4891 0
-4891 4907 0
-117 -4891 4892 0
-4892 4908 0
-118 -4892 4893 0
-4893 4909 0
-119 -4893 4894 0
-4894 4910 0
-120 -4894 4895 0
-4895 4911 0
-121 -4895 4896 0
-4896 4912 0
-122 -4896 0
-107 4897 0
-4897 4913 0
-108 -4897 4898 0
-4898 4914 0
-109 -4898 4899 0
-4899 4915 0
-110 -4899 4900 0
-4900 4916 0
-111 -4900 4901 0
-4901 4917 0
-112 -4901 4902 0
-4902 4918 0
-113 -4902 4903 0
-4903 4919 0
-114 -4903 4904 0
-4904 4920 0
-115 -4904 4905 0
-4905 4921 0
-116 -4905 4906 0
-4906 4922 0
-117 -4906 4907 0
-4907 4923 0
-118 -4907 4908 0
-4908 4924 0
-119 -4908 4909 0
-4909 4925 0
-120 -4909 4910 0
-4910 4926 0
-121 -4910 4911 0
-4911 4927 0
-122 -4911 4912 0
-4912 4928 0
-123 -4912 0
-108 4913 0
-4913 4929 0
-109 -4913 4914 0
-4914 4930 0
-110 -4914 4915 0
-4915 4931 0
-111 -4915 4916 0
-4916 4932 0
-112 -4916 4917 0
-4917 4933 0
-113 -4917 4918 0
-4918 4934 0
-114 -4918 4919 0
-4919 4935 0
-115 -4919 4920 0
-4920 4936 0
-116 -4920 4921 0
-4921 4937 0
-117 -4921 4922 0
-4922 4938 0
-118 -4922 4923 0
-4923 4939 0
-119 -4923 4924 0
-4924 4940 0
-120 -4924 4925 0
-4925 4941 0
-121 -4925 4926 0
-4926 4942 0
-122 -4926 4927 0
-4927 4943 0
-123 -4927 4928 0
-4928 4944 0
-124 -4928 0
-109 4929 0
-4929 4945 0
-110 -4929 4930 0
-4930 4946 0
-111 -4930 4931 0
-4931 4947 0
-112 -4931 4932 0
-4932 4948 0
-113 -4932 4933 0
-4933 4949 0
-114 -4933 4934 0
-4934 4950 0
-115 -4934 4935 0
-4935 4951 0
-116 -4935 4936 0
-4936 4952 0
-117 -4936 4937 0
-4937 4953 0
-118 -4937 4938 0
-4938 4954 0
-119 -4938 4939 0
-4939 4955 0
-120 -4939 4940 0
-4940 4956 0
-121 -4940 4941 0
-4941 4957 0
-122 -4941 4942 0
-4942 4958 0
-123 -4942 4943 0
-4943 4959 0
-124 -4943 4944 0
-4944 4960 0
-125 -4944 0
-110 4945 0
-4945 4961 0
-111 -4945 4946 0
-4946 4962 0
-112 -4946 4947 0
-4947 4963 0
-113 -4947 4948 0
-4948 4964 0
-114 -4948 4949 0
-4949 4965 0
-115 -4949 4950 0
-4950 4966 0
-116 -4950 4951 0
-4951 4967 0
-117 -4951 4952 0
-4952 4968 0
-118 -4952 4953 0
-4953 4969 0
-119 -4953 4954 0
-4954 4970 0
-120 -4954 4955 0
-4955 4971 0
-121 -4955 4956 0
-4956 4972 0
-122 -4956 4957 0
-4957 4973 0
-123 -4957 4958 0
-4958 4974 0
-124 -4958 4959 0
-4959 4975 0
-125 -4959 4960 0
-4960 4976 0
-126 -4960 0
-111 4961 0
-4961 4977 0
-112 -4961 4962 0
-4962 4978 0
-113 -4962 4963 0
-4963 4979 0
-114 -4963 4964 0
-4964 4980 0
-115 -4964 4965 0
-4965 4981 0
-116 -4965 4966 0
-4966 4982 0
-117 -4966 4967 0
-4967 4983 0
-118 -4967 4968 0
-4968 4984 0
-119 -4968 4969 0
-4969 4985 0
-120 -4969 4970 0
-4970 4986 0
-121 -4970 4971 0
-4971 4987 0
-122 -4971 4972 0
-4972 4988 0
-123 -4972 4973 0
-4973 4989 0
-124 -4973 4974 0
-4974 4990 0
-125 -4974 4975 0
-4975 4991 0
-126 -4975 4976 0
-4976 4992 0
-127 -4976 0
-112 4977 0
-4977 4993 0
-113 -4977 4978 0
-4978 4994 0
-114 -4978 4979 0
-4979 4995 0
-115 -4979 4980 0
-4980 4996 0
-116 -4980 4981 0
-4981 4997 0
-117 -4981 4982 0
-4982 4998 0
-118 -4982 4983 0
-4983 4999 0
-119 -4983 4984 0
-4984 5000 0
-120 -4984 4985 0
-4985 5001 0
-121 -4985 4986 0
-4986 5002 0
-122 -4986 4987 0
-4987 5003 0
-123 -4987 4988 0
-4988 5004 0
-124 -4988 4989 0
-4989 5005 0
-125 -4989 4990 0
-4990 5006 0
-126 -4990 4991 0
-4991 5007 0
-127 -4991 4992 0
-4992 5008 0
-128 -4992 0
-113 4993 0
-4993 5009 0
-114 -4993 4994 0
-4994 5010 0
-115 -4994 4995 0
-4995 5011 0
-116 -4995 4996 0
-4996 5012 0
-117 -4996 4997 0
-4997 5013 0
-118 -4997 4998 0
-4998 5014 0
-119 -4998 4999 0
-4999 5015 0
-120 -4999 5000 0
-5000 5016 0
-121 -5000 5001 0
-5001 5017 0
-122 -5001 5002 0
-5002 5018 0
-123 -5002 5003 0
-5003 5019 0
-124 -5003 5004 0
-5004 5020 0
-125 -5004 5005 0
-5005 5021 0
-126 -5005 5006 0
-5006 5022 0
-127 -5006 5007 0
-5007 5023 0
-128 -5007 5008 0
-5008 5024 0
-129 -5008 0
-114 5009 0
-5009 5025 0
-115 -5009 5010 0
-5010 5026 0
-116 -5010 5011 0
-5011 5027 0
-117 -5011 5012 0
-5012 5028 0
-118 -5012 5013 0
-5013 5029 0
-119 -5013 5014 0
-5014 5030 0
-120 -5014 5015 0
-5015 5031 0
-121 -5015 5016 0
-5016 5032 0
-122 -5016 5017 0
-5017 5033 0
-123 -5017 5018 0
-5018 5034 0
-124 -5018 5019 0
-5019 5035 0
-125 -5019 5020 0
-5020 5036 0
-126 -5020 5021 0
-5021 5037 0
-127 -5021 5022 0
-5022 5038 0
-128 -5022 5023 0
-5023 5039 0
-129 -5023 5024 0
-5024 5040 0
-130 -5024 0
-115 5025 0
-5025 5041 0
-116 -5025 5026 0
-5026 5042 0
-117 -5026 5027 0
-5027 5043 0
-118 -5027 5028 0
-5028 5044 0
-119 -5028 5029 0
-5029 5045 0
-120 -5029 5030 0
-5030 5046 0
-121 -5030 5031 0
-5031 5047 0
-122 -5031 5032 0
-5032 5048 0
-123 -5032 5033 0
-5033 5049 0
-124 -5033 5034 0
-5034 5050 0
-125 -5034 5035 0
-5035 5051 0
-126 -5035 5036 0
-5036 5052 0
-127 -5036 5037 0
-5037 5053 0
-128 -5037 5038 0
-5038 5054 0
-129 -5038 5039 0
-5039 5055 0
-130 -5039 5040 0
-5040 5056 0
-131 -5040 0
-116 5041 0
-5041 5057 0
-117 -5041 5042 0
-5042 5058 0
-118 -5042 5043 0
-5043 5059 0
-119 -5043 5044 0
-5044 5060 0
-120 -5044 5045 0
-5045 5061 0
-121 -5045 5046 0
-5046 5062 0
-122 -5046 5047 0
-5047 5063 0
-123 -5047 5048 0
-5048 5064 0
-124 -5048 5049 0
-5049 5065 0
-125 -5049 5050 0
-5050 5066 0
-126 -5050 5051 0
-5051 5067 0
-127 -5051 5052 0
-5052 5068 0
-128 -5052 5053 0
-5053 5069 0
-129 -5053 5054 0
-5054 5070 0
-130 -5054 5055 0
-5055 5071 0
-131 -5055 5056 0
-5056 5072 0
-132 -5056 0
-117 5057 0
-5057 5073 0
-118 -5057 5058 0
-5058 5074 0
-119 -5058 5059 0
-5059 5075 0
-120 -5059 5060 0
-5060 5076 0
-121 -5060 5061 0
-5061 5077 0
-122 -5061 5062 0
-5062 5078 0
-123 -5062 5063 0
-5063 5079 0
-124 -5063 5064 0
-5064 5080 0
-125 -5064 5065 0
-5065 5081 0
-126 -5065 5066 0
-5066 5082 0
-127 -5066 5067 0
-5067 5083 0
-128 -5067 5068 0
-5068 5084 0
-129 -5068 5069 0
-5069 5085 0
-130 -5069 5070 0
-5070 5086 0
-131 -5070 5071 0
-5071 5087 0
-132 -5071 5072 0
-5072 5088 0
-133 -5072 0
-118 5073 0
-5073 5089 0
-119 -5073 5074 0
-5074 5090 0
-120 -5074 5075 0
-5075 5091 0
-121 -5075 5076 0
-5076 5092 0
-122 -5076 5077 0
-5077 5093 0
-123 -5077 5078 0
-5078 5094 0
-124 -5078 5079 0
-5079 5095 0
-125 -5079 5080 0
-5080 5096 0
-126 -5080 5081 0
-5081 5097 0
-127 -5081 5082 0
-5082 5098 0
-128 -5082 5083 0
-5083 5099 0
-129 -5083 5084 0
-5084 5100 0
-130 -5084 5085 0
-5085 5101 0
-131 -5085 5086 0
-5086 5102 0
-132 -5086 5087 0
-5087 5103 0
-133 -5087 5088 0
-5088 5104 0
-134 -5088 0
-119 5089 0
-5089 5105 0
-120 -5089 5090 0
-5090 5106 0
-121 -5090 5091 0
-5091 5107 0
-122 -5091 5092 0
-5092 5108 0
-123 -5092 5093 0
-5093 5109 0
-124 -5093 5094 0
-5094 5110 0
-125 -5094 5095 0
-5095 5111 0
-126 -5095 5096 0
-5096 5112 0
-127 -5096 5097 0
-5097 5113 0
-128 -5097 5098 0
-5098 5114 0
-129 -5098 5099 0
-5099 5115 0
-130 -5099 5100 0
-5100 5116 0
-131 -5100 5101 0
-5101 5117 0
-132 -5101 5102 0
-5102 5118 0
-133 -5102 5103 0
-5103 5119 0
-134 -5103 5104 0
-5104 5120 0
-135 -5104 0
-120 5105 0
-5105 5121 0
-121 -5105 5106 0
-5106 5122 0
-122 -5106 5107 0
-5107 5123 0
-123 -5107 5108 0
-5108 5124 0
-124 -5108 5109 0
-5109 5125 0
-125 -5109 5110 0
-5110 5126 0
-126 -5110 5111 0
-5111 5127 0
-127 -5111 5112 0
-5112 5128 0
-128 -5112 5113 0
-5113 5129 0
-129 -5113 5114 0
-5114 5130 0
-130 -5114 5115 0
-5115 5131 0
-131 -5115 5116 0
-5116 5132 0
-132 -5116 5117 0
-5117 5133 0
-133 -5117 5118 0
-5118 5134 0
-134 -5118 5119 0
-5119 5135 0
-135 -5119 5120 0
-5120 5136 0
-136 -5120 0
-121 5121 0
-5121 5137 0
-122 -5121 5122 0
-5122 5138 0
-123 -5122 5123 0
-5123 5139 0
-124 -5123 5124 0
-5124 5140 0
-125 -5124 5125 0
-5125 5141 0
-126 -5125 5126 0
-5126 5142 0
-127 -5126 5127 0
-5127 5143 0
-128 -5127 5128 0
-5128 5144 0
-129 -5128 5129 0
-5129 5145 0
-130 -5129 5130 0
-5130 5146 0
-131 -5130 5131 0
-5131 5147 0
-132 -5131 5132 0
-5132 5148 0
-133 -5132 5133 0
-5133 5149 0
-134 -5133 5134 0
-5134 5150 0
-135 -5134 5135 0
-5135 5151 0
-136 -5135 5136 0
-5136 5152 0
-137 -5136 0
-122 5137 0
-5137 5153 0
-123 -5137 5138 0
-5138 5154 0
-124 -5138 5139 0
-5139 5155 0
-125 -5139 5140 0
-5140 5156 0
-126 -5140 5141 0
-5141 5157 0
-127 -5141 5142 0
-5142 5158 0
-128 -5142 5143 0
-5143 5159 0
-129 -5143 5144 0
-5144 5160 0
-130 -5144 5145 0
-5145 5161 0
-131 -5145 5146 0
-5146 5162 0
-132 -5146 5147 0
-5147 5163 0
-133 -5147 5148 0
-5148 5164 0
-134 -5148 5149 0
-5149 5165 0
-135 -5149 5150 0
-5150 5166 0
-136 -5150 5151 0
-5151 5167 0
-137 -5151 5152 0
-5152 5168 0
-138 -5152 0
-123 5153 0
-5153 5169 0
-124 -5153 5154 0
-5154 5170 0
-125 -5154 5155 0
-5155 5171 0
-126 -5155 5156 0
-5156 5172 0
-127 -5156 5157 0
-5157 5173 0
-128 -5157 5158 0
-5158 5174 0
-129 -5158 5159 0
-5159 5175 0
-130 -5159 5160 0
-5160 5176 0
-131 -5160 5161 0
-5161 5177 0
-132 -5161 5162 0
-5162 5178 0
-133 -5162 5163 0
-5163 5179 0
-134 -5163 5164 0
-5164 5180 0
-135 -5164 5165 0
-5165 5181 0
-136 -5165 5166 0
-5166 5182 0
-137 -5166 5167 0
-5167 5183 0
-138 -5167 5168 0
-5168 5184 0
-139 -5168 0
-124 5169 0
-5169 5185 0
-125 -5169 5170 0
-5170 5186 0
-126 -5170 5171 0
-5171 5187 0
-127 -5171 5172 0
-5172 5188 0
-128 -5172 5173 0
-5173 5189 0
-129 -5173 5174 0
-5174 5190 0
-130 -5174 5175 0
-5175 5191 0
-131 -5175 5176 0
-5176 5192 0
-132 -5176 5177 0
-5177 5193 0
-133 -5177 5178 0
-5178 5194 0
-134 -5178 5179 0
-5179 5195 0
-135 -5179 5180 0
-5180 5196 0
-136 -5180 5181 0
-5181 5197 0
-137 -5181 5182 0
-5182 5198 0
-138 -5182 5183 0
-5183 5199 0
-139 -5183 5184 0
-5184 5200 0
-140 -5184 0
-125 5185 0
-5185 5201 0
-126 -5185 5186 0
-5186 5202 0
-127 -5186 5187 0
-5187 5203 0
-128 -5187 5188 0
-5188 5204 0
-129 -5188 5189 0
-5189 5205 0
-130 -5189 5190 0
-5190 5206 0
-131 -5190 5191 0
-5191 5207 0
-132 -5191 5192 0
-5192 5208 0
-133 -5192 5193 0
-5193 5209 0
-134 -5193 5194 0
-5194 5210 0
-135 -5194 5195 0
-5195 5211 0
-136 -5195 5196 0
-5196 5212 0
-137 -5196 5197 0
-5197 5213 0
-138 -5197 5198 0
-5198 5214 0
-139 -5198 5199 0
-5199 5215 0
-140 -5199 5200 0
-5200 5216 0
-141 -5200 0
-126 5201 0
-5201 5217 0
-127 -5201 5202 0
-5202 5218 0
-128 -5202 5203 0
-5203 5219 0
-129 -5203 5204 0
-5204 5220 0
-130 -5204 5205 0
-5205 5221 0
-131 -5205 5206 0
-5206 5222 0
-132 -5206 5207 0
-5207 5223 0
-133 -5207 5208 0
-5208 5224 0
-134 -5208 5209 0
-5209 5225 0
-135 -5209 5210 0
-5210 5226 0
-136 -5210 5211 0
-5211 5227 0
-137 -5211 5212 0
-5212 5228 0
-138 -5212 5213 0
-5213 5229 0
-139 -5213 5214 0
-5214 5230 0
-140 -5214 5215 0
-5215 5231 0
-141 -5215 5216 0
-5216 5232 0
-142 -5216 0
-127 5217 0
-5217 5233 0
-128 -5217 5218 0
-5218 5234 0
-129 -5218 5219 0
-5219 5235 0
-130 -5219 5220 0
-5220 5236 0
-131 -5220 5221 0
-5221 5237 0
-132 -5221 5222 0
-5222 5238 0
-133 -5222 5223 0
-5223 5239 0
-134 -5223 5224 0
-5224 5240 0
-135 -5224 5225 0
-5225 5241 0
-136 -5225 5226 0
-5226 5242 0
-137 -5226 5227 0
-5227 5243 0
-138 -5227 5228 0
-5228 5244 0
-139 -5228 5229 0
-5229 5245 0
-140 -5229 5230 0
-5230 5246 0
-141 -5230 5231 0
-5231 5247 0
-142 -5231 5232 0
-5232 5248 0
-143 -5232 0
-128 5233 0
-5233 5249 0
-129 -5233 5234 0
-5234 5250 0
-130 -5234 5235 0
-5235 5251 0
-131 -5235 5236 0
-5236 5252 0
-132 -5236 5237 0
-5237 5253 0
-133 -5237 5238 0
-5238 5254 0
-134 -5238 5239 0
-5239 5255 0
-135 -5239 5240 0
-5240 5256 0
-136 -5240 5241 0
-5241 5257 0
-137 -5241 5242 0
-5242 5258 0
-138 -5242 5243 0
-5243 5259 0
-139 -5243 5244 0
-5244 5260 0
-140 -5244 5245 0
-5245 5261 0
-141 -5245 5246 0
-5246 5262 0
-142 -5246 5247 0
-5247 5263 0
-143 -5247 5248 0
-5248 5264 0
-144 -5248 0
-129 5249 0
-5249 5265 0
-130 -5249 5250 0
-5250 5266 0
-131 -5250 5251 0
-5251 5267 0
-132 -5251 5252 0
-5252 5268 0
-133 -5252 5253 0
-5253 5269 0
-134 -5253 5254 0
-5254 5270 0
-135 -5254 5255 0
-5255 5271 0
-136 -5255 5256 0
-5256 5272 0
-137 -5256 5257 0
-5257 5273 0
-138 -5257 5258 0
-5258 5274 0
-139 -5258 5259 0
-5259 5275 0
-140 -5259 5260 0
-5260 5276 0
-141 -5260 5261 0
-5261 5277 0
-142 -5261 5262 0
-5262 5278 0
-143 -5262 5263 0
-5263 5279 0
-144 -5263 5264 0
-5264 5280 0
-145 -5264 0
-130 5265 0
-5265 5281 0
-131 -5265 5266 0
-5266 5282 0
-132 -5266 5267 0
-5267 5283 0
-133 -5267 5268 0
-5268 5284 0
-134 -5268 5269 0
-5269 5285 0
-135 -5269 5270 0
-5270 5286 0
-136 -5270 5271 0
-5271 5287 0
-137 -5271 5272 0
-5272 5288 0
-138 -5272 5273 0
-5273 5289 0
-139 -5273 5274 0
-5274 5290 0
-140 -5274 5275 0
-5275 5291 0
-141 -5275 5276 0
-5276 5292 0
-142 -5276 5277 0
-5277 5293 0
-143 -5277 5278 0
-5278 5294 0
-144 -5278 5279 0
-5279 5295 0
-145 -5279 5280 0
-5280 5296 0
-146 -5280 0
-131 5281 0
-5281 5297 0
-132 -5281 5282 0
-5282 5298 0
-133 -5282 5283 0
-5283 5299 0
-134 -5283 5284 0
-5284 5300 0
-135 -5284 5285 0
-5285 5301 0
-136 -5285 5286 0
-5286 5302 0
-137 -5286 5287 0
-5287 5303 0
-138 -5287 5288 0
-5288 5304 0
-139 -5288 5289 0
-5289 5305 0
-140 -5289 5290 0
-5290 5306 0
-141 -5290 5291 0
-5291 5307 0
-142 -5291 5292 0
-5292 5308 0
-143 -5292 5293 0
-5293 5309 0
-144 -5293 5294 0
-5294 5310 0
-145 -5294 5295 0
-5295 5311 0
-146 -5295 5296 0
-5296 5312 0
-147 -5296 0
-132 5297 0
-5297 5313 0
-133 -5297 5298 0
-5298 5314 0
-134 -5298 5299 0
-5299 5315 0
-135 -5299 5300 0
-5300 5316 0
-136 -5300 5301 0
-5301 5317 0
-137 -5301 5302 0
-5302 5318 0
-138 -5302 5303 0
-5303 5319 0
-139 -5303 5304 0
-5304 5320 0
-140 -5304 5305 0
-5305 5321 0
-141 -5305 5306 0
-5306 5322 0
-142 -5306 5307 0
-5307 5323 0
-143 -5307 5308 0
-5308 5324 0
-144 -5308 5309 0
-5309 5325 0
-145 -5309 5310 0
-5310 5326 0
-146 -5310 5311 0
-5311 5327 0
-147 -5311 5312 0
-5312 5328 0
-148 -5312 0
-133 5313 0
-5313 5329 0
-134 -5313 5314 0
-5314 5330 0
-135 -5314 5315 0
-5315 5331 0
-136 -5315 5316 0
-5316 5332 0
-137 -5316 5317 0
-5317 5333 0
-138 -5317 5318 0
-5318 5334 0
-139 -5318 5319 0
-5319 5335 0
-140 -5319 5320 0
-5320 5336 0
-141 -5320 5321 0
-5321 5337 0
-142 -5321 5322 0
-5322 5338 0
-143 -5322 5323 0
-5323 5339 0
-144 -5323 5324 0
-5324 5340 0
-145 -5324 5325 0
-5325 5341 0
-146 -5325 5326 0
-5326 5342 0
-147 -5326 5327 0
-5327 5343 0
-148 -5327 5328 0
-5328 5344 0
-149 -5328 0
-134 5329 0
-5329 5345 0
-135 -5329 5330 0
-5330 5346 0
-136 -5330 5331 0
-5331 5347 0
-137 -5331 5332 0
-5332 5348 0
-138 -5332 5333 0
-5333 5349 0
-139 -5333 5334 0
-5334 5350 0
-140 -5334 5335 0
-5335 5351 0
-141 -5335 5336 0
-5336 5352 0
-142 -5336 5337 0
-5337 5353 0
-143 -5337 5338 0
-5338 5354 0
-144 -5338 5339 0
-5339 5355 0
-145 -5339 5340 0
-5340 5356 0
-146 -5340 5341 0
-5341 5357 0
-147 -5341 5342 0
-5342 5358 0
-148 -5342 5343 0
-5343 5359 0
-149 -5343 5344 0
-5344 5360 0
-150 -5344 0
-135 5345 0
-5345 5361 0
-136 -5345 5346 0
-5346 5362 0
-137 -5346 5347 0
-5347 5363 0
-138 -5347 5348 0
-5348 5364 0
-139 -5348 5349 0
-5349 5365 0
-140 -5349 5350 0
-5350 5366 0
-141 -5350 5351 0
-5351 5367 0
-142 -5351 5352 0
-5352 5368 0
-143 -5352 5353 0
-5353 5369 0
-144 -5353 5354 0
-5354 5370 0
-145 -5354 5355 0
-5355 5371 0
-146 -5355 5356 0
-5356 5372 0
-147 -5356 5357 0
-5357 5373 0
-148 -5357 5358 0
-5358 5374 0
-149 -5358 5359 0
-5359 5375 0
-150 -5359 5360 0
-5360 5376 0
-151 -5360 0
-136 5361 0
-5361 5377 0
-137 -5361 5362 0
-5362 5378 0
-138 -5362 5363 0
-5363 5379 0
-139 -5363 5364 0
-5364 5380 0
-140 -5364 5365 0
-5365 5381 0
-141 -5365 5366 0
-5366 5382 0
-142 -5366 5367 0
-5367 5383 0
-143 -5367 5368 0
-5368 5384 0
-144 -5368 5369 0
-5369 5385 0
-145 -5369 5370 0
-5370 5386 0
-146 -5370 5371 0
-5371 5387 0
-147 -5371 5372 0
-5372 5388 0
-148 -5372 5373 0
-5373 5389 0
-149 -5373 5374 0
-5374 5390 0
-150 -5374 5375 0
-5375 5391 0
-151 -5375 5376 0
-5376 5392 0
-152 -5376 0
-137 5377 0
-5377 5393 0
-138 -5377 5378 0
-5378 5394 0
-139 -5378 5379 0
-5379 5395 0
-140 -5379 5380 0
-5380 5396 0
-141 -5380 5381 0
-5381 5397 0
-142 -5381 5382 0
-5382 5398 0
-143 -5382 5383 0
-5383 5399 0
-144 -5383 5384 0
-5384 5400 0
-145 -5384 5385 0
-5385 5401 0
-146 -5385 5386 0
-5386 5402 0
-147 -5386 5387 0
-5387 5403 0
-148 -5387 5388 0
-5388 5404 0
-149 -5388 5389 0
-5389 5405 0
-150 -5389 5390 0
-5390 5406 0
-151 -5390 5391 0
-5391 5407 0
-152 -5391 5392 0
-5392 5408 0
-153 -5392 0
-138 5393 0
-5393 5409 0
-139 -5393 5394 0
-5394 5410 0
-140 -5394 5395 0
-5395 5411 0
-141 -5395 5396 0
-5396 5412 0
-142 -5396 5397 0
-5397 5413 0
-143 -5397 5398 0
-5398 5414 0
-144 -5398 5399 0
-5399 5415 0
-145 -5399 5400 0
-5400 5416 0
-146 -5400 5401 0
-5401 5417 0
-147 -5401 5402 0
-5402 5418 0
-148 -5402 5403 0
-5403 5419 0
-149 -5403 5404 0
-5404 5420 0
-150 -5404 5405 0
-5405 5421 0
-151 -5405 5406 0
-5406 5422 0
-152 -5406 5407 0
-5407 5423 0
-153 -5407 5408 0
-5408 5424 0
-154 -5408 0
-139 5409 0
-5409 5425 0
-140 -5409 5410 0
-5410 5426 0
-141 -5410 5411 0
-5411 5427 0
-142 -5411 5412 0
-5412 5428 0
-143 -5412 5413 0
-5413 5429 0
-144 -5413 5414 0
-5414 5430 0
-145 -5414 5415 0
-5415 5431 0
-146 -5415 5416 0
-5416 5432 0
-147 -5416 5417 0
-5417 5433 0
-148 -5417 5418 0
-5418 5434 0
-149 -5418 5419 0
-5419 5435 0
-150 -5419 5420 0
-5420 5436 0
-151 -5420 5421 0
-5421 5437 0
-152 -5421 5422 0
-5422 5438 0
-153 -5422 5423 0
-5423 5439 0
-154 -5423 5424 0
-5424 5440 0
-155 -5424 0
-140 5425 0
-5425 5441 0
-141 -5425 5426 0
-5426 5442 0
-142 -5426 5427 0
-5427 5443 0
-143 -5427 5428 0
-5428 5444 0
-144 -5428 5429 0
-5429 5445 0
-145 -5429 5430 0
-5430 5446 0
-146 -5430 5431 0
-5431 5447 0
-147 -5431 5432 0
-5432 5448 0
-148 -5432 5433 0
-5433 5449 0
-149 -5433 5434 0
-5434 5450 0
-150 -5434 5435 0
-5435 5451 0
-151 -5435 5436 0
-5436 5452 0
-152 -5436 5437 0
-5437 5453 0
-153 -5437 5438 0
-5438 5454 0
-154 -5438 5439 0
-5439 5455 0
-155 -5439 5440 0
-5440 5456 0
-156 -5440 0
-141 5441 0
-5441 5457 0
-142 -5441 5442 0
-5442 5458 0
-143 -5442 5443 0
-5443 5459 0
-144 -5443 5444 0
-5444 5460 0
-145 -5444 5445 0
-5445 5461 0
-146 -5445 5446 0
-5446 5462 0
-147 -5446 5447 0
-5447 5463 0
-148 -5447 5448 0
-5448 5464 0
-149 -5448 5449 0
-5449 5465 0
-150 -5449 5450 0
-5450 5466 0
-151 -5450 5451 0
-5451 5467 0
-152 -5451 5452 0
-5452 5468 0
-153 -5452 5453 0
-5453 5469 0
-154 -5453 5454 0
-5454 5470 0
-155 -5454 5455 0
-5455 5471 0
-156 -5455 5456 0
-5456 5472 0
-157 -5456 0
-142 5457 0
-5457 5473 0
-143 -5457 5458 0
-5458 5474 0
-144 -5458 5459 0
-5459 5475 0
-145 -5459 5460 0
-5460 5476 0
-146 -5460 5461 0
-5461 5477 0
-147 -5461 5462 0
-5462 5478 0
-148 -5462 5463 0
-5463 5479 0
-149 -5463 5464 0
-5464 5480 0
-150 -5464 5465 0
-5465 5481 0
-151 -5465 5466 0
-5466 5482 0
-152 -5466 5467 0
-5467 5483 0
-153 -5467 5468 0
-5468 5484 0
-154 -5468 5469 0
-5469 5485 0
-155 -5469 5470 0
-5470 5486 0
-156 -5470 5471 0
-5471 5487 0
-157 -5471 5472 0
-5472 5488 0
-158 -5472 0
-143 5473 0
-5473 5489 0
-144 -5473 5474 0
-5474 5490 0
-145 -5474 5475 0
-5475 5491 0
-146 -5475 5476 0
-5476 5492 0
-147 -5476 5477 0
-5477 5493 0
-148 -5477 5478 0
-5478 5494 0
-149 -5478 5479 0
-5479 5495 0
-150 -5479 5480 0
-5480 5496 0
-151 -5480 5481 0
-5481 5497 0
-152 -5481 5482 0
-5482 5498 0
-153 -5482 5483 0
-5483 5499 0
-154 -5483 5484 0
-5484 5500 0
-155 -5484 5485 0
-5485 5501 0
-156 -5485 5486 0
-5486 5502 0
-157 -5486 5487 0
-5487 5503 0
-158 -5487 5488 0
-5488 5504 0
-159 -5488 0
-144 5489 0
-5489 5505 0
-145 -5489 5490 0
-5490 5506 0
-146 -5490 5491 0
-5491 5507 0
-147 -5491 5492 0
-5492 5508 0
-148 -5492 5493 0
-5493 5509 0
-149 -5493 5494 0
-5494 5510 0
-150 -5494 5495 0
-5495 5511 0
-151 -5495 5496 0
-5496 5512 0
-152 -5496 5497 0
-5497 5513 0
-153 -5497 5498 0
-5498 5514 0
-154 -5498 5499 0
-5499 5515 0
-155 -5499 5500 0
-5500 5516 0
-156 -5500 5501 0
-5501 5517 0
-157 -5501 5502 0
-5502 5518 0
-158 -5502 5503 0
-5503 5519 0
-159 -5503 5504 0
-5504 5520 0
-160 -5504 0
-145 5505 0
-5505 5521 0
-146 -5505 5506 0
-5506 5522 0
-147 -5506 5507 0
-5507 5523 0
-148 -5507 5508 0
-5508 5524 0
-149 -5508 5509 0
-5509 5525 0
-150 -5509 5510 0
-5510 5526 0
-151 -5510 5511 0
-5511 5527 0
-152 -5511 5512 0
-5512 5528 0
-153 -5512 5513 0
-5513 5529 0
-154 -5513 5514 0
-5514 5530 0
-155 -5514 5515 0
-5515 5531 0
-156 -5515 5516 0
-5516 5532 0
-157 -5516 5517 0
-5517 5533 0
-158 -5517 5518 0
-5518 5534 0
-159 -5518 5519 0
-5519 5535 0
-160 -5519 5520 0
-5520 5536 0
-161 -5520 0
-146 5521 0
-5521 5537 0
-147 -5521 5522 0
-5522 5538 0
-148 -5522 5523 0
-5523 5539 0
-149 -5523 5524 0
-5524 5540 0
-150 -5524 5525 0
-5525 5541 0
-151 -5525 5526 0
-5526 5542 0
-152 -5526 5527 0
-5527 5543 0
-153 -5527 5528 0
-5528 5544 0
-154 -5528 5529 0
-5529 5545 0
-155 -5529 5530 0
-5530 5546 0
-156 -5530 5531 0
-5531 5547 0
-157 -5531 5532 0
-5532 5548 0
-158 -5532 5533 0
-5533 5549 0
-159 -5533 5534 0
-5534 5550 0
-160 -5534 5535 0
-5535 5551 0
-161 -5535 5536 0
-5536 5552 0
-162 -5536 0
-147 5537 0
-5537 5553 0
-148 -5537 5538 0
-5538 5554 0
-149 -5538 5539 0
-5539 5555 0
-150 -5539 5540 0
-5540 5556 0
-151 -5540 5541 0
-5541 5557 0
-152 -5541 5542 0
-5542 5558 0
-153 -5542 5543 0
-5543 5559 0
-154 -5543 5544 0
-5544 5560 0
-155 -5544 5545 0
-5545 5561 0
-156 -5545 5546 0
-5546 5562 0
-157 -5546 5547 0
-5547 5563 0
-158 -5547 5548 0
-5548 5564 0
-159 -5548 5549 0
-5549 5565 0
-160 -5549 5550 0
-5550 5566 0
-161 -5550 5551 0
-5551 5567 0
-162 -5551 5552 0
-5552 5568 0
-163 -5552 0
-148 5553 0
-5553 5569 0
-149 -5553 5554 0
-5554 5570 0
-150 -5554 5555 0
-5555 5571 0
-151 -5555 5556 0
-5556 5572 0
-152 -5556 5557 0
-5557 5573 0
-153 -5557 5558 0
-5558 5574 0
-154 -5558 5559 0
-5559 5575 0
-155 -5559 5560 0
-5560 5576 0
-156 -5560 5561 0
-5561 5577 0
-157 -5561 5562 0
-5562 5578 0
-158 -5562 5563 0
-5563 5579 0
-159 -5563 5564 0
-5564 5580 0
-160 -5564 5565 0
-5565 5581 0
-161 -5565 5566 0
-5566 5582 0
-162 -5566 5567 0
-5567 5583 0
-163 -5567 5568 0
-5568 5584 0
-164 -5568 0
-149 5569 0
-5569 5585 0
-150 -5569 5570 0
-5570 5586 0
-151 -5570 5571 0
-5571 5587 0
-152 -5571 5572 0
-5572 5588 0
-153 -5572 5573 0
-5573 5589 0
-154 -5573 5574 0
-5574 5590 0
-155 -5574 5575 0
-5575 5591 0
-156 -5575 5576 0
-5576 5592 0
-157 -5576 5577 0
-5577 5593 0
-158 -5577 5578 0
-5578 5594 0
-159 -5578 5579 0
-5579 5595 0
-160 -5579 5580 0
-5580 5596 0
-161 -5580 5581 0
-5581 5597 0
-162 -5581 5582 0
-5582 5598 0
-163 -5582 5583 0
-5583 5599 0
-164 -5583 5584 0
-5584 5600 0
-165 -5584 0
-150 5585 0
-5585 5601 0
-151 -5585 5586 0
-5586 5602 0
-152 -5586 5587 0
-5587 5603 0
-153 -5587 5588 0
-5588 5604 0
-154 -5588 5589 0
-5589 5605 0
-155 -5589 5590 0
-5590 5606 0
-156 -5590 5591 0
-5591 5607 0
-157 -5591 5592 0
-5592 5608 0
-158 -5592 5593 0
-5593 5609 0
-159 -5593 5594 0
-5594 5610 0
-160 -5594 5595 0
-5595 5611 0
-161 -5595 5596 0
-5596 5612 0
-162 -5596 5597 0
-5597 5613 0
-163 -5597 5598 0
-5598 5614 0
-164 -5598 5599 0
-5599 5615 0
-165 -5599 5600 0
-5600 5616 0
-166 -5600 0
-151 5601 0
-5601 5617 0
-152 -5601 5602 0
-5602 5618 0
-153 -5602 5603 0
-5603 5619 0
-154 -5603 5604 0
-5604 5620 0
-155 -5604 5605 0
-5605 5621 0
-156 -5605 5606 0
-5606 5622 0
-157 -5606 5607 0
-5607 5623 0
-158 -5607 5608 0
-5608 5624 0
-159 -5608 5609 0
-5609 5625 0
-160 -5609 5610 0
-5610 5626 0
-161 -5610 5611 0
-5611 5627 0
-162 -5611 5612 0
-5612 5628 0
-163 -5612 5613 0
-5613 5629 0
-164 -5613 5614 0
-5614 5630 0
-165 -5614 5615 0
-5615 5631 0
-166 -5615 5616 0
-5616 5632 0
-167 -5616 0
-152 5617 0
-5617 5633 0
-153 -5617 5618 0
-5618 5634 0
-154 -5618 5619 0
-5619 5635 0
-155 -5619 5620 0
-5620 5636 0
-156 -5620 5621 0
-5621 5637 0
-157 -5621 5622 0
-5622 5638 0
-158 -5622 5623 0
-5623 5639 0
-159 -5623 5624 0
-5624 5640 0
-160 -5624 5625 0
-5625 5641 0
-161 -5625 5626 0
-5626 5642 0
-162 -5626 5627 0
-5627 5643 0
-163 -5627 5628 0
-5628 5644 0
-164 -5628 5629 0
-5629 5645 0
-165 -5629 5630 0
-5630 5646 0
-166 -5630 5631 0
-5631 5647 0
-167 -5631 5632 0
-5632 5648 0
-168 -5632 0
-153 5633 0
-5633 5649 0
-154 -5633 5634 0
-5634 5650 0
-155 -5634 5635 0
-5635 5651 0
-156 -5635 5636 0
-5636 5652 0
-157 -5636 5637 0
-5637 5653 0
-158 -5637 5638 0
-5638 5654 0
-159 -5638 5639 0
-5639 5655 0
-160 -5639 5640 0
-5640 5656 0
-161 -5640 5641 0
-5641 5657 0
-162 -5641 5642 0
-5642 5658 0
-163 -5642 5643 0
-5643 5659 0
-164 -5643 5644 0
-5644 5660 0
-165 -5644 5645 0
-5645 5661 0
-166 -5645 5646 0
-5646 5662 0
-167 -5646 5647 0
-5647 5663 0
-168 -5647 5648 0
-5648 5664 0
-169 -5648 0
-154 5649 0
-5649 5665 0
-155 -5649 5650 0
-5650 5666 0
-156 -5650 5651 0
-5651 5667 0
-157 -5651 5652 0
-5652 5668 0
-158 -5652 5653 0
-5653 5669 0
-159 -5653 5654 0
-5654 5670 0
-160 -5654 5655 0
-5655 5671 0
-161 -5655 5656 0
-5656 5672 0
-162 -5656 5657 0
-5657 5673 0
-163 -5657 5658 0
-5658 5674 0
-164 -5658 5659 0
-5659 5675 0
-165 -5659 5660 0
-5660 5676 0
-166 -5660 5661 0
-5661 5677 0
-167 -5661 5662 0
-5662 5678 0
-168 -5662 5663 0
-5663 5679 0
-169 -5663 5664 0
-5664 5680 0
-170 -5664 0
-155 5665 0
-5665 5681 0
-156 -5665 5666 0
-5666 5682 0
-157 -5666 5667 0
-5667 5683 0
-158 -5667 5668 0
-5668 5684 0
-159 -5668 5669 0
-5669 5685 0
-160 -5669 5670 0
-5670 5686 0
-161 -5670 5671 0
-5671 5687 0
-162 -5671 5672 0
-5672 5688 0
-163 -5672 5673 0
-5673 5689 0
-164 -5673 5674 0
-5674 5690 0
-165 -5674 5675 0
-5675 5691 0
-166 -5675 5676 0
-5676 5692 0
-167 -5676 5677 0
-5677 5693 0
-168 -5677 5678 0
-5678 5694 0
-169 -5678 5679 0
-5679 5695 0
-170 -5679 5680 0
-5680 5696 0
-171 -5680 0
-156 5681 0
-5681 5697 0
-157 -5681 5682 0
-5682 5698 0
-158 -5682 5683 0
-5683 5699 0
-159 -5683 5684 0
-5684 5700 0
-160 -5684 5685 0
-5685 5701 0
-161 -5685 5686 0
-5686 5702 0
-162 -5686 5687 0
-5687 5703 0
-163 -5687 5688 0
-5688 5704 0
-164 -5688 5689 0
-5689 5705 0
-165 -5689 5690 0
-5690 5706 0
-166 -5690 5691 0
-5691 5707 0
-167 -5691 5692 0
-5692 5708 0
-168 -5692 5693 0
-5693 5709 0
-169 -5693 5694 0
-5694 5710 0
-170 -5694 5695 0
-5695 5711 0
-171 -5695 5696 0
-5696 5712 0
-172 -5696 0
-157 5697 0
-5697 5713 0
-158 -5697 5698 0
-5698 5714 0
-159 -5698 5699 0
-5699 5715 0
-160 -5699 5700 0
-5700 5716 0
-161 -5700 5701 0
-5701 5717 0
-162 -5701 5702 0
-5702 5718 0
-163 -5702 5703 0
-5703 5719 0
-164 -5703 5704 0
-5704 5720 0
-165 -5704 5705 0
-5705 5721 0
-166 -5705 5706 0
-5706 5722 0
-167 -5706 5707 0
-5707 5723 0
-168 -5707 5708 0
-5708 5724 0
-169 -5708 5709 0
-5709 5725 0
-170 -5709 5710 0
-5710 5726 0
-171 -5710 5711 0
-5711 5727 0
-172 -5711 5712 0
-5712 5728 0
-173 -5712 0
-158 5713 0
-5713 5729 0
-159 -5713 5714 0
-5714 5730 0
-160 -5714 5715 0
-5715 5731 0
-161 -5715 5716 0
-5716 5732 0
-162 -5716 5717 0
-5717 5733 0
-163 -5717 5718 0
-5718 5734 0
-164 -5718 5719 0
-5719 5735 0
-165 -5719 5720 0
-5720 5736 0
-166 -5720 5721 0
-5721 5737 0
-167 -5721 5722 0
-5722 5738 0
-168 -5722 5723 0
-5723 5739 0
-169 -5723 5724 0
-5724 5740 0
-170 -5724 5725 0
-5725 5741 0
-171 -5725 5726 0
-5726 5742 0
-172 -5726 5727 0
-5727 5743 0
-173 -5727 5728 0
-5728 5744 0
-174 -5728 0
-159 5729 0
-5729 5745 0
-160 -5729 5730 0
-5730 5746 0
-161 -5730 5731 0
-5731 5747 0
-162 -5731 5732 0
-5732 5748 0
-163 -5732 5733 0
-5733 5749 0
-164 -5733 5734 0
-5734 5750 0
-165 -5734 5735 0
-5735 5751 0
-166 -5735 5736 0
-5736 5752 0
-167 -5736 5737 0
-5737 5753 0
-168 -5737 5738 0
-5738 5754 0
-169 -5738 5739 0
-5739 5755 0
-170 -5739 5740 0
-5740 5756 0
-171 -5740 5741 0
-5741 5757 0
-172 -5741 5742 0
-5742 5758 0
-173 -5742 5743 0
-5743 5759 0
-174 -5743 5744 0
-5744 5760 0
-175 -5744 0
-160 5745 0
-5745 5761 0
-161 -5745 5746 0
-5746 5762 0
-162 -5746 5747 0
-5747 5763 0
-163 -5747 5748 0
-5748 5764 0
-164 -5748 5749 0
-5749 5765 0
-165 -5749 5750 0
-5750 5766 0
-166 -5750 5751 0
-5751 5767 0
-167 -5751 5752 0
-5752 5768 0
-168 -5752 5753 0
-5753 5769 0
-169 -5753 5754 0
-5754 5770 0
-170 -5754 5755 0
-5755 5771 0
-171 -5755 5756 0
-5756 5772 0
-172 -5756 5757 0
-5757 5773 0
-173 -5757 5758 0
-5758 5774 0
-174 -5758 5759 0
-5759 5775 0
-175 -5759 5760 0
-5760 5776 0
-176 -5760 0
-161 5761 0
-5761 5777 0
-162 -5761 5762 0
-5762 5778 0
-163 -5762 5763 0
-5763 5779 0
-164 -5763 5764 0
-5764 5780 0
-165 -5764 5765 0
-5765 5781 0
-166 -5765 5766 0
-5766 5782 0
-167 -5766 5767 0
-5767 5783 0
-168 -5767 5768 0
-5768 5784 0
-169 -5768 5769 0
-5769 5785 0
-170 -5769 5770 0
-5770 5786 0
-171 -5770 5771 0
-5771 5787 0
-172 -5771 5772 0
-5772 5788 0
-173 -5772 5773 0
-5773 5789 0
-174 -5773 5774 0
-5774 5790 0
-175 -5774 5775 0
-5775 5791 0
-176 -5775 5776 0
-5776 5792 0
-177 -5776 0
-162 5777 0
-5777 5793 0
-163 -5777 5778 0
-5778 5794 0
-164 -5778 5779 0
-5779 5795 0
-165 -5779 5780 0
-5780 5796 0
-166 -5780 5781 0
-5781 5797 0
-167 -5781 5782 0
-5782 5798 0
-168 -5782 5783 0
-5783 5799 0
-169 -5783 5784 0
-5784 5800 0
-170 -5784 5785 0
-5785 5801 0
-171 -5785 5786 0
-5786 5802 0
-172 -5786 5787 0
-5787 5803 0
-173 -5787 5788 0
-5788 5804 0
-174 -5788 5789 0
-5789 5805 0
-175 -5789 5790 0
-5790 5806 0
-176 -5790 5791 0
-5791 5807 0
-177 -5791 5792 0
-5792 5808 0
-178 -5792 0
-163 5793 0
-5793 5809 0
-164 -5793 5794 0
-5794 5810 0
-165 -5794 5795 0
-5795 5811 0
-166 -5795 5796 0
-5796 5812 0
-167 -5796 5797 0
-5797 5813 0
-168 -5797 5798 0
-5798 5814 0
-169 -5798 5799 0
-5799 5815 0
-170 -5799 5800 0
-5800 5816 0
-171 -5800 5801 0
-5801 5817 0
-172 -5801 5802 0
-5802 5818 0
-173 -5802 5803 0
-5803 5819 0
-174 -5803 5804 0
-5804 5820 0
-175 -5804 5805 0
-5805 5821 0
-176 -5805 5806 0
-5806 5822 0
-177 -5806 5807 0
-5807 5823 0
-178 -5807 5808 0
-5808 5824 0
-179 -5808 0
-164 5809 0
-5809 5825 0
-165 -5809 5810 0
-5810 5826 0
-166 -5810 5811 0
-5811 5827 0
-167 -5811 5812 0
-5812 5828 0
-168 -5812 5813 0
-5813 5829 0
-169 -5813 5814 0
-5814 5830 0
-170 -5814 5815 0
-5815 5831 0
-171 -5815 5816 0
-5816 5832 0
-172 -5816 5817 0
-5817 5833 0
-173 -5817 5818 0
-5818 5834 0
-174 -5818 5819 0
-5819 5835 0
-175 -5819 5820 0
-5820 5836 0
-176 -5820 5821 0
-5821 5837 0
-177 -5821 5822 0
-5822 5838 0
-178 -5822 5823 0
-5823 5839 0
-179 -5823 5824 0
-5824 5840 0
-180 -5824 0
-165 5825 0
-5825 5841 0
-166 -5825 5826 0
-5826 5842 0
-167 -5826 5827 0
-5827 5843 0
-168 -5827 5828 0
-5828 5844 0
-169 -5828 5829 0
-5829 5845 0
-170 -5829 5830 0
-5830 5846 0
-171 -5830 5831 0
-5831 5847 0
-172 -5831 5832 0
-5832 5848 0
-173 -5832 5833 0
-5833 5849 0
-174 -5833 5834 0
-5834 5850 0
-175 -5834 5835 0
-5835 5851 0
-176 -5835 5836 0
-5836 5852 0
-177 -5836 5837 0
-5837 5853 0
-178 -5837 5838 0
-5838 5854 0
-179 -5838 5839 0
-5839 5855 0
-180 -5839 5840 0
-5840 5856 0
-181 -5840 0
-166 5841 0
-5841 5857 0
-167 -5841 5842 0
-5842 5858 0
-168 -5842 5843 0
-5843 5859 0
-169 -5843 5844 0
-5844 5860 0
-170 -5844 5845 0
-5845 5861 0
-171 -5845 5846 0
-5846 5862 0
-172 -5846 5847 0
-5847 5863 0
-173 -5847 5848 0
-5848 5864 0
-174 -5848 5849 0
-5849 5865 0
-175 -5849 5850 0
-5850 5866 0
-176 -5850 5851 0
-5851 5867 0
-177 -5851 5852 0
-5852 5868 0
-178 -5852 5853 0
-5853 5869 0
-179 -5853 5854 0
-5854 5870 0
-180 -5854 5855 0
-5855 5871 0
-181 -5855 5856 0
-5856 5872 0
-182 -5856 0
-167 5857 0
-5857 5873 0
-168 -5857 5858 0
-5858 5874 0
-169 -5858 5859 0
-5859 5875 0
-170 -5859 5860 0
-5860 5876 0
-171 -5860 5861 0
-5861 5877 0
-172 -5861 5862 0
-5862 5878 0
-173 -5862 5863 0
-5863 5879 0
-174 -5863 5864 0
-5864 5880 0
-175 -5864 5865 0
-5865 5881 0
-176 -5865 5866 0
-5866 5882 0
-177 -5866 5867 0
-5867 5883 0
-178 -5867 5868 0
-5868 5884 0
-179 -5868 5869 0
-5869 5885 0
-180 -5869 5870 0
-5870 5886 0
-181 -5870 5871 0
-5871 5887 0
-182 -5871 5872 0
-5872 5888 0
-183 -5872 0
-168 5873 0
-5873 5889 0
-169 -5873 5874 0
-5874 5890 0
-170 -5874 5875 0
-5875 5891 0
-171 -5875 5876 0
-5876 5892 0
-172 -5876 5877 0
-5877 5893 0
-173 -5877 5878 0
-5878 5894 0
-174 -5878 5879 0
-5879 5895 0
-175 -5879 5880 0
-5880 5896 0
-176 -5880 5881 0
-5881 5897 0
-177 -5881 5882 0
-5882 5898 0
-178 -5882 5883 0
-5883 5899 0
-179 -5883 5884 0
-5884 5900 0
-180 -5884 5885 0
-5885 5901 0
-181 -5885 5886 0
-5886 5902 0
-182 -5886 5887 0
-5887 5903 0
-183 -5887 5888 0
-5888 5904 0
-184 -5888 0
-169 5889 0
-5889 5905 0
-170 -5889 5890 0
-5890 5906 0
-171 -5890 5891 0
-5891 5907 0
-172 -5891 5892 0
-5892 5908 0
-173 -5892 5893 0
-5893 5909 0
-174 -5893 5894 0
-5894 5910 0
-175 -5894 5895 0
-5895 5911 0
-176 -5895 5896 0
-5896 5912 0
-177 -5896 5897 0
-5897 5913 0
-178 -5897 5898 0
-5898 5914 0
-179 -5898 5899 0
-5899 5915 0
-180 -5899 5900 0
-5900 5916 0
-181 -5900 5901 0
-5901 5917 0
-182 -5901 5902 0
-5902 5918 0
-183 -5902 5903 0
-5903 5919 0
-184 -5903 5904 0
-5904 5920 0
-185 -5904 0
-170 5905 0
-5905 5921 0
-171 -5905 5906 0
-5906 5922 0
-172 -5906 5907 0
-5907 5923 0
-173 -5907 5908 0
-5908 5924 0
-174 -5908 5909 0
-5909 5925 0
-175 -5909 5910 0
-5910 5926 0
-176 -5910 5911 0
-5911 5927 0
-177 -5911 5912 0
-5912 5928 0
-178 -5912 5913 0
-5913 5929 0
-179 -5913 5914 0
-5914 5930 0
-180 -5914 5915 0
-5915 5931 0
-181 -5915 5916 0
-5916 5932 0
-182 -5916 5917 0
-5917 5933 0
-183 -5917 5918 0
-5918 5934 0
-184 -5918 5919 0
-5919 5935 0
-185 -5919 5920 0
-5920 5936 0
-186 -5920 0
-171 5921 0
-5921 5937 0
-172 -5921 5922 0
-5922 5938 0
-173 -5922 5923 0
-5923 5939 0
-174 -5923 5924 0
-5924 5940 0
-175 -5924 5925 0
-5925 5941 0
-176 -5925 5926 0
-5926 5942 0
-177 -5926 5927 0
-5927 5943 0
-178 -5927 5928 0
-5928 5944 0
-179 -5928 5929 0
-5929 5945 0
-180 -5929 5930 0
-5930 5946 0
-181 -5930 5931 0
-5931 5947 0
-182 -5931 5932 0
-5932 5948 0
-183 -5932 5933 0
-5933 5949 0
-184 -5933 5934 0
-5934 5950 0
-185 -5934 5935 0
-5935 5951 0
-186 -5935 5936 0
-5936 5952 0
-187 -5936 0
-172 5937 0
-5937 5953 0
-173 -5937 5938 0
-5938 5954 0
-174 -5938 5939 0
-5939 5955 0
-175 -5939 5940 0
-5940 5956 0
-176 -5940 5941 0
-5941 5957 0
-177 -5941 5942 0
-5942 5958 0
-178 -5942 5943 0
-5943 5959 0
-179 -5943 5944 0
-5944 5960 0
-180 -5944 5945 0
-5945 5961 0
-181 -5945 5946 0
-5946 5962 0
-182 -5946 5947 0
-5947 5963 0
-183 -5947 5948 0
-5948 5964 0
-184 -5948 5949 0
-5949 5965 0
-185 -5949 5950 0
-5950 5966 0
-186 -5950 5951 0
-5951 5967 0
-187 -5951 5952 0
-5952 5968 0
-188 -5952 0
-173 5953 0
-5953 5969 0
-174 -5953 5954 0
-5954 5970 0
-175 -5954 5955 0
-5955 5971 0
-176 -5955 5956 0
-5956 5972 0
-177 -5956 5957 0
-5957 5973 0
-178 -5957 5958 0
-5958 5974 0
-179 -5958 5959 0
-5959 5975 0
-180 -5959 5960 0
-5960 5976 0
-181 -5960 5961 0
-5961 5977 0
-182 -5961 5962 0
-5962 5978 0
-183 -5962 5963 0
-5963 5979 0
-184 -5963 5964 0
-5964 5980 0
-185 -5964 5965 0
-5965 5981 0
-186 -5965 5966 0
-5966 5982 0
-187 -5966 5967 0
-5967 5983 0
-188 -5967 5968 0
-5968 5984 0
-189 -5968 0
-174 5969 0
-5969 5985 0
-175 -5969 5970 0
-5970 5986 0
-176 -5970 5971 0
-5971 5987 0
-177 -5971 5972 0
-5972 5988 0
-178 -5972 5973 0
-5973 5989 0
-179 -5973 5974 0
-5974 5990 0
-180 -5974 5975 0
-5975 5991 0
-181 -5975 5976 0
-5976 5992 0
-182 -5976 5977 0
-5977 5993 0
-183 -5977 5978 0
-5978 5994 0
-184 -5978 5979 0
-5979 5995 0
-185 -5979 5980 0
-5980 5996 0
-186 -5980 5981 0
-5981 5997 0
-187 -5981 5982 0
-5982 5998 0
-188 -5982 5983 0
-5983 5999 0
-189 -5983 5984 0
-5984 6000 0
-190 -5984 0
-175 5985 0
-5985 6001 0
-176 -5985 5986 0
-5986 6002 0
-177 -5986 5987 0
-5987 6003 0
-178 -5987 5988 0
-5988 6004 0
-179 -5988 5989 0
-5989 6005 0
-180 -5989 5990 0
-5990 6006 0
-181 -5990 5991 0
-5991 6007 0
-182 -5991 5992 0
-5992 6008 0
-183 -5992 5993 0
-5993 6009 0
-184 -5993 5994 0
-5994 6010 0
-185 -5994 5995 0
-5995 6011 0
-186 -5995 5996 0
-5996 6012 0
-187 -5996 5997 0
-5997 6013 0
-188 -5997 5998 0
-5998 6014 0
-189 -5998 5999 0
-5999 6015 0
-190 -5999 6000 0
-6000 6016 0
-191 -6000 0
-176 6001 0
-177 -6001 6002 0
-178 -6002 6003 0
-179 -6003 6004 0
-180 -6004 6005 0
-181 -6005 6006 0
-182 -6006 6007 0
-183 -6007 6008 0
-184 -6008 6009 0
-185 -6009 6010 0
-186 -6010 6011 0
-187 -6011 6012 0
-188 -6012 6013 0
-189 -6013 6014 0
-190 -6014 6015 0
-191 -6015 6016 0
-192 -6016 0
-193 6017 0
-6017 6018 0
-194 -6017 6019 0
-6019 6020 0
-195 -6019 6021 0
-6021 6022 0
-196 -6021 6023 0
-6023 6024 0
-197 -6023 6025 0
-6025 6026 0
-198 -6025 6027 0
-6027 6028 0
-199 -6027 6029 0
-6029 6030 0
-200 -6029 6031 0
-6031 6032 0
-201 -6031 6033 0
-6033 6034 0
-202 -6033 0
-194 6018 0
-6018 6035 0
-195 -6018 6020 0
-6020 6036 0
-196 -6020 6022 0
-6022 6037 0
-197 -6022 6024 0
-6024 6038 0
-198 -6024 6026 0
-6026 6039 0
-199 -6026 6028 0
-6028 6040 0
-200 -6028 6030 0
-6030 6041 0
-201 -6030 6032 0
-6032 6042 0
-202 -6032 6034 0
-6034 6043 0
-203 -6034 0
-195 6035 0
-6035 6044 0
-196 -6035 6036 0
-6036 6045 0
-197 -6036 6037 0
-6037 6046 0
-198 -6037 6038 0
-6038 6047 0
-199 -6038 6039 0
-6039 6048 0
-200 -6039 6040 0
-6040 6049 0
-201 -6040 6041 0
-6041 6050 0
-202 -6041 6042 0
-6042 6051 0
-203 -6042 6043 0
-6043 6052 0
-204 -6043 0
-196 6044 0
-6044 6053 0
-197 -6044 6045 0
-6045 6054 0
-198 -6045 6046 0
-6046 6055 0
-199 -6046 6047 0
-6047 6056 0
-200 -6047 6048 0
-6048 6057 0
-201 -6048 6049 0
-6049 6058 0
-202 -6049 6050 0
-6050 6059 0
-203 -6050 6051 0
-6051 6060 0
-204 -6051 6052 0
-6052 6061 0
-205 -6052 0
-197 6053 0
-6053 6062 0
-198 -6053 6054 0
-6054 6063 0
-199 -6054 6055 0
-6055 6064 0
-200 -6055 6056 0
-6056 6065 0
-201 -6056 6057 0
-6057 6066 0
-202 -6057 6058 0
-6058 6067 0
-203 -6058 6059 0
-6059 6068 0
-204 -6059 6060 0
-6060 6069 0
-205 -6060 6061 0
-6061 6070 0
-206 -6061 0
-198 6062 0
-6062 6071 0
-199 -6062 6063 0
-6063 6072 0
-200 -6063 6064 0
-6064 6073 0
-201 -6064 6065 0
-6065 6074 0
-202 -6065 6066 0
-6066 6075 0
-203 -6066 6067 0
-6067 6076 0
-204 -6067 6068 0
-6068 6077 0
-205 -6068 6069 0
-6069 6078 0
-206 -6069 6070 0
-6070 6079 0
-207 -6070 0
-199 6071 0
-6071 6080 0
-200 -6071 6072 0
-6072 6081 0
-201 -6072 6073 0
-6073 6082 0
-202 -6073 6074 0
-6074 6083 0
-203 -6074 6075 0
-6075 6084 0
-204 -6075 6076 0
-6076 6085 0
-205 -6076 6077 0
-6077 6086 0
-206 -6077 6078 0
-6078 6087 0
-207 -6078 6079 0
-6079 6088 0
-208 -6079 0
-200 6080 0
-6080 6089 0
-201 -6080 6081 0
-6081 6090 0
-202 -6081 6082 0
-6082 6091 0
-203 -6082 6083 0
-6083 6092 0
-204 -6083 6084 0
-6084 6093 0
-205 -6084 6085 0
-6085 6094 0
-206 -6085 6086 0
-6086 6095 0
-207 -6086 6087 0
-6087 6096 0
-208 -6087 6088 0
-6088 6097 0
-209 -6088 0
-201 6089 0
-6089 6098 0
-202 -6089 6090 0
-6090 6099 0
-203 -6090 6091 0
-6091 6100 0
-204 -6091 6092 0
-6092 6101 0
-205 -6092 6093 0
-6093 6102 0
-206 -6093 6094 0
-6094 6103 0
-207 -6094 6095 0
-6095 6104 0
-208 -6095 6096 0
-6096 6105 0
-209 -6096 6097 0
-6097 6106 0
-210 -6097 0
-202 6098 0
-6098 6107 0
-203 -6098 6099 0
-6099 6108 0
-204 -6099 6100 0
-6100 6109 0
-205 -6100 6101 0
-6101 6110 0
-206 -6101 6102 0
-6102 6111 0
-207 -6102 6103 0
-6103 6112 0
-208 -6103 6104 0
-6104 6113 0
-209 -6104 6105 0
-6105 6114 0
-210 -6105 6106 0
-6106 6115 0
-211 -6106 0
-203 6107 0
-6107 6116 0
-204 -6107 6108 0
-6108 6117 0
-205 -6108 6109 0
-6109 6118 0
-206 -6109 6110 0
-6110 6119 0
-207 -6110 6111 0
-6111 6120 0
-208 -6111 6112 0
-6112 6121 0
-209 -6112 6113 0
-6113 6122 0
-210 -6113 6114 0
-6114 6123 0
-211 -6114 6115 0
-6115 6124 0
-212 -6115 0
-204 6116 0
-6116 6125 0
-205 -6116 6117 0
-6117 6126 0
-206 -6117 6118 0
-6118 6127 0
-207 -6118 6119 0
-6119 6128 0
-208 -6119 6120 0
-6120 6129 0
-209 -6120 6121 0
-6121 6130 0
-210 -6121 6122 0
-6122 6131 0
-211 -6122 6123 0
-6123 6132 0
-212 -6123 6124 0
-6124 6133 0
-213 -6124 0
-205 6125 0
-6125 6134 0
-206 -6125 6126 0
-6126 6135 0
-207 -6126 6127 0
-6127 6136 0
-208 -6127 6128 0
-6128 6137 0
-209 -6128 6129 0
-6129 6138 0
-210 -6129 6130 0
-6130 6139 0
-211 -6130 6131 0
-6131 6140 0
-212 -6131 6132 0
-6132 6141 0
-213 -6132 6133 0
-6133 6142 0
-214 -6133 0
-206 6134 0
-6134 6143 0
-207 -6134 6135 0
-6135 6144 0
-208 -6135 6136 0
-6136 6145 0
-209 -6136 6137 0
-6137 6146 0
-210 -6137 6138 0
-6138 6147 0
-211 -6138 6139 0
-6139 6148 0
-212 -6139 6140 0
-6140 6149 0
-213 -6140 6141 0
-6141 6150 0
-214 -6141 6142 0
-6142 6151 0
-215 -6142 0
-207 6143 0
-6143 6152 0
-208 -6143 6144 0
-6144 6153 0
-209 -6144 6145 0
-6145 6154 0
-210 -6145 6146 0
-6146 6155 0
-211 -6146 6147 0
-6147 6156 0
-212 -6147 6148 0
-6148 6157 0
-213 -6148 6149 0
-6149 6158 0
-214 -6149 6150 0
-6150 6159 0
-215 -6150 6151 0
-6151 6160 0
-216 -6151 0
-208 6152 0
-6152 6161 0
-209 -6152 6153 0
-6153 6162 0
-210 -6153 6154 0
-6154 6163 0
-211 -6154 6155 0
-6155 6164 0
-212 -6155 6156 0
-6156 6165 0
-213 -6156 6157 0
-6157 6166 0
-214 -6157 6158 0
-6158 6167 0
-215 -6158 6159 0
-6159 6168 0
-216 -6159 6160 0
-6160 6169 0
-217 -6160 0
-209 6161 0
-6161 6170 0
-210 -6161 6162 0
-6162 6171 0
-211 -6162 6163 0
-6163 6172 0
-212 -6163 6164 0
-6164 6173 0
-213 -6164 6165 0
-6165 6174 0
-214 -6165 6166 0
-6166 6175 0
-215 -6166 6167 0
-6167 6176 0
-216 -6167 6168 0
-6168 6177 0
-217 -6168 6169 0
-6169 6178 0
-218 -6169 0
-210 6170 0
-6170 6179 0
-211 -6170 6171 0
-6171 6180 0
-212 -6171 6172 0
-6172 6181 0
-213 -6172 6173 0
-6173 6182 0
-214 -6173 6174 0
-6174 6183 0
-215 -6174 6175 0
-6175 6184 0
-216 -6175 6176 0
-6176 6185 0
-217 -6176 6177 0
-6177 6186 0
-218 -6177 6178 0
-6178 6187 0
-219 -6178 0
-211 6179 0
-6179 6188 0
-212 -6179 6180 0
-6180 6189 0
-213 -6180 6181 0
-6181 6190 0
-214 -6181 6182 0
-6182 6191 0
-215 -6182 6183 0
-6183 6192 0
-216 -6183 6184 0
-6184 6193 0
-217 -6184 6185 0
-6185 6194 0
-218 -6185 6186 0
-6186 6195 0
-219 -6186 6187 0
-6187 6196 0
-220 -6187 0
-212 6188 0
-6188 6197 0
-213 -6188 6189 0
-6189 6198 0
-214 -6189 6190 0
-6190 6199 0
-215 -6190 6191 0
-6191 6200 0
-216 -6191 6192 0
-6192 6201 0
-217 -6192 6193 0
-6193 6202 0
-218 -6193 6194 0
-6194 6203 0
-219 -6194 6195 0
-6195 6204 0
-220 -6195 6196 0
-6196 6205 0
-221 -6196 0
-213 6197 0
-6197 6206 0
-214 -6197 6198 0
-6198 6207 0
-215 -6198 6199 0
-6199 6208 0
-216 -6199 6200 0
-6200 6209 0
-217 -6200 6201 0
-6201 6210 0
-218 -6201 6202 0
-6202 6211 0
-219 -6202 6203 0
-6203 6212 0
-220 -6203 6204 0
-6204 6213 0
-221 -6204 6205 0
-6205 6214 0
-222 -6205 0
-214 6206 0
-6206 6215 0
-215 -6206 6207 0
-6207 6216 0
-216 -6207 6208 0
-6208 6217 0
-217 -6208 6209 0
-6209 6218 0
-218 -6209 6210 0
-6210 6219 0
-219 -6210 6211 0
-6211 6220 0
-220 -6211 6212 0
-6212 6221 0
-221 -6212 6213 0
-6213 6222 0
-222 -6213 6214 0
-6214 6223 0
-223 -6214 0
-215 6215 0
-6215 6224 0
-216 -6215 6216 0
-6216 6225 0
-217 -6216 6217 0
-6217 6226 0
-218 -6217 6218 0
-6218 6227 0
-219 -6218 6219 0
-6219 6228 0
-220 -6219 6220 0
-6220 6229 0
-221 -6220 6221 0
-6221 6230 0
-222 -6221 6222 0
-6222 6231 0
-223 -6222 6223 0
-6223 6232 0
-224 -6223 0
-216 6224 0
-6224 6233 0
-217 -6224 6225 0
-6225 6234 0
-218 -6225 6226 0
-6226 6235 0
-219 -6226 6227 0
-6227 6236 0
-220 -6227 6228 0
-6228 6237 0
-221 -6228 6229 0
-6229 6238 0
-222 -6229 6230 0
-6230 6239 0
-223 -6230 6231 0
-6231 6240 0
-224 -6231 6232 0
-6232 6241 0
-225 -6232 0
-217 6233 0
-6233 6242 0
-218 -6233 6234 0
-6234 6243 0
-219 -6234 6235 0
-6235 6244 0
-220 -6235 6236 0
-6236 6245 0
-221 -6236 6237 0
-6237 6246 0
-222 -6237 6238 0
-6238 6247 0
-223 -6238 6239 0
-6239 6248 0
-224 -6239 6240 0
-6240 6249 0
-225 -6240 6241 0
-6241 6250 0
-226 -6241 0
-218 6242 0
-6242 6251 0
-219 -6242 6243 0
-6243 6252 0
-220 -6243 6244 0
-6244 6253 0
-221 -6244 6245 0
-6245 6254 0
-222 -6245 6246 0
-6246 6255 0
-223 -6246 6247 0
-6247 6256 0
-224 -6247 6248 0
-6248 6257 0
-225 -6248 6249 0
-6249 6258 0
-226 -6249 6250 0
-6250 6259 0
-227 -6250 0
-219 6251 0
-6251 6260 0
-220 -6251 6252 0
-6252 6261 0
-221 -6252 6253 0
-6253 6262 0
-222 -6253 6254 0
-6254 6263 0
-223 -6254 6255 0
-6255 6264 0
-224 -6255 6256 0
-6256 6265 0
-225 -6256 6257 0
-6257 6266 0
-226 -6257 6258 0
-6258 6267 0
-227 -6258 6259 0
-6259 6268 0
-228 -6259 0
-220 6260 0
-6260 6269 0
-221 -6260 6261 0
-6261 6270 0
-222 -6261 6262 0
-6262 6271 0
-223 -6262 6263 0
-6263 6272 0
-224 -6263 6264 0
-6264 6273 0
-225 -6264 6265 0
-6265 6274 0
-226 -6265 6266 0
-6266 6275 0
-227 -6266 6267 0
-6267 6276 0
-228 -6267 6268 0
-6268 6277 0
-229 -6268 0
-221 6269 0
-6269 6278 0
-222 -6269 6270 0
-6270 6279 0
-223 -6270 6271 0
-6271 6280 0
-224 -6271 6272 0
-6272 6281 0
-225 -6272 6273 0
-6273 6282 0
-226 -6273 6274 0
-6274 6283 0
-227 -6274 6275 0
-6275 6284 0
-228 -6275 6276 0
-6276 6285 0
-229 -6276 6277 0
-6277 6286 0
-230 -6277 0
-222 6278 0
-6278 6287 0
-223 -6278 6279 0
-6279 6288 0
-224 -6279 6280 0
-6280 6289 0
-225 -6280 6281 0
-6281 6290 0
-226 -6281 6282 0
-6282 6291 0
-227 -6282 6283 0
-6283 6292 0
-228 -6283 6284 0
-6284 6293 0
-229 -6284 6285 0
-6285 6294 0
-230 -6285 6286 0
-6286 6295 0
-231 -6286 0
-223 6287 0
-6287 6296 0
-224 -6287 6288 0
-6288 6297 0
-225 -6288 6289 0
-6289 6298 0
-226 -6289 6290 0
-6290 6299 0
-227 -6290 6291 0
-6291 6300 0
-228 -6291 6292 0
-6292 6301 0
-229 -6292 6293 0
-6293 6302 0
-230 -6293 6294 0
-6294 6303 0
-231 -6294 6295 0
-6295 6304 0
-232 -6295 0
-224 6296 0
-6296 6305 0
-225 -6296 6297 0
-6297 6306 0
-226 -6297 6298 0
-6298 6307 0
-227 -6298 6299 0
-6299 6308 0
-228 -6299 6300 0
-6300 6309 0
-229 -6300 6301 0
-6301 6310 0
-230 -6301 6302 0
-6302 6311 0
-231 -6302 6303 0
-6303 6312 0
-232 -6303 6304 0
-6304 6313 0
-233 -6304 0
-225 6305 0
-6305 6314 0
-226 -6305 6306 0
-6306 6315 0
-227 -6306 6307 0
-6307 6316 0
-228 -6307 6308 0
-6308 6317 0
-229 -6308 6309 0
-6309 6318 0
-230 -6309 6310 0
-6310 6319 0
-231 -6310 6311 0
-6311 6320 0
-232 -6311 6312 0
-6312 6321 0
-233 -6312 6313 0
-6313 6322 0
-234 -6313 0
-226 6314 0
-6314 6323 0
-227 -6314 6315 0
-6315 6324 0
-228 -6315 6316 0
-6316 6325 0
-229 -6316 6317 0
-6317 6326 0
-230 -6317 6318 0
-6318 6327 0
-231 -6318 6319 0
-6319 6328 0
-232 -6319 6320 0
-6320 6329 0
-233 -6320 6321 0
-6321 6330 0
-234 -6321 6322 0
-6322 6331 0
-235 -6322 0
-227 6323 0
-6323 6332 0
-228 -6323 6324 0
-6324 6333 0
-229 -6324 6325 0
-6325 6334 0
-230 -6325 6326 0
-6326 6335 0
-231 -6326 6327 0
-6327 6336 0
-232 -6327 6328 0
-6328 6337 0
-233 -6328 6329 0
-6329 6338 0
-234 -6329 6330 0
-6330 6339 0
-235 -6330 6331 0
-6331 6340 0
-236 -6331 0
-228 6332 0
-6332 6341 0
-229 -6332 6333 0
-6333 6342 0
-230 -6333 6334 0
-6334 6343 0
-231 -6334 6335 0
-6335 6344 0
-232 -6335 6336 0
-6336 6345 0
-233 -6336 6337 0
-6337 6346 0
-234 -6337 6338 0
-6338 6347 0
-235 -6338 6339 0
-6339 6348 0
-236 -6339 6340 0
-6340 6349 0
-237 -6340 0
-229 6341 0
-6341 6350 0
-230 -6341 6342 0
-6342 6351 0
-231 -6342 6343 0
-6343 6352 0
-232 -6343 6344 0
-6344 6353 0
-233 -6344 6345 0
-6345 6354 0
-234 -6345 6346 0
-6346 6355 0
-235 -6346 6347 0
-6347 6356 0
-236 -6347 6348 0
-6348 6357 0
-237 -6348 6349 0
-6349 6358 0
-238 -6349 0
-230 6350 0
-6350 6359 0
-231 -6350 6351 0
-6351 6360 0
-232 -6351 6352 0
-6352 6361 0
-233 -6352 6353 0
-6353 6362 0
-234 -6353 6354 0
-6354 6363 0
-235 -6354 6355 0
-6355 6364 0
-236 -6355 6356 0
-6356 6365 0
-237 -6356 6357 0
-6357 6366 0
-238 -6357 6358 0
-6358 6367 0
-239 -6358 0
-231 6359 0
-6359 6368 0
-232 -6359 6360 0
-6360 6369 0
-233 -6360 6361 0
-6361 6370 0
-234 -6361 6362 0
-6362 6371 0
-235 -6362 6363 0
-6363 6372 0
-236 -6363 6364 0
-6364 6373 0
-237 -6364 6365 0
-6365 6374 0
-238 -6365 6366 0
-6366 6375 0
-239 -6366 6367 0
-6367 6376 0
-240 -6367 0
-232 6368 0
-6368 6377 0
-233 -6368 6369 0
-6369 6378 0
-234 -6369 6370 0
-6370 6379 0
-235 -6370 6371 0
-6371 6380 0
-236 -6371 6372 0
-6372 6381 0
-237 -6372 6373 0
-6373 6382 0
-238 -6373 6374 0
-6374 6383 0
-239 -6374 6375 0
-6375 6384 0
-240 -6375 6376 0
-6376 6385 0
-241 -6376 0
-233 6377 0
-6377 6386 0
-234 -6377 6378 0
-6378 6387 0
-235 -6378 6379 0
-6379 6388 0
-236 -6379 6380 0
-6380 6389 0
-237 -6380 6381 0
-6381 6390 0
-238 -6381 6382 0
-6382 6391 0
-239 -6382 6383 0
-6383 6392 0
-240 -6383 6384 0
-6384 6393 0
-241 -6384 6385 0
-6385 6394 0
-242 -6385 0
-234 6386 0
-6386 6395 0
-235 -6386 6387 0
-6387 6396 0
-236 -6387 6388 0
-6388 6397 0
-237 -6388 6389 0
-6389 6398 0
-238 -6389 6390 0
-6390 6399 0
-239 -6390 6391 0
-6391 6400 0
-240 -6391 6392 0
-6392 6401 0
-241 -6392 6393 0
-6393 6402 0
-242 -6393 6394 0
-6394 6403 0
-243 -6394 0
-235 6395 0
-6395 6404 0
-236 -6395 6396 0
-6396 6405 0
-237 -6396 6397 0
-6397 6406 0
-238 -6397 6398 0
-6398 6407 0
-239 -6398 6399 0
-6399 6408 0
-240 -6399 6400 0
-6400 6409 0
-241 -6400 6401 0
-6401 6410 0
-242 -6401 6402 0
-6402 6411 0
-243 -6402 6403 0
-6403 6412 0
-244 -6403 0
-236 6404 0
-6404 6413 0
-237 -6404 6405 0
-6405 6414 0
-238 -6405 6406 0
-6406 6415 0
-239 -6406 6407 0
-6407 6416 0
-240 -6407 6408 0
-6408 6417 0
-241 -6408 6409 0
-6409 6418 0
-242 -6409 6410 0
-6410 6419 0
-243 -6410 6411 0
-6411 6420 0
-244 -6411 6412 0
-6412 6421 0
-245 -6412 0
-237 6413 0
-6413 6422 0
-238 -6413 6414 0
-6414 6423 0
-239 -6414 6415 0
-6415 6424 0
-240 -6415 6416 0
-6416 6425 0
-241 -6416 6417 0
-6417 6426 0
-242 -6417 6418 0
-6418 6427 0
-243 -6418 6419 0
-6419 6428 0
-244 -6419 6420 0
-6420 6429 0
-245 -6420 6421 0
-6421 6430 0
-246 -6421 0
-238 6422 0
-6422 6431 0
-239 -6422 6423 0
-6423 6432 0
-240 -6423 6424 0
-6424 6433 0
-241 -6424 6425 0
-6425 6434 0
-242 -6425 6426 0
-6426 6435 0
-243 -6426 6427 0
-6427 6436 0
-244 -6427 6428 0
-6428 6437 0
-245 -6428 6429 0
-6429 6438 0
-246 -6429 6430 0
-6430 6439 0
-247 -6430 0
-239 6431 0
-6431 6440 0
-240 -6431 6432 0
-6432 6441 0
-241 -6432 6433 0
-6433 6442 0
-242 -6433 6434 0
-6434 6443 0
-243 -6434 6435 0
-6435 6444 0
-244 -6435 6436 0
-6436 6445 0
-245 -6436 6437 0
-6437 6446 0
-246 -6437 6438 0
-6438 6447 0
-247 -6438 6439 0
-6439 6448 0
-248 -6439 0
-240 6440 0
-6440 6449 0
-241 -6440 6441 0
-6441 6450 0
-242 -6441 6442 0
-6442 6451 0
-243 -6442 6443 0
-6443 6452 0
-244 -6443 6444 0
-6444 6453 0
-245 -6444 6445 0
-6445 6454 0
-246 -6445 6446 0
-6446 6455 0
-247 -6446 6447 0
-6447 6456 0
-248 -6447 6448 0
-6448 6457 0
-249 -6448 0
-241 6449 0
-6449 6458 0
-242 -6449 6450 0
-6450 6459 0
-243 -6450 6451 0
-6451 6460 0
-244 -6451 6452 0
-6452 6461 0
-245 -6452 6453 0
-6453 6462 0
-246 -6453 6454 0
-6454 6463 0
-247 -6454 6455 0
-6455 6464 0
-248 -6455 6456 0
-6456 6465 0
-249 -6456 6457 0
-6457 6466 0
-250 -6457 0
-242 6458 0
-6458 6467 0
-243 -6458 6459 0
-6459 6468 0
-244 -6459 6460 0
-6460 6469 0
-245 -6460 6461 0
-6461 6470 0
-246 -6461 6462 0
-6462 6471 0
-247 -6462 6463 0
-6463 6472 0
-248 -6463 6464 0
-6464 6473 0
-249 -6464 6465 0
-6465 6474 0
-250 -6465 6466 0
-6466 6475 0
-251 -6466 0
-243 6467 0
-6467 6476 0
-244 -6467 6468 0
-6468 6477 0
-245 -6468 6469 0
-6469 6478 0
-246 -6469 6470 0
-6470 6479 0
-247 -6470 6471 0
-6471 6480 0
-248 -6471 6472 0
-6472 6481 0
-249 -6472 6473 0
-6473 6482 0
-250 -6473 6474 0
-6474 6483 0
-251 -6474 6475 0
-6475 6484 0
-252 -6475 0
-244 6476 0
-6476 6485 0
-245 -6476 6477 0
-6477 6486 0
-246 -6477 6478 0
-6478 6487 0
-247 -6478 6479 0
-6479 6488 0
-248 -6479 6480 0
-6480 6489 0
-249 -6480 6481 0
-6481 6490 0
-250 -6481 6482 0
-6482 6491 0
-251 -6482 6483 0
-6483 6492 0
-252 -6483 6484 0
-6484 6493 0
-253 -6484 0
-245 6485 0
-6485 6494 0
-246 -6485 6486 0
-6486 6495 0
-247 -6486 6487 0
-6487 6496 0
-248 -6487 6488 0
-6488 6497 0
-249 -6488 6489 0
-6489 6498 0
-250 -6489 6490 0
-6490 6499 0
-251 -6490 6491 0
-6491 6500 0
-252 -6491 6492 0
-6492 6501 0
-253 -6492 6493 0
-6493 6502 0
-254 -6493 0
-246 6494 0
-6494 6503 0
-247 -6494 6495 0
-6495 6504 0
-248 -6495 6496 0
-6496 6505 0
-249 -6496 6497 0
-6497 6506 0
-250 -6497 6498 0
-6498 6507 0
-251 -6498 6499 0
-6499 6508 0
-252 -6499 6500 0
-6500 6509 0
-253 -6500 6501 0
-6501 6510 0
-254 -6501 6502 0
-6502 6511 0
-255 -6502 0
-247 6503 0
-6503 6512 0
-248 -6503 6504 0
-6504 6513 0
-249 -6504 6505 0
-6505 6514 0
-250 -6505 6506 0
-6506 6515 0
-251 -6506 6507 0
-6507 6516 0
-252 -6507 6508 0
-6508 6517 0
-253 -6508 6509 0
-6509 6518 0
-254 -6509 6510 0
-6510 6519 0
-255 -6510 6511 0
-6511 6520 0
-256 -6511 0
-248 6512 0
-6512 6521 0
-249 -6512 6513 0
-6513 6522 0
-250 -6513 6514 0
-6514 6523 0
-251 -6514 6515 0
-6515 6524 0
-252 -6515 6516 0
-6516 6525 0
-253 -6516 6517 0
-6517 6526 0
-254 -6517 6518 0
-6518 6527 0
-255 -6518 6519 0
-6519 6528 0
-256 -6519 6520 0
-6520 6529 0
-257 -6520 0
-249 6521 0
-6521 6530 0
-250 -6521 6522 0
-6522 6531 0
-251 -6522 6523 0
-6523 6532 0
-252 -6523 6524 0
-6524 6533 0
-253 -6524 6525 0
-6525 6534 0
-254 -6525 6526 0
-6526 6535 0
-255 -6526 6527 0
-6527 6536 0
-256 -6527 6528 0
-6528 6537 0
-257 -6528 6529 0
-6529 6538 0
-258 -6529 0
-250 6530 0
-6530 6539 0
-251 -6530 6531 0
-6531 6540 0
-252 -6531 6532 0
-6532 6541 0
-253 -6532 6533 0
-6533 6542 0
-254 -6533 6534 0
-6534 6543 0
-255 -6534 6535 0
-6535 6544 0
-256 -6535 6536 0
-6536 6545 0
-257 -6536 6537 0
-6537 6546 0
-258 -6537 6538 0
-6538 6547 0
-259 -6538 0
-251 6539 0
-6539 6548 0
-252 -6539 6540 0
-6540 6549 0
-253 -6540 6541 0
-6541 6550 0
-254 -6541 6542 0
-6542 6551 0
-255 -6542 6543 0
-6543 6552 0
-256 -6543 6544 0
-6544 6553 0
-257 -6544 6545 0
-6545 6554 0
-258 -6545 6546 0
-6546 6555 0
-259 -6546 6547 0
-6547 6556 0
-260 -6547 0
-252 6548 0
-6548 6557 0
-253 -6548 6549 0
-6549 6558 0
-254 -6549 6550 0
-6550 6559 0
-255 -6550 6551 0
-6551 6560 0
-256 -6551 6552 0
-6552 6561 0
-257 -6552 6553 0
-6553 6562 0
-258 -6553 6554 0
-6554 6563 0
-259 -6554 6555 0
-6555 6564 0
-260 -6555 6556 0
-6556 6565 0
-261 -6556 0
-253 6557 0
-6557 6566 0
-254 -6557 6558 0
-6558 6567 0
-255 -6558 6559 0
-6559 6568 0
-256 -6559 6560 0
-6560 6569 0
-257 -6560 6561 0
-6561 6570 0
-258 -6561 6562 0
-6562 6571 0
-259 -6562 6563 0
-6563 6572 0
-260 -6563 6564 0
-6564 6573 0
-261 -6564 6565 0
-6565 6574 0
-262 -6565 0
-254 6566 0
-6566 6575 0
-255 -6566 6567 0
-6567 6576 0
-256 -6567 6568 0
-6568 6577 0
-257 -6568 6569 0
-6569 6578 0
-258 -6569 6570 0
-6570 6579 0
-259 -6570 6571 0
-6571 6580 0
-260 -6571 6572 0
-6572 6581 0
-261 -6572 6573 0
-6573 6582 0
-262 -6573 6574 0
-6574 6583 0
-263 -6574 0
-255 6575 0
-6575 6584 0
-256 -6575 6576 0
-6576 6585 0
-257 -6576 6577 0
-6577 6586 0
-258 -6577 6578 0
-6578 6587 0
-259 -6578 6579 0
-6579 6588 0
-260 -6579 6580 0
-6580 6589 0
-261 -6580 6581 0
-6581 6590 0
-262 -6581 6582 0
-6582 6591 0
-263 -6582 6583 0
-6583 6592 0
-264 -6583 0
-256 6584 0
-6584 6593 0
-257 -6584 6585 0
-6585 6594 0
-258 -6585 6586 0
-6586 6595 0
-259 -6586 6587 0
-6587 6596 0
-260 -6587 6588 0
-6588 6597 0
-261 -6588 6589 0
-6589 6598 0
-262 -6589 6590 0
-6590 6599 0
-263 -6590 6591 0
-6591 6600 0
-264 -6591 6592 0
-6592 6601 0
-265 -6592 0
-257 6593 0
-6593 6602 0
-258 -6593 6594 0
-6594 6603 0
-259 -6594 6595 0
-6595 6604 0
-260 -6595 6596 0
-6596 6605 0
-261 -6596 6597 0
-6597 6606 0
-262 -6597 6598 0
-6598 6607 0
-263 -6598 6599 0
-6599 6608 0
-264 -6599 6600 0
-6600 6609 0
-265 -6600 6601 0
-6601 6610 0
-266 -6601 0
-258 6602 0
-6602 6611 0
-259 -6602 6603 0
-6603 6612 0
-260 -6603 6604 0
-6604 6613 0
-261 -6604 6605 0
-6605 6614 0
-262 -6605 6606 0
-6606 6615 0
-263 -6606 6607 0
-6607 6616 0
-264 -6607 6608 0
-6608 6617 0
-265 -6608 6609 0
-6609 6618 0
-266 -6609 6610 0
-6610 6619 0
-267 -6610 0
-259 6611 0
-6611 6620 0
-260 -6611 6612 0
-6612 6621 0
-261 -6612 6613 0
-6613 6622 0
-262 -6613 6614 0
-6614 6623 0
-263 -6614 6615 0
-6615 6624 0
-264 -6615 6616 0
-6616 6625 0
-265 -6616 6617 0
-6617 6626 0
-266 -6617 6618 0
-6618 6627 0
-267 -6618 6619 0
-6619 6628 0
-268 -6619 0
-260 6620 0
-6620 6629 0
-261 -6620 6621 0
-6621 6630 0
-262 -6621 6622 0
-6622 6631 0
-263 -6622 6623 0
-6623 6632 0
-264 -6623 6624 0
-6624 6633 0
-265 -6624 6625 0
-6625 6634 0
-266 -6625 6626 0
-6626 6635 0
-267 -6626 6627 0
-6627 6636 0
-268 -6627 6628 0
-6628 6637 0
-269 -6628 0
-261 6629 0
-6629 6638 0
-262 -6629 6630 0
-6630 6639 0
-263 -6630 6631 0
-6631 6640 0
-264 -6631 6632 0
-6632 6641 0
-265 -6632 6633 0
-6633 6642 0
-266 -6633 6634 0
-6634 6643 0
-267 -6634 6635 0
-6635 6644 0
-268 -6635 6636 0
-6636 6645 0
-269 -6636 6637 0
-6637 6646 0
-270 -6637 0
-262 6638 0
-6638 6647 0
-263 -6638 6639 0
-6639 6648 0
-264 -6639 6640 0
-6640 6649 0
-265 -6640 6641 0
-6641 6650 0
-266 -6641 6642 0
-6642 6651 0
-267 -6642 6643 0
-6643 6652 0
-268 -6643 6644 0
-6644 6653 0
-269 -6644 6645 0
-6645 6654 0
-270 -6645 6646 0
-6646 6655 0
-271 -6646 0
-263 6647 0
-6647 6656 0
-264 -6647 6648 0
-6648 6657 0
-265 -6648 6649 0
-6649 6658 0
-266 -6649 6650 0
-6650 6659 0
-267 -6650 6651 0
-6651 6660 0
-268 -6651 6652 0
-6652 6661 0
-269 -6652 6653 0
-6653 6662 0
-270 -6653 6654 0
-6654 6663 0
-271 -6654 6655 0
-6655 6664 0
-272 -6655 0
-264 6656 0
-6656 6665 0
-265 -6656 6657 0
-6657 6666 0
-266 -6657 6658 0
-6658 6667 0
-267 -6658 6659 0
-6659 6668 0
-268 -6659 6660 0
-6660 6669 0
-269 -6660 6661 0
-6661 6670 0
-270 -6661 6662 0
-6662 6671 0
-271 -6662 6663 0
-6663 6672 0
-272 -6663 6664 0
-6664 6673 0
-273 -6664 0
-265 6665 0
-6665 6674 0
-266 -6665 6666 0
-6666 6675 0
-267 -6666 6667 0
-6667 6676 0
-268 -6667 6668 0
-6668 6677 0
-269 -6668 6669 0
-6669 6678 0
-270 -6669 6670 0
-6670 6679 0
-271 -6670 6671 0
-6671 6680 0
-272 -6671 6672 0
-6672 6681 0
-273 -6672 6673 0
-6673 6682 0
-274 -6673 0
-266 6674 0
-6674 6683 0
-267 -6674 6675 0
-6675 6684 0
-268 -6675 6676 0
-6676 6685 0
-269 -6676 6677 0
-6677 6686 0
-270 -6677 6678 0
-6678 6687 0
-271 -6678 6679 0
-6679 6688 0
-272 -6679 6680 0
-6680 6689 0
-273 -6680 6681 0
-6681 6690 0
-274 -6681 6682 0
-6682 6691 0
-275 -6682 0
-267 6683 0
-6683 6692 0
-268 -6683 6684 0
-6684 6693 0
-269 -6684 6685 0
-6685 6694 0
-270 -6685 6686 0
-6686 6695 0
-271 -6686 6687 0
-6687 6696 0
-272 -6687 6688 0
-6688 6697 0
-273 -6688 6689 0
-6689 6698 0
-274 -6689 6690 0
-6690 6699 0
-275 -6690 6691 0
-6691 6700 0
-276 -6691 0
-268 6692 0
-6692 6701 0
-269 -6692 6693 0
-6693 6702 0
-270 -6693 6694 0
-6694 6703 0
-271 -6694 6695 0
-6695 6704 0
-272 -6695 6696 0
-6696 6705 0
-273 -6696 6697 0
-6697 6706 0
-274 -6697 6698 0
-6698 6707 0
-275 -6698 6699 0
-6699 6708 0
-276 -6699 6700 0
-6700 6709 0
-277 -6700 0
-269 6701 0
-6701 6710 0
-270 -6701 6702 0
-6702 6711 0
-271 -6702 6703 0
-6703 6712 0
-272 -6703 6704 0
-6704 6713 0
-273 -6704 6705 0
-6705 6714 0
-274 -6705 6706 0
-6706 6715 0
-275 -6706 6707 0
-6707 6716 0
-276 -6707 6708 0
-6708 6717 0
-277 -6708 6709 0
-6709 6718 0
-278 -6709 0
-270 6710 0
-6710 6719 0
-271 -6710 6711 0
-6711 6720 0
-272 -6711 6712 0
-6712 6721 0
-273 -6712 6713 0
-6713 6722 0
-274 -6713 6714 0
-6714 6723 0
-275 -6714 6715 0
-6715 6724 0
-276 -6715 6716 0
-6716 6725 0
-277 -6716 6717 0
-6717 6726 0
-278 -6717 6718 0
-6718 6727 0
-279 -6718 0
-271 6719 0
-6719 6728 0
-272 -6719 6720 0
-6720 6729 0
-273 -6720 6721 0
-6721 6730 0
-274 -6721 6722 0
-6722 6731 0
-275 -6722 6723 0
-6723 6732 0
-276 -6723 6724 0
-6724 6733 0
-277 -6724 6725 0
-6725 6734 0
-278 -6725 6726 0
-6726 6735 0
-279 -6726 6727 0
-6727 6736 0
-280 -6727 0
-272 6728 0
-6728 6737 0
-273 -6728 6729 0
-6729 6738 0
-274 -6729 6730 0
-6730 6739 0
-275 -6730 6731 0
-6731 6740 0
-276 -6731 6732 0
-6732 6741 0
-277 -6732 6733 0
-6733 6742 0
-278 -6733 6734 0
-6734 6743 0
-279 -6734 6735 0
-6735 6744 0
-280 -6735 6736 0
-6736 6745 0
-281 -6736 0
-273 6737 0
-6737 6746 0
-274 -6737 6738 0
-6738 6747 0
-275 -6738 6739 0
-6739 6748 0
-276 -6739 6740 0
-6740 6749 0
-277 -6740 6741 0
-6741 6750 0
-278 -6741 6742 0
-6742 6751 0
-279 -6742 6743 0
-6743 6752 0
-280 -6743 6744 0
-6744 6753 0
-281 -6744 6745 0
-6745 6754 0
-282 -6745 0
-274 6746 0
-6746 6755 0
-275 -6746 6747 0
-6747 6756 0
-276 -6747 6748 0
-6748 6757 0
-277 -6748 6749 0
-6749 6758 0
-278 -6749 6750 0
-6750 6759 0
-279 -6750 6751 0
-6751 6760 0
-280 -6751 6752 0
-6752 6761 0
-281 -6752 6753 0
-6753 6762 0
-282 -6753 6754 0
-6754 6763 0
-283 -6754 0
-275 6755 0
-6755 6764 0
-276 -6755 6756 0
-6756 6765 0
-277 -6756 6757 0
-6757 6766 0
-278 -6757 6758 0
-6758 6767 0
-279 -6758 6759 0
-6759 6768 0
-280 -6759 6760 0
-6760 6769 0
-281 -6760 6761 0
-6761 6770 0
-282 -6761 6762 0
-6762 6771 0
-283 -6762 6763 0
-6763 6772 0
-284 -6763 0
-276 6764 0
-6764 6773 0
-277 -6764 6765 0
-6765 6774 0
-278 -6765 6766 0
-6766 6775 0
-279 -6766 6767 0
-6767 6776 0
-280 -6767 6768 0
-6768 6777 0
-281 -6768 6769 0
-6769 6778 0
-282 -6769 6770 0
-6770 6779 0
-283 -6770 6771 0
-6771 6780 0
-284 -6771 6772 0
-6772 6781 0
-285 -6772 0
-277 6773 0
-6773 6782 0
-278 -6773 6774 0
-6774 6783 0
-279 -6774 6775 0
-6775 6784 0
-280 -6775 6776 0
-6776 6785 0
-281 -6776 6777 0
-6777 6786 0
-282 -6777 6778 0
-6778 6787 0
-283 -6778 6779 0
-6779 6788 0
-284 -6779 6780 0
-6780 6789 0
-285 -6780 6781 0
-6781 6790 0
-286 -6781 0
-278 6782 0
-6782 6791 0
-279 -6782 6783 0
-6783 6792 0
-280 -6783 6784 0
-6784 6793 0
-281 -6784 6785 0
-6785 6794 0
-282 -6785 6786 0
-6786 6795 0
-283 -6786 6787 0
-6787 6796 0
-284 -6787 6788 0
-6788 6797 0
-285 -6788 6789 0
-6789 6798 0
-286 -6789 6790 0
-6790 6799 0
-287 -6790 0
-279 6791 0
-6791 6800 0
-280 -6791 6792 0
-6792 6801 0
-281 -6792 6793 0
-6793 6802 0
-282 -6793 6794 0
-6794 6803 0
-283 -6794 6795 0
-6795 6804 0
-284 -6795 6796 0
-6796 6805 0
-285 -6796 6797 0
-6797 6806 0
-286 -6797 6798 0
-6798 6807 0
-287 -6798 6799 0
-6799 6808 0
-288 -6799 0
-280 6800 0
-6800 6809 0
-281 -6800 6801 0
-6801 6810 0
-282 -6801 6802 0
-6802 6811 0
-283 -6802 6803 0
-6803 6812 0
-284 -6803 6804 0
-6804 6813 0
-285 -6804 6805 0
-6805 6814 0
-286 -6805 6806 0
-6806 6815 0
-287 -6806 6807 0
-6807 6816 0
-288 -6807 6808 0
-6808 6817 0
-289 -6808 0
-281 6809 0
-6809 6818 0
-282 -6809 6810 0
-6810 6819 0
-283 -6810 6811 0
-6811 6820 0
-284 -6811 6812 0
-6812 6821 0
-285 -6812 6813 0
-6813 6822 0
-286 -6813 6814 0
-6814 6823 0
-287 -6814 6815 0
-6815 6824 0
-288 -6815 6816 0
-6816 6825 0
-289 -6816 6817 0
-6817 6826 0
-290 -6817 0
-282 6818 0
-6818 6827 0
-283 -6818 6819 0
-6819 6828 0
-284 -6819 6820 0
-6820 6829 0
-285 -6820 6821 0
-6821 6830 0
-286 -6821 6822 0
-6822 6831 0
-287 -6822 6823 0
-6823 6832 0
-288 -6823 6824 0
-6824 6833 0
-289 -6824 6825 0
-6825 6834 0
-290 -6825 6826 0
-6826 6835 0
-291 -6826 0
-283 6827 0
-6827 6836 0
-284 -6827 6828 0
-6828 6837 0
-285 -6828 6829 0
-6829 6838 0
-286 -6829 6830 0
-6830 6839 0
-287 -6830 6831 0
-6831 6840 0
-288 -6831 6832 0
-6832 6841 0
-289 -6832 6833 0
-6833 6842 0
-290 -6833 6834 0
-6834 6843 0
-291 -6834 6835 0
-6835 6844 0
-292 -6835 0
-284 6836 0
-6836 6845 0
-285 -6836 6837 0
-6837 6846 0
-286 -6837 6838 0
-6838 6847 0
-287 -6838 6839 0
-6839 6848 0
-288 -6839 6840 0
-6840 6849 0
-289 -6840 6841 0
-6841 6850 0
-290 -6841 6842 0
-6842 6851 0
-291 -6842 6843 0
-6843 6852 0
-292 -6843 6844 0
-6844 6853 0
-293 -6844 0
-285 6845 0
-6845 6854 0
-286 -6845 6846 0
-6846 6855 0
-287 -6846 6847 0
-6847 6856 0
-288 -6847 6848 0
-6848 6857 0
-289 -6848 6849 0
-6849 6858 0
-290 -6849 6850 0
-6850 6859 0
-291 -6850 6851 0
-6851 6860 0
-292 -6851 6852 0
-6852 6861 0
-293 -6852 6853 0
-6853 6862 0
-294 -6853 0
-286 6854 0
-6854 6863 0
-287 -6854 6855 0
-6855 6864 0
-288 -6855 6856 0
-6856 6865 0
-289 -6856 6857 0
-6857 6866 0
-290 -6857 6858 0
-6858 6867 0
-291 -6858 6859 0
-6859 6868 0
-292 -6859 6860 0
-6860 6869 0
-293 -6860 6861 0
-6861 6870 0
-294 -6861 6862 0
-6862 6871 0
-295 -6862 0
-287 6863 0
-6863 6872 0
-288 -6863 6864 0
-6864 6873 0
-289 -6864 6865 0
-6865 6874 0
-290 -6865 6866 0
-6866 6875 0
-291 -6866 6867 0
-6867 6876 0
-292 -6867 6868 0
-6868 6877 0
-293 -6868 6869 0
-6869 6878 0
-294 -6869 6870 0
-6870 6879 0
-295 -6870 6871 0
-6871 6880 0
-296 -6871 0
-288 6872 0
-6872 6881 0
-289 -6872 6873 0
-6873 6882 0
-290 -6873 6874 0
-6874 6883 0
-291 -6874 6875 0
-6875 6884 0
-292 -6875 6876 0
-6876 6885 0
-293 -6876 6877 0
-6877 6886 0
-294 -6877 6878 0
-6878 6887 0
-295 -6878 6879 0
-6879 6888 0
-296 -6879 6880 0
-6880 6889 0
-297 -6880 0
-289 6881 0
-6881 6890 0
-290 -6881 6882 0
-6882 6891 0
-291 -6882 6883 0
-6883 6892 0
-292 -6883 6884 0
-6884 6893 0
-293 -6884 6885 0
-6885 6894 0
-294 -6885 6886 0
-6886 6895 0
-295 -6886 6887 0
-6887 6896 0
-296 -6887 6888 0
-6888 6897 0
-297 -6888 6889 0
-6889 6898 0
-298 -6889 0
-290 6890 0
-6890 6899 0
-291 -6890 6891 0
-6891 6900 0
-292 -6891 6892 0
-6892 6901 0
-293 -6892 6893 0
-6893 6902 0
-294 -6893 6894 0
-6894 6903 0
-295 -6894 6895 0
-6895 6904 0
-296 -6895 6896 0
-6896 6905 0
-297 -6896 6897 0
-6897 6906 0
-298 -6897 6898 0
-6898 6907 0
-299 -6898 0
-291 6899 0
-6899 6908 0
-292 -6899 6900 0
-6900 6909 0
-293 -6900 6901 0
-6901 6910 0
-294 -6901 6902 0
-6902 6911 0
-295 -6902 6903 0
-6903 6912 0
-296 -6903 6904 0
-6904 6913 0
-297 -6904 6905 0
-6905 6914 0
-298 -6905 6906 0
-6906 6915 0
-299 -6906 6907 0
-6907 6916 0
-300 -6907 0
-292 6908 0
-6908 6917 0
-293 -6908 6909 0
-6909 6918 0
-294 -6909 6910 0
-6910 6919 0
-295 -6910 6911 0
-6911 6920 0
-296 -6911 6912 0
-6912 6921 0
-297 -6912 6913 0
-6913 6922 0
-298 -6913 6914 0
-6914 6923 0
-299 -6914 6915 0
-6915 6924 0
-300 -6915 6916 0
-6916 6925 0
-301 -6916 0
-293 6917 0
-6917 6926 0
-294 -6917 6918 0
-6918 6927 0
-295 -6918 6919 0
-6919 6928 0
-296 -6919 6920 0
-6920 6929 0
-297 -6920 6921 0
-6921 6930 0
-298 -6921 6922 0
-6922 6931 0
-299 -6922 6923 0
-6923 6932 0
-300 -6923 6924 0
-6924 6933 0
-301 -6924 6925 0
-6925 6934 0
-302 -6925 0
-294 6926 0
-6926 6935 0
-295 -6926 6927 0
-6927 6936 0
-296 -6927 6928 0
-6928 6937 0
-297 -6928 6929 0
-6929 6938 0
-298 -6929 6930 0
-6930 6939 0
-299 -6930 6931 0
-6931 6940 0
-300 -6931 6932 0
-6932 6941 0
-301 -6932 6933 0
-6933 6942 0
-302 -6933 6934 0
-6934 6943 0
-303 -6934 0
-295 6935 0
-6935 6944 0
-296 -6935 6936 0
-6936 6945 0
-297 -6936 6937 0
-6937 6946 0
-298 -6937 6938 0
-6938 6947 0
-299 -6938 6939 0
-6939 6948 0
-300 -6939 6940 0
-6940 6949 0
-301 -6940 6941 0
-6941 6950 0
-302 -6941 6942 0
-6942 6951 0
-303 -6942 6943 0
-6943 6952 0
-304 -6943 0
-296 6944 0
-6944 6953 0
-297 -6944 6945 0
-6945 6954 0
-298 -6945 6946 0
-6946 6955 0
-299 -6946 6947 0
-6947 6956 0
-300 -6947 6948 0
-6948 6957 0
-301 -6948 6949 0
-6949 6958 0
-302 -6949 6950 0
-6950 6959 0
-303 -6950 6951 0
-6951 6960 0
-304 -6951 6952 0
-6952 6961 0
-305 -6952 0
-297 6953 0
-6953 6962 0
-298 -6953 6954 0
-6954 6963 0
-299 -6954 6955 0
-6955 6964 0
-300 -6955 6956 0
-6956 6965 0
-301 -6956 6957 0
-6957 6966 0
-302 -6957 6958 0
-6958 6967 0
-303 -6958 6959 0
-6959 6968 0
-304 -6959 6960 0
-6960 6969 0
-305 -6960 6961 0
-6961 6970 0
-306 -6961 0
-298 6962 0
-6962 6971 0
-299 -6962 6963 0
-6963 6972 0
-300 -6963 6964 0
-6964 6973 0
-301 -6964 6965 0
-6965 6974 0
-302 -6965 6966 0
-6966 6975 0
-303 -6966 6967 0
-6967 6976 0
-304 -6967 6968 0
-6968 6977 0
-305 -6968 6969 0
-6969 6978 0
-306 -6969 6970 0
-6970 6979 0
-307 -6970 0
-299 6971 0
-6971 6980 0
-300 -6971 6972 0
-6972 6981 0
-301 -6972 6973 0
-6973 6982 0
-302 -6973 6974 0
-6974 6983 0
-303 -6974 6975 0
-6975 6984 0
-304 -6975 6976 0
-6976 6985 0
-305 -6976 6977 0
-6977 6986 0
-306 -6977 6978 0
-6978 6987 0
-307 -6978 6979 0
-6979 6988 0
-308 -6979 0
-300 6980 0
-6980 6989 0
-301 -6980 6981 0
-6981 6990 0
-302 -6981 6982 0
-6982 6991 0
-303 -6982 6983 0
-6983 6992 0
-304 -6983 6984 0
-6984 6993 0
-305 -6984 6985 0
-6985 6994 0
-306 -6985 6986 0
-6986 6995 0
-307 -6986 6987 0
-6987 6996 0
-308 -6987 6988 0
-6988 6997 0
-309 -6988 0
-301 6989 0
-6989 6998 0
-302 -6989 6990 0
-6990 6999 0
-303 -6990 6991 0
-6991 7000 0
-304 -6991 6992 0
-6992 7001 0
-305 -6992 6993 0
-6993 7002 0
-306 -6993 6994 0
-6994 7003 0
-307 -6994 6995 0
-6995 7004 0
-308 -6995 6996 0
-6996 7005 0
-309 -6996 6997 0
-6997 7006 0
-310 -6997 0
-302 6998 0
-6998 7007 0
-303 -6998 6999 0
-6999 7008 0
-304 -6999 7000 0
-7000 7009 0
-305 -7000 7001 0
-7001 7010 0
-306 -7001 7002 0
-7002 7011 0
-307 -7002 7003 0
-7003 7012 0
-308 -7003 7004 0
-7004 7013 0
-309 -7004 7005 0
-7005 7014 0
-310 -7005 7006 0
-7006 7015 0
-311 -7006 0
-303 7007 0
-7007 7016 0
-304 -7007 7008 0
-7008 7017 0
-305 -7008 7009 0
-7009 7018 0
-306 -7009 7010 0
-7010 7019 0
-307 -7010 7011 0
-7011 7020 0
-308 -7011 7012 0
-7012 7021 0
-309 -7012 7013 0
-7013 7022 0
-310 -7013 7014 0
-7014 7023 0
-311 -7014 7015 0
-7015 7024 0
-312 -7015 0
-304 7016 0
-7016 7025 0
-305 -7016 7017 0
-7017 7026 0
-306 -7017 7018 0
-7018 7027 0
-307 -7018 7019 0
-7019 7028 0
-308 -7019 7020 0
-7020 7029 0
-309 -7020 7021 0
-7021 7030 0
-310 -7021 7022 0
-7022 7031 0
-311 -7022 7023 0
-7023 7032 0
-312 -7023 7024 0
-7024 7033 0
-313 -7024 0
-305 7025 0
-7025 7034 0
-306 -7025 7026 0
-7026 7035 0
-307 -7026 7027 0
-7027 7036 0
-308 -7027 7028 0
-7028 7037 0
-309 -7028 7029 0
-7029 7038 0
-310 -7029 7030 0
-7030 7039 0
-311 -7030 7031 0
-7031 7040 0
-312 -7031 7032 0
-7032 7041 0
-313 -7032 7033 0
-7033 7042 0
-314 -7033 0
-306 7034 0
-7034 7043 0
-307 -7034 7035 0
-7035 7044 0
-308 -7035 7036 0
-7036 7045 0
-309 -7036 7037 0
-7037 7046 0
-310 -7037 7038 0
-7038 7047 0
-311 -7038 7039 0
-7039 7048 0
-312 -7039 7040 0
-7040 7049 0
-313 -7040 7041 0
-7041 7050 0
-314 -7041 7042 0
-7042 7051 0
-315 -7042 0
-307 7043 0
-7043 7052 0
-308 -7043 7044 0
-7044 7053 0
-309 -7044 7045 0
-7045 7054 0
-310 -7045 7046 0
-7046 7055 0
-311 -7046 7047 0
-7047 7056 0
-312 -7047 7048 0
-7048 7057 0
-313 -7048 7049 0
-7049 7058 0
-314 -7049 7050 0
-7050 7059 0
-315 -7050 7051 0
-7051 7060 0
-316 -7051 0
-308 7052 0
-7052 7061 0
-309 -7052 7053 0
-7053 7062 0
-310 -7053 7054 0
-7054 7063 0
-311 -7054 7055 0
-7055 7064 0
-312 -7055 7056 0
-7056 7065 0
-313 -7056 7057 0
-7057 7066 0
-314 -7057 7058 0
-7058 7067 0
-315 -7058 7059 0
-7059 7068 0
-316 -7059 7060 0
-7060 7069 0
-317 -7060 0
-309 7061 0
-7061 7070 0
-310 -7061 7062 0
-7062 7071 0
-311 -7062 7063 0
-7063 7072 0
-312 -7063 7064 0
-7064 7073 0
-313 -7064 7065 0
-7065 7074 0
-314 -7065 7066 0
-7066 7075 0
-315 -7066 7067 0
-7067 7076 0
-316 -7067 7068 0
-7068 7077 0
-317 -7068 7069 0
-7069 7078 0
-318 -7069 0
-310 7070 0
-7070 7079 0
-311 -7070 7071 0
-7071 7080 0
-312 -7071 7072 0
-7072 7081 0
-313 -7072 7073 0
-7073 7082 0
-314 -7073 7074 0
-7074 7083 0
-315 -7074 7075 0
-7075 7084 0
-316 -7075 7076 0
-7076 7085 0
-317 -7076 7077 0
-7077 7086 0
-318 -7077 7078 0
-7078 7087 0
-319 -7078 0
-311 7079 0
-7079 7088 0
-312 -7079 7080 0
-7080 7089 0
-313 -7080 7081 0
-7081 7090 0
-314 -7081 7082 0
-7082 7091 0
-315 -7082 7083 0
-7083 7092 0
-316 -7083 7084 0
-7084 7093 0
-317 -7084 7085 0
-7085 7094 0
-318 -7085 7086 0
-7086 7095 0
-319 -7086 7087 0
-7087 7096 0
-320 -7087 0
-312 7088 0
-7088 7097 0
-313 -7088 7089 0
-7089 7098 0
-314 -7089 7090 0
-7090 7099 0
-315 -7090 7091 0
-7091 7100 0
-316 -7091 7092 0
-7092 7101 0
-317 -7092 7093 0
-7093 7102 0
-318 -7093 7094 0
-7094 7103 0
-319 -7094 7095 0
-7095 7104 0
-320 -7095 7096 0
-7096 7105 0
-321 -7096 0
-313 7097 0
-7097 7106 0
-314 -7097 7098 0
-7098 7107 0
-315 -7098 7099 0
-7099 7108 0
-316 -7099 7100 0
-7100 7109 0
-317 -7100 7101 0
-7101 7110 0
-318 -7101 7102 0
-7102 7111 0
-319 -7102 7103 0
-7103 7112 0
-320 -7103 7104 0
-7104 7113 0
-321 -7104 7105 0
-7105 7114 0
-322 -7105 0
-314 7106 0
-7106 7115 0
-315 -7106 7107 0
-7107 7116 0
-316 -7107 7108 0
-7108 7117 0
-317 -7108 7109 0
-7109 7118 0
-318 -7109 7110 0
-7110 7119 0
-319 -7110 7111 0
-7111 7120 0
-320 -7111 7112 0
-7112 7121 0
-321 -7112 7113 0
-7113 7122 0
-322 -7113 7114 0
-7114 7123 0
-323 -7114 0
-315 7115 0
-7115 7124 0
-316 -7115 7116 0
-7116 7125 0
-317 -7116 7117 0
-7117 7126 0
-318 -7117 7118 0
-7118 7127 0
-319 -7118 7119 0
-7119 7128 0
-320 -7119 7120 0
-7120 7129 0
-321 -7120 7121 0
-7121 7130 0
-322 -7121 7122 0
-7122 7131 0
-323 -7122 7123 0
-7123 7132 0
-324 -7123 0
-316 7124 0
-7124 7133 0
-317 -7124 7125 0
-7125 7134 0
-318 -7125 7126 0
-7126 7135 0
-319 -7126 7127 0
-7127 7136 0
-320 -7127 7128 0
-7128 7137 0
-321 -7128 7129 0
-7129 7138 0
-322 -7129 7130 0
-7130 7139 0
-323 -7130 7131 0
-7131 7140 0
-324 -7131 7132 0
-7132 7141 0
-325 -7132 0
-317 7133 0
-7133 7142 0
-318 -7133 7134 0
-7134 7143 0
-319 -7134 7135 0
-7135 7144 0
-320 -7135 7136 0
-7136 7145 0
-321 -7136 7137 0
-7137 7146 0
-322 -7137 7138 0
-7138 7147 0
-323 -7138 7139 0
-7139 7148 0
-324 -7139 7140 0
-7140 7149 0
-325 -7140 7141 0
-7141 7150 0
-326 -7141 0
-318 7142 0
-7142 7151 0
-319 -7142 7143 0
-7143 7152 0
-320 -7143 7144 0
-7144 7153 0
-321 -7144 7145 0
-7145 7154 0
-322 -7145 7146 0
-7146 7155 0
-323 -7146 7147 0
-7147 7156 0
-324 -7147 7148 0
-7148 7157 0
-325 -7148 7149 0
-7149 7158 0
-326 -7149 7150 0
-7150 7159 0
-327 -7150 0
-319 7151 0
-7151 7160 0
-320 -7151 7152 0
-7152 7161 0
-321 -7152 7153 0
-7153 7162 0
-322 -7153 7154 0
-7154 7163 0
-323 -7154 7155 0
-7155 7164 0
-324 -7155 7156 0
-7156 7165 0
-325 -7156 7157 0
-7157 7166 0
-326 -7157 7158 0
-7158 7167 0
-327 -7158 7159 0
-7159 7168 0
-328 -7159 0
-320 7160 0
-7160 7169 0
-321 -7160 7161 0
-7161 7170 0
-322 -7161 7162 0
-7162 7171 0
-323 -7162 7163 0
-7163 7172 0
-324 -7163 7164 0
-7164 7173 0
-325 -7164 7165 0
-7165 7174 0
-326 -7165 7166 0
-7166 7175 0
-327 -7166 7167 0
-7167 7176 0
-328 -7167 7168 0
-7168 7177 0
-329 -7168 0
-321 7169 0
-7169 7178 0
-322 -7169 7170 0
-7170 7179 0
-323 -7170 7171 0
-7171 7180 0
-324 -7171 7172 0
-7172 7181 0
-325 -7172 7173 0
-7173 7182 0
-326 -7173 7174 0
-7174 7183 0
-327 -7174 7175 0
-7175 7184 0
-328 -7175 7176 0
-7176 7185 0
-329 -7176 7177 0
-7177 7186 0
-330 -7177 0
-322 7178 0
-7178 7187 0
-323 -7178 7179 0
-7179 7188 0
-324 -7179 7180 0
-7180 7189 0
-325 -7180 7181 0
-7181 7190 0
-326 -7181 7182 0
-7182 7191 0
-327 -7182 7183 0
-7183 7192 0
-328 -7183 7184 0
-7184 7193 0
-329 -7184 7185 0
-7185 7194 0
-330 -7185 7186 0
-7186 7195 0
-331 -7186 0
-323 7187 0
-7187 7196 0
-324 -7187 7188 0
-7188 7197 0
-325 -7188 7189 0
-7189 7198 0
-326 -7189 7190 0
-7190 7199 0
-327 -7190 7191 0
-7191 7200 0
-328 -7191 7192 0
-7192 7201 0
-329 -7192 7193 0
-7193 7202 0
-330 -7193 7194 0
-7194 7203 0
-331 -7194 7195 0
-7195 7204 0
-332 -7195 0
-324 7196 0
-7196 7205 0
-325 -7196 7197 0
-7197 7206 0
-326 -7197 7198 0
-7198 7207 0
-327 -7198 7199 0
-7199 7208 0
-328 -7199 7200 0
-7200 7209 0
-329 -7200 7201 0
-7201 7210 0
-330 -7201 7202 0
-7202 7211 0
-331 -7202 7203 0
-7203 7212 0
-332 -7203 7204 0
-7204 7213 0
-333 -7204 0
-325 7205 0
-7205 7214 0
-326 -7205 7206 0
-7206 7215 0
-327 -7206 7207 0
-7207 7216 0
-328 -7207 7208 0
-7208 7217 0
-329 -7208 7209 0
-7209 7218 0
-330 -7209 7210 0
-7210 7219 0
-331 -7210 7211 0
-7211 7220 0
-332 -7211 7212 0
-7212 7221 0
-333 -7212 7213 0
-7213 7222 0
-334 -7213 0
-326 7214 0
-7214 7223 0
-327 -7214 7215 0
-7215 7224 0
-328 -7215 7216 0
-7216 7225 0
-329 -7216 7217 0
-7217 7226 0
-330 -7217 7218 0
-7218 7227 0
-331 -7218 7219 0
-7219 7228 0
-332 -7219 7220 0
-7220 7229 0
-333 -7220 7221 0
-7221 7230 0
-334 -7221 7222 0
-7222 7231 0
-335 -7222 0
-327 7223 0
-7223 7232 0
-328 -7223 7224 0
-7224 7233 0
-329 -7224 7225 0
-7225 7234 0
-330 -7225 7226 0
-7226 7235 0
-331 -7226 7227 0
-7227 7236 0
-332 -7227 7228 0
-7228 7237 0
-333 -7228 7229 0
-7229 7238 0
-334 -7229 7230 0
-7230 7239 0
-335 -7230 7231 0
-7231 7240 0
-336 -7231 0
-328 7232 0
-7232 7241 0
-329 -7232 7233 0
-7233 7242 0
-330 -7233 7234 0
-7234 7243 0
-331 -7234 7235 0
-7235 7244 0
-332 -7235 7236 0
-7236 7245 0
-333 -7236 7237 0
-7237 7246 0
-334 -7237 7238 0
-7238 7247 0
-335 -7238 7239 0
-7239 7248 0
-336 -7239 7240 0
-7240 7249 0
-337 -7240 0
-329 7241 0
-7241 7250 0
-330 -7241 7242 0
-7242 7251 0
-331 -7242 7243 0
-7243 7252 0
-332 -7243 7244 0
-7244 7253 0
-333 -7244 7245 0
-7245 7254 0
-334 -7245 7246 0
-7246 7255 0
-335 -7246 7247 0
-7247 7256 0
-336 -7247 7248 0
-7248 7257 0
-337 -7248 7249 0
-7249 7258 0
-338 -7249 0
-330 7250 0
-7250 7259 0
-331 -7250 7251 0
-7251 7260 0
-332 -7251 7252 0
-7252 7261 0
-333 -7252 7253 0
-7253 7262 0
-334 -7253 7254 0
-7254 7263 0
-335 -7254 7255 0
-7255 7264 0
-336 -7255 7256 0
-7256 7265 0
-337 -7256 7257 0
-7257 7266 0
-338 -7257 7258 0
-7258 7267 0
-339 -7258 0
-331 7259 0
-7259 7268 0
-332 -7259 7260 0
-7260 7269 0
-333 -7260 7261 0
-7261 7270 0
-334 -7261 7262 0
-7262 7271 0
-335 -7262 7263 0
-7263 7272 0
-336 -7263 7264 0
-7264 7273 0
-337 -7264 7265 0
-7265 7274 0
-338 -7265 7266 0
-7266 7275 0
-339 -7266 7267 0
-7267 7276 0
-340 -7267 0
-332 7268 0
-7268 7277 0
-333 -7268 7269 0
-7269 7278 0
-334 -7269 7270 0
-7270 7279 0
-335 -7270 7271 0
-7271 7280 0
-336 -7271 7272 0
-7272 7281 0
-337 -7272 7273 0
-7273 7282 0
-338 -7273 7274 0
-7274 7283 0
-339 -7274 7275 0
-7275 7284 0
-340 -7275 7276 0
-7276 7285 0
-341 -7276 0
-333 7277 0
-7277 7286 0
-334 -7277 7278 0
-7278 7287 0
-335 -7278 7279 0
-7279 7288 0
-336 -7279 7280 0
-7280 7289 0
-337 -7280 7281 0
-7281 7290 0
-338 -7281 7282 0
-7282 7291 0
-339 -7282 7283 0
-7283 7292 0
-340 -7283 7284 0
-7284 7293 0
-341 -7284 7285 0
-7285 7294 0
-342 -7285 0
-334 7286 0
-7286 7295 0
-335 -7286 7287 0
-7287 7296 0
-336 -7287 7288 0
-7288 7297 0
-337 -7288 7289 0
-7289 7298 0
-338 -7289 7290 0
-7290 7299 0
-339 -7290 7291 0
-7291 7300 0
-340 -7291 7292 0
-7292 7301 0
-341 -7292 7293 0
-7293 7302 0
-342 -7293 7294 0
-7294 7303 0
-343 -7294 0
-335 7295 0
-7295 7304 0
-336 -7295 7296 0
-7296 7305 0
-337 -7296 7297 0
-7297 7306 0
-338 -7297 7298 0
-7298 7307 0
-339 -7298 7299 0
-7299 7308 0
-340 -7299 7300 0
-7300 7309 0
-341 -7300 7301 0
-7301 7310 0
-342 -7301 7302 0
-7302 7311 0
-343 -7302 7303 0
-7303 7312 0
-344 -7303 0
-336 7304 0
-7304 7313 0
-337 -7304 7305 0
-7305 7314 0
-338 -7305 7306 0
-7306 7315 0
-339 -7306 7307 0
-7307 7316 0
-340 -7307 7308 0
-7308 7317 0
-341 -7308 7309 0
-7309 7318 0
-342 -7309 7310 0
-7310 7319 0
-343 -7310 7311 0
-7311 7320 0
-344 -7311 7312 0
-7312 7321 0
-345 -7312 0
-337 7313 0
-7313 7322 0
-338 -7313 7314 0
-7314 7323 0
-339 -7314 7315 0
-7315 7324 0
-340 -7315 7316 0
-7316 7325 0
-341 -7316 7317 0
-7317 7326 0
-342 -7317 7318 0
-7318 7327 0
-343 -7318 7319 0
-7319 7328 0
-344 -7319 7320 0
-7320 7329 0
-345 -7320 7321 0
-7321 7330 0
-346 -7321 0
-338 7322 0
-7322 7331 0
-339 -7322 7323 0
-7323 7332 0
-340 -7323 7324 0
-7324 7333 0
-341 -7324 7325 0
-7325 7334 0
-342 -7325 7326 0
-7326 7335 0
-343 -7326 7327 0
-7327 7336 0
-344 -7327 7328 0
-7328 7337 0
-345 -7328 7329 0
-7329 7338 0
-346 -7329 7330 0
-7330 7339 0
-347 -7330 0
-339 7331 0
-7331 7340 0
-340 -7331 7332 0
-7332 7341 0
-341 -7332 7333 0
-7333 7342 0
-342 -7333 7334 0
-7334 7343 0
-343 -7334 7335 0
-7335 7344 0
-344 -7335 7336 0
-7336 7345 0
-345 -7336 7337 0
-7337 7346 0
-346 -7337 7338 0
-7338 7347 0
-347 -7338 7339 0
-7339 7348 0
-348 -7339 0
-340 7340 0
-7340 7349 0
-341 -7340 7341 0
-7341 7350 0
-342 -7341 7342 0
-7342 7351 0
-343 -7342 7343 0
-7343 7352 0
-344 -7343 7344 0
-7344 7353 0
-345 -7344 7345 0
-7345 7354 0
-346 -7345 7346 0
-7346 7355 0
-347 -7346 7347 0
-7347 7356 0
-348 -7347 7348 0
-7348 7357 0
-349 -7348 0
-341 7349 0
-7349 7358 0
-342 -7349 7350 0
-7350 7359 0
-343 -7350 7351 0
-7351 7360 0
-344 -7351 7352 0
-7352 7361 0
-345 -7352 7353 0
-7353 7362 0
-346 -7353 7354 0
-7354 7363 0
-347 -7354 7355 0
-7355 7364 0
-348 -7355 7356 0
-7356 7365 0
-349 -7356 7357 0
-7357 7366 0
-350 -7357 0
-342 7358 0
-7358 7367 0
-343 -7358 7359 0
-7359 7368 0
-344 -7359 7360 0
-7360 7369 0
-345 -7360 7361 0
-7361 7370 0
-346 -7361 7362 0
-7362 7371 0
-347 -7362 7363 0
-7363 7372 0
-348 -7363 7364 0
-7364 7373 0
-349 -7364 7365 0
-7365 7374 0
-350 -7365 7366 0
-7366 7375 0
-351 -7366 0
-343 7367 0
-7367 7376 0
-344 -7367 7368 0
-7368 7377 0
-345 -7368 7369 0
-7369 7378 0
-346 -7369 7370 0
-7370 7379 0
-347 -7370 7371 0
-7371 7380 0
-348 -7371 7372 0
-7372 7381 0
-349 -7372 7373 0
-7373 7382 0
-350 -7373 7374 0
-7374 7383 0
-351 -7374 7375 0
-7375 7384 0
-352 -7375 0
-344 7376 0
-7376 7385 0
-345 -7376 7377 0
-7377 7386 0
-346 -7377 7378 0
-7378 7387 0
-347 -7378 7379 0
-7379 7388 0
-348 -7379 7380 0
-7380 7389 0
-349 -7380 7381 0
-7381 7390 0
-350 -7381 7382 0
-7382 7391 0
-351 -7382 7383 0
-7383 7392 0
-352 -7383 7384 0
-7384 7393 0
-353 -7384 0
-345 7385 0
-7385 7394 0
-346 -7385 7386 0
-7386 7395 0
-347 -7386 7387 0
-7387 7396 0
-348 -7387 7388 0
-7388 7397 0
-349 -7388 7389 0
-7389 7398 0
-350 -7389 7390 0
-7390 7399 0
-351 -7390 7391 0
-7391 7400 0
-352 -7391 7392 0
-7392 7401 0
-353 -7392 7393 0
-7393 7402 0
-354 -7393 0
-346 7394 0
-7394 7403 0
-347 -7394 7395 0
-7395 7404 0
-348 -7395 7396 0
-7396 7405 0
-349 -7396 7397 0
-7397 7406 0
-350 -7397 7398 0
-7398 7407 0
-351 -7398 7399 0
-7399 7408 0
-352 -7399 7400 0
-7400 7409 0
-353 -7400 7401 0
-7401 7410 0
-354 -7401 7402 0
-7402 7411 0
-355 -7402 0
-347 7403 0
-7403 7412 0
-348 -7403 7404 0
-7404 7413 0
-349 -7404 7405 0
-7405 7414 0
-350 -7405 7406 0
-7406 7415 0
-351 -7406 7407 0
-7407 7416 0
-352 -7407 7408 0
-7408 7417 0
-353 -7408 7409 0
-7409 7418 0
-354 -7409 7410 0
-7410 7419 0
-355 -7410 7411 0
-7411 7420 0
-356 -7411 0
-348 7412 0
-7412 7421 0
-349 -7412 7413 0
-7413 7422 0
-350 -7413 7414 0
-7414 7423 0
-351 -7414 7415 0
-7415 7424 0
-352 -7415 7416 0
-7416 7425 0
-353 -7416 7417 0
-7417 7426 0
-354 -7417 7418 0
-7418 7427 0
-355 -7418 7419 0
-7419 7428 0
-356 -7419 7420 0
-7420 7429 0
-357 -7420 0
-349 7421 0
-7421 7430 0
-350 -7421 7422 0
-7422 7431 0
-351 -7422 7423 0
-7423 7432 0
-352 -7423 7424 0
-7424 7433 0
-353 -7424 7425 0
-7425 7434 0
-354 -7425 7426 0
-7426 7435 0
-355 -7426 7427 0
-7427 7436 0
-356 -7427 7428 0
-7428 7437 0
-357 -7428 7429 0
-7429 7438 0
-358 -7429 0
-350 7430 0
-7430 7439 0
-351 -7430 7431 0
-7431 7440 0
-352 -7431 7432 0
-7432 7441 0
-353 -7432 7433 0
-7433 7442 0
-354 -7433 7434 0
-7434 7443 0
-355 -7434 7435 0
-7435 7444 0
-356 -7435 7436 0
-7436 7445 0
-357 -7436 7437 0
-7437 7446 0
-358 -7437 7438 0
-7438 7447 0
-359 -7438 0
-351 7439 0
-7439 7448 0
-352 -7439 7440 0
-7440 7449 0
-353 -7440 7441 0
-7441 7450 0
-354 -7441 7442 0
-7442 7451 0
-355 -7442 7443 0
-7443 7452 0
-356 -7443 7444 0
-7444 7453 0
-357 -7444 7445 0
-7445 7454 0
-358 -7445 7446 0
-7446 7455 0
-359 -7446 7447 0
-7447 7456 0
-360 -7447 0
-352 7448 0
-7448 7457 0
-353 -7448 7449 0
-7449 7458 0
-354 -7449 7450 0
-7450 7459 0
-355 -7450 7451 0
-7451 7460 0
-356 -7451 7452 0
-7452 7461 0
-357 -7452 7453 0
-7453 7462 0
-358 -7453 7454 0
-7454 7463 0
-359 -7454 7455 0
-7455 7464 0
-360 -7455 7456 0
-7456 7465 0
-361 -7456 0
-353 7457 0
-7457 7466 0
-354 -7457 7458 0
-7458 7467 0
-355 -7458 7459 0
-7459 7468 0
-356 -7459 7460 0
-7460 7469 0
-357 -7460 7461 0
-7461 7470 0
-358 -7461 7462 0
-7462 7471 0
-359 -7462 7463 0
-7463 7472 0
-360 -7463 7464 0
-7464 7473 0
-361 -7464 7465 0
-7465 7474 0
-362 -7465 0
-354 7466 0
-7466 7475 0
-355 -7466 7467 0
-7467 7476 0
-356 -7467 7468 0
-7468 7477 0
-357 -7468 7469 0
-7469 7478 0
-358 -7469 7470 0
-7470 7479 0
-359 -7470 7471 0
-7471 7480 0
-360 -7471 7472 0
-7472 7481 0
-361 -7472 7473 0
-7473 7482 0
-362 -7473 7474 0
-7474 7483 0
-363 -7474 0
-355 7475 0
-7475 7484 0
-356 -7475 7476 0
-7476 7485 0
-357 -7476 7477 0
-7477 7486 0
-358 -7477 7478 0
-7478 7487 0
-359 -7478 7479 0
-7479 7488 0
-360 -7479 7480 0
-7480 7489 0
-361 -7480 7481 0
-7481 7490 0
-362 -7481 7482 0
-7482 7491 0
-363 -7482 7483 0
-7483 7492 0
-364 -7483 0
-356 7484 0
-7484 7493 0
-357 -7484 7485 0
-7485 7494 0
-358 -7485 7486 0
-7486 7495 0
-359 -7486 7487 0
-7487 7496 0
-360 -7487 7488 0
-7488 7497 0
-361 -7488 7489 0
-7489 7498 0
-362 -7489 7490 0
-7490 7499 0
-363 -7490 7491 0
-7491 7500 0
-364 -7491 7492 0
-7492 7501 0
-365 -7492 0
-357 7493 0
-7493 7502 0
-358 -7493 7494 0
-7494 7503 0
-359 -7494 7495 0
-7495 7504 0
-360 -7495 7496 0
-7496 7505 0
-361 -7496 7497 0
-7497 7506 0
-362 -7497 7498 0
-7498 7507 0
-363 -7498 7499 0
-7499 7508 0
-364 -7499 7500 0
-7500 7509 0
-365 -7500 7501 0
-7501 7510 0
-366 -7501 0
-358 7502 0
-7502 7511 0
-359 -7502 7503 0
-7503 7512 0
-360 -7503 7504 0
-7504 7513 0
-361 -7504 7505 0
-7505 7514 0
-362 -7505 7506 0
-7506 7515 0
-363 -7506 7507 0
-7507 7516 0
-364 -7507 7508 0
-7508 7517 0
-365 -7508 7509 0
-7509 7518 0
-366 -7509 7510 0
-7510 7519 0
-367 -7510 0
-359 7511 0
-7511 7520 0
-360 -7511 7512 0
-7512 7521 0
-361 -7512 7513 0
-7513 7522 0
-362 -7513 7514 0
-7514 7523 0
-363 -7514 7515 0
-7515 7524 0
-364 -7515 7516 0
-7516 7525 0
-365 -7516 7517 0
-7517 7526 0
-366 -7517 7518 0
-7518 7527 0
-367 -7518 7519 0
-7519 7528 0
-368 -7519 0
-360 7520 0
-7520 7529 0
-361 -7520 7521 0
-7521 7530 0
-362 -7521 7522 0
-7522 7531 0
-363 -7522 7523 0
-7523 7532 0
-364 -7523 7524 0
-7524 7533 0
-365 -7524 7525 0
-7525 7534 0
-366 -7525 7526 0
-7526 7535 0
-367 -7526 7527 0
-7527 7536 0
-368 -7527 7528 0
-7528 7537 0
-369 -7528 0
-361 7529 0
-7529 7538 0
-362 -7529 7530 0
-7530 7539 0
-363 -7530 7531 0
-7531 7540 0
-364 -7531 7532 0
-7532 7541 0
-365 -7532 7533 0
-7533 7542 0
-366 -7533 7534 0
-7534 7543 0
-367 -7534 7535 0
-7535 7544 0
-368 -7535 7536 0
-7536 7545 0
-369 -7536 7537 0
-7537 7546 0
-370 -7537 0
-362 7538 0
-7538 7547 0
-363 -7538 7539 0
-7539 7548 0
-364 -7539 7540 0
-7540 7549 0
-365 -7540 7541 0
-7541 7550 0
-366 -7541 7542 0
-7542 7551 0
-367 -7542 7543 0
-7543 7552 0
-368 -7543 7544 0
-7544 7553 0
-369 -7544 7545 0
-7545 7554 0
-370 -7545 7546 0
-7546 7555 0
-371 -7546 0
-363 7547 0
-7547 7556 0
-364 -7547 7548 0
-7548 7557 0
-365 -7548 7549 0
-7549 7558 0
-366 -7549 7550 0
-7550 7559 0
-367 -7550 7551 0
-7551 7560 0
-368 -7551 7552 0
-7552 7561 0
-369 -7552 7553 0
-7553 7562 0
-370 -7553 7554 0
-7554 7563 0
-371 -7554 7555 0
-7555 7564 0
-372 -7555 0
-364 7556 0
-7556 7565 0
-365 -7556 7557 0
-7557 7566 0
-366 -7557 7558 0
-7558 7567 0
-367 -7558 7559 0
-7559 7568 0
-368 -7559 7560 0
-7560 7569 0
-369 -7560 7561 0
-7561 7570 0
-370 -7561 7562 0
-7562 7571 0
-371 -7562 7563 0
-7563 7572 0
-372 -7563 7564 0
-7564 7573 0
-373 -7564 0
-365 7565 0
-7565 7574 0
-366 -7565 7566 0
-7566 7575 0
-367 -7566 7567 0
-7567 7576 0
-368 -7567 7568 0
-7568 7577 0
-369 -7568 7569 0
-7569 7578 0
-370 -7569 7570 0
-7570 7579 0
-371 -7570 7571 0
-7571 7580 0
-372 -7571 7572 0
-7572 7581 0
-373 -7572 7573 0
-7573 7582 0
-374 -7573 0
-366 7574 0
-7574 7583 0
-367 -7574 7575 0
-7575 7584 0
-368 -7575 7576 0
-7576 7585 0
-369 -7576 7577 0
-7577 7586 0
-370 -7577 7578 0
-7578 7587 0
-371 -7578 7579 0
-7579 7588 0
-372 -7579 7580 0
-7580 7589 0
-373 -7580 7581 0
-7581 7590 0
-374 -7581 7582 0
-7582 7591 0
-375 -7582 0
-367 7583 0
-7583 7592 0
-368 -7583 7584 0
-7584 7593 0
-369 -7584 7585 0
-7585 7594 0
-370 -7585 7586 0
-7586 7595 0
-371 -7586 7587 0
-7587 7596 0
-372 -7587 7588 0
-7588 7597 0
-373 -7588 7589 0
-7589 7598 0
-374 -7589 7590 0
-7590 7599 0
-375 -7590 7591 0
-7591 7600 0
-376 -7591 0
-368 7592 0
-7592 7601 0
-369 -7592 7593 0
-7593 7602 0
-370 -7593 7594 0
-7594 7603 0
-371 -7594 7595 0
-7595 7604 0
-372 -7595 7596 0
-7596 7605 0
-373 -7596 7597 0
-7597 7606 0
-374 -7597 7598 0
-7598 7607 0
-375 -7598 7599 0
-7599 7608 0
-376 -7599 7600 0
-7600 7609 0
-377 -7600 0
-369 7601 0
-7601 7610 0
-370 -7601 7602 0
-7602 7611 0
-371 -7602 7603 0
-7603 7612 0
-372 -7603 7604 0
-7604 7613 0
-373 -7604 7605 0
-7605 7614 0
-374 -7605 7606 0
-7606 7615 0
-375 -7606 7607 0
-7607 7616 0
-376 -7607 7608 0
-7608 7617 0
-377 -7608 7609 0
-7609 7618 0
-378 -7609 0
-370 7610 0
-7610 7619 0
-371 -7610 7611 0
-7611 7620 0
-372 -7611 7612 0
-7612 7621 0
-373 -7612 7613 0
-7613 7622 0
-374 -7613 7614 0
-7614 7623 0
-375 -7614 7615 0
-7615 7624 0
-376 -7615 7616 0
-7616 7625 0
-377 -7616 7617 0
-7617 7626 0
-378 -7617 7618 0
-7618 7627 0
-379 -7618 0
-371 7619 0
-7619 7628 0
-372 -7619 7620 0
-7620 7629 0
-373 -7620 7621 0
-7621 7630 0
-374 -7621 7622 0
-7622 7631 0
-375 -7622 7623 0
-7623 7632 0
-376 -7623 7624 0
-7624 7633 0
-377 -7624 7625 0
-7625 7634 0
-378 -7625 7626 0
-7626 7635 0
-379 -7626 7627 0
-7627 7636 0
-380 -7627 0
-372 7628 0
-7628 7637 0
-373 -7628 7629 0
-7629 7638 0
-374 -7629 7630 0
-7630 7639 0
-375 -7630 7631 0
-7631 7640 0
-376 -7631 7632 0
-7632 7641 0
-377 -7632 7633 0
-7633 7642 0
-378 -7633 7634 0
-7634 7643 0
-379 -7634 7635 0
-7635 7644 0
-380 -7635 7636 0
-7636 7645 0
-381 -7636 0
-373 7637 0
-7637 7646 0
-374 -7637 7638 0
-7638 7647 0
-375 -7638 7639 0
-7639 7648 0
-376 -7639 7640 0
-7640 7649 0
-377 -7640 7641 0
-7641 7650 0
-378 -7641 7642 0
-7642 7651 0
-379 -7642 7643 0
-7643 7652 0
-380 -7643 7644 0
-7644 7653 0
-381 -7644 7645 0
-7645 7654 0
-382 -7645 0
-374 7646 0
-7646 7655 0
-375 -7646 7647 0
-7647 7656 0
-376 -7647 7648 0
-7648 7657 0
-377 -7648 7649 0
-7649 7658 0
-378 -7649 7650 0
-7650 7659 0
-379 -7650 7651 0
-7651 7660 0
-380 -7651 7652 0
-7652 7661 0
-381 -7652 7653 0
-7653 7662 0
-382 -7653 7654 0
-7654 7663 0
-383 -7654 0
-375 7655 0
-376 -7655 7656 0
-377 -7656 7657 0
-378 -7657 7658 0
-379 -7658 7659 0
-380 -7659 7660 0
-381 -7660 7661 0
-382 -7661 7662 0
-383 -7662 7663 0
-384 -7663 0
1 97 0
