p cnf 2933 6013
-83 -1 0
-83 2 41 42 0
-2 1 83 0
-41 1 83 0
-42 1 83 0
-84 -2 0
-84 1 3 43 0
-1 2 84 0
-3 2 84 0
-43 2 84 0
-85 -3 0
-85 2 4 44 0
-2 3 85 0
-4 3 85 0
-44 3 85 0
-86 -4 0
-86 3 5 45 0
-3 4 86 0
-5 4 86 0
-45 4 86 0
-87 -5 0
-87 4 6 46 0
-4 5 87 0
-6 5 87 0
-46 5 87 0
-88 -6 0
-88 5 7 47 0
-5 6 88 0
-7 6 88 0
-47 6 88 0
-89 -7 0
-89 6 8 48 0
-6 7 89 0
-8 7 89 0
-48 7 89 0
-90 -8 0
-90 7 9 49 0
-7 8 90 0
-9 8 90 0
-49 8 90 0
-91 -9 0
-91 8 10 50 0
-8 9 91 0
-10 9 91 0
-50 9 91 0
-92 -10 0
-92 9 11 51 0
-9 10 92 0
-11 10 92 0
-51 10 92 0
-93 -11 0
-93 10 12 52 0
-10 11 93 0
-12 11 93 0
-52 11 93 0
-94 -12 0
-94 11 13 53 0
-11 12 94 0
-13 12 94 0
-53 12 94 0
-95 -13 0
-95 12 14 54 0
-12 13 95 0
-14 13 95 0
-54 13 95 0
-96 -14 0
-96 13 15 55 0
-13 14 96 0
-15 14 96 0
-55 14 96 0
-97 -15 0
-97 14 16 56 0
-14 15 97 0
-16 15 97 0
-56 15 97 0
-98 -16 0
-98 15 17 57 0
-15 16 98 0
-17 16 98 0
-57 16 98 0
-99 -17 0
-99 16 18 58 0
-16 17 99 0
-18 17 99 0
-58 17 99 0
-100 -18 0
-100 17 19 59 0
-17 18 100 0
-19 18 100 0
-59 18 100 0
-101 -19 0
-101 18 20 60 0
-18 19 101 0
-20 19 101 0
-60 19 101 0
-102 -20 0
-102 19 21 61 0
-19 20 102 0
-21 20 102 0
-61 20 102 0
-103 -21 0
-103 20 22 62 0
-20 21 103 0
-22 21 103 0
-62 21 103 0
-104 -22 0
-104 21 23 63 0
-21 22 104 0
-23 22 104 0
-63 22 104 0
-105 -23 0
-105 22 24 64 0
-22 23 105 0
-24 23 105 0
-64 23 105 0
-106 -24 0
-106 23 25 65 0
-23 24 106 0
-25 24 106 0
-65 24 106 0
-107 -25 0
-107 24 26 66 0
-24 25 107 0
-26 25 107 0
-66 25 107 0
-108 -26 0
-108 25 27 67 0
-25 26 108 0
-27 26 108 0
-67 26 108 0
-109 -27 0
-109 26 28 68 0
-26 27 109 0
-28 27 109 0
-68 27 109 0
-110 -28 0
-110 27 29 69 0
-27 28 110 0
-29 28 110 0
-69 28 110 0
-111 -29 0
-111 28 30 70 0
-28 29 111 0
-30 29 111 0
-70 29 111 0
-112 -30 0
-112 29 31 71 0
-29 30 112 0
-31 30 112 0
-71 30 112 0
-113 -31 0
-113 30 32 72 0
-30 31 113 0
-32 31 113 0
-72 31 113 0
-114 -32 0
-114 31 33 73 0
-31 32 114 0
-33 32 114 0
-73 32 114 0
-115 -33 0
-115 32 34 74 0
-32 33 115 0
-34 33 115 0
-74 33 115 0
-116 -34 0
-116 33 35 75 0
-33 34 116 0
-35 34 116 0
-75 34 116 0
-117 -35 0
-117 34 36 76 0
-34 35 117 0
-36 35 117 0
-76 35 117 0
-118 -36 0
-118 35 37 77 0
-35 36 118 0
-37 36 118 0
-77 36 118 0
-119 -37 0
-119 36 38 78 0
-36 37 119 0
-38 37 119 0
-78 37 119 0
-120 -38 0
-120 37 39 79 0
-37 38 120 0
-39 38 120 0
-79 38 120 0
-121 -39 0
-121 38 40 80 0
-38 39 121 0
-40 39 121 0
-80 39 121 0
-122 -40 0
-122 39 41 81 0
-39 40 122 0
-41 40 122 0
-81 40 122 0
-123 -41 0
-123 1 40 82 0
-1 41 123 0
-40 41 123 0
-82 41 123 0
-124 -42 0
-124 1 46 79 0
-1 42 124 0
-46 42 124 0
-79 42 124 0
-125 -43 0
-125 2 47 80 0
-2 43 125 0
-47 43 125 0
-80 43 125 0
-126 -44 0
-126 3 48 81 0
-3 44 126 0
-48 44 126 0
-81 44 126 0
-127 -45 0
-127 4 49 82 0
-4 45 127 0
-49 45 127 0
-82 45 127 0
-128 -46 0
-128 5 42 50 0
-5 46 128 0
-42 46 128 0
-50 46 128 0
-129 -47 0
-129 6 43 51 0
-6 47 129 0
-43 47 129 0
-51 47 129 0
-130 -48 0
-130 7 44 52 0
-7 48 130 0
-44 48 130 0
-52 48 130 0
-131 -49 0
-131 8 45 53 0
-8 49 131 0
-45 49 131 0
-53 49 131 0
-132 -50 0
-132 9 46 54 0
-9 50 132 0
-46 50 132 0
-54 50 132 0
-133 -51 0
-133 10 47 55 0
-10 51 133 0
-47 51 133 0
-55 51 133 0
-134 -52 0
-134 11 48 56 0
-11 52 134 0
-48 52 134 0
-56 52 134 0
-135 -53 0
-135 12 49 57 0
-12 53 135 0
-49 53 135 0
-57 53 135 0
-136 -54 0
-136 13 50 58 0
-13 54 136 0
-50 54 136 0
-58 54 136 0
-137 -55 0
-137 14 51 59 0
-14 55 137 0
-51 55 137 0
-59 55 137 0
-138 -56 0
-138 15 52 60 0
-15 56 138 0
-52 56 138 0
-60 56 138 0
-139 -57 0
-139 16 53 61 0
-16 57 139 0
-53 57 139 0
-61 57 139 0
-140 -58 0
-140 17 54 62 0
-17 58 140 0
-54 58 140 0
-62 58 140 0
-141 -59 0
-141 18 55 63 0
-18 59 141 0
-55 59 141 0
-63 59 141 0
-142 -60 0
-142 19 56 64 0
-19 60 142 0
-56 60 142 0
-64 60 142 0
-143 -61 0
-143 20 57 65 0
-20 61 143 0
-57 61 143 0
-65 61 143 0
-144 -62 0
-144 21 58 66 0
-21 62 144 0
-58 62 144 0
-66 62 144 0
-145 -63 0
-145 22 59 67 0
-22 63 145 0
-59 63 145 0
-67 63 145 0
-146 -64 0
-146 23 60 68 0
-23 64 146 0
-60 64 146 0
-68 64 146 0
-147 -65 0
-147 24 61 69 0
-24 65 147 0
-61 65 147 0
-69 65 147 0
-148 -66 0
-148 25 62 70 0
-25 66 148 0
-62 66 148 0
-70 66 148 0
-149 -67 0
-149 26 63 71 0
-26 67 149 0
-63 67 149 0
-71 67 149 0
-150 -68 0
-150 27 64 72 0
-27 68 150 0
-64 68 150 0
-72 68 150 0
-151 -69 0
-151 28 65 73 0
-28 69 151 0
-65 69 151 0
-73 69 151 0
-152 -70 0
-152 29 66 74 0
-29 70 152 0
-66 70 152 0
-74 70 152 0
-153 -71 0
-153 30 67 75 0
-30 71 153 0
-67 71 153 0
-75 71 153 0
-154 -72 0
-154 31 68 76 0
-31 72 154 0
-68 72 154 0
-76 72 154 0
-155 -73 0
-155 32 69 77 0
-32 73 155 0
-69 73 155 0
-77 73 155 0
-156 -74 0
-156 33 70 78 0
-33 74 156 0
-70 74 156 0
-78 74 156 0
-157 -75 0
-157 34 71 79 0
-34 75 157 0
-71 75 157 0
-79 75 157 0
-158 -76 0
-158 35 72 80 0
-35 76 158 0
-72 76 158 0
-80 76 158 0
-159 -77 0
-159 36 73 81 0
-36 77 159 0
-73 77 159 0
-81 77 159 0
-160 -78 0
-160 37 74 82 0
-37 78 160 0
-74 78 160 0
-82 78 160 0
-161 -79 0
-161 38 42 75 0
-38 79 161 0
-42 79 161 0
-75 79 161 0
-162 -80 0
-162 39 43 76 0
-39 80 162 0
-43 80 162 0
-76 80 162 0
-163 -81 0
-163 40 44 77 0
-40 81 163 0
-44 81 163 0
-77 81 163 0
-164 -82 0
-164 41 45 78 0
-41 82 164 0
-45 82 164 0
-78 82 164 0
1 165 0
-165 166 0
2 -165 167 0
-167 168 0
3 -167 169 0
-169 170 0
4 -169 171 0
-171 172 0
5 -171 173 0
-173 174 0
6 -173 175 0
-175 176 0
7 -175 177 0
-177 178 0
8 -177 179 0
-179 180 0
9 -179 181 0
-181 182 0
10 -181 183 0
-183 184 0
11 -183 185 0
-185 186 0
12 -185 187 0
-187 188 0
13 -187 189 0
-189 190 0
14 -189 191 0
-191 192 0
15 -191 193 0
-193 194 0
16 -193 195 0
-195 196 0
17 -195 197 0
-197 198 0
18 -197 199 0
-199 200 0
19 -199 201 0
-201 202 0
20 -201 203 0
-203 204 0
21 -203 205 0
-205 206 0
22 -205 207 0
-207 208 0
23 -207 209 0
-209 210 0
24 -209 211 0
-211 212 0
25 -211 213 0
-213 214 0
26 -213 215 0
-215 216 0
27 -215 217 0
-217 218 0
28 -217 219 0
-219 220 0
29 -219 221 0
-221 222 0
30 -221 223 0
-223 224 0
31 -223 225 0
-225 226 0
32 -225 227 0
-227 228 0
33 -227 229 0
-229 230 0
34 -229 231 0
-231 232 0
35 -231 233 0
-233 234 0
36 -233 235 0
-235 236 0
37 -235 237 0
-237 238 0
38 -237 239 0
-239 240 0
39 -239 241 0
-241 242 0
40 -241 243 0
-243 244 0
41 -243 245 0
-245 246 0
42 -245 247 0
-247 248 0
43 -247 249 0
-249 250 0
44 -249 251 0
-251 252 0
45 -251 253 0
-253 254 0
46 -253 255 0
-255 256 0
47 -255 257 0
-257 258 0
48 -257 259 0
-259 260 0
49 -259 261 0
-261 262 0
50 -261 263 0
-263 264 0
51 -263 265 0
-265 266 0
52 -265 267 0
-267 268 0
53 -267 269 0
-269 270 0
54 -269 271 0
-271 272 0
55 -271 273 0
-273 274 0
56 -273 275 0
-275 276 0
57 -275 277 0
-277 278 0
58 -277 279 0
-279 280 0
59 -279 281 0
-281 282 0
60 -281 283 0
-283 284 0
61 -283 285 0
-285 286 0
62 -285 287 0
-287 288 0
63 -287 289 0
-289 290 0
64 -289 291 0
-291 292 0
65 -291 293 0
-293 294 0
66 -293 295 0
-295 296 0
67 -295 0
2 166 0
-166 297 0
3 -166 168 0
-168 298 0
4 -168 170 0
-170 299 0
5 -170 172 0
-172 300 0
6 -172 174 0
-174 301 0
7 -174 176 0
-176 302 0
8 -176 178 0
-178 303 0
9 -178 180 0
-180 304 0
10 -180 182 0
-182 305 0
11 -182 184 0
-184 306 0
12 -184 186 0
-186 307 0
13 -186 188 0
-188 308 0
14 -188 190 0
-190 309 0
15 -190 192 0
-192 310 0
16 -192 194 0
-194 311 0
17 -194 196 0
-196 312 0
18 -196 198 0
-198 313 0
19 -198 200 0
-200 314 0
20 -200 202 0
-202 315 0
21 -202 204 0
-204 316 0
22 -204 206 0
-206 317 0
23 -206 208 0
-208 318 0
24 -208 210 0
-210 319 0
25 -210 212 0
-212 320 0
26 -212 214 0
-214 321 0
27 -214 216 0
-216 322 0
28 -216 218 0
-218 323 0
29 -218 220 0
-220 324 0
30 -220 222 0
-222 325 0
31 -222 224 0
-224 326 0
32 -224 226 0
-226 327 0
33 -226 228 0
-228 328 0
34 -228 230 0
-230 329 0
35 -230 232 0
-232 330 0
36 -232 234 0
-234 331 0
37 -234 236 0
-236 332 0
38 -236 238 0
-238 333 0
39 -238 240 0
-240 334 0
40 -240 242 0
-242 335 0
41 -242 244 0
-244 336 0
42 -244 246 0
-246 337 0
43 -246 248 0
-248 338 0
44 -248 250 0
-250 339 0
45 -250 252 0
-252 340 0
46 -252 254 0
-254 341 0
47 -254 256 0
-256 342 0
48 -256 258 0
-258 343 0
49 -258 260 0
-260 344 0
50 -260 262 0
-262 345 0
51 -262 264 0
-264 346 0
52 -264 266 0
-266 347 0
53 -266 268 0
-268 348 0
54 -268 270 0
-270 349 0
55 -270 272 0
-272 350 0
56 -272 274 0
-274 351 0
57 -274 276 0
-276 352 0
58 -276 278 0
-278 353 0
59 -278 280 0
-280 354 0
60 -280 282 0
-282 355 0
61 -282 284 0
-284 356 0
62 -284 286 0
-286 357 0
63 -286 288 0
-288 358 0
64 -288 290 0
-290 359 0
65 -290 292 0
-292 360 0
66 -292 294 0
-294 361 0
67 -294 296 0
-296 362 0
68 -296 0
3 297 0
-297 363 0
4 -297 298 0
-298 364 0
5 -298 299 0
-299 365 0
6 -299 300 0
-300 366 0
7 -300 301 0
-301 367 0
8 -301 302 0
-302 368 0
9 -302 303 0
-303 369 0
10 -303 304 0
-304 370 0
11 -304 305 0
-305 371 0
12 -305 306 0
-306 372 0
13 -306 307 0
-307 373 0
14 -307 308 0
-308 374 0
15 -308 309 0
-309 375 0
16 -309 310 0
-310 376 0
17 -310 311 0
-311 377 0
18 -311 312 0
-312 378 0
19 -312 313 0
-313 379 0
20 -313 314 0
-314 380 0
21 -314 315 0
-315 381 0
22 -315 316 0
-316 382 0
23 -316 317 0
-317 383 0
24 -317 318 0
-318 384 0
25 -318 319 0
-319 385 0
26 -319 320 0
-320 386 0
27 -320 321 0
-321 387 0
28 -321 322 0
-322 388 0
29 -322 323 0
-323 389 0
30 -323 324 0
-324 390 0
31 -324 325 0
-325 391 0
32 -325 326 0
-326 392 0
33 -326 327 0
-327 393 0
34 -327 328 0
-328 394 0
35 -328 329 0
-329 395 0
36 -329 330 0
-330 396 0
37 -330 331 0
-331 397 0
38 -331 332 0
-332 398 0
39 -332 333 0
-333 399 0
40 -333 334 0
-334 400 0
41 -334 335 0
-335 401 0
42 -335 336 0
-336 402 0
43 -336 337 0
-337 403 0
44 -337 338 0
-338 404 0
45 -338 339 0
-339 405 0
46 -339 340 0
-340 406 0
47 -340 341 0
-341 407 0
48 -341 342 0
-342 408 0
49 -342 343 0
-343 409 0
50 -343 344 0
-344 410 0
51 -344 345 0
-345 411 0
52 -345 346 0
-346 412 0
53 -346 347 0
-347 413 0
54 -347 348 0
-348 414 0
55 -348 349 0
-349 415 0
56 -349 350 0
-350 416 0
57 -350 351 0
-351 417 0
58 -351 352 0
-352 418 0
59 -352 353 0
-353 419 0
60 -353 354 0
-354 420 0
61 -354 355 0
-355 421 0
62 -355 356 0
-356 422 0
63 -356 357 0
-357 423 0
64 -357 358 0
-358 424 0
65 -358 359 0
-359 425 0
66 -359 360 0
-360 426 0
67 -360 361 0
-361 427 0
68 -361 362 0
-362 428 0
69 -362 0
4 363 0
-363 429 0
5 -363 364 0
-364 430 0
6 -364 365 0
-365 431 0
7 -365 366 0
-366 432 0
8 -366 367 0
-367 433 0
9 -367 368 0
-368 434 0
10 -368 369 0
-369 435 0
11 -369 370 0
-370 436 0
12 -370 371 0
-371 437 0
13 -371 372 0
-372 438 0
14 -372 373 0
-373 439 0
15 -373 374 0
-374 440 0
16 -374 375 0
-375 441 0
17 -375 376 0
-376 442 0
18 -376 377 0
-377 443 0
19 -377 378 0
-378 444 0
20 -378 379 0
-379 445 0
21 -379 380 0
-380 446 0
22 -380 381 0
-381 447 0
23 -381 382 0
-382 448 0
24 -382 383 0
-383 449 0
25 -383 384 0
-384 450 0
26 -384 385 0
-385 451 0
27 -385 386 0
-386 452 0
28 -386 387 0
-387 453 0
29 -387 388 0
-388 454 0
30 -388 389 0
-389 455 0
31 -389 390 0
-390 456 0
32 -390 391 0
-391 457 0
33 -391 392 0
-392 458 0
34 -392 393 0
-393 459 0
35 -393 394 0
-394 460 0
36 -394 395 0
-395 461 0
37 -395 396 0
-396 462 0
38 -396 397 0
-397 463 0
39 -397 398 0
-398 464 0
40 -398 399 0
-399 465 0
41 -399 400 0
-400 466 0
42 -400 401 0
-401 467 0
43 -401 402 0
-402 468 0
44 -402 403 0
-403 469 0
45 -403 404 0
-404 470 0
46 -404 405 0
-405 471 0
47 -405 406 0
-406 472 0
48 -406 407 0
-407 473 0
49 -407 408 0
-408 474 0
50 -408 409 0
-409 475 0
51 -409 410 0
-410 476 0
52 -410 411 0
-411 477 0
53 -411 412 0
-412 478 0
54 -412 413 0
-413 479 0
55 -413 414 0
-414 480 0
56 -414 415 0
-415 481 0
57 -415 416 0
-416 482 0
58 -416 417 0
-417 483 0
59 -417 418 0
-418 484 0
60 -418 419 0
-419 485 0
61 -419 420 0
-420 486 0
62 -420 421 0
-421 487 0
63 -421 422 0
-422 488 0
64 -422 423 0
-423 489 0
65 -423 424 0
-424 490 0
66 -424 425 0
-425 491 0
67 -425 426 0
-426 492 0
68 -426 427 0
-427 493 0
69 -427 428 0
-428 494 0
70 -428 0
5 429 0
-429 495 0
6 -429 430 0
-430 496 0
7 -430 431 0
-431 497 0
8 -431 432 0
-432 498 0
9 -432 433 0
-433 499 0
10 -433 434 0
-434 500 0
11 -434 435 0
-435 501 0
12 -435 436 0
-436 502 0
13 -436 437 0
-437 503 0
14 -437 438 0
-438 504 0
15 -438 439 0
-439 505 0
16 -439 440 0
-440 506 0
17 -440 441 0
-441 507 0
18 -441 442 0
-442 508 0
19 -442 443 0
-443 509 0
20 -443 444 0
-444 510 0
21 -444 445 0
-445 511 0
22 -445 446 0
-446 512 0
23 -446 447 0
-447 513 0
24 -447 448 0
-448 514 0
25 -448 449 0
-449 515 0
26 -449 450 0
-450 516 0
27 -450 451 0
-451 517 0
28 -451 452 0
-452 518 0
29 -452 453 0
-453 519 0
30 -453 454 0
-454 520 0
31 -454 455 0
-455 521 0
32 -455 456 0
-456 522 0
33 -456 457 0
-457 523 0
34 -457 458 0
-458 524 0
35 -458 459 0
-459 525 0
36 -459 460 0
-460 526 0
37 -460 461 0
-461 527 0
38 -461 462 0
-462 528 0
39 -462 463 0
-463 529 0
40 -463 464 0
-464 530 0
41 -464 465 0
-465 531 0
42 -465 466 0
-466 532 0
43 -466 467 0
-467 533 0
44 -467 468 0
-468 534 0
45 -468 469 0
-469 535 0
46 -469 470 0
-470 536 0
47 -470 471 0
-471 537 0
48 -471 472 0
-472 538 0
49 -472 473 0
-473 539 0
50 -473 474 0
-474 540 0
51 -474 475 0
-475 541 0
52 -475 476 0
-476 542 0
53 -476 477 0
-477 543 0
54 -477 478 0
-478 544 0
55 -478 479 0
-479 545 0
56 -479 480 0
-480 546 0
57 -480 481 0
-481 547 0
58 -481 482 0
-482 548 0
59 -482 483 0
-483 549 0
60 -483 484 0
-484 550 0
61 -484 485 0
-485 551 0
62 -485 486 0
-486 552 0
63 -486 487 0
-487 553 0
64 -487 488 0
-488 554 0
65 -488 489 0
-489 555 0
66 -489 490 0
-490 556 0
67 -490 491 0
-491 557 0
68 -491 492 0
-492 558 0
69 -492 493 0
-493 559 0
70 -493 494 0
-494 560 0
71 -494 0
6 495 0
-495 561 0
7 -495 496 0
-496 562 0
8 -496 497 0
-497 563 0
9 -497 498 0
-498 564 0
10 -498 499 0
-499 565 0
11 -499 500 0
-500 566 0
12 -500 501 0
-501 567 0
13 -501 502 0
-502 568 0
14 -502 503 0
-503 569 0
15 -503 504 0
-504 570 0
16 -504 505 0
-505 571 0
17 -505 506 0
-506 572 0
18 -506 507 0
-507 573 0
19 -507 508 0
-508 574 0
20 -508 509 0
-509 575 0
21 -509 510 0
-510 576 0
22 -510 511 0
-511 577 0
23 -511 512 0
-512 578 0
24 -512 513 0
-513 579 0
25 -513 514 0
-514 580 0
26 -514 515 0
-515 581 0
27 -515 516 0
-516 582 0
28 -516 517 0
-517 583 0
29 -517 518 0
-518 584 0
30 -518 519 0
-519 585 0
31 -519 520 0
-520 586 0
32 -520 521 0
-521 587 0
33 -521 522 0
-522 588 0
34 -522 523 0
-523 589 0
35 -523 524 0
-524 590 0
36 -524 525 0
-525 591 0
37 -525 526 0
-526 592 0
38 -526 527 0
-527 593 0
39 -527 528 0
-528 594 0
40 -528 529 0
-529 595 0
41 -529 530 0
-530 596 0
42 -530 531 0
-531 597 0
43 -531 532 0
-532 598 0
44 -532 533 0
-533 599 0
45 -533 534 0
-534 600 0
46 -534 535 0
-535 601 0
47 -535 536 0
-536 602 0
48 -536 537 0
-537 603 0
49 -537 538 0
-538 604 0
50 -538 539 0
-539 605 0
51 -539 540 0
-540 606 0
52 -540 541 0
-541 607 0
53 -541 542 0
-542 608 0
54 -542 543 0
-543 609 0
55 -543 544 0
-544 610 0
56 -544 545 0
-545 611 0
57 -545 546 0
-546 612 0
58 -546 547 0
-547 613 0
59 -547 548 0
-548 614 0
60 -548 549 0
-549 615 0
61 -549 550 0
-550 616 0
62 -550 551 0
-551 617 0
63 -551 552 0
-552 618 0
64 -552 553 0
-553 619 0
65 -553 554 0
-554 620 0
66 -554 555 0
-555 621 0
67 -555 556 0
-556 622 0
68 -556 557 0
-557 623 0
69 -557 558 0
-558 624 0
70 -558 559 0
-559 625 0
71 -559 560 0
-560 626 0
72 -560 0
7 561 0
-561 627 0
8 -561 562 0
-562 628 0
9 -562 563 0
-563 629 0
10 -563 564 0
-564 630 0
11 -564 565 0
-565 631 0
12 -565 566 0
-566 632 0
13 -566 567 0
-567 633 0
14 -567 568 0
-568 634 0
15 -568 569 0
-569 635 0
16 -569 570 0
-570 636 0
17 -570 571 0
-571 637 0
18 -571 572 0
-572 638 0
19 -572 573 0
-573 639 0
20 -573 574 0
-574 640 0
21 -574 575 0
-575 641 0
22 -575 576 0
-576 642 0
23 -576 577 0
-577 643 0
24 -577 578 0
-578 644 0
25 -578 579 0
-579 645 0
26 -579 580 0
-580 646 0
27 -580 581 0
-581 647 0
28 -581 582 0
-582 648 0
29 -582 583 0
-583 649 0
30 -583 584 0
-584 650 0
31 -584 585 0
-585 651 0
32 -585 586 0
-586 652 0
33 -586 587 0
-587 653 0
34 -587 588 0
-588 654 0
35 -588 589 0
-589 655 0
36 -589 590 0
-590 656 0
37 -590 591 0
-591 657 0
38 -591 592 0
-592 658 0
39 -592 593 0
-593 659 0
40 -593 594 0
-594 660 0
41 -594 595 0
-595 661 0
42 -595 596 0
-596 662 0
43 -596 597 0
-597 663 0
44 -597 598 0
-598 664 0
45 -598 599 0
-599 665 0
46 -599 600 0
-600 666 0
47 -600 601 0
-601 667 0
48 -601 602 0
-602 668 0
49 -602 603 0
-603 669 0
50 -603 604 0
-604 670 0
51 -604 605 0
-605 671 0
52 -605 606 0
-606 672 0
53 -606 607 0
-607 673 0
54 -607 608 0
-608 674 0
55 -608 609 0
-609 675 0
56 -609 610 0
-610 676 0
57 -610 611 0
-611 677 0
58 -611 612 0
-612 678 0
59 -612 613 0
-613 679 0
60 -613 614 0
-614 680 0
61 -614 615 0
-615 681 0
62 -615 616 0
-616 682 0
63 -616 617 0
-617 683 0
64 -617 618 0
-618 684 0
65 -618 619 0
-619 685 0
66 -619 620 0
-620 686 0
67 -620 621 0
-621 687 0
68 -621 622 0
-622 688 0
69 -622 623 0
-623 689 0
70 -623 624 0
-624 690 0
71 -624 625 0
-625 691 0
72 -625 626 0
-626 692 0
73 -626 0
8 627 0
-627 693 0
9 -627 628 0
-628 694 0
10 -628 629 0
-629 695 0
11 -629 630 0
-630 696 0
12 -630 631 0
-631 697 0
13 -631 632 0
-632 698 0
14 -632 633 0
-633 699 0
15 -633 634 0
-634 700 0
16 -634 635 0
-635 701 0
17 -635 636 0
-636 702 0
18 -636 637 0
-637 703 0
19 -637 638 0
-638 704 0
20 -638 639 0
-639 705 0
21 -639 640 0
-640 706 0
22 -640 641 0
-641 707 0
23 -641 642 0
-642 708 0
24 -642 643 0
-643 709 0
25 -643 644 0
-644 710 0
26 -644 645 0
-645 711 0
27 -645 646 0
-646 712 0
28 -646 647 0
-647 713 0
29 -647 648 0
-648 714 0
30 -648 649 0
-649 715 0
31 -649 650 0
-650 716 0
32 -650 651 0
-651 717 0
33 -651 652 0
-652 718 0
34 -652 653 0
-653 719 0
35 -653 654 0
-654 720 0
36 -654 655 0
-655 721 0
37 -655 656 0
-656 722 0
38 -656 657 0
-657 723 0
39 -657 658 0
-658 724 0
40 -658 659 0
-659 725 0
41 -659 660 0
-660 726 0
42 -660 661 0
-661 727 0
43 -661 662 0
-662 728 0
44 -662 663 0
-663 729 0
45 -663 664 0
-664 730 0
46 -664 665 0
-665 731 0
47 -665 666 0
-666 732 0
48 -666 667 0
-667 733 0
49 -667 668 0
-668 734 0
50 -668 669 0
-669 735 0
51 -669 670 0
-670 736 0
52 -670 671 0
-671 737 0
53 -671 672 0
-672 738 0
54 -672 673 0
-673 739 0
55 -673 674 0
-674 740 0
56 -674 675 0
-675 741 0
57 -675 676 0
-676 742 0
58 -676 677 0
-677 743 0
59 -677 678 0
-678 744 0
60 -678 679 0
-679 745 0
61 -679 680 0
-680 746 0
62 -680 681 0
-681 747 0
63 -681 682 0
-682 748 0
64 -682 683 0
-683 749 0
65 -683 684 0
-684 750 0
66 -684 685 0
-685 751 0
67 -685 686 0
-686 752 0
68 -686 687 0
-687 753 0
69 -687 688 0
-688 754 0
70 -688 689 0
-689 755 0
71 -689 690 0
-690 756 0
72 -690 691 0
-691 757 0
73 -691 692 0
-692 758 0
74 -692 0
9 693 0
-693 759 0
10 -693 694 0
-694 760 0
11 -694 695 0
-695 761 0
12 -695 696 0
-696 762 0
13 -696 697 0
-697 763 0
14 -697 698 0
-698 764 0
15 -698 699 0
-699 765 0
16 -699 700 0
-700 766 0
17 -700 701 0
-701 767 0
18 -701 702 0
-702 768 0
19 -702 703 0
-703 769 0
20 -703 704 0
-704 770 0
21 -704 705 0
-705 771 0
22 -705 706 0
-706 772 0
23 -706 707 0
-707 773 0
24 -707 708 0
-708 774 0
25 -708 709 0
-709 775 0
26 -709 710 0
-710 776 0
27 -710 711 0
-711 777 0
28 -711 712 0
-712 778 0
29 -712 713 0
-713 779 0
30 -713 714 0
-714 780 0
31 -714 715 0
-715 781 0
32 -715 716 0
-716 782 0
33 -716 717 0
-717 783 0
34 -717 718 0
-718 784 0
35 -718 719 0
-719 785 0
36 -719 720 0
-720 786 0
37 -720 721 0
-721 787 0
38 -721 722 0
-722 788 0
39 -722 723 0
-723 789 0
40 -723 724 0
-724 790 0
41 -724 725 0
-725 791 0
42 -725 726 0
-726 792 0
43 -726 727 0
-727 793 0
44 -727 728 0
-728 794 0
45 -728 729 0
-729 795 0
46 -729 730 0
-730 796 0
47 -730 731 0
-731 797 0
48 -731 732 0
-732 798 0
49 -732 733 0
-733 799 0
50 -733 734 0
-734 800 0
51 -734 735 0
-735 801 0
52 -735 736 0
-736 802 0
53 -736 737 0
-737 803 0
54 -737 738 0
-738 804 0
55 -738 739 0
-739 805 0
56 -739 740 0
-740 806 0
57 -740 741 0
-741 807 0
58 -741 742 0
-742 808 0
59 -742 743 0
-743 809 0
60 -743 744 0
-744 810 0
61 -744 745 0
-745 811 0
62 -745 746 0
-746 812 0
63 -746 747 0
-747 813 0
64 -747 748 0
-748 814 0
65 -748 749 0
-749 815 0
66 -749 750 0
-750 816 0
67 -750 751 0
-751 817 0
68 -751 752 0
-752 818 0
69 -752 753 0
-753 819 0
70 -753 754 0
-754 820 0
71 -754 755 0
-755 821 0
72 -755 756 0
-756 822 0
73 -756 757 0
-757 823 0
74 -757 758 0
-758 824 0
75 -758 0
10 759 0
-759 825 0
11 -759 760 0
-760 826 0
12 -760 761 0
-761 827 0
13 -761 762 0
-762 828 0
14 -762 763 0
-763 829 0
15 -763 764 0
-764 830 0
16 -764 765 0
-765 831 0
17 -765 766 0
-766 832 0
18 -766 767 0
-767 833 0
19 -767 768 0
-768 834 0
20 -768 769 0
-769 835 0
21 -769 770 0
-770 836 0
22 -770 771 0
-771 837 0
23 -771 772 0
-772 838 0
24 -772 773 0
-773 839 0
25 -773 774 0
-774 840 0
26 -774 775 0
-775 841 0
27 -775 776 0
-776 842 0
28 -776 777 0
-777 843 0
29 -777 778 0
-778 844 0
30 -778 779 0
-779 845 0
31 -779 780 0
-780 846 0
32 -780 781 0
-781 847 0
33 -781 782 0
-782 848 0
34 -782 783 0
-783 849 0
35 -783 784 0
-784 850 0
36 -784 785 0
-785 851 0
37 -785 786 0
-786 852 0
38 -786 787 0
-787 853 0
39 -787 788 0
-788 854 0
40 -788 789 0
-789 855 0
41 -789 790 0
-790 856 0
42 -790 791 0
-791 857 0
43 -791 792 0
-792 858 0
44 -792 793 0
-793 859 0
45 -793 794 0
-794 860 0
46 -794 795 0
-795 861 0
47 -795 796 0
-796 862 0
48 -796 797 0
-797 863 0
49 -797 798 0
-798 864 0
50 -798 799 0
-799 865 0
51 -799 800 0
-800 866 0
52 -800 801 0
-801 867 0
53 -801 802 0
-802 868 0
54 -802 803 0
-803 869 0
55 -803 804 0
-804 870 0
56 -804 805 0
-805 871 0
57 -805 806 0
-806 872 0
58 -806 807 0
-807 873 0
59 -807 808 0
-808 874 0
60 -808 809 0
-809 875 0
61 -809 810 0
-810 876 0
62 -810 811 0
-811 877 0
63 -811 812 0
-812 878 0
64 -812 813 0
-813 879 0
65 -813 814 0
-814 880 0
66 -814 815 0
-815 881 0
67 -815 816 0
-816 882 0
68 -816 817 0
-817 883 0
69 -817 818 0
-818 884 0
70 -818 819 0
-819 885 0
71 -819 820 0
-820 886 0
72 -820 821 0
-821 887 0
73 -821 822 0
-822 888 0
74 -822 823 0
-823 889 0
75 -823 824 0
-824 890 0
76 -824 0
11 825 0
-825 891 0
12 -825 826 0
-826 892 0
13 -826 827 0
-827 893 0
14 -827 828 0
-828 894 0
15 -828 829 0
-829 895 0
16 -829 830 0
-830 896 0
17 -830 831 0
-831 897 0
18 -831 832 0
-832 898 0
19 -832 833 0
-833 899 0
20 -833 834 0
-834 900 0
21 -834 835 0
-835 901 0
22 -835 836 0
-836 902 0
23 -836 837 0
-837 903 0
24 -837 838 0
-838 904 0
25 -838 839 0
-839 905 0
26 -839 840 0
-840 906 0
27 -840 841 0
-841 907 0
28 -841 842 0
-842 908 0
29 -842 843 0
-843 909 0
30 -843 844 0
-844 910 0
31 -844 845 0
-845 911 0
32 -845 846 0
-846 912 0
33 -846 847 0
-847 913 0
34 -847 848 0
-848 914 0
35 -848 849 0
-849 915 0
36 -849 850 0
-850 916 0
37 -850 851 0
-851 917 0
38 -851 852 0
-852 918 0
39 -852 853 0
-853 919 0
40 -853 854 0
-854 920 0
41 -854 855 0
-855 921 0
42 -855 856 0
-856 922 0
43 -856 857 0
-857 923 0
44 -857 858 0
-858 924 0
45 -858 859 0
-859 925 0
46 -859 860 0
-860 926 0
47 -860 861 0
-861 927 0
48 -861 862 0
-862 928 0
49 -862 863 0
-863 929 0
50 -863 864 0
-864 930 0
51 -864 865 0
-865 931 0
52 -865 866 0
-866 932 0
53 -866 867 0
-867 933 0
54 -867 868 0
-868 934 0
55 -868 869 0
-869 935 0
56 -869 870 0
-870 936 0
57 -870 871 0
-871 937 0
58 -871 872 0
-872 938 0
59 -872 873 0
-873 939 0
60 -873 874 0
-874 940 0
61 -874 875 0
-875 941 0
62 -875 876 0
-876 942 0
63 -876 877 0
-877 943 0
64 -877 878 0
-878 944 0
65 -878 879 0
-879 945 0
66 -879 880 0
-880 946 0
67 -880 881 0
-881 947 0
68 -881 882 0
-882 948 0
69 -882 883 0
-883 949 0
70 -883 884 0
-884 950 0
71 -884 885 0
-885 951 0
72 -885 886 0
-886 952 0
73 -886 887 0
-887 953 0
74 -887 888 0
-888 954 0
75 -888 889 0
-889 955 0
76 -889 890 0
-890 956 0
77 -890 0
12 891 0
-891 957 0
13 -891 892 0
-892 958 0
14 -892 893 0
-893 959 0
15 -893 894 0
-894 960 0
16 -894 895 0
-895 961 0
17 -895 896 0
-896 962 0
18 -896 897 0
-897 963 0
19 -897 898 0
-898 964 0
20 -898 899 0
-899 965 0
21 -899 900 0
-900 966 0
22 -900 901 0
-901 967 0
23 -901 902 0
-902 968 0
24 -902 903 0
-903 969 0
25 -903 904 0
-904 970 0
26 -904 905 0
-905 971 0
27 -905 906 0
-906 972 0
28 -906 907 0
-907 973 0
29 -907 908 0
-908 974 0
30 -908 909 0
-909 975 0
31 -909 910 0
-910 976 0
32 -910 911 0
-911 977 0
33 -911 912 0
-912 978 0
34 -912 913 0
-913 979 0
35 -913 914 0
-914 980 0
36 -914 915 0
-915 981 0
37 -915 916 0
-916 982 0
38 -916 917 0
-917 983 0
39 -917 918 0
-918 984 0
40 -918 919 0
-919 985 0
41 -919 920 0
-920 986 0
42 -920 921 0
-921 987 0
43 -921 922 0
-922 988 0
44 -922 923 0
-923 989 0
45 -923 924 0
-924 990 0
46 -924 925 0
-925 991 0
47 -925 926 0
-926 992 0
48 -926 927 0
-927 993 0
49 -927 928 0
-928 994 0
50 -928 929 0
-929 995 0
51 -929 930 0
-930 996 0
52 -930 931 0
-931 997 0
53 -931 932 0
-932 998 0
54 -932 933 0
-933 999 0
55 -933 934 0
-934 1000 0
56 -934 935 0
-935 1001 0
57 -935 936 0
-936 1002 0
58 -936 937 0
-937 1003 0
59 -937 938 0
-938 1004 0
60 -938 939 0
-939 1005 0
61 -939 940 0
-940 1006 0
62 -940 941 0
-941 1007 0
63 -941 942 0
-942 1008 0
64 -942 943 0
-943 1009 0
65 -943 944 0
-944 1010 0
66 -944 945 0
-945 1011 0
67 -945 946 0
-946 1012 0
68 -946 947 0
-947 1013 0
69 -947 948 0
-948 1014 0
70 -948 949 0
-949 1015 0
71 -949 950 0
-950 1016 0
72 -950 951 0
-951 1017 0
73 -951 952 0
-952 1018 0
74 -952 953 0
-953 1019 0
75 -953 954 0
-954 1020 0
76 -954 955 0
-955 1021 0
77 -955 956 0
-956 1022 0
78 -956 0
13 957 0
-957 1023 0
14 -957 958 0
-958 1024 0
15 -958 959 0
-959 1025 0
16 -959 960 0
-960 1026 0
17 -960 961 0
-961 1027 0
18 -961 962 0
-962 1028 0
19 -962 963 0
-963 1029 0
20 -963 964 0
-964 1030 0
21 -964 965 0
-965 1031 0
22 -965 966 0
-966 1032 0
23 -966 967 0
-967 1033 0
24 -967 968 0
-968 1034 0
25 -968 969 0
-969 1035 0
26 -969 970 0
-970 1036 0
27 -970 971 0
-971 1037 0
28 -971 972 0
-972 1038 0
29 -972 973 0
-973 1039 0
30 -973 974 0
-974 1040 0
31 -974 975 0
-975 1041 0
32 -975 976 0
-976 1042 0
33 -976 977 0
-977 1043 0
34 -977 978 0
-978 1044 0
35 -978 979 0
-979 1045 0
36 -979 980 0
-980 1046 0
37 -980 981 0
-981 1047 0
38 -981 982 0
-982 1048 0
39 -982 983 0
-983 1049 0
40 -983 984 0
-984 1050 0
41 -984 985 0
-985 1051 0
42 -985 986 0
-986 1052 0
43 -986 987 0
-987 1053 0
44 -987 988 0
-988 1054 0
45 -988 989 0
-989 1055 0
46 -989 990 0
-990 1056 0
47 -990 991 0
-991 1057 0
48 -991 992 0
-992 1058 0
49 -992 993 0
-993 1059 0
50 -993 994 0
-994 1060 0
51 -994 995 0
-995 1061 0
52 -995 996 0
-996 1062 0
53 -996 997 0
-997 1063 0
54 -997 998 0
-998 1064 0
55 -998 999 0
-999 1065 0
56 -999 1000 0
-1000 1066 0
57 -1000 1001 0
-1001 1067 0
58 -1001 1002 0
-1002 1068 0
59 -1002 1003 0
-1003 1069 0
60 -1003 1004 0
-1004 1070 0
61 -1004 1005 0
-1005 1071 0
62 -1005 1006 0
-1006 1072 0
63 -1006 1007 0
-1007 1073 0
64 -1007 1008 0
-1008 1074 0
65 -1008 1009 0
-1009 1075 0
66 -1009 1010 0
-1010 1076 0
67 -1010 1011 0
-1011 1077 0
68 -1011 1012 0
-1012 1078 0
69 -1012 1013 0
-1013 1079 0
70 -1013 1014 0
-1014 1080 0
71 -1014 1015 0
-1015 1081 0
72 -1015 1016 0
-1016 1082 0
73 -1016 1017 0
-1017 1083 0
74 -1017 1018 0
-1018 1084 0
75 -1018 1019 0
-1019 1085 0
76 -1019 1020 0
-1020 1086 0
77 -1020 1021 0
-1021 1087 0
78 -1021 1022 0
-1022 1088 0
79 -1022 0
14 1023 0
-1023 1089 0
15 -1023 1024 0
-1024 1090 0
16 -1024 1025 0
-1025 1091 0
17 -1025 1026 0
-1026 1092 0
18 -1026 1027 0
-1027 1093 0
19 -1027 1028 0
-1028 1094 0
20 -1028 1029 0
-1029 1095 0
21 -1029 1030 0
-1030 1096 0
22 -1030 1031 0
-1031 1097 0
23 -1031 1032 0
-1032 1098 0
24 -1032 1033 0
-1033 1099 0
25 -1033 1034 0
-1034 1100 0
26 -1034 1035 0
-1035 1101 0
27 -1035 1036 0
-1036 1102 0
28 -1036 1037 0
-1037 1103 0
29 -1037 1038 0
-1038 1104 0
30 -1038 1039 0
-1039 1105 0
31 -1039 1040 0
-1040 1106 0
32 -1040 1041 0
-1041 1107 0
33 -1041 1042 0
-1042 1108 0
34 -1042 1043 0
-1043 1109 0
35 -1043 1044 0
-1044 1110 0
36 -1044 1045 0
-1045 1111 0
37 -1045 1046 0
-1046 1112 0
38 -1046 1047 0
-1047 1113 0
39 -1047 1048 0
-1048 1114 0
40 -1048 1049 0
-1049 1115 0
41 -1049 1050 0
-1050 1116 0
42 -1050 1051 0
-1051 1117 0
43 -1051 1052 0
-1052 1118 0
44 -1052 1053 0
-1053 1119 0
45 -1053 1054 0
-1054 1120 0
46 -1054 1055 0
-1055 1121 0
47 -1055 1056 0
-1056 1122 0
48 -1056 1057 0
-1057 1123 0
49 -1057 1058 0
-1058 1124 0
50 -1058 1059 0
-1059 1125 0
51 -1059 1060 0
-1060 1126 0
52 -1060 1061 0
-1061 1127 0
53 -1061 1062 0
-1062 1128 0
54 -1062 1063 0
-1063 1129 0
55 -1063 1064 0
-1064 1130 0
56 -1064 1065 0
-1065 1131 0
57 -1065 1066 0
-1066 1132 0
58 -1066 1067 0
-1067 1133 0
59 -1067 1068 0
-1068 1134 0
60 -1068 1069 0
-1069 1135 0
61 -1069 1070 0
-1070 1136 0
62 -1070 1071 0
-1071 1137 0
63 -1071 1072 0
-1072 1138 0
64 -1072 1073 0
-1073 1139 0
65 -1073 1074 0
-1074 1140 0
66 -1074 1075 0
-1075 1141 0
67 -1075 1076 0
-1076 1142 0
68 -1076 1077 0
-1077 1143 0
69 -1077 1078 0
-1078 1144 0
70 -1078 1079 0
-1079 1145 0
71 -1079 1080 0
-1080 1146 0
72 -1080 1081 0
-1081 1147 0
73 -1081 1082 0
-1082 1148 0
74 -1082 1083 0
-1083 1149 0
75 -1083 1084 0
-1084 1150 0
76 -1084 1085 0
-1085 1151 0
77 -1085 1086 0
-1086 1152 0
78 -1086 1087 0
-1087 1153 0
79 -1087 1088 0
-1088 1154 0
80 -1088 0
15 1089 0
-1089 1155 0
16 -1089 1090 0
-1090 1156 0
17 -1090 1091 0
-1091 1157 0
18 -1091 1092 0
-1092 1158 0
19 -1092 1093 0
-1093 1159 0
20 -1093 1094 0
-1094 1160 0
21 -1094 1095 0
-1095 1161 0
22 -1095 1096 0
-1096 1162 0
23 -1096 1097 0
-1097 1163 0
24 -1097 1098 0
-1098 1164 0
25 -1098 1099 0
-1099 1165 0
26 -1099 1100 0
-1100 1166 0
27 -1100 1101 0
-1101 1167 0
28 -1101 1102 0
-1102 1168 0
29 -1102 1103 0
-1103 1169 0
30 -1103 1104 0
-1104 1170 0
31 -1104 1105 0
-1105 1171 0
32 -1105 1106 0
-1106 1172 0
33 -1106 1107 0
-1107 1173 0
34 -1107 1108 0
-1108 1174 0
35 -1108 1109 0
-1109 1175 0
36 -1109 1110 0
-1110 1176 0
37 -1110 1111 0
-1111 1177 0
38 -1111 1112 0
-1112 1178 0
39 -1112 1113 0
-1113 1179 0
40 -1113 1114 0
-1114 1180 0
41 -1114 1115 0
-1115 1181 0
42 -1115 1116 0
-1116 1182 0
43 -1116 1117 0
-1117 1183 0
44 -1117 1118 0
-1118 1184 0
45 -1118 1119 0
-1119 1185 0
46 -1119 1120 0
-1120 1186 0
47 -1120 1121 0
-1121 1187 0
48 -1121 1122 0
-1122 1188 0
49 -1122 1123 0
-1123 1189 0
50 -1123 1124 0
-1124 1190 0
51 -1124 1125 0
-1125 1191 0
52 -1125 1126 0
-1126 1192 0
53 -1126 1127 0
-1127 1193 0
54 -1127 1128 0
-1128 1194 0
55 -1128 1129 0
-1129 1195 0
56 -1129 1130 0
-1130 1196 0
57 -1130 1131 0
-1131 1197 0
58 -1131 1132 0
-1132 1198 0
59 -1132 1133 0
-1133 1199 0
60 -1133 1134 0
-1134 1200 0
61 -1134 1135 0
-1135 1201 0
62 -1135 1136 0
-1136 1202 0
63 -1136 1137 0
-1137 1203 0
64 -1137 1138 0
-1138 1204 0
65 -1138 1139 0
-1139 1205 0
66 -1139 1140 0
-1140 1206 0
67 -1140 1141 0
-1141 1207 0
68 -1141 1142 0
-1142 1208 0
69 -1142 1143 0
-1143 1209 0
70 -1143 1144 0
-1144 1210 0
71 -1144 1145 0
-1145 1211 0
72 -1145 1146 0
-1146 1212 0
73 -1146 1147 0
-1147 1213 0
74 -1147 1148 0
-1148 1214 0
75 -1148 1149 0
-1149 1215 0
76 -1149 1150 0
-1150 1216 0
77 -1150 1151 0
-1151 1217 0
78 -1151 1152 0
-1152 1218 0
79 -1152 1153 0
-1153 1219 0
80 -1153 1154 0
-1154 1220 0
81 -1154 0
16 1155 0
17 -1155 1156 0
18 -1156 1157 0
19 -1157 1158 0
20 -1158 1159 0
21 -1159 1160 0
22 -1160 1161 0
23 -1161 1162 0
24 -1162 1163 0
25 -1163 1164 0
26 -1164 1165 0
27 -1165 1166 0
28 -1166 1167 0
29 -1167 1168 0
30 -1168 1169 0
31 -1169 1170 0
32 -1170 1171 0
33 -1171 1172 0
34 -1172 1173 0
35 -1173 1174 0
36 -1174 1175 0
37 -1175 1176 0
38 -1176 1177 0
39 -1177 1178 0
40 -1178 1179 0
41 -1179 1180 0
42 -1180 1181 0
43 -1181 1182 0
44 -1182 1183 0
45 -1183 1184 0
46 -1184 1185 0
47 -1185 1186 0
48 -1186 1187 0
49 -1187 1188 0
50 -1188 1189 0
51 -1189 1190 0
52 -1190 1191 0
53 -1191 1192 0
54 -1192 1193 0
55 -1193 1194 0
56 -1194 1195 0
57 -1195 1196 0
58 -1196 1197 0
59 -1197 1198 0
60 -1198 1199 0
61 -1199 1200 0
62 -1200 1201 0
63 -1201 1202 0
64 -1202 1203 0
65 -1203 1204 0
66 -1204 1205 0
67 -1205 1206 0
68 -1206 1207 0
69 -1207 1208 0
70 -1208 1209 0
71 -1209 1210 0
72 -1210 1211 0
73 -1211 1212 0
74 -1212 1213 0
75 -1213 1214 0
76 -1214 1215 0
77 -1215 1216 0
78 -1216 1217 0
79 -1217 1218 0
80 -1218 1219 0
81 -1219 1220 0
82 -1220 0
-1 1221 0
-1221 1222 0
-2 -1221 1223 0
-1223 1224 0
-3 -1223 1225 0
-1225 1226 0
-4 -1225 1227 0
-1227 1228 0
-5 -1227 1229 0
-1229 1230 0
-6 -1229 1231 0
-1231 1232 0
-7 -1231 1233 0
-1233 1234 0
-8 -1233 1235 0
-1235 1236 0
-9 -1235 1237 0
-1237 1238 0
-10 -1237 1239 0
-1239 1240 0
-11 -1239 1241 0
-1241 1242 0
-12 -1241 1243 0
-1243 1244 0
-13 -1243 1245 0
-1245 1246 0
-14 -1245 1247 0
-1247 1248 0
-15 -1247 1249 0
-1249 1250 0
-16 -1249 1251 0
-1251 1252 0
-17 -1251 0
-2 1222 0
-1222 1253 0
-3 -1222 1224 0
-1224 1254 0
-4 -1224 1226 0
-1226 1255 0
-5 -1226 1228 0
-1228 1256 0
-6 -1228 1230 0
-1230 1257 0
-7 -1230 1232 0
-1232 1258 0
-8 -1232 1234 0
-1234 1259 0
-9 -1234 1236 0
-1236 1260 0
-10 -1236 1238 0
-1238 1261 0
-11 -1238 1240 0
-1240 1262 0
-12 -1240 1242 0
-1242 1263 0
-13 -1242 1244 0
-1244 1264 0
-14 -1244 1246 0
-1246 1265 0
-15 -1246 1248 0
-1248 1266 0
-16 -1248 1250 0
-1250 1267 0
-17 -1250 1252 0
-1252 1268 0
-18 -1252 0
-3 1253 0
-1253 1269 0
-4 -1253 1254 0
-1254 1270 0
-5 -1254 1255 0
-1255 1271 0
-6 -1255 1256 0
-1256 1272 0
-7 -1256 1257 0
-1257 1273 0
-8 -1257 1258 0
-1258 1274 0
-9 -1258 1259 0
-1259 1275 0
-10 -1259 1260 0
-1260 1276 0
-11 -1260 1261 0
-1261 1277 0
-12 -1261 1262 0
-1262 1278 0
-13 -1262 1263 0
-1263 1279 0
-14 -1263 1264 0
-1264 1280 0
-15 -1264 1265 0
-1265 1281 0
-16 -1265 1266 0
-1266 1282 0
-17 -1266 1267 0
-1267 1283 0
-18 -1267 1268 0
-1268 1284 0
-19 -1268 0
-4 1269 0
-1269 1285 0
-5 -1269 1270 0
-1270 1286 0
-6 -1270 1271 0
-1271 1287 0
-7 -1271 1272 0
-1272 1288 0
-8 -1272 1273 0
-1273 1289 0
-9 -1273 1274 0
-1274 1290 0
-10 -1274 1275 0
-1275 1291 0
-11 -1275 1276 0
-1276 1292 0
-12 -1276 1277 0
-1277 1293 0
-13 -1277 1278 0
-1278 1294 0
-14 -1278 1279 0
-1279 1295 0
-15 -1279 1280 0
-1280 1296 0
-16 -1280 1281 0
-1281 1297 0
-17 -1281 1282 0
-1282 1298 0
-18 -1282 1283 0
-1283 1299 0
-19 -1283 1284 0
-1284 1300 0
-20 -1284 0
-5 1285 0
-1285 1301 0
-6 -1285 1286 0
-1286 1302 0
-7 -1286 1287 0
-1287 1303 0
-8 -1287 1288 0
-1288 1304 0
-9 -1288 1289 0
-1289 1305 0
-10 -1289 1290 0
-1290 1306 0
-11 -1290 1291 0
-1291 1307 0
-12 -1291 1292 0
-1292 1308 0
-13 -1292 1293 0
-1293 1309 0
-14 -1293 1294 0
-1294 1310 0
-15 -1294 1295 0
-1295 1311 0
-16 -1295 1296 0
-1296 1312 0
-17 -1296 1297 0
-1297 1313 0
-18 -1297 1298 0
-1298 1314 0
-19 -1298 1299 0
-1299 1315 0
-20 -1299 1300 0
-1300 1316 0
-21 -1300 0
-6 1301 0
-1301 1317 0
-7 -1301 1302 0
-1302 1318 0
-8 -1302 1303 0
-1303 1319 0
-9 -1303 1304 0
-1304 1320 0
-10 -1304 1305 0
-1305 1321 0
-11 -1305 1306 0
-1306 1322 0
-12 -1306 1307 0
-1307 1323 0
-13 -1307 1308 0
-1308 1324 0
-14 -1308 1309 0
-1309 1325 0
-15 -1309 1310 0
-1310 1326 0
-16 -1310 1311 0
-1311 1327 0
-17 -1311 1312 0
-1312 1328 0
-18 -1312 1313 0
-1313 1329 0
-19 -1313 1314 0
-1314 1330 0
-20 -1314 1315 0
-1315 1331 0
-21 -1315 1316 0
-1316 1332 0
-22 -1316 0
-7 1317 0
-1317 1333 0
-8 -1317 1318 0
-1318 1334 0
-9 -1318 1319 0
-1319 1335 0
-10 -1319 1320 0
-1320 1336 0
-11 -1320 1321 0
-1321 1337 0
-12 -1321 1322 0
-1322 1338 0
-13 -1322 1323 0
-1323 1339 0
-14 -1323 1324 0
-1324 1340 0
-15 -1324 1325 0
-1325 1341 0
-16 -1325 1326 0
-1326 1342 0
-17 -1326 1327 0
-1327 1343 0
-18 -1327 1328 0
-1328 1344 0
-19 -1328 1329 0
-1329 1345 0
-20 -1329 1330 0
-1330 1346 0
-21 -1330 1331 0
-1331 1347 0
-22 -1331 1332 0
-1332 1348 0
-23 -1332 0
-8 1333 0
-1333 1349 0
-9 -1333 1334 0
-1334 1350 0
-10 -1334 1335 0
-1335 1351 0
-11 -1335 1336 0
-1336 1352 0
-12 -1336 1337 0
-1337 1353 0
-13 -1337 1338 0
-1338 1354 0
-14 -1338 1339 0
-1339 1355 0
-15 -1339 1340 0
-1340 1356 0
-16 -1340 1341 0
-1341 1357 0
-17 -1341 1342 0
-1342 1358 0
-18 -1342 1343 0
-1343 1359 0
-19 -1343 1344 0
-1344 1360 0
-20 -1344 1345 0
-1345 1361 0
-21 -1345 1346 0
-1346 1362 0
-22 -1346 1347 0
-1347 1363 0
-23 -1347 1348 0
-1348 1364 0
-24 -1348 0
-9 1349 0
-1349 1365 0
-10 -1349 1350 0
-1350 1366 0
-11 -1350 1351 0
-1351 1367 0
-12 -1351 1352 0
-1352 1368 0
-13 -1352 1353 0
-1353 1369 0
-14 -1353 1354 0
-1354 1370 0
-15 -1354 1355 0
-1355 1371 0
-16 -1355 1356 0
-1356 1372 0
-17 -1356 1357 0
-1357 1373 0
-18 -1357 1358 0
-1358 1374 0
-19 -1358 1359 0
-1359 1375 0
-20 -1359 1360 0
-1360 1376 0
-21 -1360 1361 0
-1361 1377 0
-22 -1361 1362 0
-1362 1378 0
-23 -1362 1363 0
-1363 1379 0
-24 -1363 1364 0
-1364 1380 0
-25 -1364 0
-10 1365 0
-1365 1381 0
-11 -1365 1366 0
-1366 1382 0
-12 -1366 1367 0
-1367 1383 0
-13 -1367 1368 0
-1368 1384 0
-14 -1368 1369 0
-1369 1385 0
-15 -1369 1370 0
-1370 1386 0
-16 -1370 1371 0
-1371 1387 0
-17 -1371 1372 0
-1372 1388 0
-18 -1372 1373 0
-1373 1389 0
-19 -1373 1374 0
-1374 1390 0
-20 -1374 1375 0
-1375 1391 0
-21 -1375 1376 0
-1376 1392 0
-22 -1376 1377 0
-1377 1393 0
-23 -1377 1378 0
-1378 1394 0
-24 -1378 1379 0
-1379 1395 0
-25 -1379 1380 0
-1380 1396 0
-26 -1380 0
-11 1381 0
-1381 1397 0
-12 -1381 1382 0
-1382 1398 0
-13 -1382 1383 0
-1383 1399 0
-14 -1383 1384 0
-1384 1400 0
-15 -1384 1385 0
-1385 1401 0
-16 -1385 1386 0
-1386 1402 0
-17 -1386 1387 0
-1387 1403 0
-18 -1387 1388 0
-1388 1404 0
-19 -1388 1389 0
-1389 1405 0
-20 -1389 1390 0
-1390 1406 0
-21 -1390 1391 0
-1391 1407 0
-22 -1391 1392 0
-1392 1408 0
-23 -1392 1393 0
-1393 1409 0
-24 -1393 1394 0
-1394 1410 0
-25 -1394 1395 0
-1395 1411 0
-26 -1395 1396 0
-1396 1412 0
-27 -1396 0
-12 1397 0
-1397 1413 0
-13 -1397 1398 0
-1398 1414 0
-14 -1398 1399 0
-1399 1415 0
-15 -1399 1400 0
-1400 1416 0
-16 -1400 1401 0
-1401 1417 0
-17 -1401 1402 0
-1402 1418 0
-18 -1402 1403 0
-1403 1419 0
-19 -1403 1404 0
-1404 1420 0
-20 -1404 1405 0
-1405 1421 0
-21 -1405 1406 0
-1406 1422 0
-22 -1406 1407 0
-1407 1423 0
-23 -1407 1408 0
-1408 1424 0
-24 -1408 1409 0
-1409 1425 0
-25 -1409 1410 0
-1410 1426 0
-26 -1410 1411 0
-1411 1427 0
-27 -1411 1412 0
-1412 1428 0
-28 -1412 0
-13 1413 0
-1413 1429 0
-14 -1413 1414 0
-1414 1430 0
-15 -1414 1415 0
-1415 1431 0
-16 -1415 1416 0
-1416 1432 0
-17 -1416 1417 0
-1417 1433 0
-18 -1417 1418 0
-1418 1434 0
-19 -1418 1419 0
-1419 1435 0
-20 -1419 1420 0
-1420 1436 0
-21 -1420 1421 0
-1421 1437 0
-22 -1421 1422 0
-1422 1438 0
-23 -1422 1423 0
-1423 1439 0
-24 -1423 1424 0
-1424 1440 0
-25 -1424 1425 0
-1425 1441 0
-26 -1425 1426 0
-1426 1442 0
-27 -1426 1427 0
-1427 1443 0
-28 -1427 1428 0
-1428 1444 0
-29 -1428 0
-14 1429 0
-1429 1445 0
-15 -1429 1430 0
-1430 1446 0
-16 -1430 1431 0
-1431 1447 0
-17 -1431 1432 0
-1432 1448 0
-18 -1432 1433 0
-1433 1449 0
-19 -1433 1434 0
-1434 1450 0
-20 -1434 1435 0
-1435 1451 0
-21 -1435 1436 0
-1436 1452 0
-22 -1436 1437 0
-1437 1453 0
-23 -1437 1438 0
-1438 1454 0
-24 -1438 1439 0
-1439 1455 0
-25 -1439 1440 0
-1440 1456 0
-26 -1440 1441 0
-1441 1457 0
-27 -1441 1442 0
-1442 1458 0
-28 -1442 1443 0
-1443 1459 0
-29 -1443 1444 0
-1444 1460 0
-30 -1444 0
-15 1445 0
-1445 1461 0
-16 -1445 1446 0
-1446 1462 0
-17 -1446 1447 0
-1447 1463 0
-18 -1447 1448 0
-1448 1464 0
-19 -1448 1449 0
-1449 1465 0
-20 -1449 1450 0
-1450 1466 0
-21 -1450 1451 0
-1451 1467 0
-22 -1451 1452 0
-1452 1468 0
-23 -1452 1453 0
-1453 1469 0
-24 -1453 1454 0
-1454 1470 0
-25 -1454 1455 0
-1455 1471 0
-26 -1455 1456 0
-1456 1472 0
-27 -1456 1457 0
-1457 1473 0
-28 -1457 1458 0
-1458 1474 0
-29 -1458 1459 0
-1459 1475 0
-30 -1459 1460 0
-1460 1476 0
-31 -1460 0
-16 1461 0
-1461 1477 0
-17 -1461 1462 0
-1462 1478 0
-18 -1462 1463 0
-1463 1479 0
-19 -1463 1464 0
-1464 1480 0
-20 -1464 1465 0
-1465 1481 0
-21 -1465 1466 0
-1466 1482 0
-22 -1466 1467 0
-1467 1483 0
-23 -1467 1468 0
-1468 1484 0
-24 -1468 1469 0
-1469 1485 0
-25 -1469 1470 0
-1470 1486 0
-26 -1470 1471 0
-1471 1487 0
-27 -1471 1472 0
-1472 1488 0
-28 -1472 1473 0
-1473 1489 0
-29 -1473 1474 0
-1474 1490 0
-30 -1474 1475 0
-1475 1491 0
-31 -1475 1476 0
-1476 1492 0
-32 -1476 0
-17 1477 0
-1477 1493 0
-18 -1477 1478 0
-1478 1494 0
-19 -1478 1479 0
-1479 1495 0
-20 -1479 1480 0
-1480 1496 0
-21 -1480 1481 0
-1481 1497 0
-22 -1481 1482 0
-1482 1498 0
-23 -1482 1483 0
-1483 1499 0
-24 -1483 1484 0
-1484 1500 0
-25 -1484 1485 0
-1485 1501 0
-26 -1485 1486 0
-1486 1502 0
-27 -1486 1487 0
-1487 1503 0
-28 -1487 1488 0
-1488 1504 0
-29 -1488 1489 0
-1489 1505 0
-30 -1489 1490 0
-1490 1506 0
-31 -1490 1491 0
-1491 1507 0
-32 -1491 1492 0
-1492 1508 0
-33 -1492 0
-18 1493 0
-1493 1509 0
-19 -1493 1494 0
-1494 1510 0
-20 -1494 1495 0
-1495 1511 0
-21 -1495 1496 0
-1496 1512 0
-22 -1496 1497 0
-1497 1513 0
-23 -1497 1498 0
-1498 1514 0
-24 -1498 1499 0
-1499 1515 0
-25 -1499 1500 0
-1500 1516 0
-26 -1500 1501 0
-1501 1517 0
-27 -1501 1502 0
-1502 1518 0
-28 -1502 1503 0
-1503 1519 0
-29 -1503 1504 0
-1504 1520 0
-30 -1504 1505 0
-1505 1521 0
-31 -1505 1506 0
-1506 1522 0
-32 -1506 1507 0
-1507 1523 0
-33 -1507 1508 0
-1508 1524 0
-34 -1508 0
-19 1509 0
-1509 1525 0
-20 -1509 1510 0
-1510 1526 0
-21 -1510 1511 0
-1511 1527 0
-22 -1511 1512 0
-1512 1528 0
-23 -1512 1513 0
-1513 1529 0
-24 -1513 1514 0
-1514 1530 0
-25 -1514 1515 0
-1515 1531 0
-26 -1515 1516 0
-1516 1532 0
-27 -1516 1517 0
-1517 1533 0
-28 -1517 1518 0
-1518 1534 0
-29 -1518 1519 0
-1519 1535 0
-30 -1519 1520 0
-1520 1536 0
-31 -1520 1521 0
-1521 1537 0
-32 -1521 1522 0
-1522 1538 0
-33 -1522 1523 0
-1523 1539 0
-34 -1523 1524 0
-1524 1540 0
-35 -1524 0
-20 1525 0
-1525 1541 0
-21 -1525 1526 0
-1526 1542 0
-22 -1526 1527 0
-1527 1543 0
-23 -1527 1528 0
-1528 1544 0
-24 -1528 1529 0
-1529 1545 0
-25 -1529 1530 0
-1530 1546 0
-26 -1530 1531 0
-1531 1547 0
-27 -1531 1532 0
-1532 1548 0
-28 -1532 1533 0
-1533 1549 0
-29 -1533 1534 0
-1534 1550 0
-30 -1534 1535 0
-1535 1551 0
-31 -1535 1536 0
-1536 1552 0
-32 -1536 1537 0
-1537 1553 0
-33 -1537 1538 0
-1538 1554 0
-34 -1538 1539 0
-1539 1555 0
-35 -1539 1540 0
-1540 1556 0
-36 -1540 0
-21 1541 0
-1541 1557 0
-22 -1541 1542 0
-1542 1558 0
-23 -1542 1543 0
-1543 1559 0
-24 -1543 1544 0
-1544 1560 0
-25 -1544 1545 0
-1545 1561 0
-26 -1545 1546 0
-1546 1562 0
-27 -1546 1547 0
-1547 1563 0
-28 -1547 1548 0
-1548 1564 0
-29 -1548 1549 0
-1549 1565 0
-30 -1549 1550 0
-1550 1566 0
-31 -1550 1551 0
-1551 1567 0
-32 -1551 1552 0
-1552 1568 0
-33 -1552 1553 0
-1553 1569 0
-34 -1553 1554 0
-1554 1570 0
-35 -1554 1555 0
-1555 1571 0
-36 -1555 1556 0
-1556 1572 0
-37 -1556 0
-22 1557 0
-1557 1573 0
-23 -1557 1558 0
-1558 1574 0
-24 -1558 1559 0
-1559 1575 0
-25 -1559 1560 0
-1560 1576 0
-26 -1560 1561 0
-1561 1577 0
-27 -1561 1562 0
-1562 1578 0
-28 -1562 1563 0
-1563 1579 0
-29 -1563 1564 0
-1564 1580 0
-30 -1564 1565 0
-1565 1581 0
-31 -1565 1566 0
-1566 1582 0
-32 -1566 1567 0
-1567 1583 0
-33 -1567 1568 0
-1568 1584 0
-34 -1568 1569 0
-1569 1585 0
-35 -1569 1570 0
-1570 1586 0
-36 -1570 1571 0
-1571 1587 0
-37 -1571 1572 0
-1572 1588 0
-38 -1572 0
-23 1573 0
-1573 1589 0
-24 -1573 1574 0
-1574 1590 0
-25 -1574 1575 0
-1575 1591 0
-26 -1575 1576 0
-1576 1592 0
-27 -1576 1577 0
-1577 1593 0
-28 -1577 1578 0
-1578 1594 0
-29 -1578 1579 0
-1579 1595 0
-30 -1579 1580 0
-1580 1596 0
-31 -1580 1581 0
-1581 1597 0
-32 -1581 1582 0
-1582 1598 0
-33 -1582 1583 0
-1583 1599 0
-34 -1583 1584 0
-1584 1600 0
-35 -1584 1585 0
-1585 1601 0
-36 -1585 1586 0
-1586 1602 0
-37 -1586 1587 0
-1587 1603 0
-38 -1587 1588 0
-1588 1604 0
-39 -1588 0
-24 1589 0
-1589 1605 0
-25 -1589 1590 0
-1590 1606 0
-26 -1590 1591 0
-1591 1607 0
-27 -1591 1592 0
-1592 1608 0
-28 -1592 1593 0
-1593 1609 0
-29 -1593 1594 0
-1594 1610 0
-30 -1594 1595 0
-1595 1611 0
-31 -1595 1596 0
-1596 1612 0
-32 -1596 1597 0
-1597 1613 0
-33 -1597 1598 0
-1598 1614 0
-34 -1598 1599 0
-1599 1615 0
-35 -1599 1600 0
-1600 1616 0
-36 -1600 1601 0
-1601 1617 0
-37 -1601 1602 0
-1602 1618 0
-38 -1602 1603 0
-1603 1619 0
-39 -1603 1604 0
-1604 1620 0
-40 -1604 0
-25 1605 0
-1605 1621 0
-26 -1605 1606 0
-1606 1622 0
-27 -1606 1607 0
-1607 1623 0
-28 -1607 1608 0
-1608 1624 0
-29 -1608 1609 0
-1609 1625 0
-30 -1609 1610 0
-1610 1626 0
-31 -1610 1611 0
-1611 1627 0
-32 -1611 1612 0
-1612 1628 0
-33 -1612 1613 0
-1613 1629 0
-34 -1613 1614 0
-1614 1630 0
-35 -1614 1615 0
-1615 1631 0
-36 -1615 1616 0
-1616 1632 0
-37 -1616 1617 0
-1617 1633 0
-38 -1617 1618 0
-1618 1634 0
-39 -1618 1619 0
-1619 1635 0
-40 -1619 1620 0
-1620 1636 0
-41 -1620 0
-26 1621 0
-1621 1637 0
-27 -1621 1622 0
-1622 1638 0
-28 -1622 1623 0
-1623 1639 0
-29 -1623 1624 0
-1624 1640 0
-30 -1624 1625 0
-1625 1641 0
-31 -1625 1626 0
-1626 1642 0
-32 -1626 1627 0
-1627 1643 0
-33 -1627 1628 0
-1628 1644 0
-34 -1628 1629 0
-1629 1645 0
-35 -1629 1630 0
-1630 1646 0
-36 -1630 1631 0
-1631 1647 0
-37 -1631 1632 0
-1632 1648 0
-38 -1632 1633 0
-1633 1649 0
-39 -1633 1634 0
-1634 1650 0
-40 -1634 1635 0
-1635 1651 0
-41 -1635 1636 0
-1636 1652 0
-42 -1636 0
-27 1637 0
-1637 1653 0
-28 -1637 1638 0
-1638 1654 0
-29 -1638 1639 0
-1639 1655 0
-30 -1639 1640 0
-1640 1656 0
-31 -1640 1641 0
-1641 1657 0
-32 -1641 1642 0
-1642 1658 0
-33 -1642 1643 0
-1643 1659 0
-34 -1643 1644 0
-1644 1660 0
-35 -1644 1645 0
-1645 1661 0
-36 -1645 1646 0
-1646 1662 0
-37 -1646 1647 0
-1647 1663 0
-38 -1647 1648 0
-1648 1664 0
-39 -1648 1649 0
-1649 1665 0
-40 -1649 1650 0
-1650 1666 0
-41 -1650 1651 0
-1651 1667 0
-42 -1651 1652 0
-1652 1668 0
-43 -1652 0
-28 1653 0
-1653 1669 0
-29 -1653 1654 0
-1654 1670 0
-30 -1654 1655 0
-1655 1671 0
-31 -1655 1656 0
-1656 1672 0
-32 -1656 1657 0
-1657 1673 0
-33 -1657 1658 0
-1658 1674 0
-34 -1658 1659 0
-1659 1675 0
-35 -1659 1660 0
-1660 1676 0
-36 -1660 1661 0
-1661 1677 0
-37 -1661 1662 0
-1662 1678 0
-38 -1662 1663 0
-1663 1679 0
-39 -1663 1664 0
-1664 1680 0
-40 -1664 1665 0
-1665 1681 0
-41 -1665 1666 0
-1666 1682 0
-42 -1666 1667 0
-1667 1683 0
-43 -1667 1668 0
-1668 1684 0
-44 -1668 0
-29 1669 0
-1669 1685 0
-30 -1669 1670 0
-1670 1686 0
-31 -1670 1671 0
-1671 1687 0
-32 -1671 1672 0
-1672 1688 0
-33 -1672 1673 0
-1673 1689 0
-34 -1673 1674 0
-1674 1690 0
-35 -1674 1675 0
-1675 1691 0
-36 -1675 1676 0
-1676 1692 0
-37 -1676 1677 0
-1677 1693 0
-38 -1677 1678 0
-1678 1694 0
-39 -1678 1679 0
-1679 1695 0
-40 -1679 1680 0
-1680 1696 0
-41 -1680 1681 0
-1681 1697 0
-42 -1681 1682 0
-1682 1698 0
-43 -1682 1683 0
-1683 1699 0
-44 -1683 1684 0
-1684 1700 0
-45 -1684 0
-30 1685 0
-1685 1701 0
-31 -1685 1686 0
-1686 1702 0
-32 -1686 1687 0
-1687 1703 0
-33 -1687 1688 0
-1688 1704 0
-34 -1688 1689 0
-1689 1705 0
-35 -1689 1690 0
-1690 1706 0
-36 -1690 1691 0
-1691 1707 0
-37 -1691 1692 0
-1692 1708 0
-38 -1692 1693 0
-1693 1709 0
-39 -1693 1694 0
-1694 1710 0
-40 -1694 1695 0
-1695 1711 0
-41 -1695 1696 0
-1696 1712 0
-42 -1696 1697 0
-1697 1713 0
-43 -1697 1698 0
-1698 1714 0
-44 -1698 1699 0
-1699 1715 0
-45 -1699 1700 0
-1700 1716 0
-46 -1700 0
-31 1701 0
-1701 1717 0
-32 -1701 1702 0
-1702 1718 0
-33 -1702 1703 0
-1703 1719 0
-34 -1703 1704 0
-1704 1720 0
-35 -1704 1705 0
-1705 1721 0
-36 -1705 1706 0
-1706 1722 0
-37 -1706 1707 0
-1707 1723 0
-38 -1707 1708 0
-1708 1724 0
-39 -1708 1709 0
-1709 1725 0
-40 -1709 1710 0
-1710 1726 0
-41 -1710 1711 0
-1711 1727 0
-42 -1711 1712 0
-1712 1728 0
-43 -1712 1713 0
-1713 1729 0
-44 -1713 1714 0
-1714 1730 0
-45 -1714 1715 0
-1715 1731 0
-46 -1715 1716 0
-1716 1732 0
-47 -1716 0
-32 1717 0
-1717 1733 0
-33 -1717 1718 0
-1718 1734 0
-34 -1718 1719 0
-1719 1735 0
-35 -1719 1720 0
-1720 1736 0
-36 -1720 1721 0
-1721 1737 0
-37 -1721 1722 0
-1722 1738 0
-38 -1722 1723 0
-1723 1739 0
-39 -1723 1724 0
-1724 1740 0
-40 -1724 1725 0
-1725 1741 0
-41 -1725 1726 0
-1726 1742 0
-42 -1726 1727 0
-1727 1743 0
-43 -1727 1728 0
-1728 1744 0
-44 -1728 1729 0
-1729 1745 0
-45 -1729 1730 0
-1730 1746 0
-46 -1730 1731 0
-1731 1747 0
-47 -1731 1732 0
-1732 1748 0
-48 -1732 0
-33 1733 0
-1733 1749 0
-34 -1733 1734 0
-1734 1750 0
-35 -1734 1735 0
-1735 1751 0
-36 -1735 1736 0
-1736 1752 0
-37 -1736 1737 0
-1737 1753 0
-38 -1737 1738 0
-1738 1754 0
-39 -1738 1739 0
-1739 1755 0
-40 -1739 1740 0
-1740 1756 0
-41 -1740 1741 0
-1741 1757 0
-42 -1741 1742 0
-1742 1758 0
-43 -1742 1743 0
-1743 1759 0
-44 -1743 1744 0
-1744 1760 0
-45 -1744 1745 0
-1745 1761 0
-46 -1745 1746 0
-1746 1762 0
-47 -1746 1747 0
-1747 1763 0
-48 -1747 1748 0
-1748 1764 0
-49 -1748 0
-34 1749 0
-1749 1765 0
-35 -1749 1750 0
-1750 1766 0
-36 -1750 1751 0
-1751 1767 0
-37 -1751 1752 0
-1752 1768 0
-38 -1752 1753 0
-1753 1769 0
-39 -1753 1754 0
-1754 1770 0
-40 -1754 1755 0
-1755 1771 0
-41 -1755 1756 0
-1756 1772 0
-42 -1756 1757 0
-1757 1773 0
-43 -1757 1758 0
-1758 1774 0
-44 -1758 1759 0
-1759 1775 0
-45 -1759 1760 0
-1760 1776 0
-46 -1760 1761 0
-1761 1777 0
-47 -1761 1762 0
-1762 1778 0
-48 -1762 1763 0
-1763 1779 0
-49 -1763 1764 0
-1764 1780 0
-50 -1764 0
-35 1765 0
-1765 1781 0
-36 -1765 1766 0
-1766 1782 0
-37 -1766 1767 0
-1767 1783 0
-38 -1767 1768 0
-1768 1784 0
-39 -1768 1769 0
-1769 1785 0
-40 -1769 1770 0
-1770 1786 0
-41 -1770 1771 0
-1771 1787 0
-42 -1771 1772 0
-1772 1788 0
-43 -1772 1773 0
-1773 1789 0
-44 -1773 1774 0
-1774 1790 0
-45 -1774 1775 0
-1775 1791 0
-46 -1775 1776 0
-1776 1792 0
-47 -1776 1777 0
-1777 1793 0
-48 -1777 1778 0
-1778 1794 0
-49 -1778 1779 0
-1779 1795 0
-50 -1779 1780 0
-1780 1796 0
-51 -1780 0
-36 1781 0
-1781 1797 0
-37 -1781 1782 0
-1782 1798 0
-38 -1782 1783 0
-1783 1799 0
-39 -1783 1784 0
-1784 1800 0
-40 -1784 1785 0
-1785 1801 0
-41 -1785 1786 0
-1786 1802 0
-42 -1786 1787 0
-1787 1803 0
-43 -1787 1788 0
-1788 1804 0
-44 -1788 1789 0
-1789 1805 0
-45 -1789 1790 0
-1790 1806 0
-46 -1790 1791 0
-1791 1807 0
-47 -1791 1792 0
-1792 1808 0
-48 -1792 1793 0
-1793 1809 0
-49 -1793 1794 0
-1794 1810 0
-50 -1794 1795 0
-1795 1811 0
-51 -1795 1796 0
-1796 1812 0
-52 -1796 0
-37 1797 0
-1797 1813 0
-38 -1797 1798 0
-1798 1814 0
-39 -1798 1799 0
-1799 1815 0
-40 -1799 1800 0
-1800 1816 0
-41 -1800 1801 0
-1801 1817 0
-42 -1801 1802 0
-1802 1818 0
-43 -1802 1803 0
-1803 1819 0
-44 -1803 1804 0
-1804 1820 0
-45 -1804 1805 0
-1805 1821 0
-46 -1805 1806 0
-1806 1822 0
-47 -1806 1807 0
-1807 1823 0
-48 -1807 1808 0
-1808 1824 0
-49 -1808 1809 0
-1809 1825 0
-50 -1809 1810 0
-1810 1826 0
-51 -1810 1811 0
-1811 1827 0
-52 -1811 1812 0
-1812 1828 0
-53 -1812 0
-38 1813 0
-1813 1829 0
-39 -1813 1814 0
-1814 1830 0
-40 -1814 1815 0
-1815 1831 0
-41 -1815 1816 0
-1816 1832 0
-42 -1816 1817 0
-1817 1833 0
-43 -1817 1818 0
-1818 1834 0
-44 -1818 1819 0
-1819 1835 0
-45 -1819 1820 0
-1820 1836 0
-46 -1820 1821 0
-1821 1837 0
-47 -1821 1822 0
-1822 1838 0
-48 -1822 1823 0
-1823 1839 0
-49 -1823 1824 0
-1824 1840 0
-50 -1824 1825 0
-1825 1841 0
-51 -1825 1826 0
-1826 1842 0
-52 -1826 1827 0
-1827 1843 0
-53 -1827 1828 0
-1828 1844 0
-54 -1828 0
-39 1829 0
-1829 1845 0
-40 -1829 1830 0
-1830 1846 0
-41 -1830 1831 0
-1831 1847 0
-42 -1831 1832 0
-1832 1848 0
-43 -1832 1833 0
-1833 1849 0
-44 -1833 1834 0
-1834 1850 0
-45 -1834 1835 0
-1835 1851 0
-46 -1835 1836 0
-1836 1852 0
-47 -1836 1837 0
-1837 1853 0
-48 -1837 1838 0
-1838 1854 0
-49 -1838 1839 0
-1839 1855 0
-50 -1839 1840 0
-1840 1856 0
-51 -1840 1841 0
-1841 1857 0
-52 -1841 1842 0
-1842 1858 0
-53 -1842 1843 0
-1843 1859 0
-54 -1843 1844 0
-1844 1860 0
-55 -1844 0
-40 1845 0
-1845 1861 0
-41 -1845 1846 0
-1846 1862 0
-42 -1846 1847 0
-1847 1863 0
-43 -1847 1848 0
-1848 1864 0
-44 -1848 1849 0
-1849 1865 0
-45 -1849 1850 0
-1850 1866 0
-46 -1850 1851 0
-1851 1867 0
-47 -1851 1852 0
-1852 1868 0
-48 -1852 1853 0
-1853 1869 0
-49 -1853 1854 0
-1854 1870 0
-50 -1854 1855 0
-1855 1871 0
-51 -1855 1856 0
-1856 1872 0
-52 -1856 1857 0
-1857 1873 0
-53 -1857 1858 0
-1858 1874 0
-54 -1858 1859 0
-1859 1875 0
-55 -1859 1860 0
-1860 1876 0
-56 -1860 0
-41 1861 0
-1861 1877 0
-42 -1861 1862 0
-1862 1878 0
-43 -1862 1863 0
-1863 1879 0
-44 -1863 1864 0
-1864 1880 0
-45 -1864 1865 0
-1865 1881 0
-46 -1865 1866 0
-1866 1882 0
-47 -1866 1867 0
-1867 1883 0
-48 -1867 1868 0
-1868 1884 0
-49 -1868 1869 0
-1869 1885 0
-50 -1869 1870 0
-1870 1886 0
-51 -1870 1871 0
-1871 1887 0
-52 -1871 1872 0
-1872 1888 0
-53 -1872 1873 0
-1873 1889 0
-54 -1873 1874 0
-1874 1890 0
-55 -1874 1875 0
-1875 1891 0
-56 -1875 1876 0
-1876 1892 0
-57 -1876 0
-42 1877 0
-1877 1893 0
-43 -1877 1878 0
-1878 1894 0
-44 -1878 1879 0
-1879 1895 0
-45 -1879 1880 0
-1880 1896 0
-46 -1880 1881 0
-1881 1897 0
-47 -1881 1882 0
-1882 1898 0
-48 -1882 1883 0
-1883 1899 0
-49 -1883 1884 0
-1884 1900 0
-50 -1884 1885 0
-1885 1901 0
-51 -1885 1886 0
-1886 1902 0
-52 -1886 1887 0
-1887 1903 0
-53 -1887 1888 0
-1888 1904 0
-54 -1888 1889 0
-1889 1905 0
-55 -1889 1890 0
-1890 1906 0
-56 -1890 1891 0
-1891 1907 0
-57 -1891 1892 0
-1892 1908 0
-58 -1892 0
-43 1893 0
-1893 1909 0
-44 -1893 1894 0
-1894 1910 0
-45 -1894 1895 0
-1895 1911 0
-46 -1895 1896 0
-1896 1912 0
-47 -1896 1897 0
-1897 1913 0
-48 -1897 1898 0
-1898 1914 0
-49 -1898 1899 0
-1899 1915 0
-50 -1899 1900 0
-1900 1916 0
-51 -1900 1901 0
-1901 1917 0
-52 -1901 1902 0
-1902 1918 0
-53 -1902 1903 0
-1903 1919 0
-54 -1903 1904 0
-1904 1920 0
-55 -1904 1905 0
-1905 1921 0
-56 -1905 1906 0
-1906 1922 0
-57 -1906 1907 0
-1907 1923 0
-58 -1907 1908 0
-1908 1924 0
-59 -1908 0
-44 1909 0
-1909 1925 0
-45 -1909 1910 0
-1910 1926 0
-46 -1910 1911 0
-1911 1927 0
-47 -1911 1912 0
-1912 1928 0
-48 -1912 1913 0
-1913 1929 0
-49 -1913 1914 0
-1914 1930 0
-50 -1914 1915 0
-1915 1931 0
-51 -1915 1916 0
-1916 1932 0
-52 -1916 1917 0
-1917 1933 0
-53 -1917 1918 0
-1918 1934 0
-54 -1918 1919 0
-1919 1935 0
-55 -1919 1920 0
-1920 1936 0
-56 -1920 1921 0
-1921 1937 0
-57 -1921 1922 0
-1922 1938 0
-58 -1922 1923 0
-1923 1939 0
-59 -1923 1924 0
-1924 1940 0
-60 -1924 0
-45 1925 0
-1925 1941 0
-46 -1925 1926 0
-1926 1942 0
-47 -1926 1927 0
-1927 1943 0
-48 -1927 1928 0
-1928 1944 0
-49 -1928 1929 0
-1929 1945 0
-50 -1929 1930 0
-1930 1946 0
-51 -1930 1931 0
-1931 1947 0
-52 -1931 1932 0
-1932 1948 0
-53 -1932 1933 0
-1933 1949 0
-54 -1933 1934 0
-1934 1950 0
-55 -1934 1935 0
-1935 1951 0
-56 -1935 1936 0
-1936 1952 0
-57 -1936 1937 0
-1937 1953 0
-58 -1937 1938 0
-1938 1954 0
-59 -1938 1939 0
-1939 1955 0
-60 -1939 1940 0
-1940 1956 0
-61 -1940 0
-46 1941 0
-1941 1957 0
-47 -1941 1942 0
-1942 1958 0
-48 -1942 1943 0
-1943 1959 0
-49 -1943 1944 0
-1944 1960 0
-50 -1944 1945 0
-1945 1961 0
-51 -1945 1946 0
-1946 1962 0
-52 -1946 1947 0
-1947 1963 0
-53 -1947 1948 0
-1948 1964 0
-54 -1948 1949 0
-1949 1965 0
-55 -1949 1950 0
-1950 1966 0
-56 -1950 1951 0
-1951 1967 0
-57 -1951 1952 0
-1952 1968 0
-58 -1952 1953 0
-1953 1969 0
-59 -1953 1954 0
-1954 1970 0
-60 -1954 1955 0
-1955 1971 0
-61 -1955 1956 0
-1956 1972 0
-62 -1956 0
-47 1957 0
-1957 1973 0
-48 -1957 1958 0
-1958 1974 0
-49 -1958 1959 0
-1959 1975 0
-50 -1959 1960 0
-1960 1976 0
-51 -1960 1961 0
-1961 1977 0
-52 -1961 1962 0
-1962 1978 0
-53 -1962 1963 0
-1963 1979 0
-54 -1963 1964 0
-1964 1980 0
-55 -1964 1965 0
-1965 1981 0
-56 -1965 1966 0
-1966 1982 0
-57 -1966 1967 0
-1967 1983 0
-58 -1967 1968 0
-1968 1984 0
-59 -1968 1969 0
-1969 1985 0
-60 -1969 1970 0
-1970 1986 0
-61 -1970 1971 0
-1971 1987 0
-62 -1971 1972 0
-1972 1988 0
-63 -1972 0
-48 1973 0
-1973 1989 0
-49 -1973 1974 0
-1974 1990 0
-50 -1974 1975 0
-1975 1991 0
-51 -1975 1976 0
-1976 1992 0
-52 -1976 1977 0
-1977 1993 0
-53 -1977 1978 0
-1978 1994 0
-54 -1978 1979 0
-1979 1995 0
-55 -1979 1980 0
-1980 1996 0
-56 -1980 1981 0
-1981 1997 0
-57 -1981 1982 0
-1982 1998 0
-58 -1982 1983 0
-1983 1999 0
-59 -1983 1984 0
-1984 2000 0
-60 -1984 1985 0
-1985 2001 0
-61 -1985 1986 0
-1986 2002 0
-62 -1986 1987 0
-1987 2003 0
-63 -1987 1988 0
-1988 2004 0
-64 -1988 0
-49 1989 0
-1989 2005 0
-50 -1989 1990 0
-1990 2006 0
-51 -1990 1991 0
-1991 2007 0
-52 -1991 1992 0
-1992 2008 0
-53 -1992 1993 0
-1993 2009 0
-54 -1993 1994 0
-1994 2010 0
-55 -1994 1995 0
-1995 2011 0
-56 -1995 1996 0
-1996 2012 0
-57 -1996 1997 0
-1997 2013 0
-58 -1997 1998 0
-1998 2014 0
-59 -1998 1999 0
-1999 2015 0
-60 -1999 2000 0
-2000 2016 0
-61 -2000 2001 0
-2001 2017 0
-62 -2001 2002 0
-2002 2018 0
-63 -2002 2003 0
-2003 2019 0
-64 -2003 2004 0
-2004 2020 0
-65 -2004 0
-50 2005 0
-2005 2021 0
-51 -2005 2006 0
-2006 2022 0
-52 -2006 2007 0
-2007 2023 0
-53 -2007 2008 0
-2008 2024 0
-54 -2008 2009 0
-2009 2025 0
-55 -2009 2010 0
-2010 2026 0
-56 -2010 2011 0
-2011 2027 0
-57 -2011 2012 0
-2012 2028 0
-58 -2012 2013 0
-2013 2029 0
-59 -2013 2014 0
-2014 2030 0
-60 -2014 2015 0
-2015 2031 0
-61 -2015 2016 0
-2016 2032 0
-62 -2016 2017 0
-2017 2033 0
-63 -2017 2018 0
-2018 2034 0
-64 -2018 2019 0
-2019 2035 0
-65 -2019 2020 0
-2020 2036 0
-66 -2020 0
-51 2021 0
-2021 2037 0
-52 -2021 2022 0
-2022 2038 0
-53 -2022 2023 0
-2023 2039 0
-54 -2023 2024 0
-2024 2040 0
-55 -2024 2025 0
-2025 2041 0
-56 -2025 2026 0
-2026 2042 0
-57 -2026 2027 0
-2027 2043 0
-58 -2027 2028 0
-2028 2044 0
-59 -2028 2029 0
-2029 2045 0
-60 -2029 2030 0
-2030 2046 0
-61 -2030 2031 0
-2031 2047 0
-62 -2031 2032 0
-2032 2048 0
-63 -2032 2033 0
-2033 2049 0
-64 -2033 2034 0
-2034 2050 0
-65 -2034 2035 0
-2035 2051 0
-66 -2035 2036 0
-2036 2052 0
-67 -2036 0
-52 2037 0
-2037 2053 0
-53 -2037 2038 0
-2038 2054 0
-54 -2038 2039 0
-2039 2055 0
-55 -2039 2040 0
-2040 2056 0
-56 -2040 2041 0
-2041 2057 0
-57 -2041 2042 0
-2042 2058 0
-58 -2042 2043 0
-2043 2059 0
-59 -2043 2044 0
-2044 2060 0
-60 -2044 2045 0
-2045 2061 0
-61 -2045 2046 0
-2046 2062 0
-62 -2046 2047 0
-2047 2063 0
-63 -2047 2048 0
-2048 2064 0
-64 -2048 2049 0
-2049 2065 0
-65 -2049 2050 0
-2050 2066 0
-66 -2050 2051 0
-2051 2067 0
-67 -2051 2052 0
-2052 2068 0
-68 -2052 0
-53 2053 0
-2053 2069 0
-54 -2053 2054 0
-2054 2070 0
-55 -2054 2055 0
-2055 2071 0
-56 -2055 2056 0
-2056 2072 0
-57 -2056 2057 0
-2057 2073 0
-58 -2057 2058 0
-2058 2074 0
-59 -2058 2059 0
-2059 2075 0
-60 -2059 2060 0
-2060 2076 0
-61 -2060 2061 0
-2061 2077 0
-62 -2061 2062 0
-2062 2078 0
-63 -2062 2063 0
-2063 2079 0
-64 -2063 2064 0
-2064 2080 0
-65 -2064 2065 0
-2065 2081 0
-66 -2065 2066 0
-2066 2082 0
-67 -2066 2067 0
-2067 2083 0
-68 -2067 2068 0
-2068 2084 0
-69 -2068 0
-54 2069 0
-2069 2085 0
-55 -2069 2070 0
-2070 2086 0
-56 -2070 2071 0
-2071 2087 0
-57 -2071 2072 0
-2072 2088 0
-58 -2072 2073 0
-2073 2089 0
-59 -2073 2074 0
-2074 2090 0
-60 -2074 2075 0
-2075 2091 0
-61 -2075 2076 0
-2076 2092 0
-62 -2076 2077 0
-2077 2093 0
-63 -2077 2078 0
-2078 2094 0
-64 -2078 2079 0
-2079 2095 0
-65 -2079 2080 0
-2080 2096 0
-66 -2080 2081 0
-2081 2097 0
-67 -2081 2082 0
-2082 2098 0
-68 -2082 2083 0
-2083 2099 0
-69 -2083 2084 0
-2084 2100 0
-70 -2084 0
-55 2085 0
-2085 2101 0
-56 -2085 2086 0
-2086 2102 0
-57 -2086 2087 0
-2087 2103 0
-58 -2087 2088 0
-2088 2104 0
-59 -2088 2089 0
-2089 2105 0
-60 -2089 2090 0
-2090 2106 0
-61 -2090 2091 0
-2091 2107 0
-62 -2091 2092 0
-2092 2108 0
-63 -2092 2093 0
-2093 2109 0
-64 -2093 2094 0
-2094 2110 0
-65 -2094 2095 0
-2095 2111 0
-66 -2095 2096 0
-2096 2112 0
-67 -2096 2097 0
-2097 2113 0
-68 -2097 2098 0
-2098 2114 0
-69 -2098 2099 0
-2099 2115 0
-70 -2099 2100 0
-2100 2116 0
-71 -2100 0
-56 2101 0
-2101 2117 0
-57 -2101 2102 0
-2102 2118 0
-58 -2102 2103 0
-2103 2119 0
-59 -2103 2104 0
-2104 2120 0
-60 -2104 2105 0
-2105 2121 0
-61 -2105 2106 0
-2106 2122 0
-62 -2106 2107 0
-2107 2123 0
-63 -2107 2108 0
-2108 2124 0
-64 -2108 2109 0
-2109 2125 0
-65 -2109 2110 0
-2110 2126 0
-66 -2110 2111 0
-2111 2127 0
-67 -2111 2112 0
-2112 2128 0
-68 -2112 2113 0
-2113 2129 0
-69 -2113 2114 0
-2114 2130 0
-70 -2114 2115 0
-2115 2131 0
-71 -2115 2116 0
-2116 2132 0
-72 -2116 0
-57 2117 0
-2117 2133 0
-58 -2117 2118 0
-2118 2134 0
-59 -2118 2119 0
-2119 2135 0
-60 -2119 2120 0
-2120 2136 0
-61 -2120 2121 0
-2121 2137 0
-62 -2121 2122 0
-2122 2138 0
-63 -2122 2123 0
-2123 2139 0
-64 -2123 2124 0
-2124 2140 0
-65 -2124 2125 0
-2125 2141 0
-66 -2125 2126 0
-2126 2142 0
-67 -2126 2127 0
-2127 2143 0
-68 -2127 2128 0
-2128 2144 0
-69 -2128 2129 0
-2129 2145 0
-70 -2129 2130 0
-2130 2146 0
-71 -2130 2131 0
-2131 2147 0
-72 -2131 2132 0
-2132 2148 0
-73 -2132 0
-58 2133 0
-2133 2149 0
-59 -2133 2134 0
-2134 2150 0
-60 -2134 2135 0
-2135 2151 0
-61 -2135 2136 0
-2136 2152 0
-62 -2136 2137 0
-2137 2153 0
-63 -2137 2138 0
-2138 2154 0
-64 -2138 2139 0
-2139 2155 0
-65 -2139 2140 0
-2140 2156 0
-66 -2140 2141 0
-2141 2157 0
-67 -2141 2142 0
-2142 2158 0
-68 -2142 2143 0
-2143 2159 0
-69 -2143 2144 0
-2144 2160 0
-70 -2144 2145 0
-2145 2161 0
-71 -2145 2146 0
-2146 2162 0
-72 -2146 2147 0
-2147 2163 0
-73 -2147 2148 0
-2148 2164 0
-74 -2148 0
-59 2149 0
-2149 2165 0
-60 -2149 2150 0
-2150 2166 0
-61 -2150 2151 0
-2151 2167 0
-62 -2151 2152 0
-2152 2168 0
-63 -2152 2153 0
-2153 2169 0
-64 -2153 2154 0
-2154 2170 0
-65 -2154 2155 0
-2155 2171 0
-66 -2155 2156 0
-2156 2172 0
-67 -2156 2157 0
-2157 2173 0
-68 -2157 2158 0
-2158 2174 0
-69 -2158 2159 0
-2159 2175 0
-70 -2159 2160 0
-2160 2176 0
-71 -2160 2161 0
-2161 2177 0
-72 -2161 2162 0
-2162 2178 0
-73 -2162 2163 0
-2163 2179 0
-74 -2163 2164 0
-2164 2180 0
-75 -2164 0
-60 2165 0
-2165 2181 0
-61 -2165 2166 0
-2166 2182 0
-62 -2166 2167 0
-2167 2183 0
-63 -2167 2168 0
-2168 2184 0
-64 -2168 2169 0
-2169 2185 0
-65 -2169 2170 0
-2170 2186 0
-66 -2170 2171 0
-2171 2187 0
-67 -2171 2172 0
-2172 2188 0
-68 -2172 2173 0
-2173 2189 0
-69 -2173 2174 0
-2174 2190 0
-70 -2174 2175 0
-2175 2191 0
-71 -2175 2176 0
-2176 2192 0
-72 -2176 2177 0
-2177 2193 0
-73 -2177 2178 0
-2178 2194 0
-74 -2178 2179 0
-2179 2195 0
-75 -2179 2180 0
-2180 2196 0
-76 -2180 0
-61 2181 0
-2181 2197 0
-62 -2181 2182 0
-2182 2198 0
-63 -2182 2183 0
-2183 2199 0
-64 -2183 2184 0
-2184 2200 0
-65 -2184 2185 0
-2185 2201 0
-66 -2185 2186 0
-2186 2202 0
-67 -2186 2187 0
-2187 2203 0
-68 -2187 2188 0
-2188 2204 0
-69 -2188 2189 0
-2189 2205 0
-70 -2189 2190 0
-2190 2206 0
-71 -2190 2191 0
-2191 2207 0
-72 -2191 2192 0
-2192 2208 0
-73 -2192 2193 0
-2193 2209 0
-74 -2193 2194 0
-2194 2210 0
-75 -2194 2195 0
-2195 2211 0
-76 -2195 2196 0
-2196 2212 0
-77 -2196 0
-62 2197 0
-2197 2213 0
-63 -2197 2198 0
-2198 2214 0
-64 -2198 2199 0
-2199 2215 0
-65 -2199 2200 0
-2200 2216 0
-66 -2200 2201 0
-2201 2217 0
-67 -2201 2202 0
-2202 2218 0
-68 -2202 2203 0
-2203 2219 0
-69 -2203 2204 0
-2204 2220 0
-70 -2204 2205 0
-2205 2221 0
-71 -2205 2206 0
-2206 2222 0
-72 -2206 2207 0
-2207 2223 0
-73 -2207 2208 0
-2208 2224 0
-74 -2208 2209 0
-2209 2225 0
-75 -2209 2210 0
-2210 2226 0
-76 -2210 2211 0
-2211 2227 0
-77 -2211 2212 0
-2212 2228 0
-78 -2212 0
-63 2213 0
-2213 2229 0
-64 -2213 2214 0
-2214 2230 0
-65 -2214 2215 0
-2215 2231 0
-66 -2215 2216 0
-2216 2232 0
-67 -2216 2217 0
-2217 2233 0
-68 -2217 2218 0
-2218 2234 0
-69 -2218 2219 0
-2219 2235 0
-70 -2219 2220 0
-2220 2236 0
-71 -2220 2221 0
-2221 2237 0
-72 -2221 2222 0
-2222 2238 0
-73 -2222 2223 0
-2223 2239 0
-74 -2223 2224 0
-2224 2240 0
-75 -2224 2225 0
-2225 2241 0
-76 -2225 2226 0
-2226 2242 0
-77 -2226 2227 0
-2227 2243 0
-78 -2227 2228 0
-2228 2244 0
-79 -2228 0
-64 2229 0
-2229 2245 0
-65 -2229 2230 0
-2230 2246 0
-66 -2230 2231 0
-2231 2247 0
-67 -2231 2232 0
-2232 2248 0
-68 -2232 2233 0
-2233 2249 0
-69 -2233 2234 0
-2234 2250 0
-70 -2234 2235 0
-2235 2251 0
-71 -2235 2236 0
-2236 2252 0
-72 -2236 2237 0
-2237 2253 0
-73 -2237 2238 0
-2238 2254 0
-74 -2238 2239 0
-2239 2255 0
-75 -2239 2240 0
-2240 2256 0
-76 -2240 2241 0
-2241 2257 0
-77 -2241 2242 0
-2242 2258 0
-78 -2242 2243 0
-2243 2259 0
-79 -2243 2244 0
-2244 2260 0
-80 -2244 0
-65 2245 0
-2245 2261 0
-66 -2245 2246 0
-2246 2262 0
-67 -2246 2247 0
-2247 2263 0
-68 -2247 2248 0
-2248 2264 0
-69 -2248 2249 0
-2249 2265 0
-70 -2249 2250 0
-2250 2266 0
-71 -2250 2251 0
-2251 2267 0
-72 -2251 2252 0
-2252 2268 0
-73 -2252 2253 0
-2253 2269 0
-74 -2253 2254 0
-2254 2270 0
-75 -2254 2255 0
-2255 2271 0
-76 -2255 2256 0
-2256 2272 0
-77 -2256 2257 0
-2257 2273 0
-78 -2257 2258 0
-2258 2274 0
-79 -2258 2259 0
-2259 2275 0
-80 -2259 2260 0
-2260 2276 0
-81 -2260 0
-66 2261 0
-67 -2261 2262 0
-68 -2262 2263 0
-69 -2263 2264 0
-70 -2264 2265 0
-71 -2265 2266 0
-72 -2266 2267 0
-73 -2267 2268 0
-74 -2268 2269 0
-75 -2269 2270 0
-76 -2270 2271 0
-77 -2271 2272 0
-78 -2272 2273 0
-79 -2273 2274 0
-80 -2274 2275 0
-81 -2275 2276 0
-82 -2276 0
-83 2277 0
-2277 2278 0
-84 -2277 2279 0
-2279 2280 0
-85 -2279 2281 0
-2281 2282 0
-86 -2281 2283 0
-2283 2284 0
-87 -2283 2285 0
-2285 2286 0
-88 -2285 2287 0
-2287 2288 0
-89 -2287 2289 0
-2289 2290 0
-90 -2289 2291 0
-2291 2292 0
-91 -2291 2293 0
-2293 2294 0
-92 -2293 0
-84 2278 0
-2278 2295 0
-85 -2278 2280 0
-2280 2296 0
-86 -2280 2282 0
-2282 2297 0
-87 -2282 2284 0
-2284 2298 0
-88 -2284 2286 0
-2286 2299 0
-89 -2286 2288 0
-2288 2300 0
-90 -2288 2290 0
-2290 2301 0
-91 -2290 2292 0
-2292 2302 0
-92 -2292 2294 0
-2294 2303 0
-93 -2294 0
-85 2295 0
-2295 2304 0
-86 -2295 2296 0
-2296 2305 0
-87 -2296 2297 0
-2297 2306 0
-88 -2297 2298 0
-2298 2307 0
-89 -2298 2299 0
-2299 2308 0
-90 -2299 2300 0
-2300 2309 0
-91 -2300 2301 0
-2301 2310 0
-92 -2301 2302 0
-2302 2311 0
-93 -2302 2303 0
-2303 2312 0
-94 -2303 0
-86 2304 0
-2304 2313 0
-87 -2304 2305 0
-2305 2314 0
-88 -2305 2306 0
-2306 2315 0
-89 -2306 2307 0
-2307 2316 0
-90 -2307 2308 0
-2308 2317 0
-91 -2308 2309 0
-2309 2318 0
-92 -2309 2310 0
-2310 2319 0
-93 -2310 2311 0
-2311 2320 0
-94 -2311 2312 0
-2312 2321 0
-95 -2312 0
-87 2313 0
-2313 2322 0
-88 -2313 2314 0
-2314 2323 0
-89 -2314 2315 0
-2315 2324 0
-90 -2315 2316 0
-2316 2325 0
-91 -2316 2317 0
-2317 2326 0
-92 -2317 2318 0
-2318 2327 0
-93 -2318 2319 0
-2319 2328 0
-94 -2319 2320 0
-2320 2329 0
-95 -2320 2321 0
-2321 2330 0
-96 -2321 0
-88 2322 0
-2322 2331 0
-89 -2322 2323 0
-2323 2332 0
-90 -2323 2324 0
-2324 2333 0
-91 -2324 2325 0
-2325 2334 0
-92 -2325 2326 0
-2326 2335 0
-93 -2326 2327 0
-2327 2336 0
-94 -2327 2328 0
-2328 2337 0
-95 -2328 2329 0
-2329 2338 0
-96 -2329 2330 0
-2330 2339 0
-97 -2330 0
-89 2331 0
-2331 2340 0
-90 -2331 2332 0
-2332 2341 0
-91 -2332 2333 0
-2333 2342 0
-92 -2333 2334 0
-2334 2343 0
-93 -2334 2335 0
-2335 2344 0
-94 -2335 2336 0
-2336 2345 0
-95 -2336 2337 0
-2337 2346 0
-96 -2337 2338 0
-2338 2347 0
-97 -2338 2339 0
-2339 2348 0
-98 -2339 0
-90 2340 0
-2340 2349 0
-91 -2340 2341 0
-2341 2350 0
-92 -2341 2342 0
-2342 2351 0
-93 -2342 2343 0
-2343 2352 0
-94 -2343 2344 0
-2344 2353 0
-95 -2344 2345 0
-2345 2354 0
-96 -2345 2346 0
-2346 2355 0
-97 -2346 2347 0
-2347 2356 0
-98 -2347 2348 0
-2348 2357 0
-99 -2348 0
-91 2349 0
-2349 2358 0
-92 -2349 2350 0
-2350 2359 0
-93 -2350 2351 0
-2351 2360 0
-94 -2351 2352 0
-2352 2361 0
-95 -2352 2353 0
-2353 2362 0
-96 -2353 2354 0
-2354 2363 0
-97 -2354 2355 0
-2355 2364 0
-98 -2355 2356 0
-2356 2365 0
-99 -2356 2357 0
-2357 2366 0
-100 -2357 0
-92 2358 0
-2358 2367 0
-93 -2358 2359 0
-2359 2368 0
-94 -2359 2360 0
-2360 2369 0
-95 -2360 2361 0
-2361 2370 0
-96 -2361 2362 0
-2362 2371 0
-97 -2362 2363 0
-2363 2372 0
-98 -2363 2364 0
-2364 2373 0
-99 -2364 2365 0
-2365 2374 0
-100 -2365 2366 0
-2366 2375 0
-101 -2366 0
-93 2367 0
-2367 2376 0
-94 -2367 2368 0
-2368 2377 0
-95 -2368 2369 0
-2369 2378 0
-96 -2369 2370 0
-2370 2379 0
-97 -2370 2371 0
-2371 2380 0
-98 -2371 2372 0
-2372 2381 0
-99 -2372 2373 0
-2373 2382 0
-100 -2373 2374 0
-2374 2383 0
-101 -2374 2375 0
-2375 2384 0
-102 -2375 0
-94 2376 0
-2376 2385 0
-95 -2376 2377 0
-2377 2386 0
-96 -2377 2378 0
-2378 2387 0
-97 -2378 2379 0
-2379 2388 0
-98 -2379 2380 0
-2380 2389 0
-99 -2380 2381 0
-2381 2390 0
-100 -2381 2382 0
-2382 2391 0
-101 -2382 2383 0
-2383 2392 0
-102 -2383 2384 0
-2384 2393 0
-103 -2384 0
-95 2385 0
-2385 2394 0
-96 -2385 2386 0
-2386 2395 0
-97 -2386 2387 0
-2387 2396 0
-98 -2387 2388 0
-2388 2397 0
-99 -2388 2389 0
-2389 2398 0
-100 -2389 2390 0
-2390 2399 0
-101 -2390 2391 0
-2391 2400 0
-102 -2391 2392 0
-2392 2401 0
-103 -2392 2393 0
-2393 2402 0
-104 -2393 0
-96 2394 0
-2394 2403 0
-97 -2394 2395 0
-2395 2404 0
-98 -2395 2396 0
-2396 2405 0
-99 -2396 2397 0
-2397 2406 0
-100 -2397 2398 0
-2398 2407 0
-101 -2398 2399 0
-2399 2408 0
-102 -2399 2400 0
-2400 2409 0
-103 -2400 2401 0
-2401 2410 0
-104 -2401 2402 0
-2402 2411 0
-105 -2402 0
-97 2403 0
-2403 2412 0
-98 -2403 2404 0
-2404 2413 0
-99 -2404 2405 0
-2405 2414 0
-100 -2405 2406 0
-2406 2415 0
-101 -2406 2407 0
-2407 2416 0
-102 -2407 2408 0
-2408 2417 0
-103 -2408 2409 0
-2409 2418 0
-104 -2409 2410 0
-2410 2419 0
-105 -2410 2411 0
-2411 2420 0
-106 -2411 0
-98 2412 0
-2412 2421 0
-99 -2412 2413 0
-2413 2422 0
-100 -2413 2414 0
-2414 2423 0
-101 -2414 2415 0
-2415 2424 0
-102 -2415 2416 0
-2416 2425 0
-103 -2416 2417 0
-2417 2426 0
-104 -2417 2418 0
-2418 2427 0
-105 -2418 2419 0
-2419 2428 0
-106 -2419 2420 0
-2420 2429 0
-107 -2420 0
-99 2421 0
-2421 2430 0
-100 -2421 2422 0
-2422 2431 0
-101 -2422 2423 0
-2423 2432 0
-102 -2423 2424 0
-2424 2433 0
-103 -2424 2425 0
-2425 2434 0
-104 -2425 2426 0
-2426 2435 0
-105 -2426 2427 0
-2427 2436 0
-106 -2427 2428 0
-2428 2437 0
-107 -2428 2429 0
-2429 2438 0
-108 -2429 0
-100 2430 0
-2430 2439 0
-101 -2430 2431 0
-2431 2440 0
-102 -2431 2432 0
-2432 2441 0
-103 -2432 2433 0
-2433 2442 0
-104 -2433 2434 0
-2434 2443 0
-105 -2434 2435 0
-2435 2444 0
-106 -2435 2436 0
-2436 2445 0
-107 -2436 2437 0
-2437 2446 0
-108 -2437 2438 0
-2438 2447 0
-109 -2438 0
-101 2439 0
-2439 2448 0
-102 -2439 2440 0
-2440 2449 0
-103 -2440 2441 0
-2441 2450 0
-104 -2441 2442 0
-2442 2451 0
-105 -2442 2443 0
-2443 2452 0
-106 -2443 2444 0
-2444 2453 0
-107 -2444 2445 0
-2445 2454 0
-108 -2445 2446 0
-2446 2455 0
-109 -2446 2447 0
-2447 2456 0
-110 -2447 0
-102 2448 0
-2448 2457 0
-103 -2448 2449 0
-2449 2458 0
-104 -2449 2450 0
-2450 2459 0
-105 -2450 2451 0
-2451 2460 0
-106 -2451 2452 0
-2452 2461 0
-107 -2452 2453 0
-2453 2462 0
-108 -2453 2454 0
-2454 2463 0
-109 -2454 2455 0
-2455 2464 0
-110 -2455 2456 0
-2456 2465 0
-111 -2456 0
-103 2457 0
-2457 2466 0
-104 -2457 2458 0
-2458 2467 0
-105 -2458 2459 0
-2459 2468 0
-106 -2459 2460 0
-2460 2469 0
-107 -2460 2461 0
-2461 2470 0
-108 -2461 2462 0
-2462 2471 0
-109 -2462 2463 0
-2463 2472 0
-110 -2463 2464 0
-2464 2473 0
-111 -2464 2465 0
-2465 2474 0
-112 -2465 0
-104 2466 0
-2466 2475 0
-105 -2466 2467 0
-2467 2476 0
-106 -2467 2468 0
-2468 2477 0
-107 -2468 2469 0
-2469 2478 0
-108 -2469 2470 0
-2470 2479 0
-109 -2470 2471 0
-2471 2480 0
-110 -2471 2472 0
-2472 2481 0
-111 -2472 2473 0
-2473 2482 0
-112 -2473 2474 0
-2474 2483 0
-113 -2474 0
-105 2475 0
-2475 2484 0
-106 -2475 2476 0
-2476 2485 0
-107 -2476 2477 0
-2477 2486 0
-108 -2477 2478 0
-2478 2487 0
-109 -2478 2479 0
-2479 2488 0
-110 -2479 2480 0
-2480 2489 0
-111 -2480 2481 0
-2481 2490 0
-112 -2481 2482 0
-2482 2491 0
-113 -2482 2483 0
-2483 2492 0
-114 -2483 0
-106 2484 0
-2484 2493 0
-107 -2484 2485 0
-2485 2494 0
-108 -2485 2486 0
-2486 2495 0
-109 -2486 2487 0
-2487 2496 0
-110 -2487 2488 0
-2488 2497 0
-111 -2488 2489 0
-2489 2498 0
-112 -2489 2490 0
-2490 2499 0
-113 -2490 2491 0
-2491 2500 0
-114 -2491 2492 0
-2492 2501 0
-115 -2492 0
-107 2493 0
-2493 2502 0
-108 -2493 2494 0
-2494 2503 0
-109 -2494 2495 0
-2495 2504 0
-110 -2495 2496 0
-2496 2505 0
-111 -2496 2497 0
-2497 2506 0
-112 -2497 2498 0
-2498 2507 0
-113 -2498 2499 0
-2499 2508 0
-114 -2499 2500 0
-2500 2509 0
-115 -2500 2501 0
-2501 2510 0
-116 -2501 0
-108 2502 0
-2502 2511 0
-109 -2502 2503 0
-2503 2512 0
-110 -2503 2504 0
-2504 2513 0
-111 -2504 2505 0
-2505 2514 0
-112 -2505 2506 0
-2506 2515 0
-113 -2506 2507 0
-2507 2516 0
-114 -2507 2508 0
-2508 2517 0
-115 -2508 2509 0
-2509 2518 0
-116 -2509 2510 0
-2510 2519 0
-117 -2510 0
-109 2511 0
-2511 2520 0
-110 -2511 2512 0
-2512 2521 0
-111 -2512 2513 0
-2513 2522 0
-112 -2513 2514 0
-2514 2523 0
-113 -2514 2515 0
-2515 2524 0
-114 -2515 2516 0
-2516 2525 0
-115 -2516 2517 0
-2517 2526 0
-116 -2517 2518 0
-2518 2527 0
-117 -2518 2519 0
-2519 2528 0
-118 -2519 0
-110 2520 0
-2520 2529 0
-111 -2520 2521 0
-2521 2530 0
-112 -2521 2522 0
-2522 2531 0
-113 -2522 2523 0
-2523 2532 0
-114 -2523 2524 0
-2524 2533 0
-115 -2524 2525 0
-2525 2534 0
-116 -2525 2526 0
-2526 2535 0
-117 -2526 2527 0
-2527 2536 0
-118 -2527 2528 0
-2528 2537 0
-119 -2528 0
-111 2529 0
-2529 2538 0
-112 -2529 2530 0
-2530 2539 0
-113 -2530 2531 0
-2531 2540 0
-114 -2531 2532 0
-2532 2541 0
-115 -2532 2533 0
-2533 2542 0
-116 -2533 2534 0
-2534 2543 0
-117 -2534 2535 0
-2535 2544 0
-118 -2535 2536 0
-2536 2545 0
-119 -2536 2537 0
-2537 2546 0
-120 -2537 0
-112 2538 0
-2538 2547 0
-113 -2538 2539 0
-2539 2548 0
-114 -2539 2540 0
-2540 2549 0
-115 -2540 2541 0
-2541 2550 0
-116 -2541 2542 0
-2542 2551 0
-117 -2542 2543 0
-2543 2552 0
-118 -2543 2544 0
-2544 2553 0
-119 -2544 2545 0
-2545 2554 0
-120 -2545 2546 0
-2546 2555 0
-121 -2546 0
-113 2547 0
-2547 2556 0
-114 -2547 2548 0
-2548 2557 0
-115 -2548 2549 0
-2549 2558 0
-116 -2549 2550 0
-2550 2559 0
-117 -2550 2551 0
-2551 2560 0
-118 -2551 2552 0
-2552 2561 0
-119 -2552 2553 0
-2553 2562 0
-120 -2553 2554 0
-2554 2563 0
-121 -2554 2555 0
-2555 2564 0
-122 -2555 0
-114 2556 0
-2556 2565 0
-115 -2556 2557 0
-2557 2566 0
-116 -2557 2558 0
-2558 2567 0
-117 -2558 2559 0
-2559 2568 0
-118 -2559 2560 0
-2560 2569 0
-119 -2560 2561 0
-2561 2570 0
-120 -2561 2562 0
-2562 2571 0
-121 -2562 2563 0
-2563 2572 0
-122 -2563 2564 0
-2564 2573 0
-123 -2564 0
-115 2565 0
-2565 2574 0
-116 -2565 2566 0
-2566 2575 0
-117 -2566 2567 0
-2567 2576 0
-118 -2567 2568 0
-2568 2577 0
-119 -2568 2569 0
-2569 2578 0
-120 -2569 2570 0
-2570 2579 0
-121 -2570 2571 0
-2571 2580 0
-122 -2571 2572 0
-2572 2581 0
-123 -2572 2573 0
-2573 2582 0
-124 -2573 0
-116 2574 0
-2574 2583 0
-117 -2574 2575 0
-2575 2584 0
-118 -2575 2576 0
-2576 2585 0
-119 -2576 2577 0
-2577 2586 0
-120 -2577 2578 0
-2578 2587 0
-121 -2578 2579 0
-2579 2588 0
-122 -2579 2580 0
-2580 2589 0
-123 -2580 2581 0
-2581 2590 0
-124 -2581 2582 0
-2582 2591 0
-125 -2582 0
-117 2583 0
-2583 2592 0
-118 -2583 2584 0
-2584 2593 0
-119 -2584 2585 0
-2585 2594 0
-120 -2585 2586 0
-2586 2595 0
-121 -2586 2587 0
-2587 2596 0
-122 -2587 2588 0
-2588 2597 0
-123 -2588 2589 0
-2589 2598 0
-124 -2589 2590 0
-2590 2599 0
-125 -2590 2591 0
-2591 2600 0
-126 -2591 0
-118 2592 0
-2592 2601 0
-119 -2592 2593 0
-2593 2602 0
-120 -2593 2594 0
-2594 2603 0
-121 -2594 2595 0
-2595 2604 0
-122 -2595 2596 0
-2596 2605 0
-123 -2596 2597 0
-2597 2606 0
-124 -2597 2598 0
-2598 2607 0
-125 -2598 2599 0
-2599 2608 0
-126 -2599 2600 0
-2600 2609 0
-127 -2600 0
-119 2601 0
-2601 2610 0
-120 -2601 2602 0
-2602 2611 0
-121 -2602 2603 0
-2603 2612 0
-122 -2603 2604 0
-2604 2613 0
-123 -2604 2605 0
-2605 2614 0
-124 -2605 2606 0
-2606 2615 0
-125 -2606 2607 0
-2607 2616 0
-126 -2607 2608 0
-2608 2617 0
-127 -2608 2609 0
-2609 2618 0
-128 -2609 0
-120 2610 0
-2610 2619 0
-121 -2610 2611 0
-2611 2620 0
-122 -2611 2612 0
-2612 2621 0
-123 -2612 2613 0
-2613 2622 0
-124 -2613 2614 0
-2614 2623 0
-125 -2614 2615 0
-2615 2624 0
-126 -2615 2616 0
-2616 2625 0
-127 -2616 2617 0
-2617 2626 0
-128 -2617 2618 0
-2618 2627 0
-129 -2618 0
-121 2619 0
-2619 2628 0
-122 -2619 2620 0
-2620 2629 0
-123 -2620 2621 0
-2621 2630 0
-124 -2621 2622 0
-2622 2631 0
-125 -2622 2623 0
-2623 2632 0
-126 -2623 2624 0
-2624 2633 0
-127 -2624 2625 0
-2625 2634 0
-128 -2625 2626 0
-2626 2635 0
-129 -2626 2627 0
-2627 2636 0
-130 -2627 0
-122 2628 0
-2628 2637 0
-123 -2628 2629 0
-2629 2638 0
-124 -2629 2630 0
-2630 2639 0
-125 -2630 2631 0
-2631 2640 0
-126 -2631 2632 0
-2632 2641 0
-127 -2632 2633 0
-2633 2642 0
-128 -2633 2634 0
-2634 2643 0
-129 -2634 2635 0
-2635 2644 0
-130 -2635 2636 0
-2636 2645 0
-131 -2636 0
-123 2637 0
-2637 2646 0
-124 -2637 2638 0
-2638 2647 0
-125 -2638 2639 0
-2639 2648 0
-126 -2639 2640 0
-2640 2649 0
-127 -2640 2641 0
-2641 2650 0
-128 -2641 2642 0
-2642 2651 0
-129 -2642 2643 0
-2643 2652 0
-130 -2643 2644 0
-2644 2653 0
-131 -2644 2645 0
-2645 2654 0
-132 -2645 0
-124 2646 0
-2646 2655 0
-125 -2646 2647 0
-2647 2656 0
-126 -2647 2648 0
-2648 2657 0
-127 -2648 2649 0
-2649 2658 0
-128 -2649 2650 0
-2650 2659 0
-129 -2650 2651 0
-2651 2660 0
-130 -2651 2652 0
-2652 2661 0
-131 -2652 2653 0
-2653 2662 0
-132 -2653 2654 0
-2654 2663 0
-133 -2654 0
-125 2655 0
-2655 2664 0
-126 -2655 2656 0
-2656 2665 0
-127 -2656 2657 0
-2657 2666 0
-128 -2657 2658 0
-2658 2667 0
-129 -2658 2659 0
-2659 2668 0
-130 -2659 2660 0
-2660 2669 0
-131 -2660 2661 0
-2661 2670 0
-132 -2661 2662 0
-2662 2671 0
-133 -2662 2663 0
-2663 2672 0
-134 -2663 0
-126 2664 0
-2664 2673 0
-127 -2664 2665 0
-2665 2674 0
-128 -2665 2666 0
-2666 2675 0
-129 -2666 2667 0
-2667 2676 0
-130 -2667 2668 0
-2668 2677 0
-131 -2668 2669 0
-2669 2678 0
-132 -2669 2670 0
-2670 2679 0
-133 -2670 2671 0
-2671 2680 0
-134 -2671 2672 0
-2672 2681 0
-135 -2672 0
-127 2673 0
-2673 2682 0
-128 -2673 2674 0
-2674 2683 0
-129 -2674 2675 0
-2675 2684 0
-130 -2675 2676 0
-2676 2685 0
-131 -2676 2677 0
-2677 2686 0
-132 -2677 2678 0
-2678 2687 0
-133 -2678 2679 0
-2679 2688 0
-134 -2679 2680 0
-2680 2689 0
-135 -2680 2681 0
-2681 2690 0
-136 -2681 0
-128 2682 0
-2682 2691 0
-129 -2682 2683 0
-2683 2692 0
-130 -2683 2684 0
-2684 2693 0
-131 -2684 2685 0
-2685 2694 0
-132 -2685 2686 0
-2686 2695 0
-133 -2686 2687 0
-2687 2696 0
-134 -2687 2688 0
-2688 2697 0
-135 -2688 2689 0
-2689 2698 0
-136 -2689 2690 0
-2690 2699 0
-137 -2690 0
-129 2691 0
-2691 2700 0
-130 -2691 2692 0
-2692 2701 0
-131 -2692 2693 0
-2693 2702 0
-132 -2693 2694 0
-2694 2703 0
-133 -2694 2695 0
-2695 2704 0
-134 -2695 2696 0
-2696 2705 0
-135 -2696 2697 0
-2697 2706 0
-136 -2697 2698 0
-2698 2707 0
-137 -2698 2699 0
-2699 2708 0
-138 -2699 0
-130 2700 0
-2700 2709 0
-131 -2700 2701 0
-2701 2710 0
-132 -2701 2702 0
-2702 2711 0
-133 -2702 2703 0
-2703 2712 0
-134 -2703 2704 0
-2704 2713 0
-135 -2704 2705 0
-2705 2714 0
-136 -2705 2706 0
-2706 2715 0
-137 -2706 2707 0
-2707 2716 0
-138 -2707 2708 0
-2708 2717 0
-139 -2708 0
-131 2709 0
-2709 2718 0
-132 -2709 2710 0
-2710 2719 0
-133 -2710 2711 0
-2711 2720 0
-134 -2711 2712 0
-2712 2721 0
-135 -2712 2713 0
-2713 2722 0
-136 -2713 2714 0
-2714 2723 0
-137 -2714 2715 0
-2715 2724 0
-138 -2715 2716 0
-2716 2725 0
-139 -2716 2717 0
-2717 2726 0
-140 -2717 0
-132 2718 0
-2718 2727 0
-133 -2718 2719 0
-2719 2728 0
-134 -2719 2720 0
-2720 2729 0
-135 -2720 2721 0
-2721 2730 0
-136 -2721 2722 0
-2722 2731 0
-137 -2722 2723 0
-2723 2732 0
-138 -2723 2724 0
-2724 2733 0
-139 -2724 2725 0
-2725 2734 0
-140 -2725 2726 0
-2726 2735 0
-141 -2726 0
-133 2727 0
-2727 2736 0
-134 -2727 2728 0
-2728 2737 0
-135 -2728 2729 0
-2729 2738 0
-136 -2729 2730 0
-2730 2739 0
-137 -2730 2731 0
-2731 2740 0
-138 -2731 2732 0
-2732 2741 0
-139 -2732 2733 0
-2733 2742 0
-140 -2733 2734 0
-2734 2743 0
-141 -2734 2735 0
-2735 2744 0
-142 -2735 0
-134 2736 0
-2736 2745 0
-135 -2736 2737 0
-2737 2746 0
-136 -2737 2738 0
-2738 2747 0
-137 -2738 2739 0
-2739 2748 0
-138 -2739 2740 0
-2740 2749 0
-139 -2740 2741 0
-2741 2750 0
-140 -2741 2742 0
-2742 2751 0
-141 -2742 2743 0
-2743 2752 0
-142 -2743 2744 0
-2744 2753 0
-143 -2744 0
-135 2745 0
-2745 2754 0
-136 -2745 2746 0
-2746 2755 0
-137 -2746 2747 0
-2747 2756 0
-138 -2747 2748 0
-2748 2757 0
-139 -2748 2749 0
-2749 2758 0
-140 -2749 2750 0
-2750 2759 0
-141 -2750 2751 0
-2751 2760 0
-142 -2751 2752 0
-2752 2761 0
-143 -2752 2753 0
-2753 2762 0
-144 -2753 0
-136 2754 0
-2754 2763 0
-137 -2754 2755 0
-2755 2764 0
-138 -2755 2756 0
-2756 2765 0
-139 -2756 2757 0
-2757 2766 0
-140 -2757 2758 0
-2758 2767 0
-141 -2758 2759 0
-2759 2768 0
-142 -2759 2760 0
-2760 2769 0
-143 -2760 2761 0
-2761 2770 0
-144 -2761 2762 0
-2762 2771 0
-145 -2762 0
-137 2763 0
-2763 2772 0
-138 -2763 2764 0
-2764 2773 0
-139 -2764 2765 0
-2765 2774 0
-140 -2765 2766 0
-2766 2775 0
-141 -2766 2767 0
-2767 2776 0
-142 -2767 2768 0
-2768 2777 0
-143 -2768 2769 0
-2769 2778 0
-144 -2769 2770 0
-2770 2779 0
-145 -2770 2771 0
-2771 2780 0
-146 -2771 0
-138 2772 0
-2772 2781 0
-139 -2772 2773 0
-2773 2782 0
-140 -2773 2774 0
-2774 2783 0
-141 -2774 2775 0
-2775 2784 0
-142 -2775 2776 0
-2776 2785 0
-143 -2776 2777 0
-2777 2786 0
-144 -2777 2778 0
-2778 2787 0
-145 -2778 2779 0
-2779 2788 0
-146 -2779 2780 0
-2780 2789 0
-147 -2780 0
-139 2781 0
-2781 2790 0
-140 -2781 2782 0
-2782 2791 0
-141 -2782 2783 0
-2783 2792 0
-142 -2783 2784 0
-2784 2793 0
-143 -2784 2785 0
-2785 2794 0
-144 -2785 2786 0
-2786 2795 0
-145 -2786 2787 0
-2787 2796 0
-146 -2787 2788 0
-2788 2797 0
-147 -2788 2789 0
-2789 2798 0
-148 -2789 0
-140 2790 0
-2790 2799 0
-141 -2790 2791 0
-2791 2800 0
-142 -2791 2792 0
-2792 2801 0
-143 -2792 2793 0
-2793 2802 0
-144 -2793 2794 0
-2794 2803 0
-145 -2794 2795 0
-2795 2804 0
-146 -2795 2796 0
-2796 2805 0
-147 -2796 2797 0
-2797 2806 0
-148 -2797 2798 0
-2798 2807 0
-149 -2798 0
-141 2799 0
-2799 2808 0
-142 -2799 2800 0
-2800 2809 0
-143 -2800 2801 0
-2801 2810 0
-144 -2801 2802 0
-2802 2811 0
-145 -2802 2803 0
-2803 2812 0
-146 -2803 2804 0
-2804 2813 0
-147 -2804 2805 0
-2805 2814 0
-148 -2805 2806 0
-2806 2815 0
-149 -2806 2807 0
-2807 2816 0
-150 -2807 0
-142 2808 0
-2808 2817 0
-143 -2808 2809 0
-2809 2818 0
-144 -2809 2810 0
-2810 2819 0
-145 -2810 2811 0
-2811 2820 0
-146 -2811 2812 0
-2812 2821 0
-147 -2812 2813 0
-2813 2822 0
-148 -2813 2814 0
-2814 2823 0
-149 -2814 2815 0
-2815 2824 0
-150 -2815 2816 0
-2816 2825 0
-151 -2816 0
-143 2817 0
-2817 2826 0
-144 -2817 2818 0
-2818 2827 0
-145 -2818 2819 0
-2819 2828 0
-146 -2819 2820 0
-2820 2829 0
-147 -2820 2821 0
-2821 2830 0
-148 -2821 2822 0
-2822 2831 0
-149 -2822 2823 0
-2823 2832 0
-150 -2823 2824 0
-2824 2833 0
-151 -2824 2825 0
-2825 2834 0
-152 -2825 0
-144 2826 0
-2826 2835 0
-145 -2826 2827 0
-2827 2836 0
-146 -2827 2828 0
-2828 2837 0
-147 -2828 2829 0
-2829 2838 0
-148 -2829 2830 0
-2830 2839 0
-149 -2830 2831 0
-2831 2840 0
-150 -2831 2832 0
-2832 2841 0
-151 -2832 2833 0
-2833 2842 0
-152 -2833 2834 0
-2834 2843 0
-153 -2834 0
-145 2835 0
-2835 2844 0
-146 -2835 2836 0
-2836 2845 0
-147 -2836 2837 0
-2837 2846 0
-148 -2837 2838 0
-2838 2847 0
-149 -2838 2839 0
-2839 2848 0
-150 -2839 2840 0
-2840 2849 0
-151 -2840 2841 0
-2841 2850 0
-152 -2841 2842 0
-2842 2851 0
-153 -2842 2843 0
-2843 2852 0
-154 -2843 0
-146 2844 0
-2844 2853 0
-147 -2844 2845 0
-2845 2854 0
-148 -2845 2846 0
-2846 2855 0
-149 -2846 2847 0
-2847 2856 0
-150 -2847 2848 0
-2848 2857 0
-151 -2848 2849 0
-2849 2858 0
-152 -2849 2850 0
-2850 2859 0
-153 -2850 2851 0
-2851 2860 0
-154 -2851 2852 0
-2852 2861 0
-155 -2852 0
-147 2853 0
-2853 2862 0
-148 -2853 2854 0
-2854 2863 0
-149 -2854 2855 0
-2855 2864 0
-150 -2855 2856 0
-2856 2865 0
-151 -2856 2857 0
-2857 2866 0
-152 -2857 2858 0
-2858 2867 0
-153 -2858 2859 0
-2859 2868 0
-154 -2859 2860 0
-2860 2869 0
-155 -2860 2861 0
-2861 2870 0
-156 -2861 0
-148 2862 0
-2862 2871 0
-149 -2862 2863 0
-2863 2872 0
-150 -2863 2864 0
-2864 2873 0
-151 -2864 2865 0
-2865 2874 0
-152 -2865 2866 0
-2866 2875 0
-153 -2866 2867 0
-2867 2876 0
-154 -2867 2868 0
-2868 2877 0
-155 -2868 2869 0
-2869 2878 0
-156 -2869 2870 0
-2870 2879 0
-157 -2870 0
-149 2871 0
-2871 2880 0
-150 -2871 2872 0
-2872 2881 0
-151 -2872 2873 0
-2873 2882 0
-152 -2873 2874 0
-2874 2883 0
-153 -2874 2875 0
-2875 2884 0
-154 -2875 2876 0
-2876 2885 0
-155 -2876 2877 0
-2877 2886 0
-156 -2877 2878 0
-2878 2887 0
-157 -2878 2879 0
-2879 2888 0
-158 -2879 0
-150 2880 0
-2880 2889 0
-151 -2880 2881 0
-2881 2890 0
-152 -2881 2882 0
-2882 2891 0
-153 -2882 2883 0
-2883 2892 0
-154 -2883 2884 0
-2884 2893 0
-155 -2884 2885 0
-2885 2894 0
-156 -2885 2886 0
-2886 2895 0
-157 -2886 2887 0
-2887 2896 0
-158 -2887 2888 0
-2888 2897 0
-159 -2888 0
-151 2889 0
-2889 2898 0
-152 -2889 2890 0
-2890 2899 0
-153 -2890 2891 0
-2891 2900 0
-154 -2891 2892 0
-2892 2901 0
-155 -2892 2893 0
-2893 2902 0
-156 -2893 2894 0
-2894 2903 0
-157 -2894 2895 0
-2895 2904 0
-158 -2895 2896 0
-2896 2905 0
-159 -2896 2897 0
-2897 2906 0
-160 -2897 0
-152 2898 0
-2898 2907 0
-153 -2898 2899 0
-2899 2908 0
-154 -2899 2900 0
-2900 2909 0
-155 -2900 2901 0
-2901 2910 0
-156 -2901 2902 0
-2902 2911 0
-157 -2902 2903 0
-2903 2912 0
-158 -2903 2904 0
-2904 2913 0
-159 -2904 2905 0
-2905 2914 0
-160 -2905 2906 0
-2906 2915 0
-161 -2906 0
-153 2907 0
-2907 2916 0
-154 -2907 2908 0
-2908 2917 0
-155 -2908 2909 0
-2909 2918 0
-156 -2909 2910 0
-2910 2919 0
-157 -2910 2911 0
-2911 2920 0
-158 -2911 2912 0
-2912 2921 0
-159 -2912 2913 0
-2913 2922 0
-160 -2913 2914 0
-2914 2923 0
-161 -2914 2915 0
-2915 2924 0
-162 -2915 0
-154 2916 0
-2916 2925 0
-155 -2916 2917 0
-2917 2926 0
-156 -2917 2918 0
-2918 2927 0
-157 -2918 2919 0
-2919 2928 0
-158 -2919 2920 0
-2920 2929 0
-159 -2920 2921 0
-2921 2930 0
-160 -2921 2922 0
-2922 2931 0
-161 -2922 2923 0
-2923 2932 0
-162 -2923 2924 0
-2924 2933 0
-163 -2924 0
-155 2925 0
-156 -2925 2926 0
-157 -2926 2927 0
-158 -2927 2928 0
-159 -2928 2929 0
-160 -2929 2930 0
-161 -2930 2931 0
-162 -2931 2932 0
-163 -2932 2933 0
-164 -2933 0
1 42 0
