p cnf 5255 10765
-137 -1 0
-137 2 68 69 0
-2 1 137 0
-68 1 137 0
-69 1 137 0
-138 -2 0
-138 1 3 70 0
-1 2 138 0
-3 2 138 0
-70 2 138 0
-139 -3 0
-139 2 4 71 0
-2 3 139 0
-4 3 139 0
-71 3 139 0
-140 -4 0
-140 3 5 72 0
-3 4 140 0
-5 4 140 0
-72 4 140 0
-141 -5 0
-141 4 6 73 0
-4 5 141 0
-6 5 141 0
-73 5 141 0
-142 -6 0
-142 5 7 74 0
-5 6 142 0
-7 6 142 0
-74 6 142 0
-143 -7 0
-143 6 8 75 0
-6 7 143 0
-8 7 143 0
-75 7 143 0
-144 -8 0
-144 7 9 76 0
-7 8 144 0
-9 8 144 0
-76 8 144 0
-145 -9 0
-145 8 10 77 0
-8 9 145 0
-10 9 145 0
-77 9 145 0
-146 -10 0
-146 9 11 78 0
-9 10 146 0
-11 10 146 0
-78 10 146 0
-147 -11 0
-147 10 12 79 0
-10 11 147 0
-12 11 147 0
-79 11 147 0
-148 -12 0
-148 11 13 80 0
-11 12 148 0
-13 12 148 0
-80 12 148 0
-149 -13 0
-149 12 14 81 0
-12 13 149 0
-14 13 149 0
-81 13 149 0
-150 -14 0
-150 13 15 82 0
-13 14 150 0
-15 14 150 0
-82 14 150 0
-151 -15 0
-151 14 16 83 0
-14 15 151 0
-16 15 151 0
-83 15 151 0
-152 -16 0
-152 15 17 84 0
-15 16 152 0
-17 16 152 0
-84 16 152 0
-153 -17 0
-153 16 18 85 0
-16 17 153 0
-18 17 153 0
-85 17 153 0
-154 -18 0
-154 17 19 86 0
-17 18 154 0
-19 18 154 0
-86 18 154 0
-155 -19 0
-155 18 20 87 0
-18 19 155 0
-20 19 155 0
-87 19 155 0
-156 -20 0
-156 19 21 88 0
-19 20 156 0
-21 20 156 0
-88 20 156 0
-157 -21 0
-157 20 22 89 0
-20 21 157 0
-22 21 157 0
-89 21 157 0
-158 -22 0
-158 21 23 90 0
-21 22 158 0
-23 22 158 0
-90 22 158 0
-159 -23 0
-159 22 24 91 0
-22 23 159 0
-24 23 159 0
-91 23 159 0
-160 -24 0
-160 23 25 92 0
-23 24 160 0
-25 24 160 0
-92 24 160 0
-161 -25 0
-161 24 26 93 0
-24 25 161 0
-26 25 161 0
-93 25 161 0
-162 -26 0
-162 25 27 94 0
-25 26 162 0
-27 26 162 0
-94 26 162 0
-163 -27 0
-163 26 28 95 0
-26 27 163 0
-28 27 163 0
-95 27 163 0
-164 -28 0
-164 27 29 96 0
-27 28 164 0
-29 28 164 0
-96 28 164 0
-165 -29 0
-165 28 30 97 0
-28 29 165 0
-30 29 165 0
-97 29 165 0
-166 -30 0
-166 29 31 98 0
-29 30 166 0
-31 30 166 0
-98 30 166 0
-167 -31 0
-167 30 32 99 0
-30 31 167 0
-32 31 167 0
-99 31 167 0
-168 -32 0
-168 31 33 100 0
-31 32 168 0
-33 32 168 0
-100 32 168 0
-169 -33 0
-169 32 34 101 0
-32 33 169 0
-34 33 169 0
-101 33 169 0
-170 -34 0
-170 33 35 102 0
-33 34 170 0
-35 34 170 0
-102 34 170 0
-171 -35 0
-171 34 36 103 0
-34 35 171 0
-36 35 171 0
-103 35 171 0
-172 -36 0
-172 35 37 104 0
-35 36 172 0
-37 36 172 0
-104 36 172 0
-173 -37 0
-173 36 38 105 0
-36 37 173 0
-38 37 173 0
-105 37 173 0
-174 -38 0
-174 37 39 106 0
-37 38 174 0
-39 38 174 0
-106 38 174 0
-175 -39 0
-175 38 40 107 0
-38 39 175 0
-40 39 175 0
-107 39 175 0
-176 -40 0
-176 39 41 108 0
-39 40 176 0
-41 40 176 0
-108 40 176 0
-177 -41 0
-177 40 42 109 0
-40 41 177 0
-42 41 177 0
-109 41 177 0
-178 -42 0
-178 41 43 110 0
-41 42 178 0
-43 42 178 0
-110 42 178 0
-179 -43 0
-179 42 44 111 0
-42 43 179 0
-44 43 179 0
-111 43 179 0
-180 -44 0
-180 43 45 112 0
-43 44 180 0
-45 44 180 0
-112 44 180 0
-181 -45 0
-181 44 46 113 0
-44 45 181 0
-46 45 181 0
-113 45 181 0
-182 -46 0
-182 45 47 114 0
-45 46 182 0
-47 46 182 0
-114 46 182 0
-183 -47 0
-183 46 48 115 0
-46 47 183 0
-48 47 183 0
-115 47 183 0
-184 -48 0
-184 47 49 116 0
-47 48 184 0
-49 48 184 0
-116 48 184 0
-185 -49 0
-185 48 50 117 0
-48 49 185 0
-50 49 185 0
-117 49 185 0
-186 -50 0
-186 49 51 118 0
-49 50 186 0
-51 50 186 0
-118 50 186 0
-187 -51 0
-187 50 52 119 0
-50 51 187 0
-52 51 187 0
-119 51 187 0
-188 -52 0
-188 51 53 120 0
-51 52 188 0
-53 52 188 0
-120 52 188 0
-189 -53 0
-189 52 54 121 0
-52 53 189 0
-54 53 189 0
-121 53 189 0
-190 -54 0
-190 53 55 122 0
-53 54 190 0
-55 54 190 0
-122 54 190 0
-191 -55 0
-191 54 56 123 0
-54 55 191 0
-56 55 191 0
-123 55 191 0
-192 -56 0
-192 55 57 124 0
-55 56 192 0
-57 56 192 0
-124 56 192 0
-193 -57 0
-193 56 58 125 0
-56 57 193 0
-58 57 193 0
-125 57 193 0
-194 -58 0
-194 57 59 126 0
-57 58 194 0
-59 58 194 0
-126 58 194 0
-195 -59 0
-195 58 60 127 0
-58 59 195 0
-60 59 195 0
-127 59 195 0
-196 -60 0
-196 59 61 128 0
-59 60 196 0
-61 60 196 0
-128 60 196 0
-197 -61 0
-197 60 62 129 0
-60 61 197 0
-62 61 197 0
-129 61 197 0
-198 -62 0
-198 61 63 130 0
-61 62 198 0
-63 62 198 0
-130 62 198 0
-199 -63 0
-199 62 64 131 0
-62 63 199 0
-64 63 199 0
-131 63 199 0
-200 -64 0
-200 63 65 132 0
-63 64 200 0
-65 64 200 0
-132 64 200 0
-201 -65 0
-201 64 66 133 0
-64 65 201 0
-66 65 201 0
-133 65 201 0
-202 -66 0
-202 65 67 134 0
-65 66 202 0
-67 66 202 0
-134 66 202 0
-203 -67 0
-203 66 68 135 0
-66 67 203 0
-68 67 203 0
-135 67 203 0
-204 -68 0
-204 1 67 136 0
-1 68 204 0
-67 68 204 0
-136 68 204 0
-205 -69 0
-205 1 73 133 0
-1 69 205 0
-73 69 205 0
-133 69 205 0
-206 -70 0
-206 2 74 134 0
-2 70 206 0
-74 70 206 0
-134 70 206 0
-207 -71 0
-207 3 75 135 0
-3 71 207 0
-75 71 207 0
-135 71 207 0
-208 -72 0
-208 4 76 136 0
-4 72 208 0
-76 72 208 0
-136 72 208 0
-209 -73 0
-209 5 69 77 0
-5 73 209 0
-69 73 209 0
-77 73 209 0
-210 -74 0
-210 6 70 78 0
-6 74 210 0
-70 74 210 0
-78 74 210 0
-211 -75 0
-211 7 71 79 0
-7 75 211 0
-71 75 211 0
-79 75 211 0
-212 -76 0
-212 8 72 80 0
-8 76 212 0
-72 76 212 0
-80 76 212 0
-213 -77 0
-213 9 73 81 0
-9 77 213 0
-73 77 213 0
-81 77 213 0
-214 -78 0
-214 10 74 82 0
-10 78 214 0
-74 78 214 0
-82 78 214 0
-215 -79 0
-215 11 75 83 0
-11 79 215 0
-75 79 215 0
-83 79 215 0
-216 -80 0
-216 12 76 84 0
-12 80 216 0
-76 80 216 0
-84 80 216 0
-217 -81 0
-217 13 77 85 0
-13 81 217 0
-77 81 217 0
-85 81 217 0
-218 -82 0
-218 14 78 86 0
-14 82 218 0
-78 82 218 0
-86 82 218 0
-219 -83 0
-219 15 79 87 0
-15 83 219 0
-79 83 219 0
-87 83 219 0
-220 -84 0
-220 16 80 88 0
-16 84 220 0
-80 84 220 0
-88 84 220 0
-221 -85 0
-221 17 81 89 0
-17 85 221 0
-81 85 221 0
-89 85 221 0
-222 -86 0
-222 18 82 90 0
-18 86 222 0
-82 86 222 0
-90 86 222 0
-223 -87 0
-223 19 83 91 0
-19 87 223 0
-83 87 223 0
-91 87 223 0
-224 -88 0
-224 20 84 92 0
-20 88 224 0
-84 88 224 0
-92 88 224 0
-225 -89 0
-225 21 85 93 0
-21 89 225 0
-85 89 225 0
-93 89 225 0
-226 -90 0
-226 22 86 94 0
-22 90 226 0
-86 90 226 0
-94 90 226 0
-227 -91 0
-227 23 87 95 0
-23 91 227 0
-87 91 227 0
-95 91 227 0
-228 -92 0
-228 24 88 96 0
-24 92 228 0
-88 92 228 0
-96 92 228 0
-229 -93 0
-229 25 89 97 0
-25 93 229 0
-89 93 229 0
-97 93 229 0
-230 -94 0
-230 26 90 98 0
-26 94 230 0
-90 94 230 0
-98 94 230 0
-231 -95 0
-231 27 91 99 0
-27 95 231 0
-91 95 231 0
-99 95 231 0
-232 -96 0
-232 28 92 100 0
-28 96 232 0
-92 96 232 0
-100 96 232 0
-233 -97 0
-233 29 93 101 0
-29 97 233 0
-93 97 233 0
-101 97 233 0
-234 -98 0
-234 30 94 102 0
-30 98 234 0
-94 98 234 0
-102 98 234 0
-235 -99 0
-235 31 95 103 0
-31 99 235 0
-95 99 235 0
-103 99 235 0
-236 -100 0
-236 32 96 104 0
-32 100 236 0
-96 100 236 0
-104 100 236 0
-237 -101 0
-237 33 97 105 0
-33 101 237 0
-97 101 237 0
-105 101 237 0
-238 -102 0
-238 34 98 106 0
-34 102 238 0
-98 102 238 0
-106 102 238 0
-239 -103 0
-239 35 99 107 0
-35 103 239 0
-99 103 239 0
-107 103 239 0
-240 -104 0
-240 36 100 108 0
-36 104 240 0
-100 104 240 0
-108 104 240 0
-241 -105 0
-241 37 101 109 0
-37 105 241 0
-101 105 241 0
-109 105 241 0
-242 -106 0
-242 38 102 110 0
-38 106 242 0
-102 106 242 0
-110 106 242 0
-243 -107 0
-243 39 103 111 0
-39 107 243 0
-103 107 243 0
-111 107 243 0
-244 -108 0
-244 40 104 112 0
-40 108 244 0
-104 108 244 0
-112 108 244 0
-245 -109 0
-245 41 105 113 0
-41 109 245 0
-105 109 245 0
-113 109 245 0
-246 -110 0
-246 42 106 114 0
-42 110 246 0
-106 110 246 0
-114 110 246 0
-247 -111 0
-247 43 107 115 0
-43 111 247 0
-107 111 247 0
-115 111 247 0
-248 -112 0
-248 44 108 116 0
-44 112 248 0
-108 112 248 0
-116 112 248 0
-249 -113 0
-249 45 109 117 0
-45 113 249 0
-109 113 249 0
-117 113 249 0
-250 -114 0
-250 46 110 118 0
-46 114 250 0
-110 114 250 0
-118 114 250 0
-251 -115 0
-251 47 111 119 0
-47 115 251 0
-111 115 251 0
-119 115 251 0
-252 -116 0
-252 48 112 120 0
-48 116 252 0
-112 116 252 0
-120 116 252 0
-253 -117 0
-253 49 113 121 0
-49 117 253 0
-113 117 253 0
-121 117 253 0
-254 -118 0
-254 50 114 122 0
-50 118 254 0
-114 118 254 0
-122 118 254 0
-255 -119 0
-255 51 115 123 0
-51 119 255 0
-115 119 255 0
-123 119 255 0
-256 -120 0
-256 52 116 124 0
-52 120 256 0
-116 120 256 0
-124 120 256 0
-257 -121 0
-257 53 117 125 0
-53 121 257 0
-117 121 257 0
-125 121 257 0
-258 -122 0
-258 54 118 126 0
-54 122 258 0
-118 122 258 0
-126 122 258 0
-259 -123 0
-259 55 119 127 0
-55 123 259 0
-119 123 259 0
-127 123 259 0
-260 -124 0
-260 56 120 128 0
-56 124 260 0
-120 124 260 0
-128 124 260 0
-261 -125 0
-261 57 121 129 0
-57 125 261 0
-121 125 261 0
-129 125 261 0
-262 -126 0
-262 58 122 130 0
-58 126 262 0
-122 126 262 0
-130 126 262 0
-263 -127 0
-263 59 123 131 0
-59 127 263 0
-123 127 263 0
-131 127 263 0
-264 -128 0
-264 60 124 132 0
-60 128 264 0
-124 128 264 0
-132 128 264 0
-265 -129 0
-265 61 125 133 0
-61 129 265 0
-125 129 265 0
-133 129 265 0
-266 -130 0
-266 62 126 134 0
-62 130 266 0
-126 130 266 0
-134 130 266 0
-267 -131 0
-267 63 127 135 0
-63 131 267 0
-127 131 267 0
-135 131 267 0
-268 -132 0
-268 64 128 136 0
-64 132 268 0
-128 132 268 0
-136 132 268 0
-269 -133 0
-269 65 69 129 0
-65 133 269 0
-69 133 269 0
-129 133 269 0
-270 -134 0
-270 66 70 130 0
-66 134 270 0
-70 134 270 0
-130 134 270 0
-271 -135 0
-271 67 71 131 0
-67 135 271 0
-71 135 271 0
-131 135 271 0
-272 -136 0
-272 68 72 132 0
-68 136 272 0
-72 136 272 0
-132 136 272 0
1 273 0
-273 274 0
2 -273 275 0
-275 276 0
3 -275 277 0
-277 278 0
4 -277 279 0
-279 280 0
5 -279 281 0
-281 282 0
6 -281 283 0
-283 284 0
7 -283 285 0
-285 286 0
8 -285 287 0
-287 288 0
9 -287 289 0
-289 290 0
10 -289 291 0
-291 292 0
11 -291 293 0
-293 294 0
12 -293 295 0
-295 296 0
13 -295 297 0
-297 298 0
14 -297 299 0
-299 300 0
15 -299 301 0
-301 302 0
16 -301 303 0
-303 304 0
17 -303 305 0
-305 306 0
18 -305 307 0
-307 308 0
19 -307 309 0
-309 310 0
20 -309 311 0
-311 312 0
21 -311 313 0
-313 314 0
22 -313 315 0
-315 316 0
23 -315 317 0
-317 318 0
24 -317 319 0
-319 320 0
25 -319 321 0
-321 322 0
26 -321 323 0
-323 324 0
27 -323 325 0
-325 326 0
28 -325 327 0
-327 328 0
29 -327 329 0
-329 330 0
30 -329 331 0
-331 332 0
31 -331 333 0
-333 334 0
32 -333 335 0
-335 336 0
33 -335 337 0
-337 338 0
34 -337 339 0
-339 340 0
35 -339 341 0
-341 342 0
36 -341 343 0
-343 344 0
37 -343 345 0
-345 346 0
38 -345 347 0
-347 348 0
39 -347 349 0
-349 350 0
40 -349 351 0
-351 352 0
41 -351 353 0
-353 354 0
42 -353 355 0
-355 356 0
43 -355 357 0
-357 358 0
44 -357 359 0
-359 360 0
45 -359 361 0
-361 362 0
46 -361 363 0
-363 364 0
47 -363 365 0
-365 366 0
48 -365 367 0
-367 368 0
49 -367 369 0
-369 370 0
50 -369 371 0
-371 372 0
51 -371 373 0
-373 374 0
52 -373 375 0
-375 376 0
53 -375 377 0
-377 378 0
54 -377 379 0
-379 380 0
55 -379 381 0
-381 382 0
56 -381 383 0
-383 384 0
57 -383 385 0
-385 386 0
58 -385 387 0
-387 388 0
59 -387 389 0
-389 390 0
60 -389 391 0
-391 392 0
61 -391 393 0
-393 394 0
62 -393 395 0
-395 396 0
63 -395 397 0
-397 398 0
64 -397 399 0
-399 400 0
65 -399 401 0
-401 402 0
66 -401 403 0
-403 404 0
67 -403 405 0
-405 406 0
68 -405 407 0
-407 408 0
69 -407 409 0
-409 410 0
70 -409 411 0
-411 412 0
71 -411 413 0
-413 414 0
72 -413 415 0
-415 416 0
73 -415 417 0
-417 418 0
74 -417 419 0
-419 420 0
75 -419 421 0
-421 422 0
76 -421 423 0
-423 424 0
77 -423 425 0
-425 426 0
78 -425 427 0
-427 428 0
79 -427 429 0
-429 430 0
80 -429 431 0
-431 432 0
81 -431 433 0
-433 434 0
82 -433 435 0
-435 436 0
83 -435 437 0
-437 438 0
84 -437 439 0
-439 440 0
85 -439 441 0
-441 442 0
86 -441 443 0
-443 444 0
87 -443 445 0
-445 446 0
88 -445 447 0
-447 448 0
89 -447 449 0
-449 450 0
90 -449 451 0
-451 452 0
91 -451 453 0
-453 454 0
92 -453 455 0
-455 456 0
93 -455 457 0
-457 458 0
94 -457 459 0
-459 460 0
95 -459 461 0
-461 462 0
96 -461 463 0
-463 464 0
97 -463 465 0
-465 466 0
98 -465 467 0
-467 468 0
99 -467 469 0
-469 470 0
100 -469 471 0
-471 472 0
101 -471 473 0
-473 474 0
102 -473 475 0
-475 476 0
103 -475 477 0
-477 478 0
104 -477 479 0
-479 480 0
105 -479 481 0
-481 482 0
106 -481 483 0
-483 484 0
107 -483 485 0
-485 486 0
108 -485 487 0
-487 488 0
109 -487 489 0
-489 490 0
110 -489 491 0
-491 492 0
111 -491 493 0
-493 494 0
112 -493 495 0
-495 496 0
113 -495 497 0
-497 498 0
114 -497 499 0
-499 500 0
115 -499 501 0
-501 502 0
116 -501 503 0
-503 504 0
117 -503 505 0
-505 506 0
118 -505 507 0
-507 508 0
119 -507 509 0
-509 510 0
120 -509 511 0
-511 512 0
121 -511 0
2 274 0
-274 513 0
3 -274 276 0
-276 514 0
4 -276 278 0
-278 515 0
5 -278 280 0
-280 516 0
6 -280 282 0
-282 517 0
7 -282 284 0
-284 518 0
8 -284 286 0
-286 519 0
9 -286 288 0
-288 520 0
10 -288 290 0
-290 521 0
11 -290 292 0
-292 522 0
12 -292 294 0
-294 523 0
13 -294 296 0
-296 524 0
14 -296 298 0
-298 525 0
15 -298 300 0
-300 526 0
16 -300 302 0
-302 527 0
17 -302 304 0
-304 528 0
18 -304 306 0
-306 529 0
19 -306 308 0
-308 530 0
20 -308 310 0
-310 531 0
21 -310 312 0
-312 532 0
22 -312 314 0
-314 533 0
23 -314 316 0
-316 534 0
24 -316 318 0
-318 535 0
25 -318 320 0
-320 536 0
26 -320 322 0
-322 537 0
27 -322 324 0
-324 538 0
28 -324 326 0
-326 539 0
29 -326 328 0
-328 540 0
30 -328 330 0
-330 541 0
31 -330 332 0
-332 542 0
32 -332 334 0
-334 543 0
33 -334 336 0
-336 544 0
34 -336 338 0
-338 545 0
35 -338 340 0
-340 546 0
36 -340 342 0
-342 547 0
37 -342 344 0
-344 548 0
38 -344 346 0
-346 549 0
39 -346 348 0
-348 550 0
40 -348 350 0
-350 551 0
41 -350 352 0
-352 552 0
42 -352 354 0
-354 553 0
43 -354 356 0
-356 554 0
44 -356 358 0
-358 555 0
45 -358 360 0
-360 556 0
46 -360 362 0
-362 557 0
47 -362 364 0
-364 558 0
48 -364 366 0
-366 559 0
49 -366 368 0
-368 560 0
50 -368 370 0
-370 561 0
51 -370 372 0
-372 562 0
52 -372 374 0
-374 563 0
53 -374 376 0
-376 564 0
54 -376 378 0
-378 565 0
55 -378 380 0
-380 566 0
56 -380 382 0
-382 567 0
57 -382 384 0
-384 568 0
58 -384 386 0
-386 569 0
59 -386 388 0
-388 570 0
60 -388 390 0
-390 571 0
61 -390 392 0
-392 572 0
62 -392 394 0
-394 573 0
63 -394 396 0
-396 574 0
64 -396 398 0
-398 575 0
65 -398 400 0
-400 576 0
66 -400 402 0
-402 577 0
67 -402 404 0
-404 578 0
68 -404 406 0
-406 579 0
69 -406 408 0
-408 580 0
70 -408 410 0
-410 581 0
71 -410 412 0
-412 582 0
72 -412 414 0
-414 583 0
73 -414 416 0
-416 584 0
74 -416 418 0
-418 585 0
75 -418 420 0
-420 586 0
76 -420 422 0
-422 587 0
77 -422 424 0
-424 588 0
78 -424 426 0
-426 589 0
79 -426 428 0
-428 590 0
80 -428 430 0
-430 591 0
81 -430 432 0
-432 592 0
82 -432 434 0
-434 593 0
83 -434 436 0
-436 594 0
84 -436 438 0
-438 595 0
85 -438 440 0
-440 596 0
86 -440 442 0
-442 597 0
87 -442 444 0
-444 598 0
88 -444 446 0
-446 599 0
89 -446 448 0
-448 600 0
90 -448 450 0
-450 601 0
91 -450 452 0
-452 602 0
92 -452 454 0
-454 603 0
93 -454 456 0
-456 604 0
94 -456 458 0
-458 605 0
95 -458 460 0
-460 606 0
96 -460 462 0
-462 607 0
97 -462 464 0
-464 608 0
98 -464 466 0
-466 609 0
99 -466 468 0
-468 610 0
100 -468 470 0
-470 611 0
101 -470 472 0
-472 612 0
102 -472 474 0
-474 613 0
103 -474 476 0
-476 614 0
104 -476 478 0
-478 615 0
105 -478 480 0
-480 616 0
106 -480 482 0
-482 617 0
107 -482 484 0
-484 618 0
108 -484 486 0
-486 619 0
109 -486 488 0
-488 620 0
110 -488 490 0
-490 621 0
111 -490 492 0
-492 622 0
112 -492 494 0
-494 623 0
113 -494 496 0
-496 624 0
114 -496 498 0
-498 625 0
115 -498 500 0
-500 626 0
116 -500 502 0
-502 627 0
117 -502 504 0
-504 628 0
118 -504 506 0
-506 629 0
119 -506 508 0
-508 630 0
120 -508 510 0
-510 631 0
121 -510 512 0
-512 632 0
122 -512 0
3 513 0
-513 633 0
4 -513 514 0
-514 634 0
5 -514 515 0
-515 635 0
6 -515 516 0
-516 636 0
7 -516 517 0
-517 637 0
8 -517 518 0
-518 638 0
9 -518 519 0
-519 639 0
10 -519 520 0
-520 640 0
11 -520 521 0
-521 641 0
12 -521 522 0
-522 642 0
13 -522 523 0
-523 643 0
14 -523 524 0
-524 644 0
15 -524 525 0
-525 645 0
16 -525 526 0
-526 646 0
17 -526 527 0
-527 647 0
18 -527 528 0
-528 648 0
19 -528 529 0
-529 649 0
20 -529 530 0
-530 650 0
21 -530 531 0
-531 651 0
22 -531 532 0
-532 652 0
23 -532 533 0
-533 653 0
24 -533 534 0
-534 654 0
25 -534 535 0
-535 655 0
26 -535 536 0
-536 656 0
27 -536 537 0
-537 657 0
28 -537 538 0
-538 658 0
29 -538 539 0
-539 659 0
30 -539 540 0
-540 660 0
31 -540 541 0
-541 661 0
32 -541 542 0
-542 662 0
33 -542 543 0
-543 663 0
34 -543 544 0
-544 664 0
35 -544 545 0
-545 665 0
36 -545 546 0
-546 666 0
37 -546 547 0
-547 667 0
38 -547 548 0
-548 668 0
39 -548 549 0
-549 669 0
40 -549 550 0
-550 670 0
41 -550 551 0
-551 671 0
42 -551 552 0
-552 672 0
43 -552 553 0
-553 673 0
44 -553 554 0
-554 674 0
45 -554 555 0
-555 675 0
46 -555 556 0
-556 676 0
47 -556 557 0
-557 677 0
48 -557 558 0
-558 678 0
49 -558 559 0
-559 679 0
50 -559 560 0
-560 680 0
51 -560 561 0
-561 681 0
52 -561 562 0
-562 682 0
53 -562 563 0
-563 683 0
54 -563 564 0
-564 684 0
55 -564 565 0
-565 685 0
56 -565 566 0
-566 686 0
57 -566 567 0
-567 687 0
58 -567 568 0
-568 688 0
59 -568 569 0
-569 689 0
60 -569 570 0
-570 690 0
61 -570 571 0
-571 691 0
62 -571 572 0
-572 692 0
63 -572 573 0
-573 693 0
64 -573 574 0
-574 694 0
65 -574 575 0
-575 695 0
66 -575 576 0
-576 696 0
67 -576 577 0
-577 697 0
68 -577 578 0
-578 698 0
69 -578 579 0
-579 699 0
70 -579 580 0
-580 700 0
71 -580 581 0
-581 701 0
72 -581 582 0
-582 702 0
73 -582 583 0
-583 703 0
74 -583 584 0
-584 704 0
75 -584 585 0
-585 705 0
76 -585 586 0
-586 706 0
77 -586 587 0
-587 707 0
78 -587 588 0
-588 708 0
79 -588 589 0
-589 709 0
80 -589 590 0
-590 710 0
81 -590 591 0
-591 711 0
82 -591 592 0
-592 712 0
83 -592 593 0
-593 713 0
84 -593 594 0
-594 714 0
85 -594 595 0
-595 715 0
86 -595 596 0
-596 716 0
87 -596 597 0
-597 717 0
88 -597 598 0
-598 718 0
89 -598 599 0
-599 719 0
90 -599 600 0
-600 720 0
91 -600 601 0
-601 721 0
92 -601 602 0
-602 722 0
93 -602 603 0
-603 723 0
94 -603 604 0
-604 724 0
95 -604 605 0
-605 725 0
96 -605 606 0
-606 726 0
97 -606 607 0
-607 727 0
98 -607 608 0
-608 728 0
99 -608 609 0
-609 729 0
100 -609 610 0
-610 730 0
101 -610 611 0
-611 731 0
102 -611 612 0
-612 732 0
103 -612 613 0
-613 733 0
104 -613 614 0
-614 734 0
105 -614 615 0
-615 735 0
106 -615 616 0
-616 736 0
107 -616 617 0
-617 737 0
108 -617 618 0
-618 738 0
109 -618 619 0
-619 739 0
110 -619 620 0
-620 740 0
111 -620 621 0
-621 741 0
112 -621 622 0
-622 742 0
113 -622 623 0
-623 743 0
114 -623 624 0
-624 744 0
115 -624 625 0
-625 745 0
116 -625 626 0
-626 746 0
117 -626 627 0
-627 747 0
118 -627 628 0
-628 748 0
119 -628 629 0
-629 749 0
120 -629 630 0
-630 750 0
121 -630 631 0
-631 751 0
122 -631 632 0
-632 752 0
123 -632 0
4 633 0
-633 753 0
5 -633 634 0
-634 754 0
6 -634 635 0
-635 755 0
7 -635 636 0
-636 756 0
8 -636 637 0
-637 757 0
9 -637 638 0
-638 758 0
10 -638 639 0
-639 759 0
11 -639 640 0
-640 760 0
12 -640 641 0
-641 761 0
13 -641 642 0
-642 762 0
14 -642 643 0
-643 763 0
15 -643 644 0
-644 764 0
16 -644 645 0
-645 765 0
17 -645 646 0
-646 766 0
18 -646 647 0
-647 767 0
19 -647 648 0
-648 768 0
20 -648 649 0
-649 769 0
21 -649 650 0
-650 770 0
22 -650 651 0
-651 771 0
23 -651 652 0
-652 772 0
24 -652 653 0
-653 773 0
25 -653 654 0
-654 774 0
26 -654 655 0
-655 775 0
27 -655 656 0
-656 776 0
28 -656 657 0
-657 777 0
29 -657 658 0
-658 778 0
30 -658 659 0
-659 779 0
31 -659 660 0
-660 780 0
32 -660 661 0
-661 781 0
33 -661 662 0
-662 782 0
34 -662 663 0
-663 783 0
35 -663 664 0
-664 784 0
36 -664 665 0
-665 785 0
37 -665 666 0
-666 786 0
38 -666 667 0
-667 787 0
39 -667 668 0
-668 788 0
40 -668 669 0
-669 789 0
41 -669 670 0
-670 790 0
42 -670 671 0
-671 791 0
43 -671 672 0
-672 792 0
44 -672 673 0
-673 793 0
45 -673 674 0
-674 794 0
46 -674 675 0
-675 795 0
47 -675 676 0
-676 796 0
48 -676 677 0
-677 797 0
49 -677 678 0
-678 798 0
50 -678 679 0
-679 799 0
51 -679 680 0
-680 800 0
52 -680 681 0
-681 801 0
53 -681 682 0
-682 802 0
54 -682 683 0
-683 803 0
55 -683 684 0
-684 804 0
56 -684 685 0
-685 805 0
57 -685 686 0
-686 806 0
58 -686 687 0
-687 807 0
59 -687 688 0
-688 808 0
60 -688 689 0
-689 809 0
61 -689 690 0
-690 810 0
62 -690 691 0
-691 811 0
63 -691 692 0
-692 812 0
64 -692 693 0
-693 813 0
65 -693 694 0
-694 814 0
66 -694 695 0
-695 815 0
67 -695 696 0
-696 816 0
68 -696 697 0
-697 817 0
69 -697 698 0
-698 818 0
70 -698 699 0
-699 819 0
71 -699 700 0
-700 820 0
72 -700 701 0
-701 821 0
73 -701 702 0
-702 822 0
74 -702 703 0
-703 823 0
75 -703 704 0
-704 824 0
76 -704 705 0
-705 825 0
77 -705 706 0
-706 826 0
78 -706 707 0
-707 827 0
79 -707 708 0
-708 828 0
80 -708 709 0
-709 829 0
81 -709 710 0
-710 830 0
82 -710 711 0
-711 831 0
83 -711 712 0
-712 832 0
84 -712 713 0
-713 833 0
85 -713 714 0
-714 834 0
86 -714 715 0
-715 835 0
87 -715 716 0
-716 836 0
88 -716 717 0
-717 837 0
89 -717 718 0
-718 838 0
90 -718 719 0
-719 839 0
91 -719 720 0
-720 840 0
92 -720 721 0
-721 841 0
93 -721 722 0
-722 842 0
94 -722 723 0
-723 843 0
95 -723 724 0
-724 844 0
96 -724 725 0
-725 845 0
97 -725 726 0
-726 846 0
98 -726 727 0
-727 847 0
99 -727 728 0
-728 848 0
100 -728 729 0
-729 849 0
101 -729 730 0
-730 850 0
102 -730 731 0
-731 851 0
103 -731 732 0
-732 852 0
104 -732 733 0
-733 853 0
105 -733 734 0
-734 854 0
106 -734 735 0
-735 855 0
107 -735 736 0
-736 856 0
108 -736 737 0
-737 857 0
109 -737 738 0
-738 858 0
110 -738 739 0
-739 859 0
111 -739 740 0
-740 860 0
112 -740 741 0
-741 861 0
113 -741 742 0
-742 862 0
114 -742 743 0
-743 863 0
115 -743 744 0
-744 864 0
116 -744 745 0
-745 865 0
117 -745 746 0
-746 866 0
118 -746 747 0
-747 867 0
119 -747 748 0
-748 868 0
120 -748 749 0
-749 869 0
121 -749 750 0
-750 870 0
122 -750 751 0
-751 871 0
123 -751 752 0
-752 872 0
124 -752 0
5 753 0
-753 873 0
6 -753 754 0
-754 874 0
7 -754 755 0
-755 875 0
8 -755 756 0
-756 876 0
9 -756 757 0
-757 877 0
10 -757 758 0
-758 878 0
11 -758 759 0
-759 879 0
12 -759 760 0
-760 880 0
13 -760 761 0
-761 881 0
14 -761 762 0
-762 882 0
15 -762 763 0
-763 883 0
16 -763 764 0
-764 884 0
17 -764 765 0
-765 885 0
18 -765 766 0
-766 886 0
19 -766 767 0
-767 887 0
20 -767 768 0
-768 888 0
21 -768 769 0
-769 889 0
22 -769 770 0
-770 890 0
23 -770 771 0
-771 891 0
24 -771 772 0
-772 892 0
25 -772 773 0
-773 893 0
26 -773 774 0
-774 894 0
27 -774 775 0
-775 895 0
28 -775 776 0
-776 896 0
29 -776 777 0
-777 897 0
30 -777 778 0
-778 898 0
31 -778 779 0
-779 899 0
32 -779 780 0
-780 900 0
33 -780 781 0
-781 901 0
34 -781 782 0
-782 902 0
35 -782 783 0
-783 903 0
36 -783 784 0
-784 904 0
37 -784 785 0
-785 905 0
38 -785 786 0
-786 906 0
39 -786 787 0
-787 907 0
40 -787 788 0
-788 908 0
41 -788 789 0
-789 909 0
42 -789 790 0
-790 910 0
43 -790 791 0
-791 911 0
44 -791 792 0
-792 912 0
45 -792 793 0
-793 913 0
46 -793 794 0
-794 914 0
47 -794 795 0
-795 915 0
48 -795 796 0
-796 916 0
49 -796 797 0
-797 917 0
50 -797 798 0
-798 918 0
51 -798 799 0
-799 919 0
52 -799 800 0
-800 920 0
53 -800 801 0
-801 921 0
54 -801 802 0
-802 922 0
55 -802 803 0
-803 923 0
56 -803 804 0
-804 924 0
57 -804 805 0
-805 925 0
58 -805 806 0
-806 926 0
59 -806 807 0
-807 927 0
60 -807 808 0
-808 928 0
61 -808 809 0
-809 929 0
62 -809 810 0
-810 930 0
63 -810 811 0
-811 931 0
64 -811 812 0
-812 932 0
65 -812 813 0
-813 933 0
66 -813 814 0
-814 934 0
67 -814 815 0
-815 935 0
68 -815 816 0
-816 936 0
69 -816 817 0
-817 937 0
70 -817 818 0
-818 938 0
71 -818 819 0
-819 939 0
72 -819 820 0
-820 940 0
73 -820 821 0
-821 941 0
74 -821 822 0
-822 942 0
75 -822 823 0
-823 943 0
76 -823 824 0
-824 944 0
77 -824 825 0
-825 945 0
78 -825 826 0
-826 946 0
79 -826 827 0
-827 947 0
80 -827 828 0
-828 948 0
81 -828 829 0
-829 949 0
82 -829 830 0
-830 950 0
83 -830 831 0
-831 951 0
84 -831 832 0
-832 952 0
85 -832 833 0
-833 953 0
86 -833 834 0
-834 954 0
87 -834 835 0
-835 955 0
88 -835 836 0
-836 956 0
89 -836 837 0
-837 957 0
90 -837 838 0
-838 958 0
91 -838 839 0
-839 959 0
92 -839 840 0
-840 960 0
93 -840 841 0
-841 961 0
94 -841 842 0
-842 962 0
95 -842 843 0
-843 963 0
96 -843 844 0
-844 964 0
97 -844 845 0
-845 965 0
98 -845 846 0
-846 966 0
99 -846 847 0
-847 967 0
100 -847 848 0
-848 968 0
101 -848 849 0
-849 969 0
102 -849 850 0
-850 970 0
103 -850 851 0
-851 971 0
104 -851 852 0
-852 972 0
105 -852 853 0
-853 973 0
106 -853 854 0
-854 974 0
107 -854 855 0
-855 975 0
108 -855 856 0
-856 976 0
109 -856 857 0
-857 977 0
110 -857 858 0
-858 978 0
111 -858 859 0
-859 979 0
112 -859 860 0
-860 980 0
113 -860 861 0
-861 981 0
114 -861 862 0
-862 982 0
115 -862 863 0
-863 983 0
116 -863 864 0
-864 984 0
117 -864 865 0
-865 985 0
118 -865 866 0
-866 986 0
119 -866 867 0
-867 987 0
120 -867 868 0
-868 988 0
121 -868 869 0
-869 989 0
122 -869 870 0
-870 990 0
123 -870 871 0
-871 991 0
124 -871 872 0
-872 992 0
125 -872 0
6 873 0
-873 993 0
7 -873 874 0
-874 994 0
8 -874 875 0
-875 995 0
9 -875 876 0
-876 996 0
10 -876 877 0
-877 997 0
11 -877 878 0
-878 998 0
12 -878 879 0
-879 999 0
13 -879 880 0
-880 1000 0
14 -880 881 0
-881 1001 0
15 -881 882 0
-882 1002 0
16 -882 883 0
-883 1003 0
17 -883 884 0
-884 1004 0
18 -884 885 0
-885 1005 0
19 -885 886 0
-886 1006 0
20 -886 887 0
-887 1007 0
21 -887 888 0
-888 1008 0
22 -888 889 0
-889 1009 0
23 -889 890 0
-890 1010 0
24 -890 891 0
-891 1011 0
25 -891 892 0
-892 1012 0
26 -892 893 0
-893 1013 0
27 -893 894 0
-894 1014 0
28 -894 895 0
-895 1015 0
29 -895 896 0
-896 1016 0
30 -896 897 0
-897 1017 0
31 -897 898 0
-898 1018 0
32 -898 899 0
-899 1019 0
33 -899 900 0
-900 1020 0
34 -900 901 0
-901 1021 0
35 -901 902 0
-902 1022 0
36 -902 903 0
-903 1023 0
37 -903 904 0
-904 1024 0
38 -904 905 0
-905 1025 0
39 -905 906 0
-906 1026 0
40 -906 907 0
-907 1027 0
41 -907 908 0
-908 1028 0
42 -908 909 0
-909 1029 0
43 -909 910 0
-910 1030 0
44 -910 911 0
-911 1031 0
45 -911 912 0
-912 1032 0
46 -912 913 0
-913 1033 0
47 -913 914 0
-914 1034 0
48 -914 915 0
-915 1035 0
49 -915 916 0
-916 1036 0
50 -916 917 0
-917 1037 0
51 -917 918 0
-918 1038 0
52 -918 919 0
-919 1039 0
53 -919 920 0
-920 1040 0
54 -920 921 0
-921 1041 0
55 -921 922 0
-922 1042 0
56 -922 923 0
-923 1043 0
57 -923 924 0
-924 1044 0
58 -924 925 0
-925 1045 0
59 -925 926 0
-926 1046 0
60 -926 927 0
-927 1047 0
61 -927 928 0
-928 1048 0
62 -928 929 0
-929 1049 0
63 -929 930 0
-930 1050 0
64 -930 931 0
-931 1051 0
65 -931 932 0
-932 1052 0
66 -932 933 0
-933 1053 0
67 -933 934 0
-934 1054 0
68 -934 935 0
-935 1055 0
69 -935 936 0
-936 1056 0
70 -936 937 0
-937 1057 0
71 -937 938 0
-938 1058 0
72 -938 939 0
-939 1059 0
73 -939 940 0
-940 1060 0
74 -940 941 0
-941 1061 0
75 -941 942 0
-942 1062 0
76 -942 943 0
-943 1063 0
77 -943 944 0
-944 1064 0
78 -944 945 0
-945 1065 0
79 -945 946 0
-946 1066 0
80 -946 947 0
-947 1067 0
81 -947 948 0
-948 1068 0
82 -948 949 0
-949 1069 0
83 -949 950 0
-950 1070 0
84 -950 951 0
-951 1071 0
85 -951 952 0
-952 1072 0
86 -952 953 0
-953 1073 0
87 -953 954 0
-954 1074 0
88 -954 955 0
-955 1075 0
89 -955 956 0
-956 1076 0
90 -956 957 0
-957 1077 0
91 -957 958 0
-958 1078 0
92 -958 959 0
-959 1079 0
93 -959 960 0
-960 1080 0
94 -960 961 0
-961 1081 0
95 -961 962 0
-962 1082 0
96 -962 963 0
-963 1083 0
97 -963 964 0
-964 1084 0
98 -964 965 0
-965 1085 0
99 -965 966 0
-966 1086 0
100 -966 967 0
-967 1087 0
101 -967 968 0
-968 1088 0
102 -968 969 0
-969 1089 0
103 -969 970 0
-970 1090 0
104 -970 971 0
-971 1091 0
105 -971 972 0
-972 1092 0
106 -972 973 0
-973 1093 0
107 -973 974 0
-974 1094 0
108 -974 975 0
-975 1095 0
109 -975 976 0
-976 1096 0
110 -976 977 0
-977 1097 0
111 -977 978 0
-978 1098 0
112 -978 979 0
-979 1099 0
113 -979 980 0
-980 1100 0
114 -980 981 0
-981 1101 0
115 -981 982 0
-982 1102 0
116 -982 983 0
-983 1103 0
117 -983 984 0
-984 1104 0
118 -984 985 0
-985 1105 0
119 -985 986 0
-986 1106 0
120 -986 987 0
-987 1107 0
121 -987 988 0
-988 1108 0
122 -988 989 0
-989 1109 0
123 -989 990 0
-990 1110 0
124 -990 991 0
-991 1111 0
125 -991 992 0
-992 1112 0
126 -992 0
7 993 0
-993 1113 0
8 -993 994 0
-994 1114 0
9 -994 995 0
-995 1115 0
10 -995 996 0
-996 1116 0
11 -996 997 0
-997 1117 0
12 -997 998 0
-998 1118 0
13 -998 999 0
-999 1119 0
14 -999 1000 0
-1000 1120 0
15 -1000 1001 0
-1001 1121 0
16 -1001 1002 0
-1002 1122 0
17 -1002 1003 0
-1003 1123 0
18 -1003 1004 0
-1004 1124 0
19 -1004 1005 0
-1005 1125 0
20 -1005 1006 0
-1006 1126 0
21 -1006 1007 0
-1007 1127 0
22 -1007 1008 0
-1008 1128 0
23 -1008 1009 0
-1009 1129 0
24 -1009 1010 0
-1010 1130 0
25 -1010 1011 0
-1011 1131 0
26 -1011 1012 0
-1012 1132 0
27 -1012 1013 0
-1013 1133 0
28 -1013 1014 0
-1014 1134 0
29 -1014 1015 0
-1015 1135 0
30 -1015 1016 0
-1016 1136 0
31 -1016 1017 0
-1017 1137 0
32 -1017 1018 0
-1018 1138 0
33 -1018 1019 0
-1019 1139 0
34 -1019 1020 0
-1020 1140 0
35 -1020 1021 0
-1021 1141 0
36 -1021 1022 0
-1022 1142 0
37 -1022 1023 0
-1023 1143 0
38 -1023 1024 0
-1024 1144 0
39 -1024 1025 0
-1025 1145 0
40 -1025 1026 0
-1026 1146 0
41 -1026 1027 0
-1027 1147 0
42 -1027 1028 0
-1028 1148 0
43 -1028 1029 0
-1029 1149 0
44 -1029 1030 0
-1030 1150 0
45 -1030 1031 0
-1031 1151 0
46 -1031 1032 0
-1032 1152 0
47 -1032 1033 0
-1033 1153 0
48 -1033 1034 0
-1034 1154 0
49 -1034 1035 0
-1035 1155 0
50 -1035 1036 0
-1036 1156 0
51 -1036 1037 0
-1037 1157 0
52 -1037 1038 0
-1038 1158 0
53 -1038 1039 0
-1039 1159 0
54 -1039 1040 0
-1040 1160 0
55 -1040 1041 0
-1041 1161 0
56 -1041 1042 0
-1042 1162 0
57 -1042 1043 0
-1043 1163 0
58 -1043 1044 0
-1044 1164 0
59 -1044 1045 0
-1045 1165 0
60 -1045 1046 0
-1046 1166 0
61 -1046 1047 0
-1047 1167 0
62 -1047 1048 0
-1048 1168 0
63 -1048 1049 0
-1049 1169 0
64 -1049 1050 0
-1050 1170 0
65 -1050 1051 0
-1051 1171 0
66 -1051 1052 0
-1052 1172 0
67 -1052 1053 0
-1053 1173 0
68 -1053 1054 0
-1054 1174 0
69 -1054 1055 0
-1055 1175 0
70 -1055 1056 0
-1056 1176 0
71 -1056 1057 0
-1057 1177 0
72 -1057 1058 0
-1058 1178 0
73 -1058 1059 0
-1059 1179 0
74 -1059 1060 0
-1060 1180 0
75 -1060 1061 0
-1061 1181 0
76 -1061 1062 0
-1062 1182 0
77 -1062 1063 0
-1063 1183 0
78 -1063 1064 0
-1064 1184 0
79 -1064 1065 0
-1065 1185 0
80 -1065 1066 0
-1066 1186 0
81 -1066 1067 0
-1067 1187 0
82 -1067 1068 0
-1068 1188 0
83 -1068 1069 0
-1069 1189 0
84 -1069 1070 0
-1070 1190 0
85 -1070 1071 0
-1071 1191 0
86 -1071 1072 0
-1072 1192 0
87 -1072 1073 0
-1073 1193 0
88 -1073 1074 0
-1074 1194 0
89 -1074 1075 0
-1075 1195 0
90 -1075 1076 0
-1076 1196 0
91 -1076 1077 0
-1077 1197 0
92 -1077 1078 0
-1078 1198 0
93 -1078 1079 0
-1079 1199 0
94 -1079 1080 0
-1080 1200 0
95 -1080 1081 0
-1081 1201 0
96 -1081 1082 0
-1082 1202 0
97 -1082 1083 0
-1083 1203 0
98 -1083 1084 0
-1084 1204 0
99 -1084 1085 0
-1085 1205 0
100 -1085 1086 0
-1086 1206 0
101 -1086 1087 0
-1087 1207 0
102 -1087 1088 0
-1088 1208 0
103 -1088 1089 0
-1089 1209 0
104 -1089 1090 0
-1090 1210 0
105 -1090 1091 0
-1091 1211 0
106 -1091 1092 0
-1092 1212 0
107 -1092 1093 0
-1093 1213 0
108 -1093 1094 0
-1094 1214 0
109 -1094 1095 0
-1095 1215 0
110 -1095 1096 0
-1096 1216 0
111 -1096 1097 0
-1097 1217 0
112 -1097 1098 0
-1098 1218 0
113 -1098 1099 0
-1099 1219 0
114 -1099 1100 0
-1100 1220 0
115 -1100 1101 0
-1101 1221 0
116 -1101 1102 0
-1102 1222 0
117 -1102 1103 0
-1103 1223 0
118 -1103 1104 0
-1104 1224 0
119 -1104 1105 0
-1105 1225 0
120 -1105 1106 0
-1106 1226 0
121 -1106 1107 0
-1107 1227 0
122 -1107 1108 0
-1108 1228 0
123 -1108 1109 0
-1109 1229 0
124 -1109 1110 0
-1110 1230 0
125 -1110 1111 0
-1111 1231 0
126 -1111 1112 0
-1112 1232 0
127 -1112 0
8 1113 0
-1113 1233 0
9 -1113 1114 0
-1114 1234 0
10 -1114 1115 0
-1115 1235 0
11 -1115 1116 0
-1116 1236 0
12 -1116 1117 0
-1117 1237 0
13 -1117 1118 0
-1118 1238 0
14 -1118 1119 0
-1119 1239 0
15 -1119 1120 0
-1120 1240 0
16 -1120 1121 0
-1121 1241 0
17 -1121 1122 0
-1122 1242 0
18 -1122 1123 0
-1123 1243 0
19 -1123 1124 0
-1124 1244 0
20 -1124 1125 0
-1125 1245 0
21 -1125 1126 0
-1126 1246 0
22 -1126 1127 0
-1127 1247 0
23 -1127 1128 0
-1128 1248 0
24 -1128 1129 0
-1129 1249 0
25 -1129 1130 0
-1130 1250 0
26 -1130 1131 0
-1131 1251 0
27 -1131 1132 0
-1132 1252 0
28 -1132 1133 0
-1133 1253 0
29 -1133 1134 0
-1134 1254 0
30 -1134 1135 0
-1135 1255 0
31 -1135 1136 0
-1136 1256 0
32 -1136 1137 0
-1137 1257 0
33 -1137 1138 0
-1138 1258 0
34 -1138 1139 0
-1139 1259 0
35 -1139 1140 0
-1140 1260 0
36 -1140 1141 0
-1141 1261 0
37 -1141 1142 0
-1142 1262 0
38 -1142 1143 0
-1143 1263 0
39 -1143 1144 0
-1144 1264 0
40 -1144 1145 0
-1145 1265 0
41 -1145 1146 0
-1146 1266 0
42 -1146 1147 0
-1147 1267 0
43 -1147 1148 0
-1148 1268 0
44 -1148 1149 0
-1149 1269 0
45 -1149 1150 0
-1150 1270 0
46 -1150 1151 0
-1151 1271 0
47 -1151 1152 0
-1152 1272 0
48 -1152 1153 0
-1153 1273 0
49 -1153 1154 0
-1154 1274 0
50 -1154 1155 0
-1155 1275 0
51 -1155 1156 0
-1156 1276 0
52 -1156 1157 0
-1157 1277 0
53 -1157 1158 0
-1158 1278 0
54 -1158 1159 0
-1159 1279 0
55 -1159 1160 0
-1160 1280 0
56 -1160 1161 0
-1161 1281 0
57 -1161 1162 0
-1162 1282 0
58 -1162 1163 0
-1163 1283 0
59 -1163 1164 0
-1164 1284 0
60 -1164 1165 0
-1165 1285 0
61 -1165 1166 0
-1166 1286 0
62 -1166 1167 0
-1167 1287 0
63 -1167 1168 0
-1168 1288 0
64 -1168 1169 0
-1169 1289 0
65 -1169 1170 0
-1170 1290 0
66 -1170 1171 0
-1171 1291 0
67 -1171 1172 0
-1172 1292 0
68 -1172 1173 0
-1173 1293 0
69 -1173 1174 0
-1174 1294 0
70 -1174 1175 0
-1175 1295 0
71 -1175 1176 0
-1176 1296 0
72 -1176 1177 0
-1177 1297 0
73 -1177 1178 0
-1178 1298 0
74 -1178 1179 0
-1179 1299 0
75 -1179 1180 0
-1180 1300 0
76 -1180 1181 0
-1181 1301 0
77 -1181 1182 0
-1182 1302 0
78 -1182 1183 0
-1183 1303 0
79 -1183 1184 0
-1184 1304 0
80 -1184 1185 0
-1185 1305 0
81 -1185 1186 0
-1186 1306 0
82 -1186 1187 0
-1187 1307 0
83 -1187 1188 0
-1188 1308 0
84 -1188 1189 0
-1189 1309 0
85 -1189 1190 0
-1190 1310 0
86 -1190 1191 0
-1191 1311 0
87 -1191 1192 0
-1192 1312 0
88 -1192 1193 0
-1193 1313 0
89 -1193 1194 0
-1194 1314 0
90 -1194 1195 0
-1195 1315 0
91 -1195 1196 0
-1196 1316 0
92 -1196 1197 0
-1197 1317 0
93 -1197 1198 0
-1198 1318 0
94 -1198 1199 0
-1199 1319 0
95 -1199 1200 0
-1200 1320 0
96 -1200 1201 0
-1201 1321 0
97 -1201 1202 0
-1202 1322 0
98 -1202 1203 0
-1203 1323 0
99 -1203 1204 0
-1204 1324 0
100 -1204 1205 0
-1205 1325 0
101 -1205 1206 0
-1206 1326 0
102 -1206 1207 0
-1207 1327 0
103 -1207 1208 0
-1208 1328 0
104 -1208 1209 0
-1209 1329 0
105 -1209 1210 0
-1210 1330 0
106 -1210 1211 0
-1211 1331 0
107 -1211 1212 0
-1212 1332 0
108 -1212 1213 0
-1213 1333 0
109 -1213 1214 0
-1214 1334 0
110 -1214 1215 0
-1215 1335 0
111 -1215 1216 0
-1216 1336 0
112 -1216 1217 0
-1217 1337 0
113 -1217 1218 0
-1218 1338 0
114 -1218 1219 0
-1219 1339 0
115 -1219 1220 0
-1220 1340 0
116 -1220 1221 0
-1221 1341 0
117 -1221 1222 0
-1222 1342 0
118 -1222 1223 0
-1223 1343 0
119 -1223 1224 0
-1224 1344 0
120 -1224 1225 0
-1225 1345 0
121 -1225 1226 0
-1226 1346 0
122 -1226 1227 0
-1227 1347 0
123 -1227 1228 0
-1228 1348 0
124 -1228 1229 0
-1229 1349 0
125 -1229 1230 0
-1230 1350 0
126 -1230 1231 0
-1231 1351 0
127 -1231 1232 0
-1232 1352 0
128 -1232 0
9 1233 0
-1233 1353 0
10 -1233 1234 0
-1234 1354 0
11 -1234 1235 0
-1235 1355 0
12 -1235 1236 0
-1236 1356 0
13 -1236 1237 0
-1237 1357 0
14 -1237 1238 0
-1238 1358 0
15 -1238 1239 0
-1239 1359 0
16 -1239 1240 0
-1240 1360 0
17 -1240 1241 0
-1241 1361 0
18 -1241 1242 0
-1242 1362 0
19 -1242 1243 0
-1243 1363 0
20 -1243 1244 0
-1244 1364 0
21 -1244 1245 0
-1245 1365 0
22 -1245 1246 0
-1246 1366 0
23 -1246 1247 0
-1247 1367 0
24 -1247 1248 0
-1248 1368 0
25 -1248 1249 0
-1249 1369 0
26 -1249 1250 0
-1250 1370 0
27 -1250 1251 0
-1251 1371 0
28 -1251 1252 0
-1252 1372 0
29 -1252 1253 0
-1253 1373 0
30 -1253 1254 0
-1254 1374 0
31 -1254 1255 0
-1255 1375 0
32 -1255 1256 0
-1256 1376 0
33 -1256 1257 0
-1257 1377 0
34 -1257 1258 0
-1258 1378 0
35 -1258 1259 0
-1259 1379 0
36 -1259 1260 0
-1260 1380 0
37 -1260 1261 0
-1261 1381 0
38 -1261 1262 0
-1262 1382 0
39 -1262 1263 0
-1263 1383 0
40 -1263 1264 0
-1264 1384 0
41 -1264 1265 0
-1265 1385 0
42 -1265 1266 0
-1266 1386 0
43 -1266 1267 0
-1267 1387 0
44 -1267 1268 0
-1268 1388 0
45 -1268 1269 0
-1269 1389 0
46 -1269 1270 0
-1270 1390 0
47 -1270 1271 0
-1271 1391 0
48 -1271 1272 0
-1272 1392 0
49 -1272 1273 0
-1273 1393 0
50 -1273 1274 0
-1274 1394 0
51 -1274 1275 0
-1275 1395 0
52 -1275 1276 0
-1276 1396 0
53 -1276 1277 0
-1277 1397 0
54 -1277 1278 0
-1278 1398 0
55 -1278 1279 0
-1279 1399 0
56 -1279 1280 0
-1280 1400 0
57 -1280 1281 0
-1281 1401 0
58 -1281 1282 0
-1282 1402 0
59 -1282 1283 0
-1283 1403 0
60 -1283 1284 0
-1284 1404 0
61 -1284 1285 0
-1285 1405 0
62 -1285 1286 0
-1286 1406 0
63 -1286 1287 0
-1287 1407 0
64 -1287 1288 0
-1288 1408 0
65 -1288 1289 0
-1289 1409 0
66 -1289 1290 0
-1290 1410 0
67 -1290 1291 0
-1291 1411 0
68 -1291 1292 0
-1292 1412 0
69 -1292 1293 0
-1293 1413 0
70 -1293 1294 0
-1294 1414 0
71 -1294 1295 0
-1295 1415 0
72 -1295 1296 0
-1296 1416 0
73 -1296 1297 0
-1297 1417 0
74 -1297 1298 0
-1298 1418 0
75 -1298 1299 0
-1299 1419 0
76 -1299 1300 0
-1300 1420 0
77 -1300 1301 0
-1301 1421 0
78 -1301 1302 0
-1302 1422 0
79 -1302 1303 0
-1303 1423 0
80 -1303 1304 0
-1304 1424 0
81 -1304 1305 0
-1305 1425 0
82 -1305 1306 0
-1306 1426 0
83 -1306 1307 0
-1307 1427 0
84 -1307 1308 0
-1308 1428 0
85 -1308 1309 0
-1309 1429 0
86 -1309 1310 0
-1310 1430 0
87 -1310 1311 0
-1311 1431 0
88 -1311 1312 0
-1312 1432 0
89 -1312 1313 0
-1313 1433 0
90 -1313 1314 0
-1314 1434 0
91 -1314 1315 0
-1315 1435 0
92 -1315 1316 0
-1316 1436 0
93 -1316 1317 0
-1317 1437 0
94 -1317 1318 0
-1318 1438 0
95 -1318 1319 0
-1319 1439 0
96 -1319 1320 0
-1320 1440 0
97 -1320 1321 0
-1321 1441 0
98 -1321 1322 0
-1322 1442 0
99 -1322 1323 0
-1323 1443 0
100 -1323 1324 0
-1324 1444 0
101 -1324 1325 0
-1325 1445 0
102 -1325 1326 0
-1326 1446 0
103 -1326 1327 0
-1327 1447 0
104 -1327 1328 0
-1328 1448 0
105 -1328 1329 0
-1329 1449 0
106 -1329 1330 0
-1330 1450 0
107 -1330 1331 0
-1331 1451 0
108 -1331 1332 0
-1332 1452 0
109 -1332 1333 0
-1333 1453 0
110 -1333 1334 0
-1334 1454 0
111 -1334 1335 0
-1335 1455 0
112 -1335 1336 0
-1336 1456 0
113 -1336 1337 0
-1337 1457 0
114 -1337 1338 0
-1338 1458 0
115 -1338 1339 0
-1339 1459 0
116 -1339 1340 0
-1340 1460 0
117 -1340 1341 0
-1341 1461 0
118 -1341 1342 0
-1342 1462 0
119 -1342 1343 0
-1343 1463 0
120 -1343 1344 0
-1344 1464 0
121 -1344 1345 0
-1345 1465 0
122 -1345 1346 0
-1346 1466 0
123 -1346 1347 0
-1347 1467 0
124 -1347 1348 0
-1348 1468 0
125 -1348 1349 0
-1349 1469 0
126 -1349 1350 0
-1350 1470 0
127 -1350 1351 0
-1351 1471 0
128 -1351 1352 0
-1352 1472 0
129 -1352 0
10 1353 0
-1353 1473 0
11 -1353 1354 0
-1354 1474 0
12 -1354 1355 0
-1355 1475 0
13 -1355 1356 0
-1356 1476 0
14 -1356 1357 0
-1357 1477 0
15 -1357 1358 0
-1358 1478 0
16 -1358 1359 0
-1359 1479 0
17 -1359 1360 0
-1360 1480 0
18 -1360 1361 0
-1361 1481 0
19 -1361 1362 0
-1362 1482 0
20 -1362 1363 0
-1363 1483 0
21 -1363 1364 0
-1364 1484 0
22 -1364 1365 0
-1365 1485 0
23 -1365 1366 0
-1366 1486 0
24 -1366 1367 0
-1367 1487 0
25 -1367 1368 0
-1368 1488 0
26 -1368 1369 0
-1369 1489 0
27 -1369 1370 0
-1370 1490 0
28 -1370 1371 0
-1371 1491 0
29 -1371 1372 0
-1372 1492 0
30 -1372 1373 0
-1373 1493 0
31 -1373 1374 0
-1374 1494 0
32 -1374 1375 0
-1375 1495 0
33 -1375 1376 0
-1376 1496 0
34 -1376 1377 0
-1377 1497 0
35 -1377 1378 0
-1378 1498 0
36 -1378 1379 0
-1379 1499 0
37 -1379 1380 0
-1380 1500 0
38 -1380 1381 0
-1381 1501 0
39 -1381 1382 0
-1382 1502 0
40 -1382 1383 0
-1383 1503 0
41 -1383 1384 0
-1384 1504 0
42 -1384 1385 0
-1385 1505 0
43 -1385 1386 0
-1386 1506 0
44 -1386 1387 0
-1387 1507 0
45 -1387 1388 0
-1388 1508 0
46 -1388 1389 0
-1389 1509 0
47 -1389 1390 0
-1390 1510 0
48 -1390 1391 0
-1391 1511 0
49 -1391 1392 0
-1392 1512 0
50 -1392 1393 0
-1393 1513 0
51 -1393 1394 0
-1394 1514 0
52 -1394 1395 0
-1395 1515 0
53 -1395 1396 0
-1396 1516 0
54 -1396 1397 0
-1397 1517 0
55 -1397 1398 0
-1398 1518 0
56 -1398 1399 0
-1399 1519 0
57 -1399 1400 0
-1400 1520 0
58 -1400 1401 0
-1401 1521 0
59 -1401 1402 0
-1402 1522 0
60 -1402 1403 0
-1403 1523 0
61 -1403 1404 0
-1404 1524 0
62 -1404 1405 0
-1405 1525 0
63 -1405 1406 0
-1406 1526 0
64 -1406 1407 0
-1407 1527 0
65 -1407 1408 0
-1408 1528 0
66 -1408 1409 0
-1409 1529 0
67 -1409 1410 0
-1410 1530 0
68 -1410 1411 0
-1411 1531 0
69 -1411 1412 0
-1412 1532 0
70 -1412 1413 0
-1413 1533 0
71 -1413 1414 0
-1414 1534 0
72 -1414 1415 0
-1415 1535 0
73 -1415 1416 0
-1416 1536 0
74 -1416 1417 0
-1417 1537 0
75 -1417 1418 0
-1418 1538 0
76 -1418 1419 0
-1419 1539 0
77 -1419 1420 0
-1420 1540 0
78 -1420 1421 0
-1421 1541 0
79 -1421 1422 0
-1422 1542 0
80 -1422 1423 0
-1423 1543 0
81 -1423 1424 0
-1424 1544 0
82 -1424 1425 0
-1425 1545 0
83 -1425 1426 0
-1426 1546 0
84 -1426 1427 0
-1427 1547 0
85 -1427 1428 0
-1428 1548 0
86 -1428 1429 0
-1429 1549 0
87 -1429 1430 0
-1430 1550 0
88 -1430 1431 0
-1431 1551 0
89 -1431 1432 0
-1432 1552 0
90 -1432 1433 0
-1433 1553 0
91 -1433 1434 0
-1434 1554 0
92 -1434 1435 0
-1435 1555 0
93 -1435 1436 0
-1436 1556 0
94 -1436 1437 0
-1437 1557 0
95 -1437 1438 0
-1438 1558 0
96 -1438 1439 0
-1439 1559 0
97 -1439 1440 0
-1440 1560 0
98 -1440 1441 0
-1441 1561 0
99 -1441 1442 0
-1442 1562 0
100 -1442 1443 0
-1443 1563 0
101 -1443 1444 0
-1444 1564 0
102 -1444 1445 0
-1445 1565 0
103 -1445 1446 0
-1446 1566 0
104 -1446 1447 0
-1447 1567 0
105 -1447 1448 0
-1448 1568 0
106 -1448 1449 0
-1449 1569 0
107 -1449 1450 0
-1450 1570 0
108 -1450 1451 0
-1451 1571 0
109 -1451 1452 0
-1452 1572 0
110 -1452 1453 0
-1453 1573 0
111 -1453 1454 0
-1454 1574 0
112 -1454 1455 0
-1455 1575 0
113 -1455 1456 0
-1456 1576 0
114 -1456 1457 0
-1457 1577 0
115 -1457 1458 0
-1458 1578 0
116 -1458 1459 0
-1459 1579 0
117 -1459 1460 0
-1460 1580 0
118 -1460 1461 0
-1461 1581 0
119 -1461 1462 0
-1462 1582 0
120 -1462 1463 0
-1463 1583 0
121 -1463 1464 0
-1464 1584 0
122 -1464 1465 0
-1465 1585 0
123 -1465 1466 0
-1466 1586 0
124 -1466 1467 0
-1467 1587 0
125 -1467 1468 0
-1468 1588 0
126 -1468 1469 0
-1469 1589 0
127 -1469 1470 0
-1470 1590 0
128 -1470 1471 0
-1471 1591 0
129 -1471 1472 0
-1472 1592 0
130 -1472 0
11 1473 0
-1473 1593 0
12 -1473 1474 0
-1474 1594 0
13 -1474 1475 0
-1475 1595 0
14 -1475 1476 0
-1476 1596 0
15 -1476 1477 0
-1477 1597 0
16 -1477 1478 0
-1478 1598 0
17 -1478 1479 0
-1479 1599 0
18 -1479 1480 0
-1480 1600 0
19 -1480 1481 0
-1481 1601 0
20 -1481 1482 0
-1482 1602 0
21 -1482 1483 0
-1483 1603 0
22 -1483 1484 0
-1484 1604 0
23 -1484 1485 0
-1485 1605 0
24 -1485 1486 0
-1486 1606 0
25 -1486 1487 0
-1487 1607 0
26 -1487 1488 0
-1488 1608 0
27 -1488 1489 0
-1489 1609 0
28 -1489 1490 0
-1490 1610 0
29 -1490 1491 0
-1491 1611 0
30 -1491 1492 0
-1492 1612 0
31 -1492 1493 0
-1493 1613 0
32 -1493 1494 0
-1494 1614 0
33 -1494 1495 0
-1495 1615 0
34 -1495 1496 0
-1496 1616 0
35 -1496 1497 0
-1497 1617 0
36 -1497 1498 0
-1498 1618 0
37 -1498 1499 0
-1499 1619 0
38 -1499 1500 0
-1500 1620 0
39 -1500 1501 0
-1501 1621 0
40 -1501 1502 0
-1502 1622 0
41 -1502 1503 0
-1503 1623 0
42 -1503 1504 0
-1504 1624 0
43 -1504 1505 0
-1505 1625 0
44 -1505 1506 0
-1506 1626 0
45 -1506 1507 0
-1507 1627 0
46 -1507 1508 0
-1508 1628 0
47 -1508 1509 0
-1509 1629 0
48 -1509 1510 0
-1510 1630 0
49 -1510 1511 0
-1511 1631 0
50 -1511 1512 0
-1512 1632 0
51 -1512 1513 0
-1513 1633 0
52 -1513 1514 0
-1514 1634 0
53 -1514 1515 0
-1515 1635 0
54 -1515 1516 0
-1516 1636 0
55 -1516 1517 0
-1517 1637 0
56 -1517 1518 0
-1518 1638 0
57 -1518 1519 0
-1519 1639 0
58 -1519 1520 0
-1520 1640 0
59 -1520 1521 0
-1521 1641 0
60 -1521 1522 0
-1522 1642 0
61 -1522 1523 0
-1523 1643 0
62 -1523 1524 0
-1524 1644 0
63 -1524 1525 0
-1525 1645 0
64 -1525 1526 0
-1526 1646 0
65 -1526 1527 0
-1527 1647 0
66 -1527 1528 0
-1528 1648 0
67 -1528 1529 0
-1529 1649 0
68 -1529 1530 0
-1530 1650 0
69 -1530 1531 0
-1531 1651 0
70 -1531 1532 0
-1532 1652 0
71 -1532 1533 0
-1533 1653 0
72 -1533 1534 0
-1534 1654 0
73 -1534 1535 0
-1535 1655 0
74 -1535 1536 0
-1536 1656 0
75 -1536 1537 0
-1537 1657 0
76 -1537 1538 0
-1538 1658 0
77 -1538 1539 0
-1539 1659 0
78 -1539 1540 0
-1540 1660 0
79 -1540 1541 0
-1541 1661 0
80 -1541 1542 0
-1542 1662 0
81 -1542 1543 0
-1543 1663 0
82 -1543 1544 0
-1544 1664 0
83 -1544 1545 0
-1545 1665 0
84 -1545 1546 0
-1546 1666 0
85 -1546 1547 0
-1547 1667 0
86 -1547 1548 0
-1548 1668 0
87 -1548 1549 0
-1549 1669 0
88 -1549 1550 0
-1550 1670 0
89 -1550 1551 0
-1551 1671 0
90 -1551 1552 0
-1552 1672 0
91 -1552 1553 0
-1553 1673 0
92 -1553 1554 0
-1554 1674 0
93 -1554 1555 0
-1555 1675 0
94 -1555 1556 0
-1556 1676 0
95 -1556 1557 0
-1557 1677 0
96 -1557 1558 0
-1558 1678 0
97 -1558 1559 0
-1559 1679 0
98 -1559 1560 0
-1560 1680 0
99 -1560 1561 0
-1561 1681 0
100 -1561 1562 0
-1562 1682 0
101 -1562 1563 0
-1563 1683 0
102 -1563 1564 0
-1564 1684 0
103 -1564 1565 0
-1565 1685 0
104 -1565 1566 0
-1566 1686 0
105 -1566 1567 0
-1567 1687 0
106 -1567 1568 0
-1568 1688 0
107 -1568 1569 0
-1569 1689 0
108 -1569 1570 0
-1570 1690 0
109 -1570 1571 0
-1571 1691 0
110 -1571 1572 0
-1572 1692 0
111 -1572 1573 0
-1573 1693 0
112 -1573 1574 0
-1574 1694 0
113 -1574 1575 0
-1575 1695 0
114 -1575 1576 0
-1576 1696 0
115 -1576 1577 0
-1577 1697 0
116 -1577 1578 0
-1578 1698 0
117 -1578 1579 0
-1579 1699 0
118 -1579 1580 0
-1580 1700 0
119 -1580 1581 0
-1581 1701 0
120 -1581 1582 0
-1582 1702 0
121 -1582 1583 0
-1583 1703 0
122 -1583 1584 0
-1584 1704 0
123 -1584 1585 0
-1585 1705 0
124 -1585 1586 0
-1586 1706 0
125 -1586 1587 0
-1587 1707 0
126 -1587 1588 0
-1588 1708 0
127 -1588 1589 0
-1589 1709 0
128 -1589 1590 0
-1590 1710 0
129 -1590 1591 0
-1591 1711 0
130 -1591 1592 0
-1592 1712 0
131 -1592 0
12 1593 0
-1593 1713 0
13 -1593 1594 0
-1594 1714 0
14 -1594 1595 0
-1595 1715 0
15 -1595 1596 0
-1596 1716 0
16 -1596 1597 0
-1597 1717 0
17 -1597 1598 0
-1598 1718 0
18 -1598 1599 0
-1599 1719 0
19 -1599 1600 0
-1600 1720 0
20 -1600 1601 0
-1601 1721 0
21 -1601 1602 0
-1602 1722 0
22 -1602 1603 0
-1603 1723 0
23 -1603 1604 0
-1604 1724 0
24 -1604 1605 0
-1605 1725 0
25 -1605 1606 0
-1606 1726 0
26 -1606 1607 0
-1607 1727 0
27 -1607 1608 0
-1608 1728 0
28 -1608 1609 0
-1609 1729 0
29 -1609 1610 0
-1610 1730 0
30 -1610 1611 0
-1611 1731 0
31 -1611 1612 0
-1612 1732 0
32 -1612 1613 0
-1613 1733 0
33 -1613 1614 0
-1614 1734 0
34 -1614 1615 0
-1615 1735 0
35 -1615 1616 0
-1616 1736 0
36 -1616 1617 0
-1617 1737 0
37 -1617 1618 0
-1618 1738 0
38 -1618 1619 0
-1619 1739 0
39 -1619 1620 0
-1620 1740 0
40 -1620 1621 0
-1621 1741 0
41 -1621 1622 0
-1622 1742 0
42 -1622 1623 0
-1623 1743 0
43 -1623 1624 0
-1624 1744 0
44 -1624 1625 0
-1625 1745 0
45 -1625 1626 0
-1626 1746 0
46 -1626 1627 0
-1627 1747 0
47 -1627 1628 0
-1628 1748 0
48 -1628 1629 0
-1629 1749 0
49 -1629 1630 0
-1630 1750 0
50 -1630 1631 0
-1631 1751 0
51 -1631 1632 0
-1632 1752 0
52 -1632 1633 0
-1633 1753 0
53 -1633 1634 0
-1634 1754 0
54 -1634 1635 0
-1635 1755 0
55 -1635 1636 0
-1636 1756 0
56 -1636 1637 0
-1637 1757 0
57 -1637 1638 0
-1638 1758 0
58 -1638 1639 0
-1639 1759 0
59 -1639 1640 0
-1640 1760 0
60 -1640 1641 0
-1641 1761 0
61 -1641 1642 0
-1642 1762 0
62 -1642 1643 0
-1643 1763 0
63 -1643 1644 0
-1644 1764 0
64 -1644 1645 0
-1645 1765 0
65 -1645 1646 0
-1646 1766 0
66 -1646 1647 0
-1647 1767 0
67 -1647 1648 0
-1648 1768 0
68 -1648 1649 0
-1649 1769 0
69 -1649 1650 0
-1650 1770 0
70 -1650 1651 0
-1651 1771 0
71 -1651 1652 0
-1652 1772 0
72 -1652 1653 0
-1653 1773 0
73 -1653 1654 0
-1654 1774 0
74 -1654 1655 0
-1655 1775 0
75 -1655 1656 0
-1656 1776 0
76 -1656 1657 0
-1657 1777 0
77 -1657 1658 0
-1658 1778 0
78 -1658 1659 0
-1659 1779 0
79 -1659 1660 0
-1660 1780 0
80 -1660 1661 0
-1661 1781 0
81 -1661 1662 0
-1662 1782 0
82 -1662 1663 0
-1663 1783 0
83 -1663 1664 0
-1664 1784 0
84 -1664 1665 0
-1665 1785 0
85 -1665 1666 0
-1666 1786 0
86 -1666 1667 0
-1667 1787 0
87 -1667 1668 0
-1668 1788 0
88 -1668 1669 0
-1669 1789 0
89 -1669 1670 0
-1670 1790 0
90 -1670 1671 0
-1671 1791 0
91 -1671 1672 0
-1672 1792 0
92 -1672 1673 0
-1673 1793 0
93 -1673 1674 0
-1674 1794 0
94 -1674 1675 0
-1675 1795 0
95 -1675 1676 0
-1676 1796 0
96 -1676 1677 0
-1677 1797 0
97 -1677 1678 0
-1678 1798 0
98 -1678 1679 0
-1679 1799 0
99 -1679 1680 0
-1680 1800 0
100 -1680 1681 0
-1681 1801 0
101 -1681 1682 0
-1682 1802 0
102 -1682 1683 0
-1683 1803 0
103 -1683 1684 0
-1684 1804 0
104 -1684 1685 0
-1685 1805 0
105 -1685 1686 0
-1686 1806 0
106 -1686 1687 0
-1687 1807 0
107 -1687 1688 0
-1688 1808 0
108 -1688 1689 0
-1689 1809 0
109 -1689 1690 0
-1690 1810 0
110 -1690 1691 0
-1691 1811 0
111 -1691 1692 0
-1692 1812 0
112 -1692 1693 0
-1693 1813 0
113 -1693 1694 0
-1694 1814 0
114 -1694 1695 0
-1695 1815 0
115 -1695 1696 0
-1696 1816 0
116 -1696 1697 0
-1697 1817 0
117 -1697 1698 0
-1698 1818 0
118 -1698 1699 0
-1699 1819 0
119 -1699 1700 0
-1700 1820 0
120 -1700 1701 0
-1701 1821 0
121 -1701 1702 0
-1702 1822 0
122 -1702 1703 0
-1703 1823 0
123 -1703 1704 0
-1704 1824 0
124 -1704 1705 0
-1705 1825 0
125 -1705 1706 0
-1706 1826 0
126 -1706 1707 0
-1707 1827 0
127 -1707 1708 0
-1708 1828 0
128 -1708 1709 0
-1709 1829 0
129 -1709 1710 0
-1710 1830 0
130 -1710 1711 0
-1711 1831 0
131 -1711 1712 0
-1712 1832 0
132 -1712 0
13 1713 0
-1713 1833 0
14 -1713 1714 0
-1714 1834 0
15 -1714 1715 0
-1715 1835 0
16 -1715 1716 0
-1716 1836 0
17 -1716 1717 0
-1717 1837 0
18 -1717 1718 0
-1718 1838 0
19 -1718 1719 0
-1719 1839 0
20 -1719 1720 0
-1720 1840 0
21 -1720 1721 0
-1721 1841 0
22 -1721 1722 0
-1722 1842 0
23 -1722 1723 0
-1723 1843 0
24 -1723 1724 0
-1724 1844 0
25 -1724 1725 0
-1725 1845 0
26 -1725 1726 0
-1726 1846 0
27 -1726 1727 0
-1727 1847 0
28 -1727 1728 0
-1728 1848 0
29 -1728 1729 0
-1729 1849 0
30 -1729 1730 0
-1730 1850 0
31 -1730 1731 0
-1731 1851 0
32 -1731 1732 0
-1732 1852 0
33 -1732 1733 0
-1733 1853 0
34 -1733 1734 0
-1734 1854 0
35 -1734 1735 0
-1735 1855 0
36 -1735 1736 0
-1736 1856 0
37 -1736 1737 0
-1737 1857 0
38 -1737 1738 0
-1738 1858 0
39 -1738 1739 0
-1739 1859 0
40 -1739 1740 0
-1740 1860 0
41 -1740 1741 0
-1741 1861 0
42 -1741 1742 0
-1742 1862 0
43 -1742 1743 0
-1743 1863 0
44 -1743 1744 0
-1744 1864 0
45 -1744 1745 0
-1745 1865 0
46 -1745 1746 0
-1746 1866 0
47 -1746 1747 0
-1747 1867 0
48 -1747 1748 0
-1748 1868 0
49 -1748 1749 0
-1749 1869 0
50 -1749 1750 0
-1750 1870 0
51 -1750 1751 0
-1751 1871 0
52 -1751 1752 0
-1752 1872 0
53 -1752 1753 0
-1753 1873 0
54 -1753 1754 0
-1754 1874 0
55 -1754 1755 0
-1755 1875 0
56 -1755 1756 0
-1756 1876 0
57 -1756 1757 0
-1757 1877 0
58 -1757 1758 0
-1758 1878 0
59 -1758 1759 0
-1759 1879 0
60 -1759 1760 0
-1760 1880 0
61 -1760 1761 0
-1761 1881 0
62 -1761 1762 0
-1762 1882 0
63 -1762 1763 0
-1763 1883 0
64 -1763 1764 0
-1764 1884 0
65 -1764 1765 0
-1765 1885 0
66 -1765 1766 0
-1766 1886 0
67 -1766 1767 0
-1767 1887 0
68 -1767 1768 0
-1768 1888 0
69 -1768 1769 0
-1769 1889 0
70 -1769 1770 0
-1770 1890 0
71 -1770 1771 0
-1771 1891 0
72 -1771 1772 0
-1772 1892 0
73 -1772 1773 0
-1773 1893 0
74 -1773 1774 0
-1774 1894 0
75 -1774 1775 0
-1775 1895 0
76 -1775 1776 0
-1776 1896 0
77 -1776 1777 0
-1777 1897 0
78 -1777 1778 0
-1778 1898 0
79 -1778 1779 0
-1779 1899 0
80 -1779 1780 0
-1780 1900 0
81 -1780 1781 0
-1781 1901 0
82 -1781 1782 0
-1782 1902 0
83 -1782 1783 0
-1783 1903 0
84 -1783 1784 0
-1784 1904 0
85 -1784 1785 0
-1785 1905 0
86 -1785 1786 0
-1786 1906 0
87 -1786 1787 0
-1787 1907 0
88 -1787 1788 0
-1788 1908 0
89 -1788 1789 0
-1789 1909 0
90 -1789 1790 0
-1790 1910 0
91 -1790 1791 0
-1791 1911 0
92 -1791 1792 0
-1792 1912 0
93 -1792 1793 0
-1793 1913 0
94 -1793 1794 0
-1794 1914 0
95 -1794 1795 0
-1795 1915 0
96 -1795 1796 0
-1796 1916 0
97 -1796 1797 0
-1797 1917 0
98 -1797 1798 0
-1798 1918 0
99 -1798 1799 0
-1799 1919 0
100 -1799 1800 0
-1800 1920 0
101 -1800 1801 0
-1801 1921 0
102 -1801 1802 0
-1802 1922 0
103 -1802 1803 0
-1803 1923 0
104 -1803 1804 0
-1804 1924 0
105 -1804 1805 0
-1805 1925 0
106 -1805 1806 0
-1806 1926 0
107 -1806 1807 0
-1807 1927 0
108 -1807 1808 0
-1808 1928 0
109 -1808 1809 0
-1809 1929 0
110 -1809 1810 0
-1810 1930 0
111 -1810 1811 0
-1811 1931 0
112 -1811 1812 0
-1812 1932 0
113 -1812 1813 0
-1813 1933 0
114 -1813 1814 0
-1814 1934 0
115 -1814 1815 0
-1815 1935 0
116 -1815 1816 0
-1816 1936 0
117 -1816 1817 0
-1817 1937 0
118 -1817 1818 0
-1818 1938 0
119 -1818 1819 0
-1819 1939 0
120 -1819 1820 0
-1820 1940 0
121 -1820 1821 0
-1821 1941 0
122 -1821 1822 0
-1822 1942 0
123 -1822 1823 0
-1823 1943 0
124 -1823 1824 0
-1824 1944 0
125 -1824 1825 0
-1825 1945 0
126 -1825 1826 0
-1826 1946 0
127 -1826 1827 0
-1827 1947 0
128 -1827 1828 0
-1828 1948 0
129 -1828 1829 0
-1829 1949 0
130 -1829 1830 0
-1830 1950 0
131 -1830 1831 0
-1831 1951 0
132 -1831 1832 0
-1832 1952 0
133 -1832 0
14 1833 0
-1833 1953 0
15 -1833 1834 0
-1834 1954 0
16 -1834 1835 0
-1835 1955 0
17 -1835 1836 0
-1836 1956 0
18 -1836 1837 0
-1837 1957 0
19 -1837 1838 0
-1838 1958 0
20 -1838 1839 0
-1839 1959 0
21 -1839 1840 0
-1840 1960 0
22 -1840 1841 0
-1841 1961 0
23 -1841 1842 0
-1842 1962 0
24 -1842 1843 0
-1843 1963 0
25 -1843 1844 0
-1844 1964 0
26 -1844 1845 0
-1845 1965 0
27 -1845 1846 0
-1846 1966 0
28 -1846 1847 0
-1847 1967 0
29 -1847 1848 0
-1848 1968 0
30 -1848 1849 0
-1849 1969 0
31 -1849 1850 0
-1850 1970 0
32 -1850 1851 0
-1851 1971 0
33 -1851 1852 0
-1852 1972 0
34 -1852 1853 0
-1853 1973 0
35 -1853 1854 0
-1854 1974 0
36 -1854 1855 0
-1855 1975 0
37 -1855 1856 0
-1856 1976 0
38 -1856 1857 0
-1857 1977 0
39 -1857 1858 0
-1858 1978 0
40 -1858 1859 0
-1859 1979 0
41 -1859 1860 0
-1860 1980 0
42 -1860 1861 0
-1861 1981 0
43 -1861 1862 0
-1862 1982 0
44 -1862 1863 0
-1863 1983 0
45 -1863 1864 0
-1864 1984 0
46 -1864 1865 0
-1865 1985 0
47 -1865 1866 0
-1866 1986 0
48 -1866 1867 0
-1867 1987 0
49 -1867 1868 0
-1868 1988 0
50 -1868 1869 0
-1869 1989 0
51 -1869 1870 0
-1870 1990 0
52 -1870 1871 0
-1871 1991 0
53 -1871 1872 0
-1872 1992 0
54 -1872 1873 0
-1873 1993 0
55 -1873 1874 0
-1874 1994 0
56 -1874 1875 0
-1875 1995 0
57 -1875 1876 0
-1876 1996 0
58 -1876 1877 0
-1877 1997 0
59 -1877 1878 0
-1878 1998 0
60 -1878 1879 0
-1879 1999 0
61 -1879 1880 0
-1880 2000 0
62 -1880 1881 0
-1881 2001 0
63 -1881 1882 0
-1882 2002 0
64 -1882 1883 0
-1883 2003 0
65 -1883 1884 0
-1884 2004 0
66 -1884 1885 0
-1885 2005 0
67 -1885 1886 0
-1886 2006 0
68 -1886 1887 0
-1887 2007 0
69 -1887 1888 0
-1888 2008 0
70 -1888 1889 0
-1889 2009 0
71 -1889 1890 0
-1890 2010 0
72 -1890 1891 0
-1891 2011 0
73 -1891 1892 0
-1892 2012 0
74 -1892 1893 0
-1893 2013 0
75 -1893 1894 0
-1894 2014 0
76 -1894 1895 0
-1895 2015 0
77 -1895 1896 0
-1896 2016 0
78 -1896 1897 0
-1897 2017 0
79 -1897 1898 0
-1898 2018 0
80 -1898 1899 0
-1899 2019 0
81 -1899 1900 0
-1900 2020 0
82 -1900 1901 0
-1901 2021 0
83 -1901 1902 0
-1902 2022 0
84 -1902 1903 0
-1903 2023 0
85 -1903 1904 0
-1904 2024 0
86 -1904 1905 0
-1905 2025 0
87 -1905 1906 0
-1906 2026 0
88 -1906 1907 0
-1907 2027 0
89 -1907 1908 0
-1908 2028 0
90 -1908 1909 0
-1909 2029 0
91 -1909 1910 0
-1910 2030 0
92 -1910 1911 0
-1911 2031 0
93 -1911 1912 0
-1912 2032 0
94 -1912 1913 0
-1913 2033 0
95 -1913 1914 0
-1914 2034 0
96 -1914 1915 0
-1915 2035 0
97 -1915 1916 0
-1916 2036 0
98 -1916 1917 0
-1917 2037 0
99 -1917 1918 0
-1918 2038 0
100 -1918 1919 0
-1919 2039 0
101 -1919 1920 0
-1920 2040 0
102 -1920 1921 0
-1921 2041 0
103 -1921 1922 0
-1922 2042 0
104 -1922 1923 0
-1923 2043 0
105 -1923 1924 0
-1924 2044 0
106 -1924 1925 0
-1925 2045 0
107 -1925 1926 0
-1926 2046 0
108 -1926 1927 0
-1927 2047 0
109 -1927 1928 0
-1928 2048 0
110 -1928 1929 0
-1929 2049 0
111 -1929 1930 0
-1930 2050 0
112 -1930 1931 0
-1931 2051 0
113 -1931 1932 0
-1932 2052 0
114 -1932 1933 0
-1933 2053 0
115 -1933 1934 0
-1934 2054 0
116 -1934 1935 0
-1935 2055 0
117 -1935 1936 0
-1936 2056 0
118 -1936 1937 0
-1937 2057 0
119 -1937 1938 0
-1938 2058 0
120 -1938 1939 0
-1939 2059 0
121 -1939 1940 0
-1940 2060 0
122 -1940 1941 0
-1941 2061 0
123 -1941 1942 0
-1942 2062 0
124 -1942 1943 0
-1943 2063 0
125 -1943 1944 0
-1944 2064 0
126 -1944 1945 0
-1945 2065 0
127 -1945 1946 0
-1946 2066 0
128 -1946 1947 0
-1947 2067 0
129 -1947 1948 0
-1948 2068 0
130 -1948 1949 0
-1949 2069 0
131 -1949 1950 0
-1950 2070 0
132 -1950 1951 0
-1951 2071 0
133 -1951 1952 0
-1952 2072 0
134 -1952 0
15 1953 0
-1953 2073 0
16 -1953 1954 0
-1954 2074 0
17 -1954 1955 0
-1955 2075 0
18 -1955 1956 0
-1956 2076 0
19 -1956 1957 0
-1957 2077 0
20 -1957 1958 0
-1958 2078 0
21 -1958 1959 0
-1959 2079 0
22 -1959 1960 0
-1960 2080 0
23 -1960 1961 0
-1961 2081 0
24 -1961 1962 0
-1962 2082 0
25 -1962 1963 0
-1963 2083 0
26 -1963 1964 0
-1964 2084 0
27 -1964 1965 0
-1965 2085 0
28 -1965 1966 0
-1966 2086 0
29 -1966 1967 0
-1967 2087 0
30 -1967 1968 0
-1968 2088 0
31 -1968 1969 0
-1969 2089 0
32 -1969 1970 0
-1970 2090 0
33 -1970 1971 0
-1971 2091 0
34 -1971 1972 0
-1972 2092 0
35 -1972 1973 0
-1973 2093 0
36 -1973 1974 0
-1974 2094 0
37 -1974 1975 0
-1975 2095 0
38 -1975 1976 0
-1976 2096 0
39 -1976 1977 0
-1977 2097 0
40 -1977 1978 0
-1978 2098 0
41 -1978 1979 0
-1979 2099 0
42 -1979 1980 0
-1980 2100 0
43 -1980 1981 0
-1981 2101 0
44 -1981 1982 0
-1982 2102 0
45 -1982 1983 0
-1983 2103 0
46 -1983 1984 0
-1984 2104 0
47 -1984 1985 0
-1985 2105 0
48 -1985 1986 0
-1986 2106 0
49 -1986 1987 0
-1987 2107 0
50 -1987 1988 0
-1988 2108 0
51 -1988 1989 0
-1989 2109 0
52 -1989 1990 0
-1990 2110 0
53 -1990 1991 0
-1991 2111 0
54 -1991 1992 0
-1992 2112 0
55 -1992 1993 0
-1993 2113 0
56 -1993 1994 0
-1994 2114 0
57 -1994 1995 0
-1995 2115 0
58 -1995 1996 0
-1996 2116 0
59 -1996 1997 0
-1997 2117 0
60 -1997 1998 0
-1998 2118 0
61 -1998 1999 0
-1999 2119 0
62 -1999 2000 0
-2000 2120 0
63 -2000 2001 0
-2001 2121 0
64 -2001 2002 0
-2002 2122 0
65 -2002 2003 0
-2003 2123 0
66 -2003 2004 0
-2004 2124 0
67 -2004 2005 0
-2005 2125 0
68 -2005 2006 0
-2006 2126 0
69 -2006 2007 0
-2007 2127 0
70 -2007 2008 0
-2008 2128 0
71 -2008 2009 0
-2009 2129 0
72 -2009 2010 0
-2010 2130 0
73 -2010 2011 0
-2011 2131 0
74 -2011 2012 0
-2012 2132 0
75 -2012 2013 0
-2013 2133 0
76 -2013 2014 0
-2014 2134 0
77 -2014 2015 0
-2015 2135 0
78 -2015 2016 0
-2016 2136 0
79 -2016 2017 0
-2017 2137 0
80 -2017 2018 0
-2018 2138 0
81 -2018 2019 0
-2019 2139 0
82 -2019 2020 0
-2020 2140 0
83 -2020 2021 0
-2021 2141 0
84 -2021 2022 0
-2022 2142 0
85 -2022 2023 0
-2023 2143 0
86 -2023 2024 0
-2024 2144 0
87 -2024 2025 0
-2025 2145 0
88 -2025 2026 0
-2026 2146 0
89 -2026 2027 0
-2027 2147 0
90 -2027 2028 0
-2028 2148 0
91 -2028 2029 0
-2029 2149 0
92 -2029 2030 0
-2030 2150 0
93 -2030 2031 0
-2031 2151 0
94 -2031 2032 0
-2032 2152 0
95 -2032 2033 0
-2033 2153 0
96 -2033 2034 0
-2034 2154 0
97 -2034 2035 0
-2035 2155 0
98 -2035 2036 0
-2036 2156 0
99 -2036 2037 0
-2037 2157 0
100 -2037 2038 0
-2038 2158 0
101 -2038 2039 0
-2039 2159 0
102 -2039 2040 0
-2040 2160 0
103 -2040 2041 0
-2041 2161 0
104 -2041 2042 0
-2042 2162 0
105 -2042 2043 0
-2043 2163 0
106 -2043 2044 0
-2044 2164 0
107 -2044 2045 0
-2045 2165 0
108 -2045 2046 0
-2046 2166 0
109 -2046 2047 0
-2047 2167 0
110 -2047 2048 0
-2048 2168 0
111 -2048 2049 0
-2049 2169 0
112 -2049 2050 0
-2050 2170 0
113 -2050 2051 0
-2051 2171 0
114 -2051 2052 0
-2052 2172 0
115 -2052 2053 0
-2053 2173 0
116 -2053 2054 0
-2054 2174 0
117 -2054 2055 0
-2055 2175 0
118 -2055 2056 0
-2056 2176 0
119 -2056 2057 0
-2057 2177 0
120 -2057 2058 0
-2058 2178 0
121 -2058 2059 0
-2059 2179 0
122 -2059 2060 0
-2060 2180 0
123 -2060 2061 0
-2061 2181 0
124 -2061 2062 0
-2062 2182 0
125 -2062 2063 0
-2063 2183 0
126 -2063 2064 0
-2064 2184 0
127 -2064 2065 0
-2065 2185 0
128 -2065 2066 0
-2066 2186 0
129 -2066 2067 0
-2067 2187 0
130 -2067 2068 0
-2068 2188 0
131 -2068 2069 0
-2069 2189 0
132 -2069 2070 0
-2070 2190 0
133 -2070 2071 0
-2071 2191 0
134 -2071 2072 0
-2072 2192 0
135 -2072 0
16 2073 0
17 -2073 2074 0
18 -2074 2075 0
19 -2075 2076 0
20 -2076 2077 0
21 -2077 2078 0
22 -2078 2079 0
23 -2079 2080 0
24 -2080 2081 0
25 -2081 2082 0
26 -2082 2083 0
27 -2083 2084 0
28 -2084 2085 0
29 -2085 2086 0
30 -2086 2087 0
31 -2087 2088 0
32 -2088 2089 0
33 -2089 2090 0
34 -2090 2091 0
35 -2091 2092 0
36 -2092 2093 0
37 -2093 2094 0
38 -2094 2095 0
39 -2095 2096 0
40 -2096 2097 0
41 -2097 2098 0
42 -2098 2099 0
43 -2099 2100 0
44 -2100 2101 0
45 -2101 2102 0
46 -2102 2103 0
47 -2103 2104 0
48 -2104 2105 0
49 -2105 2106 0
50 -2106 2107 0
51 -2107 2108 0
52 -2108 2109 0
53 -2109 2110 0
54 -2110 2111 0
55 -2111 2112 0
56 -2112 2113 0
57 -2113 2114 0
58 -2114 2115 0
59 -2115 2116 0
60 -2116 2117 0
61 -2117 2118 0
62 -2118 2119 0
63 -2119 2120 0
64 -2120 2121 0
65 -2121 2122 0
66 -2122 2123 0
67 -2123 2124 0
68 -2124 2125 0
69 -2125 2126 0
70 -2126 2127 0
71 -2127 2128 0
72 -2128 2129 0
73 -2129 2130 0
74 -2130 2131 0
75 -2131 2132 0
76 -2132 2133 0
77 -2133 2134 0
78 -2134 2135 0
79 -2135 2136 0
80 -2136 2137 0
81 -2137 2138 0
82 -2138 2139 0
83 -2139 2140 0
84 -2140 2141 0
85 -2141 2142 0
86 -2142 2143 0
87 -2143 2144 0
88 -2144 2145 0
89 -2145 2146 0
90 -2146 2147 0
91 -2147 2148 0
92 -2148 2149 0
93 -2149 2150 0
94 -2150 2151 0
95 -2151 2152 0
96 -2152 2153 0
97 -2153 2154 0
98 -2154 2155 0
99 -2155 2156 0
100 -2156 2157 0
101 -2157 2158 0
102 -2158 2159 0
103 -2159 2160 0
104 -2160 2161 0
105 -2161 2162 0
106 -2162 2163 0
107 -2163 2164 0
108 -2164 2165 0
109 -2165 2166 0
110 -2166 2167 0
111 -2167 2168 0
112 -2168 2169 0
113 -2169 2170 0
114 -2170 2171 0
115 -2171 2172 0
116 -2172 2173 0
117 -2173 2174 0
118 -2174 2175 0
119 -2175 2176 0
120 -2176 2177 0
121 -2177 2178 0
122 -2178 2179 0
123 -2179 2180 0
124 -2180 2181 0
125 -2181 2182 0
126 -2182 2183 0
127 -2183 2184 0
128 -2184 2185 0
129 -2185 2186 0
130 -2186 2187 0
131 -2187 2188 0
132 -2188 2189 0
133 -2189 2190 0
134 -2190 2191 0
135 -2191 2192 0
136 -2192 0
-1 2193 0
-2193 2194 0
-2 -2193 2195 0
-2195 2196 0
-3 -2195 2197 0
-2197 2198 0
-4 -2197 2199 0
-2199 2200 0
-5 -2199 2201 0
-2201 2202 0
-6 -2201 2203 0
-2203 2204 0
-7 -2203 2205 0
-2205 2206 0
-8 -2205 2207 0
-2207 2208 0
-9 -2207 2209 0
-2209 2210 0
-10 -2209 2211 0
-2211 2212 0
-11 -2211 2213 0
-2213 2214 0
-12 -2213 2215 0
-2215 2216 0
-13 -2215 2217 0
-2217 2218 0
-14 -2217 2219 0
-2219 2220 0
-15 -2219 2221 0
-2221 2222 0
-16 -2221 2223 0
-2223 2224 0
-17 -2223 0
-2 2194 0
-2194 2225 0
-3 -2194 2196 0
-2196 2226 0
-4 -2196 2198 0
-2198 2227 0
-5 -2198 2200 0
-2200 2228 0
-6 -2200 2202 0
-2202 2229 0
-7 -2202 2204 0
-2204 2230 0
-8 -2204 2206 0
-2206 2231 0
-9 -2206 2208 0
-2208 2232 0
-10 -2208 2210 0
-2210 2233 0
-11 -2210 2212 0
-2212 2234 0
-12 -2212 2214 0
-2214 2235 0
-13 -2214 2216 0
-2216 2236 0
-14 -2216 2218 0
-2218 2237 0
-15 -2218 2220 0
-2220 2238 0
-16 -2220 2222 0
-2222 2239 0
-17 -2222 2224 0
-2224 2240 0
-18 -2224 0
-3 2225 0
-2225 2241 0
-4 -2225 2226 0
-2226 2242 0
-5 -2226 2227 0
-2227 2243 0
-6 -2227 2228 0
-2228 2244 0
-7 -2228 2229 0
-2229 2245 0
-8 -2229 2230 0
-2230 2246 0
-9 -2230 2231 0
-2231 2247 0
-10 -2231 2232 0
-2232 2248 0
-11 -2232 2233 0
-2233 2249 0
-12 -2233 2234 0
-2234 2250 0
-13 -2234 2235 0
-2235 2251 0
-14 -2235 2236 0
-2236 2252 0
-15 -2236 2237 0
-2237 2253 0
-16 -2237 2238 0
-2238 2254 0
-17 -2238 2239 0
-2239 2255 0
-18 -2239 2240 0
-2240 2256 0
-19 -2240 0
-4 2241 0
-2241 2257 0
-5 -2241 2242 0
-2242 2258 0
-6 -2242 2243 0
-2243 2259 0
-7 -2243 2244 0
-2244 2260 0
-8 -2244 2245 0
-2245 2261 0
-9 -2245 2246 0
-2246 2262 0
-10 -2246 2247 0
-2247 2263 0
-11 -2247 2248 0
-2248 2264 0
-12 -2248 2249 0
-2249 2265 0
-13 -2249 2250 0
-2250 2266 0
-14 -2250 2251 0
-2251 2267 0
-15 -2251 2252 0
-2252 2268 0
-16 -2252 2253 0
-2253 2269 0
-17 -2253 2254 0
-2254 2270 0
-18 -2254 2255 0
-2255 2271 0
-19 -2255 2256 0
-2256 2272 0
-20 -2256 0
-5 2257 0
-2257 2273 0
-6 -2257 2258 0
-2258 2274 0
-7 -2258 2259 0
-2259 2275 0
-8 -2259 2260 0
-2260 2276 0
-9 -2260 2261 0
-2261 2277 0
-10 -2261 2262 0
-2262 2278 0
-11 -2262 2263 0
-2263 2279 0
-12 -2263 2264 0
-2264 2280 0
-13 -2264 2265 0
-2265 2281 0
-14 -2265 2266 0
-2266 2282 0
-15 -2266 2267 0
-2267 2283 0
-16 -2267 2268 0
-2268 2284 0
-17 -2268 2269 0
-2269 2285 0
-18 -2269 2270 0
-2270 2286 0
-19 -2270 2271 0
-2271 2287 0
-20 -2271 2272 0
-2272 2288 0
-21 -2272 0
-6 2273 0
-2273 2289 0
-7 -2273 2274 0
-2274 2290 0
-8 -2274 2275 0
-2275 2291 0
-9 -2275 2276 0
-2276 2292 0
-10 -2276 2277 0
-2277 2293 0
-11 -2277 2278 0
-2278 2294 0
-12 -2278 2279 0
-2279 2295 0
-13 -2279 2280 0
-2280 2296 0
-14 -2280 2281 0
-2281 2297 0
-15 -2281 2282 0
-2282 2298 0
-16 -2282 2283 0
-2283 2299 0
-17 -2283 2284 0
-2284 2300 0
-18 -2284 2285 0
-2285 2301 0
-19 -2285 2286 0
-2286 2302 0
-20 -2286 2287 0
-2287 2303 0
-21 -2287 2288 0
-2288 2304 0
-22 -2288 0
-7 2289 0
-2289 2305 0
-8 -2289 2290 0
-2290 2306 0
-9 -2290 2291 0
-2291 2307 0
-10 -2291 2292 0
-2292 2308 0
-11 -2292 2293 0
-2293 2309 0
-12 -2293 2294 0
-2294 2310 0
-13 -2294 2295 0
-2295 2311 0
-14 -2295 2296 0
-2296 2312 0
-15 -2296 2297 0
-2297 2313 0
-16 -2297 2298 0
-2298 2314 0
-17 -2298 2299 0
-2299 2315 0
-18 -2299 2300 0
-2300 2316 0
-19 -2300 2301 0
-2301 2317 0
-20 -2301 2302 0
-2302 2318 0
-21 -2302 2303 0
-2303 2319 0
-22 -2303 2304 0
-2304 2320 0
-23 -2304 0
-8 2305 0
-2305 2321 0
-9 -2305 2306 0
-2306 2322 0
-10 -2306 2307 0
-2307 2323 0
-11 -2307 2308 0
-2308 2324 0
-12 -2308 2309 0
-2309 2325 0
-13 -2309 2310 0
-2310 2326 0
-14 -2310 2311 0
-2311 2327 0
-15 -2311 2312 0
-2312 2328 0
-16 -2312 2313 0
-2313 2329 0
-17 -2313 2314 0
-2314 2330 0
-18 -2314 2315 0
-2315 2331 0
-19 -2315 2316 0
-2316 2332 0
-20 -2316 2317 0
-2317 2333 0
-21 -2317 2318 0
-2318 2334 0
-22 -2318 2319 0
-2319 2335 0
-23 -2319 2320 0
-2320 2336 0
-24 -2320 0
-9 2321 0
-2321 2337 0
-10 -2321 2322 0
-2322 2338 0
-11 -2322 2323 0
-2323 2339 0
-12 -2323 2324 0
-2324 2340 0
-13 -2324 2325 0
-2325 2341 0
-14 -2325 2326 0
-2326 2342 0
-15 -2326 2327 0
-2327 2343 0
-16 -2327 2328 0
-2328 2344 0
-17 -2328 2329 0
-2329 2345 0
-18 -2329 2330 0
-2330 2346 0
-19 -2330 2331 0
-2331 2347 0
-20 -2331 2332 0
-2332 2348 0
-21 -2332 2333 0
-2333 2349 0
-22 -2333 2334 0
-2334 2350 0
-23 -2334 2335 0
-2335 2351 0
-24 -2335 2336 0
-2336 2352 0
-25 -2336 0
-10 2337 0
-2337 2353 0
-11 -2337 2338 0
-2338 2354 0
-12 -2338 2339 0
-2339 2355 0
-13 -2339 2340 0
-2340 2356 0
-14 -2340 2341 0
-2341 2357 0
-15 -2341 2342 0
-2342 2358 0
-16 -2342 2343 0
-2343 2359 0
-17 -2343 2344 0
-2344 2360 0
-18 -2344 2345 0
-2345 2361 0
-19 -2345 2346 0
-2346 2362 0
-20 -2346 2347 0
-2347 2363 0
-21 -2347 2348 0
-2348 2364 0
-22 -2348 2349 0
-2349 2365 0
-23 -2349 2350 0
-2350 2366 0
-24 -2350 2351 0
-2351 2367 0
-25 -2351 2352 0
-2352 2368 0
-26 -2352 0
-11 2353 0
-2353 2369 0
-12 -2353 2354 0
-2354 2370 0
-13 -2354 2355 0
-2355 2371 0
-14 -2355 2356 0
-2356 2372 0
-15 -2356 2357 0
-2357 2373 0
-16 -2357 2358 0
-2358 2374 0
-17 -2358 2359 0
-2359 2375 0
-18 -2359 2360 0
-2360 2376 0
-19 -2360 2361 0
-2361 2377 0
-20 -2361 2362 0
-2362 2378 0
-21 -2362 2363 0
-2363 2379 0
-22 -2363 2364 0
-2364 2380 0
-23 -2364 2365 0
-2365 2381 0
-24 -2365 2366 0
-2366 2382 0
-25 -2366 2367 0
-2367 2383 0
-26 -2367 2368 0
-2368 2384 0
-27 -2368 0
-12 2369 0
-2369 2385 0
-13 -2369 2370 0
-2370 2386 0
-14 -2370 2371 0
-2371 2387 0
-15 -2371 2372 0
-2372 2388 0
-16 -2372 2373 0
-2373 2389 0
-17 -2373 2374 0
-2374 2390 0
-18 -2374 2375 0
-2375 2391 0
-19 -2375 2376 0
-2376 2392 0
-20 -2376 2377 0
-2377 2393 0
-21 -2377 2378 0
-2378 2394 0
-22 -2378 2379 0
-2379 2395 0
-23 -2379 2380 0
-2380 2396 0
-24 -2380 2381 0
-2381 2397 0
-25 -2381 2382 0
-2382 2398 0
-26 -2382 2383 0
-2383 2399 0
-27 -2383 2384 0
-2384 2400 0
-28 -2384 0
-13 2385 0
-2385 2401 0
-14 -2385 2386 0
-2386 2402 0
-15 -2386 2387 0
-2387 2403 0
-16 -2387 2388 0
-2388 2404 0
-17 -2388 2389 0
-2389 2405 0
-18 -2389 2390 0
-2390 2406 0
-19 -2390 2391 0
-2391 2407 0
-20 -2391 2392 0
-2392 2408 0
-21 -2392 2393 0
-2393 2409 0
-22 -2393 2394 0
-2394 2410 0
-23 -2394 2395 0
-2395 2411 0
-24 -2395 2396 0
-2396 2412 0
-25 -2396 2397 0
-2397 2413 0
-26 -2397 2398 0
-2398 2414 0
-27 -2398 2399 0
-2399 2415 0
-28 -2399 2400 0
-2400 2416 0
-29 -2400 0
-14 2401 0
-2401 2417 0
-15 -2401 2402 0
-2402 2418 0
-16 -2402 2403 0
-2403 2419 0
-17 -2403 2404 0
-2404 2420 0
-18 -2404 2405 0
-2405 2421 0
-19 -2405 2406 0
-2406 2422 0
-20 -2406 2407 0
-2407 2423 0
-21 -2407 2408 0
-2408 2424 0
-22 -2408 2409 0
-2409 2425 0
-23 -2409 2410 0
-2410 2426 0
-24 -2410 2411 0
-2411 2427 0
-25 -2411 2412 0
-2412 2428 0
-26 -2412 2413 0
-2413 2429 0
-27 -2413 2414 0
-2414 2430 0
-28 -2414 2415 0
-2415 2431 0
-29 -2415 2416 0
-2416 2432 0
-30 -2416 0
-15 2417 0
-2417 2433 0
-16 -2417 2418 0
-2418 2434 0
-17 -2418 2419 0
-2419 2435 0
-18 -2419 2420 0
-2420 2436 0
-19 -2420 2421 0
-2421 2437 0
-20 -2421 2422 0
-2422 2438 0
-21 -2422 2423 0
-2423 2439 0
-22 -2423 2424 0
-2424 2440 0
-23 -2424 2425 0
-2425 2441 0
-24 -2425 2426 0
-2426 2442 0
-25 -2426 2427 0
-2427 2443 0
-26 -2427 2428 0
-2428 2444 0
-27 -2428 2429 0
-2429 2445 0
-28 -2429 2430 0
-2430 2446 0
-29 -2430 2431 0
-2431 2447 0
-30 -2431 2432 0
-2432 2448 0
-31 -2432 0
-16 2433 0
-2433 2449 0
-17 -2433 2434 0
-2434 2450 0
-18 -2434 2435 0
-2435 2451 0
-19 -2435 2436 0
-2436 2452 0
-20 -2436 2437 0
-2437 2453 0
-21 -2437 2438 0
-2438 2454 0
-22 -2438 2439 0
-2439 2455 0
-23 -2439 2440 0
-2440 2456 0
-24 -2440 2441 0
-2441 2457 0
-25 -2441 2442 0
-2442 2458 0
-26 -2442 2443 0
-2443 2459 0
-27 -2443 2444 0
-2444 2460 0
-28 -2444 2445 0
-2445 2461 0
-29 -2445 2446 0
-2446 2462 0
-30 -2446 2447 0
-2447 2463 0
-31 -2447 2448 0
-2448 2464 0
-32 -2448 0
-17 2449 0
-2449 2465 0
-18 -2449 2450 0
-2450 2466 0
-19 -2450 2451 0
-2451 2467 0
-20 -2451 2452 0
-2452 2468 0
-21 -2452 2453 0
-2453 2469 0
-22 -2453 2454 0
-2454 2470 0
-23 -2454 2455 0
-2455 2471 0
-24 -2455 2456 0
-2456 2472 0
-25 -2456 2457 0
-2457 2473 0
-26 -2457 2458 0
-2458 2474 0
-27 -2458 2459 0
-2459 2475 0
-28 -2459 2460 0
-2460 2476 0
-29 -2460 2461 0
-2461 2477 0
-30 -2461 2462 0
-2462 2478 0
-31 -2462 2463 0
-2463 2479 0
-32 -2463 2464 0
-2464 2480 0
-33 -2464 0
-18 2465 0
-2465 2481 0
-19 -2465 2466 0
-2466 2482 0
-20 -2466 2467 0
-2467 2483 0
-21 -2467 2468 0
-2468 2484 0
-22 -2468 2469 0
-2469 2485 0
-23 -2469 2470 0
-2470 2486 0
-24 -2470 2471 0
-2471 2487 0
-25 -2471 2472 0
-2472 2488 0
-26 -2472 2473 0
-2473 2489 0
-27 -2473 2474 0
-2474 2490 0
-28 -2474 2475 0
-2475 2491 0
-29 -2475 2476 0
-2476 2492 0
-30 -2476 2477 0
-2477 2493 0
-31 -2477 2478 0
-2478 2494 0
-32 -2478 2479 0
-2479 2495 0
-33 -2479 2480 0
-2480 2496 0
-34 -2480 0
-19 2481 0
-2481 2497 0
-20 -2481 2482 0
-2482 2498 0
-21 -2482 2483 0
-2483 2499 0
-22 -2483 2484 0
-2484 2500 0
-23 -2484 2485 0
-2485 2501 0
-24 -2485 2486 0
-2486 2502 0
-25 -2486 2487 0
-2487 2503 0
-26 -2487 2488 0
-2488 2504 0
-27 -2488 2489 0
-2489 2505 0
-28 -2489 2490 0
-2490 2506 0
-29 -2490 2491 0
-2491 2507 0
-30 -2491 2492 0
-2492 2508 0
-31 -2492 2493 0
-2493 2509 0
-32 -2493 2494 0
-2494 2510 0
-33 -2494 2495 0
-2495 2511 0
-34 -2495 2496 0
-2496 2512 0
-35 -2496 0
-20 2497 0
-2497 2513 0
-21 -2497 2498 0
-2498 2514 0
-22 -2498 2499 0
-2499 2515 0
-23 -2499 2500 0
-2500 2516 0
-24 -2500 2501 0
-2501 2517 0
-25 -2501 2502 0
-2502 2518 0
-26 -2502 2503 0
-2503 2519 0
-27 -2503 2504 0
-2504 2520 0
-28 -2504 2505 0
-2505 2521 0
-29 -2505 2506 0
-2506 2522 0
-30 -2506 2507 0
-2507 2523 0
-31 -2507 2508 0
-2508 2524 0
-32 -2508 2509 0
-2509 2525 0
-33 -2509 2510 0
-2510 2526 0
-34 -2510 2511 0
-2511 2527 0
-35 -2511 2512 0
-2512 2528 0
-36 -2512 0
-21 2513 0
-2513 2529 0
-22 -2513 2514 0
-2514 2530 0
-23 -2514 2515 0
-2515 2531 0
-24 -2515 2516 0
-2516 2532 0
-25 -2516 2517 0
-2517 2533 0
-26 -2517 2518 0
-2518 2534 0
-27 -2518 2519 0
-2519 2535 0
-28 -2519 2520 0
-2520 2536 0
-29 -2520 2521 0
-2521 2537 0
-30 -2521 2522 0
-2522 2538 0
-31 -2522 2523 0
-2523 2539 0
-32 -2523 2524 0
-2524 2540 0
-33 -2524 2525 0
-2525 2541 0
-34 -2525 2526 0
-2526 2542 0
-35 -2526 2527 0
-2527 2543 0
-36 -2527 2528 0
-2528 2544 0
-37 -2528 0
-22 2529 0
-2529 2545 0
-23 -2529 2530 0
-2530 2546 0
-24 -2530 2531 0
-2531 2547 0
-25 -2531 2532 0
-2532 2548 0
-26 -2532 2533 0
-2533 2549 0
-27 -2533 2534 0
-2534 2550 0
-28 -2534 2535 0
-2535 2551 0
-29 -2535 2536 0
-2536 2552 0
-30 -2536 2537 0
-2537 2553 0
-31 -2537 2538 0
-2538 2554 0
-32 -2538 2539 0
-2539 2555 0
-33 -2539 2540 0
-2540 2556 0
-34 -2540 2541 0
-2541 2557 0
-35 -2541 2542 0
-2542 2558 0
-36 -2542 2543 0
-2543 2559 0
-37 -2543 2544 0
-2544 2560 0
-38 -2544 0
-23 2545 0
-2545 2561 0
-24 -2545 2546 0
-2546 2562 0
-25 -2546 2547 0
-2547 2563 0
-26 -2547 2548 0
-2548 2564 0
-27 -2548 2549 0
-2549 2565 0
-28 -2549 2550 0
-2550 2566 0
-29 -2550 2551 0
-2551 2567 0
-30 -2551 2552 0
-2552 2568 0
-31 -2552 2553 0
-2553 2569 0
-32 -2553 2554 0
-2554 2570 0
-33 -2554 2555 0
-2555 2571 0
-34 -2555 2556 0
-2556 2572 0
-35 -2556 2557 0
-2557 2573 0
-36 -2557 2558 0
-2558 2574 0
-37 -2558 2559 0
-2559 2575 0
-38 -2559 2560 0
-2560 2576 0
-39 -2560 0
-24 2561 0
-2561 2577 0
-25 -2561 2562 0
-2562 2578 0
-26 -2562 2563 0
-2563 2579 0
-27 -2563 2564 0
-2564 2580 0
-28 -2564 2565 0
-2565 2581 0
-29 -2565 2566 0
-2566 2582 0
-30 -2566 2567 0
-2567 2583 0
-31 -2567 2568 0
-2568 2584 0
-32 -2568 2569 0
-2569 2585 0
-33 -2569 2570 0
-2570 2586 0
-34 -2570 2571 0
-2571 2587 0
-35 -2571 2572 0
-2572 2588 0
-36 -2572 2573 0
-2573 2589 0
-37 -2573 2574 0
-2574 2590 0
-38 -2574 2575 0
-2575 2591 0
-39 -2575 2576 0
-2576 2592 0
-40 -2576 0
-25 2577 0
-2577 2593 0
-26 -2577 2578 0
-2578 2594 0
-27 -2578 2579 0
-2579 2595 0
-28 -2579 2580 0
-2580 2596 0
-29 -2580 2581 0
-2581 2597 0
-30 -2581 2582 0
-2582 2598 0
-31 -2582 2583 0
-2583 2599 0
-32 -2583 2584 0
-2584 2600 0
-33 -2584 2585 0
-2585 2601 0
-34 -2585 2586 0
-2586 2602 0
-35 -2586 2587 0
-2587 2603 0
-36 -2587 2588 0
-2588 2604 0
-37 -2588 2589 0
-2589 2605 0
-38 -2589 2590 0
-2590 2606 0
-39 -2590 2591 0
-2591 2607 0
-40 -2591 2592 0
-2592 2608 0
-41 -2592 0
-26 2593 0
-2593 2609 0
-27 -2593 2594 0
-2594 2610 0
-28 -2594 2595 0
-2595 2611 0
-29 -2595 2596 0
-2596 2612 0
-30 -2596 2597 0
-2597 2613 0
-31 -2597 2598 0
-2598 2614 0
-32 -2598 2599 0
-2599 2615 0
-33 -2599 2600 0
-2600 2616 0
-34 -2600 2601 0
-2601 2617 0
-35 -2601 2602 0
-2602 2618 0
-36 -2602 2603 0
-2603 2619 0
-37 -2603 2604 0
-2604 2620 0
-38 -2604 2605 0
-2605 2621 0
-39 -2605 2606 0
-2606 2622 0
-40 -2606 2607 0
-2607 2623 0
-41 -2607 2608 0
-2608 2624 0
-42 -2608 0
-27 2609 0
-2609 2625 0
-28 -2609 2610 0
-2610 2626 0
-29 -2610 2611 0
-2611 2627 0
-30 -2611 2612 0
-2612 2628 0
-31 -2612 2613 0
-2613 2629 0
-32 -2613 2614 0
-2614 2630 0
-33 -2614 2615 0
-2615 2631 0
-34 -2615 2616 0
-2616 2632 0
-35 -2616 2617 0
-2617 2633 0
-36 -2617 2618 0
-2618 2634 0
-37 -2618 2619 0
-2619 2635 0
-38 -2619 2620 0
-2620 2636 0
-39 -2620 2621 0
-2621 2637 0
-40 -2621 2622 0
-2622 2638 0
-41 -2622 2623 0
-2623 2639 0
-42 -2623 2624 0
-2624 2640 0
-43 -2624 0
-28 2625 0
-2625 2641 0
-29 -2625 2626 0
-2626 2642 0
-30 -2626 2627 0
-2627 2643 0
-31 -2627 2628 0
-2628 2644 0
-32 -2628 2629 0
-2629 2645 0
-33 -2629 2630 0
-2630 2646 0
-34 -2630 2631 0
-2631 2647 0
-35 -2631 2632 0
-2632 2648 0
-36 -2632 2633 0
-2633 2649 0
-37 -2633 2634 0
-2634 2650 0
-38 -2634 2635 0
-2635 2651 0
-39 -2635 2636 0
-2636 2652 0
-40 -2636 2637 0
-2637 2653 0
-41 -2637 2638 0
-2638 2654 0
-42 -2638 2639 0
-2639 2655 0
-43 -2639 2640 0
-2640 2656 0
-44 -2640 0
-29 2641 0
-2641 2657 0
-30 -2641 2642 0
-2642 2658 0
-31 -2642 2643 0
-2643 2659 0
-32 -2643 2644 0
-2644 2660 0
-33 -2644 2645 0
-2645 2661 0
-34 -2645 2646 0
-2646 2662 0
-35 -2646 2647 0
-2647 2663 0
-36 -2647 2648 0
-2648 2664 0
-37 -2648 2649 0
-2649 2665 0
-38 -2649 2650 0
-2650 2666 0
-39 -2650 2651 0
-2651 2667 0
-40 -2651 2652 0
-2652 2668 0
-41 -2652 2653 0
-2653 2669 0
-42 -2653 2654 0
-2654 2670 0
-43 -2654 2655 0
-2655 2671 0
-44 -2655 2656 0
-2656 2672 0
-45 -2656 0
-30 2657 0
-2657 2673 0
-31 -2657 2658 0
-2658 2674 0
-32 -2658 2659 0
-2659 2675 0
-33 -2659 2660 0
-2660 2676 0
-34 -2660 2661 0
-2661 2677 0
-35 -2661 2662 0
-2662 2678 0
-36 -2662 2663 0
-2663 2679 0
-37 -2663 2664 0
-2664 2680 0
-38 -2664 2665 0
-2665 2681 0
-39 -2665 2666 0
-2666 2682 0
-40 -2666 2667 0
-2667 2683 0
-41 -2667 2668 0
-2668 2684 0
-42 -2668 2669 0
-2669 2685 0
-43 -2669 2670 0
-2670 2686 0
-44 -2670 2671 0
-2671 2687 0
-45 -2671 2672 0
-2672 2688 0
-46 -2672 0
-31 2673 0
-2673 2689 0
-32 -2673 2674 0
-2674 2690 0
-33 -2674 2675 0
-2675 2691 0
-34 -2675 2676 0
-2676 2692 0
-35 -2676 2677 0
-2677 2693 0
-36 -2677 2678 0
-2678 2694 0
-37 -2678 2679 0
-2679 2695 0
-38 -2679 2680 0
-2680 2696 0
-39 -2680 2681 0
-2681 2697 0
-40 -2681 2682 0
-2682 2698 0
-41 -2682 2683 0
-2683 2699 0
-42 -2683 2684 0
-2684 2700 0
-43 -2684 2685 0
-2685 2701 0
-44 -2685 2686 0
-2686 2702 0
-45 -2686 2687 0
-2687 2703 0
-46 -2687 2688 0
-2688 2704 0
-47 -2688 0
-32 2689 0
-2689 2705 0
-33 -2689 2690 0
-2690 2706 0
-34 -2690 2691 0
-2691 2707 0
-35 -2691 2692 0
-2692 2708 0
-36 -2692 2693 0
-2693 2709 0
-37 -2693 2694 0
-2694 2710 0
-38 -2694 2695 0
-2695 2711 0
-39 -2695 2696 0
-2696 2712 0
-40 -2696 2697 0
-2697 2713 0
-41 -2697 2698 0
-2698 2714 0
-42 -2698 2699 0
-2699 2715 0
-43 -2699 2700 0
-2700 2716 0
-44 -2700 2701 0
-2701 2717 0
-45 -2701 2702 0
-2702 2718 0
-46 -2702 2703 0
-2703 2719 0
-47 -2703 2704 0
-2704 2720 0
-48 -2704 0
-33 2705 0
-2705 2721 0
-34 -2705 2706 0
-2706 2722 0
-35 -2706 2707 0
-2707 2723 0
-36 -2707 2708 0
-2708 2724 0
-37 -2708 2709 0
-2709 2725 0
-38 -2709 2710 0
-2710 2726 0
-39 -2710 2711 0
-2711 2727 0
-40 -2711 2712 0
-2712 2728 0
-41 -2712 2713 0
-2713 2729 0
-42 -2713 2714 0
-2714 2730 0
-43 -2714 2715 0
-2715 2731 0
-44 -2715 2716 0
-2716 2732 0
-45 -2716 2717 0
-2717 2733 0
-46 -2717 2718 0
-2718 2734 0
-47 -2718 2719 0
-2719 2735 0
-48 -2719 2720 0
-2720 2736 0
-49 -2720 0
-34 2721 0
-2721 2737 0
-35 -2721 2722 0
-2722 2738 0
-36 -2722 2723 0
-2723 2739 0
-37 -2723 2724 0
-2724 2740 0
-38 -2724 2725 0
-2725 2741 0
-39 -2725 2726 0
-2726 2742 0
-40 -2726 2727 0
-2727 2743 0
-41 -2727 2728 0
-2728 2744 0
-42 -2728 2729 0
-2729 2745 0
-43 -2729 2730 0
-2730 2746 0
-44 -2730 2731 0
-2731 2747 0
-45 -2731 2732 0
-2732 2748 0
-46 -2732 2733 0
-2733 2749 0
-47 -2733 2734 0
-2734 2750 0
-48 -2734 2735 0
-2735 2751 0
-49 -2735 2736 0
-2736 2752 0
-50 -2736 0
-35 2737 0
-2737 2753 0
-36 -2737 2738 0
-2738 2754 0
-37 -2738 2739 0
-2739 2755 0
-38 -2739 2740 0
-2740 2756 0
-39 -2740 2741 0
-2741 2757 0
-40 -2741 2742 0
-2742 2758 0
-41 -2742 2743 0
-2743 2759 0
-42 -2743 2744 0
-2744 2760 0
-43 -2744 2745 0
-2745 2761 0
-44 -2745 2746 0
-2746 2762 0
-45 -2746 2747 0
-2747 2763 0
-46 -2747 2748 0
-2748 2764 0
-47 -2748 2749 0
-2749 2765 0
-48 -2749 2750 0
-2750 2766 0
-49 -2750 2751 0
-2751 2767 0
-50 -2751 2752 0
-2752 2768 0
-51 -2752 0
-36 2753 0
-2753 2769 0
-37 -2753 2754 0
-2754 2770 0
-38 -2754 2755 0
-2755 2771 0
-39 -2755 2756 0
-2756 2772 0
-40 -2756 2757 0
-2757 2773 0
-41 -2757 2758 0
-2758 2774 0
-42 -2758 2759 0
-2759 2775 0
-43 -2759 2760 0
-2760 2776 0
-44 -2760 2761 0
-2761 2777 0
-45 -2761 2762 0
-2762 2778 0
-46 -2762 2763 0
-2763 2779 0
-47 -2763 2764 0
-2764 2780 0
-48 -2764 2765 0
-2765 2781 0
-49 -2765 2766 0
-2766 2782 0
-50 -2766 2767 0
-2767 2783 0
-51 -2767 2768 0
-2768 2784 0
-52 -2768 0
-37 2769 0
-2769 2785 0
-38 -2769 2770 0
-2770 2786 0
-39 -2770 2771 0
-2771 2787 0
-40 -2771 2772 0
-2772 2788 0
-41 -2772 2773 0
-2773 2789 0
-42 -2773 2774 0
-2774 2790 0
-43 -2774 2775 0
-2775 2791 0
-44 -2775 2776 0
-2776 2792 0
-45 -2776 2777 0
-2777 2793 0
-46 -2777 2778 0
-2778 2794 0
-47 -2778 2779 0
-2779 2795 0
-48 -2779 2780 0
-2780 2796 0
-49 -2780 2781 0
-2781 2797 0
-50 -2781 2782 0
-2782 2798 0
-51 -2782 2783 0
-2783 2799 0
-52 -2783 2784 0
-2784 2800 0
-53 -2784 0
-38 2785 0
-2785 2801 0
-39 -2785 2786 0
-2786 2802 0
-40 -2786 2787 0
-2787 2803 0
-41 -2787 2788 0
-2788 2804 0
-42 -2788 2789 0
-2789 2805 0
-43 -2789 2790 0
-2790 2806 0
-44 -2790 2791 0
-2791 2807 0
-45 -2791 2792 0
-2792 2808 0
-46 -2792 2793 0
-2793 2809 0
-47 -2793 2794 0
-2794 2810 0
-48 -2794 2795 0
-2795 2811 0
-49 -2795 2796 0
-2796 2812 0
-50 -2796 2797 0
-2797 2813 0
-51 -2797 2798 0
-2798 2814 0
-52 -2798 2799 0
-2799 2815 0
-53 -2799 2800 0
-2800 2816 0
-54 -2800 0
-39 2801 0
-2801 2817 0
-40 -2801 2802 0
-2802 2818 0
-41 -2802 2803 0
-2803 2819 0
-42 -2803 2804 0
-2804 2820 0
-43 -2804 2805 0
-2805 2821 0
-44 -2805 2806 0
-2806 2822 0
-45 -2806 2807 0
-2807 2823 0
-46 -2807 2808 0
-2808 2824 0
-47 -2808 2809 0
-2809 2825 0
-48 -2809 2810 0
-2810 2826 0
-49 -2810 2811 0
-2811 2827 0
-50 -2811 2812 0
-2812 2828 0
-51 -2812 2813 0
-2813 2829 0
-52 -2813 2814 0
-2814 2830 0
-53 -2814 2815 0
-2815 2831 0
-54 -2815 2816 0
-2816 2832 0
-55 -2816 0
-40 2817 0
-2817 2833 0
-41 -2817 2818 0
-2818 2834 0
-42 -2818 2819 0
-2819 2835 0
-43 -2819 2820 0
-2820 2836 0
-44 -2820 2821 0
-2821 2837 0
-45 -2821 2822 0
-2822 2838 0
-46 -2822 2823 0
-2823 2839 0
-47 -2823 2824 0
-2824 2840 0
-48 -2824 2825 0
-2825 2841 0
-49 -2825 2826 0
-2826 2842 0
-50 -2826 2827 0
-2827 2843 0
-51 -2827 2828 0
-2828 2844 0
-52 -2828 2829 0
-2829 2845 0
-53 -2829 2830 0
-2830 2846 0
-54 -2830 2831 0
-2831 2847 0
-55 -2831 2832 0
-2832 2848 0
-56 -2832 0
-41 2833 0
-2833 2849 0
-42 -2833 2834 0
-2834 2850 0
-43 -2834 2835 0
-2835 2851 0
-44 -2835 2836 0
-2836 2852 0
-45 -2836 2837 0
-2837 2853 0
-46 -2837 2838 0
-2838 2854 0
-47 -2838 2839 0
-2839 2855 0
-48 -2839 2840 0
-2840 2856 0
-49 -2840 2841 0
-2841 2857 0
-50 -2841 2842 0
-2842 2858 0
-51 -2842 2843 0
-2843 2859 0
-52 -2843 2844 0
-2844 2860 0
-53 -2844 2845 0
-2845 2861 0
-54 -2845 2846 0
-2846 2862 0
-55 -2846 2847 0
-2847 2863 0
-56 -2847 2848 0
-2848 2864 0
-57 -2848 0
-42 2849 0
-2849 2865 0
-43 -2849 2850 0
-2850 2866 0
-44 -2850 2851 0
-2851 2867 0
-45 -2851 2852 0
-2852 2868 0
-46 -2852 2853 0
-2853 2869 0
-47 -2853 2854 0
-2854 2870 0
-48 -2854 2855 0
-2855 2871 0
-49 -2855 2856 0
-2856 2872 0
-50 -2856 2857 0
-2857 2873 0
-51 -2857 2858 0
-2858 2874 0
-52 -2858 2859 0
-2859 2875 0
-53 -2859 2860 0
-2860 2876 0
-54 -2860 2861 0
-2861 2877 0
-55 -2861 2862 0
-2862 2878 0
-56 -2862 2863 0
-2863 2879 0
-57 -2863 2864 0
-2864 2880 0
-58 -2864 0
-43 2865 0
-2865 2881 0
-44 -2865 2866 0
-2866 2882 0
-45 -2866 2867 0
-2867 2883 0
-46 -2867 2868 0
-2868 2884 0
-47 -2868 2869 0
-2869 2885 0
-48 -2869 2870 0
-2870 2886 0
-49 -2870 2871 0
-2871 2887 0
-50 -2871 2872 0
-2872 2888 0
-51 -2872 2873 0
-2873 2889 0
-52 -2873 2874 0
-2874 2890 0
-53 -2874 2875 0
-2875 2891 0
-54 -2875 2876 0
-2876 2892 0
-55 -2876 2877 0
-2877 2893 0
-56 -2877 2878 0
-2878 2894 0
-57 -2878 2879 0
-2879 2895 0
-58 -2879 2880 0
-2880 2896 0
-59 -2880 0
-44 2881 0
-2881 2897 0
-45 -2881 2882 0
-2882 2898 0
-46 -2882 2883 0
-2883 2899 0
-47 -2883 2884 0
-2884 2900 0
-48 -2884 2885 0
-2885 2901 0
-49 -2885 2886 0
-2886 2902 0
-50 -2886 2887 0
-2887 2903 0
-51 -2887 2888 0
-2888 2904 0
-52 -2888 2889 0
-2889 2905 0
-53 -2889 2890 0
-2890 2906 0
-54 -2890 2891 0
-2891 2907 0
-55 -2891 2892 0
-2892 2908 0
-56 -2892 2893 0
-2893 2909 0
-57 -2893 2894 0
-2894 2910 0
-58 -2894 2895 0
-2895 2911 0
-59 -2895 2896 0
-2896 2912 0
-60 -2896 0
-45 2897 0
-2897 2913 0
-46 -2897 2898 0
-2898 2914 0
-47 -2898 2899 0
-2899 2915 0
-48 -2899 2900 0
-2900 2916 0
-49 -2900 2901 0
-2901 2917 0
-50 -2901 2902 0
-2902 2918 0
-51 -2902 2903 0
-2903 2919 0
-52 -2903 2904 0
-2904 2920 0
-53 -2904 2905 0
-2905 2921 0
-54 -2905 2906 0
-2906 2922 0
-55 -2906 2907 0
-2907 2923 0
-56 -2907 2908 0
-2908 2924 0
-57 -2908 2909 0
-2909 2925 0
-58 -2909 2910 0
-2910 2926 0
-59 -2910 2911 0
-2911 2927 0
-60 -2911 2912 0
-2912 2928 0
-61 -2912 0
-46 2913 0
-2913 2929 0
-47 -2913 2914 0
-2914 2930 0
-48 -2914 2915 0
-2915 2931 0
-49 -2915 2916 0
-2916 2932 0
-50 -2916 2917 0
-2917 2933 0
-51 -2917 2918 0
-2918 2934 0
-52 -2918 2919 0
-2919 2935 0
-53 -2919 2920 0
-2920 2936 0
-54 -2920 2921 0
-2921 2937 0
-55 -2921 2922 0
-2922 2938 0
-56 -2922 2923 0
-2923 2939 0
-57 -2923 2924 0
-2924 2940 0
-58 -2924 2925 0
-2925 2941 0
-59 -2925 2926 0
-2926 2942 0
-60 -2926 2927 0
-2927 2943 0
-61 -2927 2928 0
-2928 2944 0
-62 -2928 0
-47 2929 0
-2929 2945 0
-48 -2929 2930 0
-2930 2946 0
-49 -2930 2931 0
-2931 2947 0
-50 -2931 2932 0
-2932 2948 0
-51 -2932 2933 0
-2933 2949 0
-52 -2933 2934 0
-2934 2950 0
-53 -2934 2935 0
-2935 2951 0
-54 -2935 2936 0
-2936 2952 0
-55 -2936 2937 0
-2937 2953 0
-56 -2937 2938 0
-2938 2954 0
-57 -2938 2939 0
-2939 2955 0
-58 -2939 2940 0
-2940 2956 0
-59 -2940 2941 0
-2941 2957 0
-60 -2941 2942 0
-2942 2958 0
-61 -2942 2943 0
-2943 2959 0
-62 -2943 2944 0
-2944 2960 0
-63 -2944 0
-48 2945 0
-2945 2961 0
-49 -2945 2946 0
-2946 2962 0
-50 -2946 2947 0
-2947 2963 0
-51 -2947 2948 0
-2948 2964 0
-52 -2948 2949 0
-2949 2965 0
-53 -2949 2950 0
-2950 2966 0
-54 -2950 2951 0
-2951 2967 0
-55 -2951 2952 0
-2952 2968 0
-56 -2952 2953 0
-2953 2969 0
-57 -2953 2954 0
-2954 2970 0
-58 -2954 2955 0
-2955 2971 0
-59 -2955 2956 0
-2956 2972 0
-60 -2956 2957 0
-2957 2973 0
-61 -2957 2958 0
-2958 2974 0
-62 -2958 2959 0
-2959 2975 0
-63 -2959 2960 0
-2960 2976 0
-64 -2960 0
-49 2961 0
-2961 2977 0
-50 -2961 2962 0
-2962 2978 0
-51 -2962 2963 0
-2963 2979 0
-52 -2963 2964 0
-2964 2980 0
-53 -2964 2965 0
-2965 2981 0
-54 -2965 2966 0
-2966 2982 0
-55 -2966 2967 0
-2967 2983 0
-56 -2967 2968 0
-2968 2984 0
-57 -2968 2969 0
-2969 2985 0
-58 -2969 2970 0
-2970 2986 0
-59 -2970 2971 0
-2971 2987 0
-60 -2971 2972 0
-2972 2988 0
-61 -2972 2973 0
-2973 2989 0
-62 -2973 2974 0
-2974 2990 0
-63 -2974 2975 0
-2975 2991 0
-64 -2975 2976 0
-2976 2992 0
-65 -2976 0
-50 2977 0
-2977 2993 0
-51 -2977 2978 0
-2978 2994 0
-52 -2978 2979 0
-2979 2995 0
-53 -2979 2980 0
-2980 2996 0
-54 -2980 2981 0
-2981 2997 0
-55 -2981 2982 0
-2982 2998 0
-56 -2982 2983 0
-2983 2999 0
-57 -2983 2984 0
-2984 3000 0
-58 -2984 2985 0
-2985 3001 0
-59 -2985 2986 0
-2986 3002 0
-60 -2986 2987 0
-2987 3003 0
-61 -2987 2988 0
-2988 3004 0
-62 -2988 2989 0
-2989 3005 0
-63 -2989 2990 0
-2990 3006 0
-64 -2990 2991 0
-2991 3007 0
-65 -2991 2992 0
-2992 3008 0
-66 -2992 0
-51 2993 0
-2993 3009 0
-52 -2993 2994 0
-2994 3010 0
-53 -2994 2995 0
-2995 3011 0
-54 -2995 2996 0
-2996 3012 0
-55 -2996 2997 0
-2997 3013 0
-56 -2997 2998 0
-2998 3014 0
-57 -2998 2999 0
-2999 3015 0
-58 -2999 3000 0
-3000 3016 0
-59 -3000 3001 0
-3001 3017 0
-60 -3001 3002 0
-3002 3018 0
-61 -3002 3003 0
-3003 3019 0
-62 -3003 3004 0
-3004 3020 0
-63 -3004 3005 0
-3005 3021 0
-64 -3005 3006 0
-3006 3022 0
-65 -3006 3007 0
-3007 3023 0
-66 -3007 3008 0
-3008 3024 0
-67 -3008 0
-52 3009 0
-3009 3025 0
-53 -3009 3010 0
-3010 3026 0
-54 -3010 3011 0
-3011 3027 0
-55 -3011 3012 0
-3012 3028 0
-56 -3012 3013 0
-3013 3029 0
-57 -3013 3014 0
-3014 3030 0
-58 -3014 3015 0
-3015 3031 0
-59 -3015 3016 0
-3016 3032 0
-60 -3016 3017 0
-3017 3033 0
-61 -3017 3018 0
-3018 3034 0
-62 -3018 3019 0
-3019 3035 0
-63 -3019 3020 0
-3020 3036 0
-64 -3020 3021 0
-3021 3037 0
-65 -3021 3022 0
-3022 3038 0
-66 -3022 3023 0
-3023 3039 0
-67 -3023 3024 0
-3024 3040 0
-68 -3024 0
-53 3025 0
-3025 3041 0
-54 -3025 3026 0
-3026 3042 0
-55 -3026 3027 0
-3027 3043 0
-56 -3027 3028 0
-3028 3044 0
-57 -3028 3029 0
-3029 3045 0
-58 -3029 3030 0
-3030 3046 0
-59 -3030 3031 0
-3031 3047 0
-60 -3031 3032 0
-3032 3048 0
-61 -3032 3033 0
-3033 3049 0
-62 -3033 3034 0
-3034 3050 0
-63 -3034 3035 0
-3035 3051 0
-64 -3035 3036 0
-3036 3052 0
-65 -3036 3037 0
-3037 3053 0
-66 -3037 3038 0
-3038 3054 0
-67 -3038 3039 0
-3039 3055 0
-68 -3039 3040 0
-3040 3056 0
-69 -3040 0
-54 3041 0
-3041 3057 0
-55 -3041 3042 0
-3042 3058 0
-56 -3042 3043 0
-3043 3059 0
-57 -3043 3044 0
-3044 3060 0
-58 -3044 3045 0
-3045 3061 0
-59 -3045 3046 0
-3046 3062 0
-60 -3046 3047 0
-3047 3063 0
-61 -3047 3048 0
-3048 3064 0
-62 -3048 3049 0
-3049 3065 0
-63 -3049 3050 0
-3050 3066 0
-64 -3050 3051 0
-3051 3067 0
-65 -3051 3052 0
-3052 3068 0
-66 -3052 3053 0
-3053 3069 0
-67 -3053 3054 0
-3054 3070 0
-68 -3054 3055 0
-3055 3071 0
-69 -3055 3056 0
-3056 3072 0
-70 -3056 0
-55 3057 0
-3057 3073 0
-56 -3057 3058 0
-3058 3074 0
-57 -3058 3059 0
-3059 3075 0
-58 -3059 3060 0
-3060 3076 0
-59 -3060 3061 0
-3061 3077 0
-60 -3061 3062 0
-3062 3078 0
-61 -3062 3063 0
-3063 3079 0
-62 -3063 3064 0
-3064 3080 0
-63 -3064 3065 0
-3065 3081 0
-64 -3065 3066 0
-3066 3082 0
-65 -3066 3067 0
-3067 3083 0
-66 -3067 3068 0
-3068 3084 0
-67 -3068 3069 0
-3069 3085 0
-68 -3069 3070 0
-3070 3086 0
-69 -3070 3071 0
-3071 3087 0
-70 -3071 3072 0
-3072 3088 0
-71 -3072 0
-56 3073 0
-3073 3089 0
-57 -3073 3074 0
-3074 3090 0
-58 -3074 3075 0
-3075 3091 0
-59 -3075 3076 0
-3076 3092 0
-60 -3076 3077 0
-3077 3093 0
-61 -3077 3078 0
-3078 3094 0
-62 -3078 3079 0
-3079 3095 0
-63 -3079 3080 0
-3080 3096 0
-64 -3080 3081 0
-3081 3097 0
-65 -3081 3082 0
-3082 3098 0
-66 -3082 3083 0
-3083 3099 0
-67 -3083 3084 0
-3084 3100 0
-68 -3084 3085 0
-3085 3101 0
-69 -3085 3086 0
-3086 3102 0
-70 -3086 3087 0
-3087 3103 0
-71 -3087 3088 0
-3088 3104 0
-72 -3088 0
-57 3089 0
-3089 3105 0
-58 -3089 3090 0
-3090 3106 0
-59 -3090 3091 0
-3091 3107 0
-60 -3091 3092 0
-3092 3108 0
-61 -3092 3093 0
-3093 3109 0
-62 -3093 3094 0
-3094 3110 0
-63 -3094 3095 0
-3095 3111 0
-64 -3095 3096 0
-3096 3112 0
-65 -3096 3097 0
-3097 3113 0
-66 -3097 3098 0
-3098 3114 0
-67 -3098 3099 0
-3099 3115 0
-68 -3099 3100 0
-3100 3116 0
-69 -3100 3101 0
-3101 3117 0
-70 -3101 3102 0
-3102 3118 0
-71 -3102 3103 0
-3103 3119 0
-72 -3103 3104 0
-3104 3120 0
-73 -3104 0
-58 3105 0
-3105 3121 0
-59 -3105 3106 0
-3106 3122 0
-60 -3106 3107 0
-3107 3123 0
-61 -3107 3108 0
-3108 3124 0
-62 -3108 3109 0
-3109 3125 0
-63 -3109 3110 0
-3110 3126 0
-64 -3110 3111 0
-3111 3127 0
-65 -3111 3112 0
-3112 3128 0
-66 -3112 3113 0
-3113 3129 0
-67 -3113 3114 0
-3114 3130 0
-68 -3114 3115 0
-3115 3131 0
-69 -3115 3116 0
-3116 3132 0
-70 -3116 3117 0
-3117 3133 0
-71 -3117 3118 0
-3118 3134 0
-72 -3118 3119 0
-3119 3135 0
-73 -3119 3120 0
-3120 3136 0
-74 -3120 0
-59 3121 0
-3121 3137 0
-60 -3121 3122 0
-3122 3138 0
-61 -3122 3123 0
-3123 3139 0
-62 -3123 3124 0
-3124 3140 0
-63 -3124 3125 0
-3125 3141 0
-64 -3125 3126 0
-3126 3142 0
-65 -3126 3127 0
-3127 3143 0
-66 -3127 3128 0
-3128 3144 0
-67 -3128 3129 0
-3129 3145 0
-68 -3129 3130 0
-3130 3146 0
-69 -3130 3131 0
-3131 3147 0
-70 -3131 3132 0
-3132 3148 0
-71 -3132 3133 0
-3133 3149 0
-72 -3133 3134 0
-3134 3150 0
-73 -3134 3135 0
-3135 3151 0
-74 -3135 3136 0
-3136 3152 0
-75 -3136 0
-60 3137 0
-3137 3153 0
-61 -3137 3138 0
-3138 3154 0
-62 -3138 3139 0
-3139 3155 0
-63 -3139 3140 0
-3140 3156 0
-64 -3140 3141 0
-3141 3157 0
-65 -3141 3142 0
-3142 3158 0
-66 -3142 3143 0
-3143 3159 0
-67 -3143 3144 0
-3144 3160 0
-68 -3144 3145 0
-3145 3161 0
-69 -3145 3146 0
-3146 3162 0
-70 -3146 3147 0
-3147 3163 0
-71 -3147 3148 0
-3148 3164 0
-72 -3148 3149 0
-3149 3165 0
-73 -3149 3150 0
-3150 3166 0
-74 -3150 3151 0
-3151 3167 0
-75 -3151 3152 0
-3152 3168 0
-76 -3152 0
-61 3153 0
-3153 3169 0
-62 -3153 3154 0
-3154 3170 0
-63 -3154 3155 0
-3155 3171 0
-64 -3155 3156 0
-3156 3172 0
-65 -3156 3157 0
-3157 3173 0
-66 -3157 3158 0
-3158 3174 0
-67 -3158 3159 0
-3159 3175 0
-68 -3159 3160 0
-3160 3176 0
-69 -3160 3161 0
-3161 3177 0
-70 -3161 3162 0
-3162 3178 0
-71 -3162 3163 0
-3163 3179 0
-72 -3163 3164 0
-3164 3180 0
-73 -3164 3165 0
-3165 3181 0
-74 -3165 3166 0
-3166 3182 0
-75 -3166 3167 0
-3167 3183 0
-76 -3167 3168 0
-3168 3184 0
-77 -3168 0
-62 3169 0
-3169 3185 0
-63 -3169 3170 0
-3170 3186 0
-64 -3170 3171 0
-3171 3187 0
-65 -3171 3172 0
-3172 3188 0
-66 -3172 3173 0
-3173 3189 0
-67 -3173 3174 0
-3174 3190 0
-68 -3174 3175 0
-3175 3191 0
-69 -3175 3176 0
-3176 3192 0
-70 -3176 3177 0
-3177 3193 0
-71 -3177 3178 0
-3178 3194 0
-72 -3178 3179 0
-3179 3195 0
-73 -3179 3180 0
-3180 3196 0
-74 -3180 3181 0
-3181 3197 0
-75 -3181 3182 0
-3182 3198 0
-76 -3182 3183 0
-3183 3199 0
-77 -3183 3184 0
-3184 3200 0
-78 -3184 0
-63 3185 0
-3185 3201 0
-64 -3185 3186 0
-3186 3202 0
-65 -3186 3187 0
-3187 3203 0
-66 -3187 3188 0
-3188 3204 0
-67 -3188 3189 0
-3189 3205 0
-68 -3189 3190 0
-3190 3206 0
-69 -3190 3191 0
-3191 3207 0
-70 -3191 3192 0
-3192 3208 0
-71 -3192 3193 0
-3193 3209 0
-72 -3193 3194 0
-3194 3210 0
-73 -3194 3195 0
-3195 3211 0
-74 -3195 3196 0
-3196 3212 0
-75 -3196 3197 0
-3197 3213 0
-76 -3197 3198 0
-3198 3214 0
-77 -3198 3199 0
-3199 3215 0
-78 -3199 3200 0
-3200 3216 0
-79 -3200 0
-64 3201 0
-3201 3217 0
-65 -3201 3202 0
-3202 3218 0
-66 -3202 3203 0
-3203 3219 0
-67 -3203 3204 0
-3204 3220 0
-68 -3204 3205 0
-3205 3221 0
-69 -3205 3206 0
-3206 3222 0
-70 -3206 3207 0
-3207 3223 0
-71 -3207 3208 0
-3208 3224 0
-72 -3208 3209 0
-3209 3225 0
-73 -3209 3210 0
-3210 3226 0
-74 -3210 3211 0
-3211 3227 0
-75 -3211 3212 0
-3212 3228 0
-76 -3212 3213 0
-3213 3229 0
-77 -3213 3214 0
-3214 3230 0
-78 -3214 3215 0
-3215 3231 0
-79 -3215 3216 0
-3216 3232 0
-80 -3216 0
-65 3217 0
-3217 3233 0
-66 -3217 3218 0
-3218 3234 0
-67 -3218 3219 0
-3219 3235 0
-68 -3219 3220 0
-3220 3236 0
-69 -3220 3221 0
-3221 3237 0
-70 -3221 3222 0
-3222 3238 0
-71 -3222 3223 0
-3223 3239 0
-72 -3223 3224 0
-3224 3240 0
-73 -3224 3225 0
-3225 3241 0
-74 -3225 3226 0
-3226 3242 0
-75 -3226 3227 0
-3227 3243 0
-76 -3227 3228 0
-3228 3244 0
-77 -3228 3229 0
-3229 3245 0
-78 -3229 3230 0
-3230 3246 0
-79 -3230 3231 0
-3231 3247 0
-80 -3231 3232 0
-3232 3248 0
-81 -3232 0
-66 3233 0
-3233 3249 0
-67 -3233 3234 0
-3234 3250 0
-68 -3234 3235 0
-3235 3251 0
-69 -3235 3236 0
-3236 3252 0
-70 -3236 3237 0
-3237 3253 0
-71 -3237 3238 0
-3238 3254 0
-72 -3238 3239 0
-3239 3255 0
-73 -3239 3240 0
-3240 3256 0
-74 -3240 3241 0
-3241 3257 0
-75 -3241 3242 0
-3242 3258 0
-76 -3242 3243 0
-3243 3259 0
-77 -3243 3244 0
-3244 3260 0
-78 -3244 3245 0
-3245 3261 0
-79 -3245 3246 0
-3246 3262 0
-80 -3246 3247 0
-3247 3263 0
-81 -3247 3248 0
-3248 3264 0
-82 -3248 0
-67 3249 0
-3249 3265 0
-68 -3249 3250 0
-3250 3266 0
-69 -3250 3251 0
-3251 3267 0
-70 -3251 3252 0
-3252 3268 0
-71 -3252 3253 0
-3253 3269 0
-72 -3253 3254 0
-3254 3270 0
-73 -3254 3255 0
-3255 3271 0
-74 -3255 3256 0
-3256 3272 0
-75 -3256 3257 0
-3257 3273 0
-76 -3257 3258 0
-3258 3274 0
-77 -3258 3259 0
-3259 3275 0
-78 -3259 3260 0
-3260 3276 0
-79 -3260 3261 0
-3261 3277 0
-80 -3261 3262 0
-3262 3278 0
-81 -3262 3263 0
-3263 3279 0
-82 -3263 3264 0
-3264 3280 0
-83 -3264 0
-68 3265 0
-3265 3281 0
-69 -3265 3266 0
-3266 3282 0
-70 -3266 3267 0
-3267 3283 0
-71 -3267 3268 0
-3268 3284 0
-72 -3268 3269 0
-3269 3285 0
-73 -3269 3270 0
-3270 3286 0
-74 -3270 3271 0
-3271 3287 0
-75 -3271 3272 0
-3272 3288 0
-76 -3272 3273 0
-3273 3289 0
-77 -3273 3274 0
-3274 3290 0
-78 -3274 3275 0
-3275 3291 0
-79 -3275 3276 0
-3276 3292 0
-80 -3276 3277 0
-3277 3293 0
-81 -3277 3278 0
-3278 3294 0
-82 -3278 3279 0
-3279 3295 0
-83 -3279 3280 0
-3280 3296 0
-84 -3280 0
-69 3281 0
-3281 3297 0
-70 -3281 3282 0
-3282 3298 0
-71 -3282 3283 0
-3283 3299 0
-72 -3283 3284 0
-3284 3300 0
-73 -3284 3285 0
-3285 3301 0
-74 -3285 3286 0
-3286 3302 0
-75 -3286 3287 0
-3287 3303 0
-76 -3287 3288 0
-3288 3304 0
-77 -3288 3289 0
-3289 3305 0
-78 -3289 3290 0
-3290 3306 0
-79 -3290 3291 0
-3291 3307 0
-80 -3291 3292 0
-3292 3308 0
-81 -3292 3293 0
-3293 3309 0
-82 -3293 3294 0
-3294 3310 0
-83 -3294 3295 0
-3295 3311 0
-84 -3295 3296 0
-3296 3312 0
-85 -3296 0
-70 3297 0
-3297 3313 0
-71 -3297 3298 0
-3298 3314 0
-72 -3298 3299 0
-3299 3315 0
-73 -3299 3300 0
-3300 3316 0
-74 -3300 3301 0
-3301 3317 0
-75 -3301 3302 0
-3302 3318 0
-76 -3302 3303 0
-3303 3319 0
-77 -3303 3304 0
-3304 3320 0
-78 -3304 3305 0
-3305 3321 0
-79 -3305 3306 0
-3306 3322 0
-80 -3306 3307 0
-3307 3323 0
-81 -3307 3308 0
-3308 3324 0
-82 -3308 3309 0
-3309 3325 0
-83 -3309 3310 0
-3310 3326 0
-84 -3310 3311 0
-3311 3327 0
-85 -3311 3312 0
-3312 3328 0
-86 -3312 0
-71 3313 0
-3313 3329 0
-72 -3313 3314 0
-3314 3330 0
-73 -3314 3315 0
-3315 3331 0
-74 -3315 3316 0
-3316 3332 0
-75 -3316 3317 0
-3317 3333 0
-76 -3317 3318 0
-3318 3334 0
-77 -3318 3319 0
-3319 3335 0
-78 -3319 3320 0
-3320 3336 0
-79 -3320 3321 0
-3321 3337 0
-80 -3321 3322 0
-3322 3338 0
-81 -3322 3323 0
-3323 3339 0
-82 -3323 3324 0
-3324 3340 0
-83 -3324 3325 0
-3325 3341 0
-84 -3325 3326 0
-3326 3342 0
-85 -3326 3327 0
-3327 3343 0
-86 -3327 3328 0
-3328 3344 0
-87 -3328 0
-72 3329 0
-3329 3345 0
-73 -3329 3330 0
-3330 3346 0
-74 -3330 3331 0
-3331 3347 0
-75 -3331 3332 0
-3332 3348 0
-76 -3332 3333 0
-3333 3349 0
-77 -3333 3334 0
-3334 3350 0
-78 -3334 3335 0
-3335 3351 0
-79 -3335 3336 0
-3336 3352 0
-80 -3336 3337 0
-3337 3353 0
-81 -3337 3338 0
-3338 3354 0
-82 -3338 3339 0
-3339 3355 0
-83 -3339 3340 0
-3340 3356 0
-84 -3340 3341 0
-3341 3357 0
-85 -3341 3342 0
-3342 3358 0
-86 -3342 3343 0
-3343 3359 0
-87 -3343 3344 0
-3344 3360 0
-88 -3344 0
-73 3345 0
-3345 3361 0
-74 -3345 3346 0
-3346 3362 0
-75 -3346 3347 0
-3347 3363 0
-76 -3347 3348 0
-3348 3364 0
-77 -3348 3349 0
-3349 3365 0
-78 -3349 3350 0
-3350 3366 0
-79 -3350 3351 0
-3351 3367 0
-80 -3351 3352 0
-3352 3368 0
-81 -3352 3353 0
-3353 3369 0
-82 -3353 3354 0
-3354 3370 0
-83 -3354 3355 0
-3355 3371 0
-84 -3355 3356 0
-3356 3372 0
-85 -3356 3357 0
-3357 3373 0
-86 -3357 3358 0
-3358 3374 0
-87 -3358 3359 0
-3359 3375 0
-88 -3359 3360 0
-3360 3376 0
-89 -3360 0
-74 3361 0
-3361 3377 0
-75 -3361 3362 0
-3362 3378 0
-76 -3362 3363 0
-3363 3379 0
-77 -3363 3364 0
-3364 3380 0
-78 -3364 3365 0
-3365 3381 0
-79 -3365 3366 0
-3366 3382 0
-80 -3366 3367 0
-3367 3383 0
-81 -3367 3368 0
-3368 3384 0
-82 -3368 3369 0
-3369 3385 0
-83 -3369 3370 0
-3370 3386 0
-84 -3370 3371 0
-3371 3387 0
-85 -3371 3372 0
-3372 3388 0
-86 -3372 3373 0
-3373 3389 0
-87 -3373 3374 0
-3374 3390 0
-88 -3374 3375 0
-3375 3391 0
-89 -3375 3376 0
-3376 3392 0
-90 -3376 0
-75 3377 0
-3377 3393 0
-76 -3377 3378 0
-3378 3394 0
-77 -3378 3379 0
-3379 3395 0
-78 -3379 3380 0
-3380 3396 0
-79 -3380 3381 0
-3381 3397 0
-80 -3381 3382 0
-3382 3398 0
-81 -3382 3383 0
-3383 3399 0
-82 -3383 3384 0
-3384 3400 0
-83 -3384 3385 0
-3385 3401 0
-84 -3385 3386 0
-3386 3402 0
-85 -3386 3387 0
-3387 3403 0
-86 -3387 3388 0
-3388 3404 0
-87 -3388 3389 0
-3389 3405 0
-88 -3389 3390 0
-3390 3406 0
-89 -3390 3391 0
-3391 3407 0
-90 -3391 3392 0
-3392 3408 0
-91 -3392 0
-76 3393 0
-3393 3409 0
-77 -3393 3394 0
-3394 3410 0
-78 -3394 3395 0
-3395 3411 0
-79 -3395 3396 0
-3396 3412 0
-80 -3396 3397 0
-3397 3413 0
-81 -3397 3398 0
-3398 3414 0
-82 -3398 3399 0
-3399 3415 0
-83 -3399 3400 0
-3400 3416 0
-84 -3400 3401 0
-3401 3417 0
-85 -3401 3402 0
-3402 3418 0
-86 -3402 3403 0
-3403 3419 0
-87 -3403 3404 0
-3404 3420 0
-88 -3404 3405 0
-3405 3421 0
-89 -3405 3406 0
-3406 3422 0
-90 -3406 3407 0
-3407 3423 0
-91 -3407 3408 0
-3408 3424 0
-92 -3408 0
-77 3409 0
-3409 3425 0
-78 -3409 3410 0
-3410 3426 0
-79 -3410 3411 0
-3411 3427 0
-80 -3411 3412 0
-3412 3428 0
-81 -3412 3413 0
-3413 3429 0
-82 -3413 3414 0
-3414 3430 0
-83 -3414 3415 0
-3415 3431 0
-84 -3415 3416 0
-3416 3432 0
-85 -3416 3417 0
-3417 3433 0
-86 -3417 3418 0
-3418 3434 0
-87 -3418 3419 0
-3419 3435 0
-88 -3419 3420 0
-3420 3436 0
-89 -3420 3421 0
-3421 3437 0
-90 -3421 3422 0
-3422 3438 0
-91 -3422 3423 0
-3423 3439 0
-92 -3423 3424 0
-3424 3440 0
-93 -3424 0
-78 3425 0
-3425 3441 0
-79 -3425 3426 0
-3426 3442 0
-80 -3426 3427 0
-3427 3443 0
-81 -3427 3428 0
-3428 3444 0
-82 -3428 3429 0
-3429 3445 0
-83 -3429 3430 0
-3430 3446 0
-84 -3430 3431 0
-3431 3447 0
-85 -3431 3432 0
-3432 3448 0
-86 -3432 3433 0
-3433 3449 0
-87 -3433 3434 0
-3434 3450 0
-88 -3434 3435 0
-3435 3451 0
-89 -3435 3436 0
-3436 3452 0
-90 -3436 3437 0
-3437 3453 0
-91 -3437 3438 0
-3438 3454 0
-92 -3438 3439 0
-3439 3455 0
-93 -3439 3440 0
-3440 3456 0
-94 -3440 0
-79 3441 0
-3441 3457 0
-80 -3441 3442 0
-3442 3458 0
-81 -3442 3443 0
-3443 3459 0
-82 -3443 3444 0
-3444 3460 0
-83 -3444 3445 0
-3445 3461 0
-84 -3445 3446 0
-3446 3462 0
-85 -3446 3447 0
-3447 3463 0
-86 -3447 3448 0
-3448 3464 0
-87 -3448 3449 0
-3449 3465 0
-88 -3449 3450 0
-3450 3466 0
-89 -3450 3451 0
-3451 3467 0
-90 -3451 3452 0
-3452 3468 0
-91 -3452 3453 0
-3453 3469 0
-92 -3453 3454 0
-3454 3470 0
-93 -3454 3455 0
-3455 3471 0
-94 -3455 3456 0
-3456 3472 0
-95 -3456 0
-80 3457 0
-3457 3473 0
-81 -3457 3458 0
-3458 3474 0
-82 -3458 3459 0
-3459 3475 0
-83 -3459 3460 0
-3460 3476 0
-84 -3460 3461 0
-3461 3477 0
-85 -3461 3462 0
-3462 3478 0
-86 -3462 3463 0
-3463 3479 0
-87 -3463 3464 0
-3464 3480 0
-88 -3464 3465 0
-3465 3481 0
-89 -3465 3466 0
-3466 3482 0
-90 -3466 3467 0
-3467 3483 0
-91 -3467 3468 0
-3468 3484 0
-92 -3468 3469 0
-3469 3485 0
-93 -3469 3470 0
-3470 3486 0
-94 -3470 3471 0
-3471 3487 0
-95 -3471 3472 0
-3472 3488 0
-96 -3472 0
-81 3473 0
-3473 3489 0
-82 -3473 3474 0
-3474 3490 0
-83 -3474 3475 0
-3475 3491 0
-84 -3475 3476 0
-3476 3492 0
-85 -3476 3477 0
-3477 3493 0
-86 -3477 3478 0
-3478 3494 0
-87 -3478 3479 0
-3479 3495 0
-88 -3479 3480 0
-3480 3496 0
-89 -3480 3481 0
-3481 3497 0
-90 -3481 3482 0
-3482 3498 0
-91 -3482 3483 0
-3483 3499 0
-92 -3483 3484 0
-3484 3500 0
-93 -3484 3485 0
-3485 3501 0
-94 -3485 3486 0
-3486 3502 0
-95 -3486 3487 0
-3487 3503 0
-96 -3487 3488 0
-3488 3504 0
-97 -3488 0
-82 3489 0
-3489 3505 0
-83 -3489 3490 0
-3490 3506 0
-84 -3490 3491 0
-3491 3507 0
-85 -3491 3492 0
-3492 3508 0
-86 -3492 3493 0
-3493 3509 0
-87 -3493 3494 0
-3494 3510 0
-88 -3494 3495 0
-3495 3511 0
-89 -3495 3496 0
-3496 3512 0
-90 -3496 3497 0
-3497 3513 0
-91 -3497 3498 0
-3498 3514 0
-92 -3498 3499 0
-3499 3515 0
-93 -3499 3500 0
-3500 3516 0
-94 -3500 3501 0
-3501 3517 0
-95 -3501 3502 0
-3502 3518 0
-96 -3502 3503 0
-3503 3519 0
-97 -3503 3504 0
-3504 3520 0
-98 -3504 0
-83 3505 0
-3505 3521 0
-84 -3505 3506 0
-3506 3522 0
-85 -3506 3507 0
-3507 3523 0
-86 -3507 3508 0
-3508 3524 0
-87 -3508 3509 0
-3509 3525 0
-88 -3509 3510 0
-3510 3526 0
-89 -3510 3511 0
-3511 3527 0
-90 -3511 3512 0
-3512 3528 0
-91 -3512 3513 0
-3513 3529 0
-92 -3513 3514 0
-3514 3530 0
-93 -3514 3515 0
-3515 3531 0
-94 -3515 3516 0
-3516 3532 0
-95 -3516 3517 0
-3517 3533 0
-96 -3517 3518 0
-3518 3534 0
-97 -3518 3519 0
-3519 3535 0
-98 -3519 3520 0
-3520 3536 0
-99 -3520 0
-84 3521 0
-3521 3537 0
-85 -3521 3522 0
-3522 3538 0
-86 -3522 3523 0
-3523 3539 0
-87 -3523 3524 0
-3524 3540 0
-88 -3524 3525 0
-3525 3541 0
-89 -3525 3526 0
-3526 3542 0
-90 -3526 3527 0
-3527 3543 0
-91 -3527 3528 0
-3528 3544 0
-92 -3528 3529 0
-3529 3545 0
-93 -3529 3530 0
-3530 3546 0
-94 -3530 3531 0
-3531 3547 0
-95 -3531 3532 0
-3532 3548 0
-96 -3532 3533 0
-3533 3549 0
-97 -3533 3534 0
-3534 3550 0
-98 -3534 3535 0
-3535 3551 0
-99 -3535 3536 0
-3536 3552 0
-100 -3536 0
-85 3537 0
-3537 3553 0
-86 -3537 3538 0
-3538 3554 0
-87 -3538 3539 0
-3539 3555 0
-88 -3539 3540 0
-3540 3556 0
-89 -3540 3541 0
-3541 3557 0
-90 -3541 3542 0
-3542 3558 0
-91 -3542 3543 0
-3543 3559 0
-92 -3543 3544 0
-3544 3560 0
-93 -3544 3545 0
-3545 3561 0
-94 -3545 3546 0
-3546 3562 0
-95 -3546 3547 0
-3547 3563 0
-96 -3547 3548 0
-3548 3564 0
-97 -3548 3549 0
-3549 3565 0
-98 -3549 3550 0
-3550 3566 0
-99 -3550 3551 0
-3551 3567 0
-100 -3551 3552 0
-3552 3568 0
-101 -3552 0
-86 3553 0
-3553 3569 0
-87 -3553 3554 0
-3554 3570 0
-88 -3554 3555 0
-3555 3571 0
-89 -3555 3556 0
-3556 3572 0
-90 -3556 3557 0
-3557 3573 0
-91 -3557 3558 0
-3558 3574 0
-92 -3558 3559 0
-3559 3575 0
-93 -3559 3560 0
-3560 3576 0
-94 -3560 3561 0
-3561 3577 0
-95 -3561 3562 0
-3562 3578 0
-96 -3562 3563 0
-3563 3579 0
-97 -3563 3564 0
-3564 3580 0
-98 -3564 3565 0
-3565 3581 0
-99 -3565 3566 0
-3566 3582 0
-100 -3566 3567 0
-3567 3583 0
-101 -3567 3568 0
-3568 3584 0
-102 -3568 0
-87 3569 0
-3569 3585 0
-88 -3569 3570 0
-3570 3586 0
-89 -3570 3571 0
-3571 3587 0
-90 -3571 3572 0
-3572 3588 0
-91 -3572 3573 0
-3573 3589 0
-92 -3573 3574 0
-3574 3590 0
-93 -3574 3575 0
-3575 3591 0
-94 -3575 3576 0
-3576 3592 0
-95 -3576 3577 0
-3577 3593 0
-96 -3577 3578 0
-3578 3594 0
-97 -3578 3579 0
-3579 3595 0
-98 -3579 3580 0
-3580 3596 0
-99 -3580 3581 0
-3581 3597 0
-100 -3581 3582 0
-3582 3598 0
-101 -3582 3583 0
-3583 3599 0
-102 -3583 3584 0
-3584 3600 0
-103 -3584 0
-88 3585 0
-3585 3601 0
-89 -3585 3586 0
-3586 3602 0
-90 -3586 3587 0
-3587 3603 0
-91 -3587 3588 0
-3588 3604 0
-92 -3588 3589 0
-3589 3605 0
-93 -3589 3590 0
-3590 3606 0
-94 -3590 3591 0
-3591 3607 0
-95 -3591 3592 0
-3592 3608 0
-96 -3592 3593 0
-3593 3609 0
-97 -3593 3594 0
-3594 3610 0
-98 -3594 3595 0
-3595 3611 0
-99 -3595 3596 0
-3596 3612 0
-100 -3596 3597 0
-3597 3613 0
-101 -3597 3598 0
-3598 3614 0
-102 -3598 3599 0
-3599 3615 0
-103 -3599 3600 0
-3600 3616 0
-104 -3600 0
-89 3601 0
-3601 3617 0
-90 -3601 3602 0
-3602 3618 0
-91 -3602 3603 0
-3603 3619 0
-92 -3603 3604 0
-3604 3620 0
-93 -3604 3605 0
-3605 3621 0
-94 -3605 3606 0
-3606 3622 0
-95 -3606 3607 0
-3607 3623 0
-96 -3607 3608 0
-3608 3624 0
-97 -3608 3609 0
-3609 3625 0
-98 -3609 3610 0
-3610 3626 0
-99 -3610 3611 0
-3611 3627 0
-100 -3611 3612 0
-3612 3628 0
-101 -3612 3613 0
-3613 3629 0
-102 -3613 3614 0
-3614 3630 0
-103 -3614 3615 0
-3615 3631 0
-104 -3615 3616 0
-3616 3632 0
-105 -3616 0
-90 3617 0
-3617 3633 0
-91 -3617 3618 0
-3618 3634 0
-92 -3618 3619 0
-3619 3635 0
-93 -3619 3620 0
-3620 3636 0
-94 -3620 3621 0
-3621 3637 0
-95 -3621 3622 0
-3622 3638 0
-96 -3622 3623 0
-3623 3639 0
-97 -3623 3624 0
-3624 3640 0
-98 -3624 3625 0
-3625 3641 0
-99 -3625 3626 0
-3626 3642 0
-100 -3626 3627 0
-3627 3643 0
-101 -3627 3628 0
-3628 3644 0
-102 -3628 3629 0
-3629 3645 0
-103 -3629 3630 0
-3630 3646 0
-104 -3630 3631 0
-3631 3647 0
-105 -3631 3632 0
-3632 3648 0
-106 -3632 0
-91 3633 0
-3633 3649 0
-92 -3633 3634 0
-3634 3650 0
-93 -3634 3635 0
-3635 3651 0
-94 -3635 3636 0
-3636 3652 0
-95 -3636 3637 0
-3637 3653 0
-96 -3637 3638 0
-3638 3654 0
-97 -3638 3639 0
-3639 3655 0
-98 -3639 3640 0
-3640 3656 0
-99 -3640 3641 0
-3641 3657 0
-100 -3641 3642 0
-3642 3658 0
-101 -3642 3643 0
-3643 3659 0
-102 -3643 3644 0
-3644 3660 0
-103 -3644 3645 0
-3645 3661 0
-104 -3645 3646 0
-3646 3662 0
-105 -3646 3647 0
-3647 3663 0
-106 -3647 3648 0
-3648 3664 0
-107 -3648 0
-92 3649 0
-3649 3665 0
-93 -3649 3650 0
-3650 3666 0
-94 -3650 3651 0
-3651 3667 0
-95 -3651 3652 0
-3652 3668 0
-96 -3652 3653 0
-3653 3669 0
-97 -3653 3654 0
-3654 3670 0
-98 -3654 3655 0
-3655 3671 0
-99 -3655 3656 0
-3656 3672 0
-100 -3656 3657 0
-3657 3673 0
-101 -3657 3658 0
-3658 3674 0
-102 -3658 3659 0
-3659 3675 0
-103 -3659 3660 0
-3660 3676 0
-104 -3660 3661 0
-3661 3677 0
-105 -3661 3662 0
-3662 3678 0
-106 -3662 3663 0
-3663 3679 0
-107 -3663 3664 0
-3664 3680 0
-108 -3664 0
-93 3665 0
-3665 3681 0
-94 -3665 3666 0
-3666 3682 0
-95 -3666 3667 0
-3667 3683 0
-96 -3667 3668 0
-3668 3684 0
-97 -3668 3669 0
-3669 3685 0
-98 -3669 3670 0
-3670 3686 0
-99 -3670 3671 0
-3671 3687 0
-100 -3671 3672 0
-3672 3688 0
-101 -3672 3673 0
-3673 3689 0
-102 -3673 3674 0
-3674 3690 0
-103 -3674 3675 0
-3675 3691 0
-104 -3675 3676 0
-3676 3692 0
-105 -3676 3677 0
-3677 3693 0
-106 -3677 3678 0
-3678 3694 0
-107 -3678 3679 0
-3679 3695 0
-108 -3679 3680 0
-3680 3696 0
-109 -3680 0
-94 3681 0
-3681 3697 0
-95 -3681 3682 0
-3682 3698 0
-96 -3682 3683 0
-3683 3699 0
-97 -3683 3684 0
-3684 3700 0
-98 -3684 3685 0
-3685 3701 0
-99 -3685 3686 0
-3686 3702 0
-100 -3686 3687 0
-3687 3703 0
-101 -3687 3688 0
-3688 3704 0
-102 -3688 3689 0
-3689 3705 0
-103 -3689 3690 0
-3690 3706 0
-104 -3690 3691 0
-3691 3707 0
-105 -3691 3692 0
-3692 3708 0
-106 -3692 3693 0
-3693 3709 0
-107 -3693 3694 0
-3694 3710 0
-108 -3694 3695 0
-3695 3711 0
-109 -3695 3696 0
-3696 3712 0
-110 -3696 0
-95 3697 0
-3697 3713 0
-96 -3697 3698 0
-3698 3714 0
-97 -3698 3699 0
-3699 3715 0
-98 -3699 3700 0
-3700 3716 0
-99 -3700 3701 0
-3701 3717 0
-100 -3701 3702 0
-3702 3718 0
-101 -3702 3703 0
-3703 3719 0
-102 -3703 3704 0
-3704 3720 0
-103 -3704 3705 0
-3705 3721 0
-104 -3705 3706 0
-3706 3722 0
-105 -3706 3707 0
-3707 3723 0
-106 -3707 3708 0
-3708 3724 0
-107 -3708 3709 0
-3709 3725 0
-108 -3709 3710 0
-3710 3726 0
-109 -3710 3711 0
-3711 3727 0
-110 -3711 3712 0
-3712 3728 0
-111 -3712 0
-96 3713 0
-3713 3729 0
-97 -3713 3714 0
-3714 3730 0
-98 -3714 3715 0
-3715 3731 0
-99 -3715 3716 0
-3716 3732 0
-100 -3716 3717 0
-3717 3733 0
-101 -3717 3718 0
-3718 3734 0
-102 -3718 3719 0
-3719 3735 0
-103 -3719 3720 0
-3720 3736 0
-104 -3720 3721 0
-3721 3737 0
-105 -3721 3722 0
-3722 3738 0
-106 -3722 3723 0
-3723 3739 0
-107 -3723 3724 0
-3724 3740 0
-108 -3724 3725 0
-3725 3741 0
-109 -3725 3726 0
-3726 3742 0
-110 -3726 3727 0
-3727 3743 0
-111 -3727 3728 0
-3728 3744 0
-112 -3728 0
-97 3729 0
-3729 3745 0
-98 -3729 3730 0
-3730 3746 0
-99 -3730 3731 0
-3731 3747 0
-100 -3731 3732 0
-3732 3748 0
-101 -3732 3733 0
-3733 3749 0
-102 -3733 3734 0
-3734 3750 0
-103 -3734 3735 0
-3735 3751 0
-104 -3735 3736 0
-3736 3752 0
-105 -3736 3737 0
-3737 3753 0
-106 -3737 3738 0
-3738 3754 0
-107 -3738 3739 0
-3739 3755 0
-108 -3739 3740 0
-3740 3756 0
-109 -3740 3741 0
-3741 3757 0
-110 -3741 3742 0
-3742 3758 0
-111 -3742 3743 0
-3743 3759 0
-112 -3743 3744 0
-3744 3760 0
-113 -3744 0
-98 3745 0
-3745 3761 0
-99 -3745 3746 0
-3746 3762 0
-100 -3746 3747 0
-3747 3763 0
-101 -3747 3748 0
-3748 3764 0
-102 -3748 3749 0
-3749 3765 0
-103 -3749 3750 0
-3750 3766 0
-104 -3750 3751 0
-3751 3767 0
-105 -3751 3752 0
-3752 3768 0
-106 -3752 3753 0
-3753 3769 0
-107 -3753 3754 0
-3754 3770 0
-108 -3754 3755 0
-3755 3771 0
-109 -3755 3756 0
-3756 3772 0
-110 -3756 3757 0
-3757 3773 0
-111 -3757 3758 0
-3758 3774 0
-112 -3758 3759 0
-3759 3775 0
-113 -3759 3760 0
-3760 3776 0
-114 -3760 0
-99 3761 0
-3761 3777 0
-100 -3761 3762 0
-3762 3778 0
-101 -3762 3763 0
-3763 3779 0
-102 -3763 3764 0
-3764 3780 0
-103 -3764 3765 0
-3765 3781 0
-104 -3765 3766 0
-3766 3782 0
-105 -3766 3767 0
-3767 3783 0
-106 -3767 3768 0
-3768 3784 0
-107 -3768 3769 0
-3769 3785 0
-108 -3769 3770 0
-3770 3786 0
-109 -3770 3771 0
-3771 3787 0
-110 -3771 3772 0
-3772 3788 0
-111 -3772 3773 0
-3773 3789 0
-112 -3773 3774 0
-3774 3790 0
-113 -3774 3775 0
-3775 3791 0
-114 -3775 3776 0
-3776 3792 0
-115 -3776 0
-100 3777 0
-3777 3793 0
-101 -3777 3778 0
-3778 3794 0
-102 -3778 3779 0
-3779 3795 0
-103 -3779 3780 0
-3780 3796 0
-104 -3780 3781 0
-3781 3797 0
-105 -3781 3782 0
-3782 3798 0
-106 -3782 3783 0
-3783 3799 0
-107 -3783 3784 0
-3784 3800 0
-108 -3784 3785 0
-3785 3801 0
-109 -3785 3786 0
-3786 3802 0
-110 -3786 3787 0
-3787 3803 0
-111 -3787 3788 0
-3788 3804 0
-112 -3788 3789 0
-3789 3805 0
-113 -3789 3790 0
-3790 3806 0
-114 -3790 3791 0
-3791 3807 0
-115 -3791 3792 0
-3792 3808 0
-116 -3792 0
-101 3793 0
-3793 3809 0
-102 -3793 3794 0
-3794 3810 0
-103 -3794 3795 0
-3795 3811 0
-104 -3795 3796 0
-3796 3812 0
-105 -3796 3797 0
-3797 3813 0
-106 -3797 3798 0
-3798 3814 0
-107 -3798 3799 0
-3799 3815 0
-108 -3799 3800 0
-3800 3816 0
-109 -3800 3801 0
-3801 3817 0
-110 -3801 3802 0
-3802 3818 0
-111 -3802 3803 0
-3803 3819 0
-112 -3803 3804 0
-3804 3820 0
-113 -3804 3805 0
-3805 3821 0
-114 -3805 3806 0
-3806 3822 0
-115 -3806 3807 0
-3807 3823 0
-116 -3807 3808 0
-3808 3824 0
-117 -3808 0
-102 3809 0
-3809 3825 0
-103 -3809 3810 0
-3810 3826 0
-104 -3810 3811 0
-3811 3827 0
-105 -3811 3812 0
-3812 3828 0
-106 -3812 3813 0
-3813 3829 0
-107 -3813 3814 0
-3814 3830 0
-108 -3814 3815 0
-3815 3831 0
-109 -3815 3816 0
-3816 3832 0
-110 -3816 3817 0
-3817 3833 0
-111 -3817 3818 0
-3818 3834 0
-112 -3818 3819 0
-3819 3835 0
-113 -3819 3820 0
-3820 3836 0
-114 -3820 3821 0
-3821 3837 0
-115 -3821 3822 0
-3822 3838 0
-116 -3822 3823 0
-3823 3839 0
-117 -3823 3824 0
-3824 3840 0
-118 -3824 0
-103 3825 0
-3825 3841 0
-104 -3825 3826 0
-3826 3842 0
-105 -3826 3827 0
-3827 3843 0
-106 -3827 3828 0
-3828 3844 0
-107 -3828 3829 0
-3829 3845 0
-108 -3829 3830 0
-3830 3846 0
-109 -3830 3831 0
-3831 3847 0
-110 -3831 3832 0
-3832 3848 0
-111 -3832 3833 0
-3833 3849 0
-112 -3833 3834 0
-3834 3850 0
-113 -3834 3835 0
-3835 3851 0
-114 -3835 3836 0
-3836 3852 0
-115 -3836 3837 0
-3837 3853 0
-116 -3837 3838 0
-3838 3854 0
-117 -3838 3839 0
-3839 3855 0
-118 -3839 3840 0
-3840 3856 0
-119 -3840 0
-104 3841 0
-3841 3857 0
-105 -3841 3842 0
-3842 3858 0
-106 -3842 3843 0
-3843 3859 0
-107 -3843 3844 0
-3844 3860 0
-108 -3844 3845 0
-3845 3861 0
-109 -3845 3846 0
-3846 3862 0
-110 -3846 3847 0
-3847 3863 0
-111 -3847 3848 0
-3848 3864 0
-112 -3848 3849 0
-3849 3865 0
-113 -3849 3850 0
-3850 3866 0
-114 -3850 3851 0
-3851 3867 0
-115 -3851 3852 0
-3852 3868 0
-116 -3852 3853 0
-3853 3869 0
-117 -3853 3854 0
-3854 3870 0
-118 -3854 3855 0
-3855 3871 0
-119 -3855 3856 0
-3856 3872 0
-120 -3856 0
-105 3857 0
-3857 3873 0
-106 -3857 3858 0
-3858 3874 0
-107 -3858 3859 0
-3859 3875 0
-108 -3859 3860 0
-3860 3876 0
-109 -3860 3861 0
-3861 3877 0
-110 -3861 3862 0
-3862 3878 0
-111 -3862 3863 0
-3863 3879 0
-112 -3863 3864 0
-3864 3880 0
-113 -3864 3865 0
-3865 3881 0
-114 -3865 3866 0
-3866 3882 0
-115 -3866 3867 0
-3867 3883 0
-116 -3867 3868 0
-3868 3884 0
-117 -3868 3869 0
-3869 3885 0
-118 -3869 3870 0
-3870 3886 0
-119 -3870 3871 0
-3871 3887 0
-120 -3871 3872 0
-3872 3888 0
-121 -3872 0
-106 3873 0
-3873 3889 0
-107 -3873 3874 0
-3874 3890 0
-108 -3874 3875 0
-3875 3891 0
-109 -3875 3876 0
-3876 3892 0
-110 -3876 3877 0
-3877 3893 0
-111 -3877 3878 0
-3878 3894 0
-112 -3878 3879 0
-3879 3895 0
-113 -3879 3880 0
-3880 3896 0
-114 -3880 3881 0
-3881 3897 0
-115 -3881 3882 0
-3882 3898 0
-116 -3882 3883 0
-3883 3899 0
-117 -3883 3884 0
-3884 3900 0
-118 -3884 3885 0
-3885 3901 0
-119 -3885 3886 0
-3886 3902 0
-120 -3886 3887 0
-3887 3903 0
-121 -3887 3888 0
-3888 3904 0
-122 -3888 0
-107 3889 0
-3889 3905 0
-108 -3889 3890 0
-3890 3906 0
-109 -3890 3891 0
-3891 3907 0
-110 -3891 3892 0
-3892 3908 0
-111 -3892 3893 0
-3893 3909 0
-112 -3893 3894 0
-3894 3910 0
-113 -3894 3895 0
-3895 3911 0
-114 -3895 3896 0
-3896 3912 0
-115 -3896 3897 0
-3897 3913 0
-116 -3897 3898 0
-3898 3914 0
-117 -3898 3899 0
-3899 3915 0
-118 -3899 3900 0
-3900 3916 0
-119 -3900 3901 0
-3901 3917 0
-120 -3901 3902 0
-3902 3918 0
-121 -3902 3903 0
-3903 3919 0
-122 -3903 3904 0
-3904 3920 0
-123 -3904 0
-108 3905 0
-3905 3921 0
-109 -3905 3906 0
-3906 3922 0
-110 -3906 3907 0
-3907 3923 0
-111 -3907 3908 0
-3908 3924 0
-112 -3908 3909 0
-3909 3925 0
-113 -3909 3910 0
-3910 3926 0
-114 -3910 3911 0
-3911 3927 0
-115 -3911 3912 0
-3912 3928 0
-116 -3912 3913 0
-3913 3929 0
-117 -3913 3914 0
-3914 3930 0
-118 -3914 3915 0
-3915 3931 0
-119 -3915 3916 0
-3916 3932 0
-120 -3916 3917 0
-3917 3933 0
-121 -3917 3918 0
-3918 3934 0
-122 -3918 3919 0
-3919 3935 0
-123 -3919 3920 0
-3920 3936 0
-124 -3920 0
-109 3921 0
-3921 3937 0
-110 -3921 3922 0
-3922 3938 0
-111 -3922 3923 0
-3923 3939 0
-112 -3923 3924 0
-3924 3940 0
-113 -3924 3925 0
-3925 3941 0
-114 -3925 3926 0
-3926 3942 0
-115 -3926 3927 0
-3927 3943 0
-116 -3927 3928 0
-3928 3944 0
-117 -3928 3929 0
-3929 3945 0
-118 -3929 3930 0
-3930 3946 0
-119 -3930 3931 0
-3931 3947 0
-120 -3931 3932 0
-3932 3948 0
-121 -3932 3933 0
-3933 3949 0
-122 -3933 3934 0
-3934 3950 0
-123 -3934 3935 0
-3935 3951 0
-124 -3935 3936 0
-3936 3952 0
-125 -3936 0
-110 3937 0
-3937 3953 0
-111 -3937 3938 0
-3938 3954 0
-112 -3938 3939 0
-3939 3955 0
-113 -3939 3940 0
-3940 3956 0
-114 -3940 3941 0
-3941 3957 0
-115 -3941 3942 0
-3942 3958 0
-116 -3942 3943 0
-3943 3959 0
-117 -3943 3944 0
-3944 3960 0
-118 -3944 3945 0
-3945 3961 0
-119 -3945 3946 0
-3946 3962 0
-120 -3946 3947 0
-3947 3963 0
-121 -3947 3948 0
-3948 3964 0
-122 -3948 3949 0
-3949 3965 0
-123 -3949 3950 0
-3950 3966 0
-124 -3950 3951 0
-3951 3967 0
-125 -3951 3952 0
-3952 3968 0
-126 -3952 0
-111 3953 0
-3953 3969 0
-112 -3953 3954 0
-3954 3970 0
-113 -3954 3955 0
-3955 3971 0
-114 -3955 3956 0
-3956 3972 0
-115 -3956 3957 0
-3957 3973 0
-116 -3957 3958 0
-3958 3974 0
-117 -3958 3959 0
-3959 3975 0
-118 -3959 3960 0
-3960 3976 0
-119 -3960 3961 0
-3961 3977 0
-120 -3961 3962 0
-3962 3978 0
-121 -3962 3963 0
-3963 3979 0
-122 -3963 3964 0
-3964 3980 0
-123 -3964 3965 0
-3965 3981 0
-124 -3965 3966 0
-3966 3982 0
-125 -3966 3967 0
-3967 3983 0
-126 -3967 3968 0
-3968 3984 0
-127 -3968 0
-112 3969 0
-3969 3985 0
-113 -3969 3970 0
-3970 3986 0
-114 -3970 3971 0
-3971 3987 0
-115 -3971 3972 0
-3972 3988 0
-116 -3972 3973 0
-3973 3989 0
-117 -3973 3974 0
-3974 3990 0
-118 -3974 3975 0
-3975 3991 0
-119 -3975 3976 0
-3976 3992 0
-120 -3976 3977 0
-3977 3993 0
-121 -3977 3978 0
-3978 3994 0
-122 -3978 3979 0
-3979 3995 0
-123 -3979 3980 0
-3980 3996 0
-124 -3980 3981 0
-3981 3997 0
-125 -3981 3982 0
-3982 3998 0
-126 -3982 3983 0
-3983 3999 0
-127 -3983 3984 0
-3984 4000 0
-128 -3984 0
-113 3985 0
-3985 4001 0
-114 -3985 3986 0
-3986 4002 0
-115 -3986 3987 0
-3987 4003 0
-116 -3987 3988 0
-3988 4004 0
-117 -3988 3989 0
-3989 4005 0
-118 -3989 3990 0
-3990 4006 0
-119 -3990 3991 0
-3991 4007 0
-120 -3991 3992 0
-3992 4008 0
-121 -3992 3993 0
-3993 4009 0
-122 -3993 3994 0
-3994 4010 0
-123 -3994 3995 0
-3995 4011 0
-124 -3995 3996 0
-3996 4012 0
-125 -3996 3997 0
-3997 4013 0
-126 -3997 3998 0
-3998 4014 0
-127 -3998 3999 0
-3999 4015 0
-128 -3999 4000 0
-4000 4016 0
-129 -4000 0
-114 4001 0
-4001 4017 0
-115 -4001 4002 0
-4002 4018 0
-116 -4002 4003 0
-4003 4019 0
-117 -4003 4004 0
-4004 4020 0
-118 -4004 4005 0
-4005 4021 0
-119 -4005 4006 0
-4006 4022 0
-120 -4006 4007 0
-4007 4023 0
-121 -4007 4008 0
-4008 4024 0
-122 -4008 4009 0
-4009 4025 0
-123 -4009 4010 0
-4010 4026 0
-124 -4010 4011 0
-4011 4027 0
-125 -4011 4012 0
-4012 4028 0
-126 -4012 4013 0
-4013 4029 0
-127 -4013 4014 0
-4014 4030 0
-128 -4014 4015 0
-4015 4031 0
-129 -4015 4016 0
-4016 4032 0
-130 -4016 0
-115 4017 0
-4017 4033 0
-116 -4017 4018 0
-4018 4034 0
-117 -4018 4019 0
-4019 4035 0
-118 -4019 4020 0
-4020 4036 0
-119 -4020 4021 0
-4021 4037 0
-120 -4021 4022 0
-4022 4038 0
-121 -4022 4023 0
-4023 4039 0
-122 -4023 4024 0
-4024 4040 0
-123 -4024 4025 0
-4025 4041 0
-124 -4025 4026 0
-4026 4042 0
-125 -4026 4027 0
-4027 4043 0
-126 -4027 4028 0
-4028 4044 0
-127 -4028 4029 0
-4029 4045 0
-128 -4029 4030 0
-4030 4046 0
-129 -4030 4031 0
-4031 4047 0
-130 -4031 4032 0
-4032 4048 0
-131 -4032 0
-116 4033 0
-4033 4049 0
-117 -4033 4034 0
-4034 4050 0
-118 -4034 4035 0
-4035 4051 0
-119 -4035 4036 0
-4036 4052 0
-120 -4036 4037 0
-4037 4053 0
-121 -4037 4038 0
-4038 4054 0
-122 -4038 4039 0
-4039 4055 0
-123 -4039 4040 0
-4040 4056 0
-124 -4040 4041 0
-4041 4057 0
-125 -4041 4042 0
-4042 4058 0
-126 -4042 4043 0
-4043 4059 0
-127 -4043 4044 0
-4044 4060 0
-128 -4044 4045 0
-4045 4061 0
-129 -4045 4046 0
-4046 4062 0
-130 -4046 4047 0
-4047 4063 0
-131 -4047 4048 0
-4048 4064 0
-132 -4048 0
-117 4049 0
-4049 4065 0
-118 -4049 4050 0
-4050 4066 0
-119 -4050 4051 0
-4051 4067 0
-120 -4051 4052 0
-4052 4068 0
-121 -4052 4053 0
-4053 4069 0
-122 -4053 4054 0
-4054 4070 0
-123 -4054 4055 0
-4055 4071 0
-124 -4055 4056 0
-4056 4072 0
-125 -4056 4057 0
-4057 4073 0
-126 -4057 4058 0
-4058 4074 0
-127 -4058 4059 0
-4059 4075 0
-128 -4059 4060 0
-4060 4076 0
-129 -4060 4061 0
-4061 4077 0
-130 -4061 4062 0
-4062 4078 0
-131 -4062 4063 0
-4063 4079 0
-132 -4063 4064 0
-4064 4080 0
-133 -4064 0
-118 4065 0
-4065 4081 0
-119 -4065 4066 0
-4066 4082 0
-120 -4066 4067 0
-4067 4083 0
-121 -4067 4068 0
-4068 4084 0
-122 -4068 4069 0
-4069 4085 0
-123 -4069 4070 0
-4070 4086 0
-124 -4070 4071 0
-4071 4087 0
-125 -4071 4072 0
-4072 4088 0
-126 -4072 4073 0
-4073 4089 0
-127 -4073 4074 0
-4074 4090 0
-128 -4074 4075 0
-4075 4091 0
-129 -4075 4076 0
-4076 4092 0
-130 -4076 4077 0
-4077 4093 0
-131 -4077 4078 0
-4078 4094 0
-132 -4078 4079 0
-4079 4095 0
-133 -4079 4080 0
-4080 4096 0
-134 -4080 0
-119 4081 0
-4081 4097 0
-120 -4081 4082 0
-4082 4098 0
-121 -4082 4083 0
-4083 4099 0
-122 -4083 4084 0
-4084 4100 0
-123 -4084 4085 0
-4085 4101 0
-124 -4085 4086 0
-4086 4102 0
-125 -4086 4087 0
-4087 4103 0
-126 -4087 4088 0
-4088 4104 0
-127 -4088 4089 0
-4089 4105 0
-128 -4089 4090 0
-4090 4106 0
-129 -4090 4091 0
-4091 4107 0
-130 -4091 4092 0
-4092 4108 0
-131 -4092 4093 0
-4093 4109 0
-132 -4093 4094 0
-4094 4110 0
-133 -4094 4095 0
-4095 4111 0
-134 -4095 4096 0
-4096 4112 0
-135 -4096 0
-120 4097 0
-121 -4097 4098 0
-122 -4098 4099 0
-123 -4099 4100 0
-124 -4100 4101 0
-125 -4101 4102 0
-126 -4102 4103 0
-127 -4103 4104 0
-128 -4104 4105 0
-129 -4105 4106 0
-130 -4106 4107 0
-131 -4107 4108 0
-132 -4108 4109 0
-133 -4109 4110 0
-134 -4110 4111 0
-135 -4111 4112 0
-136 -4112 0
-137 4113 0
-4113 4114 0
-138 -4113 4115 0
-4115 4116 0
-139 -4115 4117 0
-4117 4118 0
-140 -4117 4119 0
-4119 4120 0
-141 -4119 4121 0
-4121 4122 0
-142 -4121 4123 0
-4123 4124 0
-143 -4123 4125 0
-4125 4126 0
-144 -4125 4127 0
-4127 4128 0
-145 -4127 4129 0
-4129 4130 0
-146 -4129 0
-138 4114 0
-4114 4131 0
-139 -4114 4116 0
-4116 4132 0
-140 -4116 4118 0
-4118 4133 0
-141 -4118 4120 0
-4120 4134 0
-142 -4120 4122 0
-4122 4135 0
-143 -4122 4124 0
-4124 4136 0
-144 -4124 4126 0
-4126 4137 0
-145 -4126 4128 0
-4128 4138 0
-146 -4128 4130 0
-4130 4139 0
-147 -4130 0
-139 4131 0
-4131 4140 0
-140 -4131 4132 0
-4132 4141 0
-141 -4132 4133 0
-4133 4142 0
-142 -4133 4134 0
-4134 4143 0
-143 -4134 4135 0
-4135 4144 0
-144 -4135 4136 0
-4136 4145 0
-145 -4136 4137 0
-4137 4146 0
-146 -4137 4138 0
-4138 4147 0
-147 -4138 4139 0
-4139 4148 0
-148 -4139 0
-140 4140 0
-4140 4149 0
-141 -4140 4141 0
-4141 4150 0
-142 -4141 4142 0
-4142 4151 0
-143 -4142 4143 0
-4143 4152 0
-144 -4143 4144 0
-4144 4153 0
-145 -4144 4145 0
-4145 4154 0
-146 -4145 4146 0
-4146 4155 0
-147 -4146 4147 0
-4147 4156 0
-148 -4147 4148 0
-4148 4157 0
-149 -4148 0
-141 4149 0
-4149 4158 0
-142 -4149 4150 0
-4150 4159 0
-143 -4150 4151 0
-4151 4160 0
-144 -4151 4152 0
-4152 4161 0
-145 -4152 4153 0
-4153 4162 0
-146 -4153 4154 0
-4154 4163 0
-147 -4154 4155 0
-4155 4164 0
-148 -4155 4156 0
-4156 4165 0
-149 -4156 4157 0
-4157 4166 0
-150 -4157 0
-142 4158 0
-4158 4167 0
-143 -4158 4159 0
-4159 4168 0
-144 -4159 4160 0
-4160 4169 0
-145 -4160 4161 0
-4161 4170 0
-146 -4161 4162 0
-4162 4171 0
-147 -4162 4163 0
-4163 4172 0
-148 -4163 4164 0
-4164 4173 0
-149 -4164 4165 0
-4165 4174 0
-150 -4165 4166 0
-4166 4175 0
-151 -4166 0
-143 4167 0
-4167 4176 0
-144 -4167 4168 0
-4168 4177 0
-145 -4168 4169 0
-4169 4178 0
-146 -4169 4170 0
-4170 4179 0
-147 -4170 4171 0
-4171 4180 0
-148 -4171 4172 0
-4172 4181 0
-149 -4172 4173 0
-4173 4182 0
-150 -4173 4174 0
-4174 4183 0
-151 -4174 4175 0
-4175 4184 0
-152 -4175 0
-144 4176 0
-4176 4185 0
-145 -4176 4177 0
-4177 4186 0
-146 -4177 4178 0
-4178 4187 0
-147 -4178 4179 0
-4179 4188 0
-148 -4179 4180 0
-4180 4189 0
-149 -4180 4181 0
-4181 4190 0
-150 -4181 4182 0
-4182 4191 0
-151 -4182 4183 0
-4183 4192 0
-152 -4183 4184 0
-4184 4193 0
-153 -4184 0
-145 4185 0
-4185 4194 0
-146 -4185 4186 0
-4186 4195 0
-147 -4186 4187 0
-4187 4196 0
-148 -4187 4188 0
-4188 4197 0
-149 -4188 4189 0
-4189 4198 0
-150 -4189 4190 0
-4190 4199 0
-151 -4190 4191 0
-4191 4200 0
-152 -4191 4192 0
-4192 4201 0
-153 -4192 4193 0
-4193 4202 0
-154 -4193 0
-146 4194 0
-4194 4203 0
-147 -4194 4195 0
-4195 4204 0
-148 -4195 4196 0
-4196 4205 0
-149 -4196 4197 0
-4197 4206 0
-150 -4197 4198 0
-4198 4207 0
-151 -4198 4199 0
-4199 4208 0
-152 -4199 4200 0
-4200 4209 0
-153 -4200 4201 0
-4201 4210 0
-154 -4201 4202 0
-4202 4211 0
-155 -4202 0
-147 4203 0
-4203 4212 0
-148 -4203 4204 0
-4204 4213 0
-149 -4204 4205 0
-4205 4214 0
-150 -4205 4206 0
-4206 4215 0
-151 -4206 4207 0
-4207 4216 0
-152 -4207 4208 0
-4208 4217 0
-153 -4208 4209 0
-4209 4218 0
-154 -4209 4210 0
-4210 4219 0
-155 -4210 4211 0
-4211 4220 0
-156 -4211 0
-148 4212 0
-4212 4221 0
-149 -4212 4213 0
-4213 4222 0
-150 -4213 4214 0
-4214 4223 0
-151 -4214 4215 0
-4215 4224 0
-152 -4215 4216 0
-4216 4225 0
-153 -4216 4217 0
-4217 4226 0
-154 -4217 4218 0
-4218 4227 0
-155 -4218 4219 0
-4219 4228 0
-156 -4219 4220 0
-4220 4229 0
-157 -4220 0
-149 4221 0
-4221 4230 0
-150 -4221 4222 0
-4222 4231 0
-151 -4222 4223 0
-4223 4232 0
-152 -4223 4224 0
-4224 4233 0
-153 -4224 4225 0
-4225 4234 0
-154 -4225 4226 0
-4226 4235 0
-155 -4226 4227 0
-4227 4236 0
-156 -4227 4228 0
-4228 4237 0
-157 -4228 4229 0
-4229 4238 0
-158 -4229 0
-150 4230 0
-4230 4239 0
-151 -4230 4231 0
-4231 4240 0
-152 -4231 4232 0
-4232 4241 0
-153 -4232 4233 0
-4233 4242 0
-154 -4233 4234 0
-4234 4243 0
-155 -4234 4235 0
-4235 4244 0
-156 -4235 4236 0
-4236 4245 0
-157 -4236 4237 0
-4237 4246 0
-158 -4237 4238 0
-4238 4247 0
-159 -4238 0
-151 4239 0
-4239 4248 0
-152 -4239 4240 0
-4240 4249 0
-153 -4240 4241 0
-4241 4250 0
-154 -4241 4242 0
-4242 4251 0
-155 -4242 4243 0
-4243 4252 0
-156 -4243 4244 0
-4244 4253 0
-157 -4244 4245 0
-4245 4254 0
-158 -4245 4246 0
-4246 4255 0
-159 -4246 4247 0
-4247 4256 0
-160 -4247 0
-152 4248 0
-4248 4257 0
-153 -4248 4249 0
-4249 4258 0
-154 -4249 4250 0
-4250 4259 0
-155 -4250 4251 0
-4251 4260 0
-156 -4251 4252 0
-4252 4261 0
-157 -4252 4253 0
-4253 4262 0
-158 -4253 4254 0
-4254 4263 0
-159 -4254 4255 0
-4255 4264 0
-160 -4255 4256 0
-4256 4265 0
-161 -4256 0
-153 4257 0
-4257 4266 0
-154 -4257 4258 0
-4258 4267 0
-155 -4258 4259 0
-4259 4268 0
-156 -4259 4260 0
-4260 4269 0
-157 -4260 4261 0
-4261 4270 0
-158 -4261 4262 0
-4262 4271 0
-159 -4262 4263 0
-4263 4272 0
-160 -4263 4264 0
-4264 4273 0
-161 -4264 4265 0
-4265 4274 0
-162 -4265 0
-154 4266 0
-4266 4275 0
-155 -4266 4267 0
-4267 4276 0
-156 -4267 4268 0
-4268 4277 0
-157 -4268 4269 0
-4269 4278 0
-158 -4269 4270 0
-4270 4279 0
-159 -4270 4271 0
-4271 4280 0
-160 -4271 4272 0
-4272 4281 0
-161 -4272 4273 0
-4273 4282 0
-162 -4273 4274 0
-4274 4283 0
-163 -4274 0
-155 4275 0
-4275 4284 0
-156 -4275 4276 0
-4276 4285 0
-157 -4276 4277 0
-4277 4286 0
-158 -4277 4278 0
-4278 4287 0
-159 -4278 4279 0
-4279 4288 0
-160 -4279 4280 0
-4280 4289 0
-161 -4280 4281 0
-4281 4290 0
-162 -4281 4282 0
-4282 4291 0
-163 -4282 4283 0
-4283 4292 0
-164 -4283 0
-156 4284 0
-4284 4293 0
-157 -4284 4285 0
-4285 4294 0
-158 -4285 4286 0
-4286 4295 0
-159 -4286 4287 0
-4287 4296 0
-160 -4287 4288 0
-4288 4297 0
-161 -4288 4289 0
-4289 4298 0
-162 -4289 4290 0
-4290 4299 0
-163 -4290 4291 0
-4291 4300 0
-164 -4291 4292 0
-4292 4301 0
-165 -4292 0
-157 4293 0
-4293 4302 0
-158 -4293 4294 0
-4294 4303 0
-159 -4294 4295 0
-4295 4304 0
-160 -4295 4296 0
-4296 4305 0
-161 -4296 4297 0
-4297 4306 0
-162 -4297 4298 0
-4298 4307 0
-163 -4298 4299 0
-4299 4308 0
-164 -4299 4300 0
-4300 4309 0
-165 -4300 4301 0
-4301 4310 0
-166 -4301 0
-158 4302 0
-4302 4311 0
-159 -4302 4303 0
-4303 4312 0
-160 -4303 4304 0
-4304 4313 0
-161 -4304 4305 0
-4305 4314 0
-162 -4305 4306 0
-4306 4315 0
-163 -4306 4307 0
-4307 4316 0
-164 -4307 4308 0
-4308 4317 0
-165 -4308 4309 0
-4309 4318 0
-166 -4309 4310 0
-4310 4319 0
-167 -4310 0
-159 4311 0
-4311 4320 0
-160 -4311 4312 0
-4312 4321 0
-161 -4312 4313 0
-4313 4322 0
-162 -4313 4314 0
-4314 4323 0
-163 -4314 4315 0
-4315 4324 0
-164 -4315 4316 0
-4316 4325 0
-165 -4316 4317 0
-4317 4326 0
-166 -4317 4318 0
-4318 4327 0
-167 -4318 4319 0
-4319 4328 0
-168 -4319 0
-160 4320 0
-4320 4329 0
-161 -4320 4321 0
-4321 4330 0
-162 -4321 4322 0
-4322 4331 0
-163 -4322 4323 0
-4323 4332 0
-164 -4323 4324 0
-4324 4333 0
-165 -4324 4325 0
-4325 4334 0
-166 -4325 4326 0
-4326 4335 0
-167 -4326 4327 0
-4327 4336 0
-168 -4327 4328 0
-4328 4337 0
-169 -4328 0
-161 4329 0
-4329 4338 0
-162 -4329 4330 0
-4330 4339 0
-163 -4330 4331 0
-4331 4340 0
-164 -4331 4332 0
-4332 4341 0
-165 -4332 4333 0
-4333 4342 0
-166 -4333 4334 0
-4334 4343 0
-167 -4334 4335 0
-4335 4344 0
-168 -4335 4336 0
-4336 4345 0
-169 -4336 4337 0
-4337 4346 0
-170 -4337 0
-162 4338 0
-4338 4347 0
-163 -4338 4339 0
-4339 4348 0
-164 -4339 4340 0
-4340 4349 0
-165 -4340 4341 0
-4341 4350 0
-166 -4341 4342 0
-4342 4351 0
-167 -4342 4343 0
-4343 4352 0
-168 -4343 4344 0
-4344 4353 0
-169 -4344 4345 0
-4345 4354 0
-170 -4345 4346 0
-4346 4355 0
-171 -4346 0
-163 4347 0
-4347 4356 0
-164 -4347 4348 0
-4348 4357 0
-165 -4348 4349 0
-4349 4358 0
-166 -4349 4350 0
-4350 4359 0
-167 -4350 4351 0
-4351 4360 0
-168 -4351 4352 0
-4352 4361 0
-169 -4352 4353 0
-4353 4362 0
-170 -4353 4354 0
-4354 4363 0
-171 -4354 4355 0
-4355 4364 0
-172 -4355 0
-164 4356 0
-4356 4365 0
-165 -4356 4357 0
-4357 4366 0
-166 -4357 4358 0
-4358 4367 0
-167 -4358 4359 0
-4359 4368 0
-168 -4359 4360 0
-4360 4369 0
-169 -4360 4361 0
-4361 4370 0
-170 -4361 4362 0
-4362 4371 0
-171 -4362 4363 0
-4363 4372 0
-172 -4363 4364 0
-4364 4373 0
-173 -4364 0
-165 4365 0
-4365 4374 0
-166 -4365 4366 0
-4366 4375 0
-167 -4366 4367 0
-4367 4376 0
-168 -4367 4368 0
-4368 4377 0
-169 -4368 4369 0
-4369 4378 0
-170 -4369 4370 0
-4370 4379 0
-171 -4370 4371 0
-4371 4380 0
-172 -4371 4372 0
-4372 4381 0
-173 -4372 4373 0
-4373 4382 0
-174 -4373 0
-166 4374 0
-4374 4383 0
-167 -4374 4375 0
-4375 4384 0
-168 -4375 4376 0
-4376 4385 0
-169 -4376 4377 0
-4377 4386 0
-170 -4377 4378 0
-4378 4387 0
-171 -4378 4379 0
-4379 4388 0
-172 -4379 4380 0
-4380 4389 0
-173 -4380 4381 0
-4381 4390 0
-174 -4381 4382 0
-4382 4391 0
-175 -4382 0
-167 4383 0
-4383 4392 0
-168 -4383 4384 0
-4384 4393 0
-169 -4384 4385 0
-4385 4394 0
-170 -4385 4386 0
-4386 4395 0
-171 -4386 4387 0
-4387 4396 0
-172 -4387 4388 0
-4388 4397 0
-173 -4388 4389 0
-4389 4398 0
-174 -4389 4390 0
-4390 4399 0
-175 -4390 4391 0
-4391 4400 0
-176 -4391 0
-168 4392 0
-4392 4401 0
-169 -4392 4393 0
-4393 4402 0
-170 -4393 4394 0
-4394 4403 0
-171 -4394 4395 0
-4395 4404 0
-172 -4395 4396 0
-4396 4405 0
-173 -4396 4397 0
-4397 4406 0
-174 -4397 4398 0
-4398 4407 0
-175 -4398 4399 0
-4399 4408 0
-176 -4399 4400 0
-4400 4409 0
-177 -4400 0
-169 4401 0
-4401 4410 0
-170 -4401 4402 0
-4402 4411 0
-171 -4402 4403 0
-4403 4412 0
-172 -4403 4404 0
-4404 4413 0
-173 -4404 4405 0
-4405 4414 0
-174 -4405 4406 0
-4406 4415 0
-175 -4406 4407 0
-4407 4416 0
-176 -4407 4408 0
-4408 4417 0
-177 -4408 4409 0
-4409 4418 0
-178 -4409 0
-170 4410 0
-4410 4419 0
-171 -4410 4411 0
-4411 4420 0
-172 -4411 4412 0
-4412 4421 0
-173 -4412 4413 0
-4413 4422 0
-174 -4413 4414 0
-4414 4423 0
-175 -4414 4415 0
-4415 4424 0
-176 -4415 4416 0
-4416 4425 0
-177 -4416 4417 0
-4417 4426 0
-178 -4417 4418 0
-4418 4427 0
-179 -4418 0
-171 4419 0
-4419 4428 0
-172 -4419 4420 0
-4420 4429 0
-173 -4420 4421 0
-4421 4430 0
-174 -4421 4422 0
-4422 4431 0
-175 -4422 4423 0
-4423 4432 0
-176 -4423 4424 0
-4424 4433 0
-177 -4424 4425 0
-4425 4434 0
-178 -4425 4426 0
-4426 4435 0
-179 -4426 4427 0
-4427 4436 0
-180 -4427 0
-172 4428 0
-4428 4437 0
-173 -4428 4429 0
-4429 4438 0
-174 -4429 4430 0
-4430 4439 0
-175 -4430 4431 0
-4431 4440 0
-176 -4431 4432 0
-4432 4441 0
-177 -4432 4433 0
-4433 4442 0
-178 -4433 4434 0
-4434 4443 0
-179 -4434 4435 0
-4435 4444 0
-180 -4435 4436 0
-4436 4445 0
-181 -4436 0
-173 4437 0
-4437 4446 0
-174 -4437 4438 0
-4438 4447 0
-175 -4438 4439 0
-4439 4448 0
-176 -4439 4440 0
-4440 4449 0
-177 -4440 4441 0
-4441 4450 0
-178 -4441 4442 0
-4442 4451 0
-179 -4442 4443 0
-4443 4452 0
-180 -4443 4444 0
-4444 4453 0
-181 -4444 4445 0
-4445 4454 0
-182 -4445 0
-174 4446 0
-4446 4455 0
-175 -4446 4447 0
-4447 4456 0
-176 -4447 4448 0
-4448 4457 0
-177 -4448 4449 0
-4449 4458 0
-178 -4449 4450 0
-4450 4459 0
-179 -4450 4451 0
-4451 4460 0
-180 -4451 4452 0
-4452 4461 0
-181 -4452 4453 0
-4453 4462 0
-182 -4453 4454 0
-4454 4463 0
-183 -4454 0
-175 4455 0
-4455 4464 0
-176 -4455 4456 0
-4456 4465 0
-177 -4456 4457 0
-4457 4466 0
-178 -4457 4458 0
-4458 4467 0
-179 -4458 4459 0
-4459 4468 0
-180 -4459 4460 0
-4460 4469 0
-181 -4460 4461 0
-4461 4470 0
-182 -4461 4462 0
-4462 4471 0
-183 -4462 4463 0
-4463 4472 0
-184 -4463 0
-176 4464 0
-4464 4473 0
-177 -4464 4465 0
-4465 4474 0
-178 -4465 4466 0
-4466 4475 0
-179 -4466 4467 0
-4467 4476 0
-180 -4467 4468 0
-4468 4477 0
-181 -4468 4469 0
-4469 4478 0
-182 -4469 4470 0
-4470 4479 0
-183 -4470 4471 0
-4471 4480 0
-184 -4471 4472 0
-4472 4481 0
-185 -4472 0
-177 4473 0
-4473 4482 0
-178 -4473 4474 0
-4474 4483 0
-179 -4474 4475 0
-4475 4484 0
-180 -4475 4476 0
-4476 4485 0
-181 -4476 4477 0
-4477 4486 0
-182 -4477 4478 0
-4478 4487 0
-183 -4478 4479 0
-4479 4488 0
-184 -4479 4480 0
-4480 4489 0
-185 -4480 4481 0
-4481 4490 0
-186 -4481 0
-178 4482 0
-4482 4491 0
-179 -4482 4483 0
-4483 4492 0
-180 -4483 4484 0
-4484 4493 0
-181 -4484 4485 0
-4485 4494 0
-182 -4485 4486 0
-4486 4495 0
-183 -4486 4487 0
-4487 4496 0
-184 -4487 4488 0
-4488 4497 0
-185 -4488 4489 0
-4489 4498 0
-186 -4489 4490 0
-4490 4499 0
-187 -4490 0
-179 4491 0
-4491 4500 0
-180 -4491 4492 0
-4492 4501 0
-181 -4492 4493 0
-4493 4502 0
-182 -4493 4494 0
-4494 4503 0
-183 -4494 4495 0
-4495 4504 0
-184 -4495 4496 0
-4496 4505 0
-185 -4496 4497 0
-4497 4506 0
-186 -4497 4498 0
-4498 4507 0
-187 -4498 4499 0
-4499 4508 0
-188 -4499 0
-180 4500 0
-4500 4509 0
-181 -4500 4501 0
-4501 4510 0
-182 -4501 4502 0
-4502 4511 0
-183 -4502 4503 0
-4503 4512 0
-184 -4503 4504 0
-4504 4513 0
-185 -4504 4505 0
-4505 4514 0
-186 -4505 4506 0
-4506 4515 0
-187 -4506 4507 0
-4507 4516 0
-188 -4507 4508 0
-4508 4517 0
-189 -4508 0
-181 4509 0
-4509 4518 0
-182 -4509 4510 0
-4510 4519 0
-183 -4510 4511 0
-4511 4520 0
-184 -4511 4512 0
-4512 4521 0
-185 -4512 4513 0
-4513 4522 0
-186 -4513 4514 0
-4514 4523 0
-187 -4514 4515 0
-4515 4524 0
-188 -4515 4516 0
-4516 4525 0
-189 -4516 4517 0
-4517 4526 0
-190 -4517 0
-182 4518 0
-4518 4527 0
-183 -4518 4519 0
-4519 4528 0
-184 -4519 4520 0
-4520 4529 0
-185 -4520 4521 0
-4521 4530 0
-186 -4521 4522 0
-4522 4531 0
-187 -4522 4523 0
-4523 4532 0
-188 -4523 4524 0
-4524 4533 0
-189 -4524 4525 0
-4525 4534 0
-190 -4525 4526 0
-4526 4535 0
-191 -4526 0
-183 4527 0
-4527 4536 0
-184 -4527 4528 0
-4528 4537 0
-185 -4528 4529 0
-4529 4538 0
-186 -4529 4530 0
-4530 4539 0
-187 -4530 4531 0
-4531 4540 0
-188 -4531 4532 0
-4532 4541 0
-189 -4532 4533 0
-4533 4542 0
-190 -4533 4534 0
-4534 4543 0
-191 -4534 4535 0
-4535 4544 0
-192 -4535 0
-184 4536 0
-4536 4545 0
-185 -4536 4537 0
-4537 4546 0
-186 -4537 4538 0
-4538 4547 0
-187 -4538 4539 0
-4539 4548 0
-188 -4539 4540 0
-4540 4549 0
-189 -4540 4541 0
-4541 4550 0
-190 -4541 4542 0
-4542 4551 0
-191 -4542 4543 0
-4543 4552 0
-192 -4543 4544 0
-4544 4553 0
-193 -4544 0
-185 4545 0
-4545 4554 0
-186 -4545 4546 0
-4546 4555 0
-187 -4546 4547 0
-4547 4556 0
-188 -4547 4548 0
-4548 4557 0
-189 -4548 4549 0
-4549 4558 0
-190 -4549 4550 0
-4550 4559 0
-191 -4550 4551 0
-4551 4560 0
-192 -4551 4552 0
-4552 4561 0
-193 -4552 4553 0
-4553 4562 0
-194 -4553 0
-186 4554 0
-4554 4563 0
-187 -4554 4555 0
-4555 4564 0
-188 -4555 4556 0
-4556 4565 0
-189 -4556 4557 0
-4557 4566 0
-190 -4557 4558 0
-4558 4567 0
-191 -4558 4559 0
-4559 4568 0
-192 -4559 4560 0
-4560 4569 0
-193 -4560 4561 0
-4561 4570 0
-194 -4561 4562 0
-4562 4571 0
-195 -4562 0
-187 4563 0
-4563 4572 0
-188 -4563 4564 0
-4564 4573 0
-189 -4564 4565 0
-4565 4574 0
-190 -4565 4566 0
-4566 4575 0
-191 -4566 4567 0
-4567 4576 0
-192 -4567 4568 0
-4568 4577 0
-193 -4568 4569 0
-4569 4578 0
-194 -4569 4570 0
-4570 4579 0
-195 -4570 4571 0
-4571 4580 0
-196 -4571 0
-188 4572 0
-4572 4581 0
-189 -4572 4573 0
-4573 4582 0
-190 -4573 4574 0
-4574 4583 0
-191 -4574 4575 0
-4575 4584 0
-192 -4575 4576 0
-4576 4585 0
-193 -4576 4577 0
-4577 4586 0
-194 -4577 4578 0
-4578 4587 0
-195 -4578 4579 0
-4579 4588 0
-196 -4579 4580 0
-4580 4589 0
-197 -4580 0
-189 4581 0
-4581 4590 0
-190 -4581 4582 0
-4582 4591 0
-191 -4582 4583 0
-4583 4592 0
-192 -4583 4584 0
-4584 4593 0
-193 -4584 4585 0
-4585 4594 0
-194 -4585 4586 0
-4586 4595 0
-195 -4586 4587 0
-4587 4596 0
-196 -4587 4588 0
-4588 4597 0
-197 -4588 4589 0
-4589 4598 0
-198 -4589 0
-190 4590 0
-4590 4599 0
-191 -4590 4591 0
-4591 4600 0
-192 -4591 4592 0
-4592 4601 0
-193 -4592 4593 0
-4593 4602 0
-194 -4593 4594 0
-4594 4603 0
-195 -4594 4595 0
-4595 4604 0
-196 -4595 4596 0
-4596 4605 0
-197 -4596 4597 0
-4597 4606 0
-198 -4597 4598 0
-4598 4607 0
-199 -4598 0
-191 4599 0
-4599 4608 0
-192 -4599 4600 0
-4600 4609 0
-193 -4600 4601 0
-4601 4610 0
-194 -4601 4602 0
-4602 4611 0
-195 -4602 4603 0
-4603 4612 0
-196 -4603 4604 0
-4604 4613 0
-197 -4604 4605 0
-4605 4614 0
-198 -4605 4606 0
-4606 4615 0
-199 -4606 4607 0
-4607 4616 0
-200 -4607 0
-192 4608 0
-4608 4617 0
-193 -4608 4609 0
-4609 4618 0
-194 -4609 4610 0
-4610 4619 0
-195 -4610 4611 0
-4611 4620 0
-196 -4611 4612 0
-4612 4621 0
-197 -4612 4613 0
-4613 4622 0
-198 -4613 4614 0
-4614 4623 0
-199 -4614 4615 0
-4615 4624 0
-200 -4615 4616 0
-4616 4625 0
-201 -4616 0
-193 4617 0
-4617 4626 0
-194 -4617 4618 0
-4618 4627 0
-195 -4618 4619 0
-4619 4628 0
-196 -4619 4620 0
-4620 4629 0
-197 -4620 4621 0
-4621 4630 0
-198 -4621 4622 0
-4622 4631 0
-199 -4622 4623 0
-4623 4632 0
-200 -4623 4624 0
-4624 4633 0
-201 -4624 4625 0
-4625 4634 0
-202 -4625 0
-194 4626 0
-4626 4635 0
-195 -4626 4627 0
-4627 4636 0
-196 -4627 4628 0
-4628 4637 0
-197 -4628 4629 0
-4629 4638 0
-198 -4629 4630 0
-4630 4639 0
-199 -4630 4631 0
-4631 4640 0
-200 -4631 4632 0
-4632 4641 0
-201 -4632 4633 0
-4633 4642 0
-202 -4633 4634 0
-4634 4643 0
-203 -4634 0
-195 4635 0
-4635 4644 0
-196 -4635 4636 0
-4636 4645 0
-197 -4636 4637 0
-4637 4646 0
-198 -4637 4638 0
-4638 4647 0
-199 -4638 4639 0
-4639 4648 0
-200 -4639 4640 0
-4640 4649 0
-201 -4640 4641 0
-4641 4650 0
-202 -4641 4642 0
-4642 4651 0
-203 -4642 4643 0
-4643 4652 0
-204 -4643 0
-196 4644 0
-4644 4653 0
-197 -4644 4645 0
-4645 4654 0
-198 -4645 4646 0
-4646 4655 0
-199 -4646 4647 0
-4647 4656 0
-200 -4647 4648 0
-4648 4657 0
-201 -4648 4649 0
-4649 4658 0
-202 -4649 4650 0
-4650 4659 0
-203 -4650 4651 0
-4651 4660 0
-204 -4651 4652 0
-4652 4661 0
-205 -4652 0
-197 4653 0
-4653 4662 0
-198 -4653 4654 0
-4654 4663 0
-199 -4654 4655 0
-4655 4664 0
-200 -4655 4656 0
-4656 4665 0
-201 -4656 4657 0
-4657 4666 0
-202 -4657 4658 0
-4658 4667 0
-203 -4658 4659 0
-4659 4668 0
-204 -4659 4660 0
-4660 4669 0
-205 -4660 4661 0
-4661 4670 0
-206 -4661 0
-198 4662 0
-4662 4671 0
-199 -4662 4663 0
-4663 4672 0
-200 -4663 4664 0
-4664 4673 0
-201 -4664 4665 0
-4665 4674 0
-202 -4665 4666 0
-4666 4675 0
-203 -4666 4667 0
-4667 4676 0
-204 -4667 4668 0
-4668 4677 0
-205 -4668 4669 0
-4669 4678 0
-206 -4669 4670 0
-4670 4679 0
-207 -4670 0
-199 4671 0
-4671 4680 0
-200 -4671 4672 0
-4672 4681 0
-201 -4672 4673 0
-4673 4682 0
-202 -4673 4674 0
-4674 4683 0
-203 -4674 4675 0
-4675 4684 0
-204 -4675 4676 0
-4676 4685 0
-205 -4676 4677 0
-4677 4686 0
-206 -4677 4678 0
-4678 4687 0
-207 -4678 4679 0
-4679 4688 0
-208 -4679 0
-200 4680 0
-4680 4689 0
-201 -4680 4681 0
-4681 4690 0
-202 -4681 4682 0
-4682 4691 0
-203 -4682 4683 0
-4683 4692 0
-204 -4683 4684 0
-4684 4693 0
-205 -4684 4685 0
-4685 4694 0
-206 -4685 4686 0
-4686 4695 0
-207 -4686 4687 0
-4687 4696 0
-208 -4687 4688 0
-4688 4697 0
-209 -4688 0
-201 4689 0
-4689 4698 0
-202 -4689 4690 0
-4690 4699 0
-203 -4690 4691 0
-4691 4700 0
-204 -4691 4692 0
-4692 4701 0
-205 -4692 4693 0
-4693 4702 0
-206 -4693 4694 0
-4694 4703 0
-207 -4694 4695 0
-4695 4704 0
-208 -4695 4696 0
-4696 4705 0
-209 -4696 4697 0
-4697 4706 0
-210 -4697 0
-202 4698 0
-4698 4707 0
-203 -4698 4699 0
-4699 4708 0
-204 -4699 4700 0
-4700 4709 0
-205 -4700 4701 0
-4701 4710 0
-206 -4701 4702 0
-4702 4711 0
-207 -4702 4703 0
-4703 4712 0
-208 -4703 4704 0
-4704 4713 0
-209 -4704 4705 0
-4705 4714 0
-210 -4705 4706 0
-4706 4715 0
-211 -4706 0
-203 4707 0
-4707 4716 0
-204 -4707 4708 0
-4708 4717 0
-205 -4708 4709 0
-4709 4718 0
-206 -4709 4710 0
-4710 4719 0
-207 -4710 4711 0
-4711 4720 0
-208 -4711 4712 0
-4712 4721 0
-209 -4712 4713 0
-4713 4722 0
-210 -4713 4714 0
-4714 4723 0
-211 -4714 4715 0
-4715 4724 0
-212 -4715 0
-204 4716 0
-4716 4725 0
-205 -4716 4717 0
-4717 4726 0
-206 -4717 4718 0
-4718 4727 0
-207 -4718 4719 0
-4719 4728 0
-208 -4719 4720 0
-4720 4729 0
-209 -4720 4721 0
-4721 4730 0
-210 -4721 4722 0
-4722 4731 0
-211 -4722 4723 0
-4723 4732 0
-212 -4723 4724 0
-4724 4733 0
-213 -4724 0
-205 4725 0
-4725 4734 0
-206 -4725 4726 0
-4726 4735 0
-207 -4726 4727 0
-4727 4736 0
-208 -4727 4728 0
-4728 4737 0
-209 -4728 4729 0
-4729 4738 0
-210 -4729 4730 0
-4730 4739 0
-211 -4730 4731 0
-4731 4740 0
-212 -4731 4732 0
-4732 4741 0
-213 -4732 4733 0
-4733 4742 0
-214 -4733 0
-206 4734 0
-4734 4743 0
-207 -4734 4735 0
-4735 4744 0
-208 -4735 4736 0
-4736 4745 0
-209 -4736 4737 0
-4737 4746 0
-210 -4737 4738 0
-4738 4747 0
-211 -4738 4739 0
-4739 4748 0
-212 -4739 4740 0
-4740 4749 0
-213 -4740 4741 0
-4741 4750 0
-214 -4741 4742 0
-4742 4751 0
-215 -4742 0
-207 4743 0
-4743 4752 0
-208 -4743 4744 0
-4744 4753 0
-209 -4744 4745 0
-4745 4754 0
-210 -4745 4746 0
-4746 4755 0
-211 -4746 4747 0
-4747 4756 0
-212 -4747 4748 0
-4748 4757 0
-213 -4748 4749 0
-4749 4758 0
-214 -4749 4750 0
-4750 4759 0
-215 -4750 4751 0
-4751 4760 0
-216 -4751 0
-208 4752 0
-4752 4761 0
-209 -4752 4753 0
-4753 4762 0
-210 -4753 4754 0
-4754 4763 0
-211 -4754 4755 0
-4755 4764 0
-212 -4755 4756 0
-4756 4765 0
-213 -4756 4757 0
-4757 4766 0
-214 -4757 4758 0
-4758 4767 0
-215 -4758 4759 0
-4759 4768 0
-216 -4759 4760 0
-4760 4769 0
-217 -4760 0
-209 4761 0
-4761 4770 0
-210 -4761 4762 0
-4762 4771 0
-211 -4762 4763 0
-4763 4772 0
-212 -4763 4764 0
-4764 4773 0
-213 -4764 4765 0
-4765 4774 0
-214 -4765 4766 0
-4766 4775 0
-215 -4766 4767 0
-4767 4776 0
-216 -4767 4768 0
-4768 4777 0
-217 -4768 4769 0
-4769 4778 0
-218 -4769 0
-210 4770 0
-4770 4779 0
-211 -4770 4771 0
-4771 4780 0
-212 -4771 4772 0
-4772 4781 0
-213 -4772 4773 0
-4773 4782 0
-214 -4773 4774 0
-4774 4783 0
-215 -4774 4775 0
-4775 4784 0
-216 -4775 4776 0
-4776 4785 0
-217 -4776 4777 0
-4777 4786 0
-218 -4777 4778 0
-4778 4787 0
-219 -4778 0
-211 4779 0
-4779 4788 0
-212 -4779 4780 0
-4780 4789 0
-213 -4780 4781 0
-4781 4790 0
-214 -4781 4782 0
-4782 4791 0
-215 -4782 4783 0
-4783 4792 0
-216 -4783 4784 0
-4784 4793 0
-217 -4784 4785 0
-4785 4794 0
-218 -4785 4786 0
-4786 4795 0
-219 -4786 4787 0
-4787 4796 0
-220 -4787 0
-212 4788 0
-4788 4797 0
-213 -4788 4789 0
-4789 4798 0
-214 -4789 4790 0
-4790 4799 0
-215 -4790 4791 0
-4791 4800 0
-216 -4791 4792 0
-4792 4801 0
-217 -4792 4793 0
-4793 4802 0
-218 -4793 4794 0
-4794 4803 0
-219 -4794 4795 0
-4795 4804 0
-220 -4795 4796 0
-4796 4805 0
-221 -4796 0
-213 4797 0
-4797 4806 0
-214 -4797 4798 0
-4798 4807 0
-215 -4798 4799 0
-4799 4808 0
-216 -4799 4800 0
-4800 4809 0
-217 -4800 4801 0
-4801 4810 0
-218 -4801 4802 0
-4802 4811 0
-219 -4802 4803 0
-4803 4812 0
-220 -4803 4804 0
-4804 4813 0
-221 -4804 4805 0
-4805 4814 0
-222 -4805 0
-214 4806 0
-4806 4815 0
-215 -4806 4807 0
-4807 4816 0
-216 -4807 4808 0
-4808 4817 0
-217 -4808 4809 0
-4809 4818 0
-218 -4809 4810 0
-4810 4819 0
-219 -4810 4811 0
-4811 4820 0
-220 -4811 4812 0
-4812 4821 0
-221 -4812 4813 0
-4813 4822 0
-222 -4813 4814 0
-4814 4823 0
-223 -4814 0
-215 4815 0
-4815 4824 0
-216 -4815 4816 0
-4816 4825 0
-217 -4816 4817 0
-4817 4826 0
-218 -4817 4818 0
-4818 4827 0
-219 -4818 4819 0
-4819 4828 0
-220 -4819 4820 0
-4820 4829 0
-221 -4820 4821 0
-4821 4830 0
-222 -4821 4822 0
-4822 4831 0
-223 -4822 4823 0
-4823 4832 0
-224 -4823 0
-216 4824 0
-4824 4833 0
-217 -4824 4825 0
-4825 4834 0
-218 -4825 4826 0
-4826 4835 0
-219 -4826 4827 0
-4827 4836 0
-220 -4827 4828 0
-4828 4837 0
-221 -4828 4829 0
-4829 4838 0
-222 -4829 4830 0
-4830 4839 0
-223 -4830 4831 0
-4831 4840 0
-224 -4831 4832 0
-4832 4841 0
-225 -4832 0
-217 4833 0
-4833 4842 0
-218 -4833 4834 0
-4834 4843 0
-219 -4834 4835 0
-4835 4844 0
-220 -4835 4836 0
-4836 4845 0
-221 -4836 4837 0
-4837 4846 0
-222 -4837 4838 0
-4838 4847 0
-223 -4838 4839 0
-4839 4848 0
-224 -4839 4840 0
-4840 4849 0
-225 -4840 4841 0
-4841 4850 0
-226 -4841 0
-218 4842 0
-4842 4851 0
-219 -4842 4843 0
-4843 4852 0
-220 -4843 4844 0
-4844 4853 0
-221 -4844 4845 0
-4845 4854 0
-222 -4845 4846 0
-4846 4855 0
-223 -4846 4847 0
-4847 4856 0
-224 -4847 4848 0
-4848 4857 0
-225 -4848 4849 0
-4849 4858 0
-226 -4849 4850 0
-4850 4859 0
-227 -4850 0
-219 4851 0
-4851 4860 0
-220 -4851 4852 0
-4852 4861 0
-221 -4852 4853 0
-4853 4862 0
-222 -4853 4854 0
-4854 4863 0
-223 -4854 4855 0
-4855 4864 0
-224 -4855 4856 0
-4856 4865 0
-225 -4856 4857 0
-4857 4866 0
-226 -4857 4858 0
-4858 4867 0
-227 -4858 4859 0
-4859 4868 0
-228 -4859 0
-220 4860 0
-4860 4869 0
-221 -4860 4861 0
-4861 4870 0
-222 -4861 4862 0
-4862 4871 0
-223 -4862 4863 0
-4863 4872 0
-224 -4863 4864 0
-4864 4873 0
-225 -4864 4865 0
-4865 4874 0
-226 -4865 4866 0
-4866 4875 0
-227 -4866 4867 0
-4867 4876 0
-228 -4867 4868 0
-4868 4877 0
-229 -4868 0
-221 4869 0
-4869 4878 0
-222 -4869 4870 0
-4870 4879 0
-223 -4870 4871 0
-4871 4880 0
-224 -4871 4872 0
-4872 4881 0
-225 -4872 4873 0
-4873 4882 0
-226 -4873 4874 0
-4874 4883 0
-227 -4874 4875 0
-4875 4884 0
-228 -4875 4876 0
-4876 4885 0
-229 -4876 4877 0
-4877 4886 0
-230 -4877 0
-222 4878 0
-4878 4887 0
-223 -4878 4879 0
-4879 4888 0
-224 -4879 4880 0
-4880 4889 0
-225 -4880 4881 0
-4881 4890 0
-226 -4881 4882 0
-4882 4891 0
-227 -4882 4883 0
-4883 4892 0
-228 -4883 4884 0
-4884 4893 0
-229 -4884 4885 0
-4885 4894 0
-230 -4885 4886 0
-4886 4895 0
-231 -4886 0
-223 4887 0
-4887 4896 0
-224 -4887 4888 0
-4888 4897 0
-225 -4888 4889 0
-4889 4898 0
-226 -4889 4890 0
-4890 4899 0
-227 -4890 4891 0
-4891 4900 0
-228 -4891 4892 0
-4892 4901 0
-229 -4892 4893 0
-4893 4902 0
-230 -4893 4894 0
-4894 4903 0
-231 -4894 4895 0
-4895 4904 0
-232 -4895 0
-224 4896 0
-4896 4905 0
-225 -4896 4897 0
-4897 4906 0
-226 -4897 4898 0
-4898 4907 0
-227 -4898 4899 0
-4899 4908 0
-228 -4899 4900 0
-4900 4909 0
-229 -4900 4901 0
-4901 4910 0
-230 -4901 4902 0
-4902 4911 0
-231 -4902 4903 0
-4903 4912 0
-232 -4903 4904 0
-4904 4913 0
-233 -4904 0
-225 4905 0
-4905 4914 0
-226 -4905 4906 0
-4906 4915 0
-227 -4906 4907 0
-4907 4916 0
-228 -4907 4908 0
-4908 4917 0
-229 -4908 4909 0
-4909 4918 0
-230 -4909 4910 0
-4910 4919 0
-231 -4910 4911 0
-4911 4920 0
-232 -4911 4912 0
-4912 4921 0
-233 -4912 4913 0
-4913 4922 0
-234 -4913 0
-226 4914 0
-4914 4923 0
-227 -4914 4915 0
-4915 4924 0
-228 -4915 4916 0
-4916 4925 0
-229 -4916 4917 0
-4917 4926 0
-230 -4917 4918 0
-4918 4927 0
-231 -4918 4919 0
-4919 4928 0
-232 -4919 4920 0
-4920 4929 0
-233 -4920 4921 0
-4921 4930 0
-234 -4921 4922 0
-4922 4931 0
-235 -4922 0
-227 4923 0
-4923 4932 0
-228 -4923 4924 0
-4924 4933 0
-229 -4924 4925 0
-4925 4934 0
-230 -4925 4926 0
-4926 4935 0
-231 -4926 4927 0
-4927 4936 0
-232 -4927 4928 0
-4928 4937 0
-233 -4928 4929 0
-4929 4938 0
-234 -4929 4930 0
-4930 4939 0
-235 -4930 4931 0
-4931 4940 0
-236 -4931 0
-228 4932 0
-4932 4941 0
-229 -4932 4933 0
-4933 4942 0
-230 -4933 4934 0
-4934 4943 0
-231 -4934 4935 0
-4935 4944 0
-232 -4935 4936 0
-4936 4945 0
-233 -4936 4937 0
-4937 4946 0
-234 -4937 4938 0
-4938 4947 0
-235 -4938 4939 0
-4939 4948 0
-236 -4939 4940 0
-4940 4949 0
-237 -4940 0
-229 4941 0
-4941 4950 0
-230 -4941 4942 0
-4942 4951 0
-231 -4942 4943 0
-4943 4952 0
-232 -4943 4944 0
-4944 4953 0
-233 -4944 4945 0
-4945 4954 0
-234 -4945 4946 0
-4946 4955 0
-235 -4946 4947 0
-4947 4956 0
-236 -4947 4948 0
-4948 4957 0
-237 -4948 4949 0
-4949 4958 0
-238 -4949 0
-230 4950 0
-4950 4959 0
-231 -4950 4951 0
-4951 4960 0
-232 -4951 4952 0
-4952 4961 0
-233 -4952 4953 0
-4953 4962 0
-234 -4953 4954 0
-4954 4963 0
-235 -4954 4955 0
-4955 4964 0
-236 -4955 4956 0
-4956 4965 0
-237 -4956 4957 0
-4957 4966 0
-238 -4957 4958 0
-4958 4967 0
-239 -4958 0
-231 4959 0
-4959 4968 0
-232 -4959 4960 0
-4960 4969 0
-233 -4960 4961 0
-4961 4970 0
-234 -4961 4962 0
-4962 4971 0
-235 -4962 4963 0
-4963 4972 0
-236 -4963 4964 0
-4964 4973 0
-237 -4964 4965 0
-4965 4974 0
-238 -4965 4966 0
-4966 4975 0
-239 -4966 4967 0
-4967 4976 0
-240 -4967 0
-232 4968 0
-4968 4977 0
-233 -4968 4969 0
-4969 4978 0
-234 -4969 4970 0
-4970 4979 0
-235 -4970 4971 0
-4971 4980 0
-236 -4971 4972 0
-4972 4981 0
-237 -4972 4973 0
-4973 4982 0
-238 -4973 4974 0
-4974 4983 0
-239 -4974 4975 0
-4975 4984 0
-240 -4975 4976 0
-4976 4985 0
-241 -4976 0
-233 4977 0
-4977 4986 0
-234 -4977 4978 0
-4978 4987 0
-235 -4978 4979 0
-4979 4988 0
-236 -4979 4980 0
-4980 4989 0
-237 -4980 4981 0
-4981 4990 0
-238 -4981 4982 0
-4982 4991 0
-239 -4982 4983 0
-4983 4992 0
-240 -4983 4984 0
-4984 4993 0
-241 -4984 4985 0
-4985 4994 0
-242 -4985 0
-234 4986 0
-4986 4995 0
-235 -4986 4987 0
-4987 4996 0
-236 -4987 4988 0
-4988 4997 0
-237 -4988 4989 0
-4989 4998 0
-238 -4989 4990 0
-4990 4999 0
-239 -4990 4991 0
-4991 5000 0
-240 -4991 4992 0
-4992 5001 0
-241 -4992 4993 0
-4993 5002 0
-242 -4993 4994 0
-4994 5003 0
-243 -4994 0
-235 4995 0
-4995 5004 0
-236 -4995 4996 0
-4996 5005 0
-237 -4996 4997 0
-4997 5006 0
-238 -4997 4998 0
-4998 5007 0
-239 -4998 4999 0
-4999 5008 0
-240 -4999 5000 0
-5000 5009 0
-241 -5000 5001 0
-5001 5010 0
-242 -5001 5002 0
-5002 5011 0
-243 -5002 5003 0
-5003 5012 0
-244 -5003 0
-236 5004 0
-5004 5013 0
-237 -5004 5005 0
-5005 5014 0
-238 -5005 5006 0
-5006 5015 0
-239 -5006 5007 0
-5007 5016 0
-240 -5007 5008 0
-5008 5017 0
-241 -5008 5009 0
-5009 5018 0
-242 -5009 5010 0
-5010 5019 0
-243 -5010 5011 0
-5011 5020 0
-244 -5011 5012 0
-5012 5021 0
-245 -5012 0
-237 5013 0
-5013 5022 0
-238 -5013 5014 0
-5014 5023 0
-239 -5014 5015 0
-5015 5024 0
-240 -5015 5016 0
-5016 5025 0
-241 -5016 5017 0
-5017 5026 0
-242 -5017 5018 0
-5018 5027 0
-243 -5018 5019 0
-5019 5028 0
-244 -5019 5020 0
-5020 5029 0
-245 -5020 5021 0
-5021 5030 0
-246 -5021 0
-238 5022 0
-5022 5031 0
-239 -5022 5023 0
-5023 5032 0
-240 -5023 5024 0
-5024 5033 0
-241 -5024 5025 0
-5025 5034 0
-242 -5025 5026 0
-5026 5035 0
-243 -5026 5027 0
-5027 5036 0
-244 -5027 5028 0
-5028 5037 0
-245 -5028 5029 0
-5029 5038 0
-246 -5029 5030 0
-5030 5039 0
-247 -5030 0
-239 5031 0
-5031 5040 0
-240 -5031 5032 0
-5032 5041 0
-241 -5032 5033 0
-5033 5042 0
-242 -5033 5034 0
-5034 5043 0
-243 -5034 5035 0
-5035 5044 0
-244 -5035 5036 0
-5036 5045 0
-245 -5036 5037 0
-5037 5046 0
-246 -5037 5038 0
-5038 5047 0
-247 -5038 5039 0
-5039 5048 0
-248 -5039 0
-240 5040 0
-5040 5049 0
-241 -5040 5041 0
-5041 5050 0
-242 -5041 5042 0
-5042 5051 0
-243 -5042 5043 0
-5043 5052 0
-244 -5043 5044 0
-5044 5053 0
-245 -5044 5045 0
-5045 5054 0
-246 -5045 5046 0
-5046 5055 0
-247 -5046 5047 0
-5047 5056 0
-248 -5047 5048 0
-5048 5057 0
-249 -5048 0
-241 5049 0
-5049 5058 0
-242 -5049 5050 0
-5050 5059 0
-243 -5050 5051 0
-5051 5060 0
-244 -5051 5052 0
-5052 5061 0
-245 -5052 5053 0
-5053 5062 0
-246 -5053 5054 0
-5054 5063 0
-247 -5054 5055 0
-5055 5064 0
-248 -5055 5056 0
-5056 5065 0
-249 -5056 5057 0
-5057 5066 0
-250 -5057 0
-242 5058 0
-5058 5067 0
-243 -5058 5059 0
-5059 5068 0
-244 -5059 5060 0
-5060 5069 0
-245 -5060 5061 0
-5061 5070 0
-246 -5061 5062 0
-5062 5071 0
-247 -5062 5063 0
-5063 5072 0
-248 -5063 5064 0
-5064 5073 0
-249 -5064 5065 0
-5065 5074 0
-250 -5065 5066 0
-5066 5075 0
-251 -5066 0
-243 5067 0
-5067 5076 0
-244 -5067 5068 0
-5068 5077 0
-245 -5068 5069 0
-5069 5078 0
-246 -5069 5070 0
-5070 5079 0
-247 -5070 5071 0
-5071 5080 0
-248 -5071 5072 0
-5072 5081 0
-249 -5072 5073 0
-5073 5082 0
-250 -5073 5074 0
-5074 5083 0
-251 -5074 5075 0
-5075 5084 0
-252 -5075 0
-244 5076 0
-5076 5085 0
-245 -5076 5077 0
-5077 5086 0
-246 -5077 5078 0
-5078 5087 0
-247 -5078 5079 0
-5079 5088 0
-248 -5079 5080 0
-5080 5089 0
-249 -5080 5081 0
-5081 5090 0
-250 -5081 5082 0
-5082 5091 0
-251 -5082 5083 0
-5083 5092 0
-252 -5083 5084 0
-5084 5093 0
-253 -5084 0
-245 5085 0
-5085 5094 0
-246 -5085 5086 0
-5086 5095 0
-247 -5086 5087 0
-5087 5096 0
-248 -5087 5088 0
-5088 5097 0
-249 -5088 5089 0
-5089 5098 0
-250 -5089 5090 0
-5090 5099 0
-251 -5090 5091 0
-5091 5100 0
-252 -5091 5092 0
-5092 5101 0
-253 -5092 5093 0
-5093 5102 0
-254 -5093 0
-246 5094 0
-5094 5103 0
-247 -5094 5095 0
-5095 5104 0
-248 -5095 5096 0
-5096 5105 0
-249 -5096 5097 0
-5097 5106 0
-250 -5097 5098 0
-5098 5107 0
-251 -5098 5099 0
-5099 5108 0
-252 -5099 5100 0
-5100 5109 0
-253 -5100 5101 0
-5101 5110 0
-254 -5101 5102 0
-5102 5111 0
-255 -5102 0
-247 5103 0
-5103 5112 0
-248 -5103 5104 0
-5104 5113 0
-249 -5104 5105 0
-5105 5114 0
-250 -5105 5106 0
-5106 5115 0
-251 -5106 5107 0
-5107 5116 0
-252 -5107 5108 0
-5108 5117 0
-253 -5108 5109 0
-5109 5118 0
-254 -5109 5110 0
-5110 5119 0
-255 -5110 5111 0
-5111 5120 0
-256 -5111 0
-248 5112 0
-5112 5121 0
-249 -5112 5113 0
-5113 5122 0
-250 -5113 5114 0
-5114 5123 0
-251 -5114 5115 0
-5115 5124 0
-252 -5115 5116 0
-5116 5125 0
-253 -5116 5117 0
-5117 5126 0
-254 -5117 5118 0
-5118 5127 0
-255 -5118 5119 0
-5119 5128 0
-256 -5119 5120 0
-5120 5129 0
-257 -5120 0
-249 5121 0
-5121 5130 0
-250 -5121 5122 0
-5122 5131 0
-251 -5122 5123 0
-5123 5132 0
-252 -5123 5124 0
-5124 5133 0
-253 -5124 5125 0
-5125 5134 0
-254 -5125 5126 0
-5126 5135 0
-255 -5126 5127 0
-5127 5136 0
-256 -5127 5128 0
-5128 5137 0
-257 -5128 5129 0
-5129 5138 0
-258 -5129 0
-250 5130 0
-5130 5139 0
-251 -5130 5131 0
-5131 5140 0
-252 -5131 5132 0
-5132 5141 0
-253 -5132 5133 0
-5133 5142 0
-254 -5133 5134 0
-5134 5143 0
-255 -5134 5135 0
-5135 5144 0
-256 -5135 5136 0
-5136 5145 0
-257 -5136 5137 0
-5137 5146 0
-258 -5137 5138 0
-5138 5147 0
-259 -5138 0
-251 5139 0
-5139 5148 0
-252 -5139 5140 0
-5140 5149 0
-253 -5140 5141 0
-5141 5150 0
-254 -5141 5142 0
-5142 5151 0
-255 -5142 5143 0
-5143 5152 0
-256 -5143 5144 0
-5144 5153 0
-257 -5144 5145 0
-5145 5154 0
-258 -5145 5146 0
-5146 5155 0
-259 -5146 5147 0
-5147 5156 0
-260 -5147 0
-252 5148 0
-5148 5157 0
-253 -5148 5149 0
-5149 5158 0
-254 -5149 5150 0
-5150 5159 0
-255 -5150 5151 0
-5151 5160 0
-256 -5151 5152 0
-5152 5161 0
-257 -5152 5153 0
-5153 5162 0
-258 -5153 5154 0
-5154 5163 0
-259 -5154 5155 0
-5155 5164 0
-260 -5155 5156 0
-5156 5165 0
-261 -5156 0
-253 5157 0
-5157 5166 0
-254 -5157 5158 0
-5158 5167 0
-255 -5158 5159 0
-5159 5168 0
-256 -5159 5160 0
-5160 5169 0
-257 -5160 5161 0
-5161 5170 0
-258 -5161 5162 0
-5162 5171 0
-259 -5162 5163 0
-5163 5172 0
-260 -5163 5164 0
-5164 5173 0
-261 -5164 5165 0
-5165 5174 0
-262 -5165 0
-254 5166 0
-5166 5175 0
-255 -5166 5167 0
-5167 5176 0
-256 -5167 5168 0
-5168 5177 0
-257 -5168 5169 0
-5169 5178 0
-258 -5169 5170 0
-5170 5179 0
-259 -5170 5171 0
-5171 5180 0
-260 -5171 5172 0
-5172 5181 0
-261 -5172 5173 0
-5173 5182 0
-262 -5173 5174 0
-5174 5183 0
-263 -5174 0
-255 5175 0
-5175 5184 0
-256 -5175 5176 0
-5176 5185 0
-257 -5176 5177 0
-5177 5186 0
-258 -5177 5178 0
-5178 5187 0
-259 -5178 5179 0
-5179 5188 0
-260 -5179 5180 0
-5180 5189 0
-261 -5180 5181 0
-5181 5190 0
-262 -5181 5182 0
-5182 5191 0
-263 -5182 5183 0
-5183 5192 0
-264 -5183 0
-256 5184 0
-5184 5193 0
-257 -5184 5185 0
-5185 5194 0
-258 -5185 5186 0
-5186 5195 0
-259 -5186 5187 0
-5187 5196 0
-260 -5187 5188 0
-5188 5197 0
-261 -5188 5189 0
-5189 5198 0
-262 -5189 5190 0
-5190 5199 0
-263 -5190 5191 0
-5191 5200 0
-264 -5191 5192 0
-5192 5201 0
-265 -5192 0
-257 5193 0
-5193 5202 0
-258 -5193 5194 0
-5194 5203 0
-259 -5194 5195 0
-5195 5204 0
-260 -5195 5196 0
-5196 5205 0
-261 -5196 5197 0
-5197 5206 0
-262 -5197 5198 0
-5198 5207 0
-263 -5198 5199 0
-5199 5208 0
-264 -5199 5200 0
-5200 5209 0
-265 -5200 5201 0
-5201 5210 0
-266 -5201 0
-258 5202 0
-5202 5211 0
-259 -5202 5203 0
-5203 5212 0
-260 -5203 5204 0
-5204 5213 0
-261 -5204 5205 0
-5205 5214 0
-262 -5205 5206 0
-5206 5215 0
-263 -5206 5207 0
-5207 5216 0
-264 -5207 5208 0
-5208 5217 0
-265 -5208 5209 0
-5209 5218 0
-266 -5209 5210 0
-5210 5219 0
-267 -5210 0
-259 5211 0
-5211 5220 0
-260 -5211 5212 0
-5212 5221 0
-261 -5212 5213 0
-5213 5222 0
-262 -5213 5214 0
-5214 5223 0
-263 -5214 5215 0
-5215 5224 0
-264 -5215 5216 0
-5216 5225 0
-265 -5216 5217 0
-5217 5226 0
-266 -5217 5218 0
-5218 5227 0
-267 -5218 5219 0
-5219 5228 0
-268 -5219 0
-260 5220 0
-5220 5229 0
-261 -5220 5221 0
-5221 5230 0
-262 -5221 5222 0
-5222 5231 0
-263 -5222 5223 0
-5223 5232 0
-264 -5223 5224 0
-5224 5233 0
-265 -5224 5225 0
-5225 5234 0
-266 -5225 5226 0
-5226 5235 0
-267 -5226 5227 0
-5227 5236 0
-268 -5227 5228 0
-5228 5237 0
-269 -5228 0
-261 5229 0
-5229 5238 0
-262 -5229 5230 0
-5230 5239 0
-263 -5230 5231 0
-5231 5240 0
-264 -5231 5232 0
-5232 5241 0
-265 -5232 5233 0
-5233 5242 0
-266 -5233 5234 0
-5234 5243 0
-267 -5234 5235 0
-5235 5244 0
-268 -5235 5236 0
-5236 5245 0
-269 -5236 5237 0
-5237 5246 0
-270 -5237 0
-262 5238 0
-5238 5247 0
-263 -5238 5239 0
-5239 5248 0
-264 -5239 5240 0
-5240 5249 0
-265 -5240 5241 0
-5241 5250 0
-266 -5241 5242 0
-5242 5251 0
-267 -5242 5243 0
-5243 5252 0
-268 -5243 5244 0
-5244 5253 0
-269 -5244 5245 0
-5245 5254 0
-270 -5245 5246 0
-5246 5255 0
-271 -5246 0
-263 5247 0
-264 -5247 5248 0
-265 -5248 5249 0
-266 -5249 5250 0
-267 -5250 5251 0
-268 -5251 5252 0
-269 -5252 5253 0
-270 -5253 5254 0
-271 -5254 5255 0
-272 -5255 0
1 69 0
