p cnf 8523 17453
-213 -1 0
-213 2 106 107 0
-2 1 213 0
-106 1 213 0
-107 1 213 0
-214 -2 0
-214 1 3 108 0
-1 2 214 0
-3 2 214 0
-108 2 214 0
-215 -3 0
-215 2 4 109 0
-2 3 215 0
-4 3 215 0
-109 3 215 0
-216 -4 0
-216 3 5 110 0
-3 4 216 0
-5 4 216 0
-110 4 216 0
-217 -5 0
-217 4 6 111 0
-4 5 217 0
-6 5 217 0
-111 5 217 0
-218 -6 0
-218 5 7 112 0
-5 6 218 0
-7 6 218 0
-112 6 218 0
-219 -7 0
-219 6 8 113 0
-6 7 219 0
-8 7 219 0
-113 7 219 0
-220 -8 0
-220 7 9 114 0
-7 8 220 0
-9 8 220 0
-114 8 220 0
-221 -9 0
-221 8 10 115 0
-8 9 221 0
-10 9 221 0
-115 9 221 0
-222 -10 0
-222 9 11 116 0
-9 10 222 0
-11 10 222 0
-116 10 222 0
-223 -11 0
-223 10 12 117 0
-10 11 223 0
-12 11 223 0
-117 11 223 0
-224 -12 0
-224 11 13 118 0
-11 12 224 0
-13 12 224 0
-118 12 224 0
-225 -13 0
-225 12 14 119 0
-12 13 225 0
-14 13 225 0
-119 13 225 0
-226 -14 0
-226 13 15 120 0
-13 14 226 0
-15 14 226 0
-120 14 226 0
-227 -15 0
-227 14 16 121 0
-14 15 227 0
-16 15 227 0
-121 15 227 0
-228 -16 0
-228 15 17 122 0
-15 16 228 0
-17 16 228 0
-122 16 228 0
-229 -17 0
-229 16 18 123 0
-16 17 229 0
-18 17 229 0
-123 17 229 0
-230 -18 0
-230 17 19 124 0
-17 18 230 0
-19 18 230 0
-124 18 230 0
-231 -19 0
-231 18 20 125 0
-18 19 231 0
-20 19 231 0
-125 19 231 0
-232 -20 0
-232 19 21 126 0
-19 20 232 0
-21 20 232 0
-126 20 232 0
-233 -21 0
-233 20 22 127 0
-20 21 233 0
-22 21 233 0
-127 21 233 0
-234 -22 0
-234 21 23 128 0
-21 22 234 0
-23 22 234 0
-128 22 234 0
-235 -23 0
-235 22 24 129 0
-22 23 235 0
-24 23 235 0
-129 23 235 0
-236 -24 0
-236 23 25 130 0
-23 24 236 0
-25 24 236 0
-130 24 236 0
-237 -25 0
-237 24 26 131 0
-24 25 237 0
-26 25 237 0
-131 25 237 0
-238 -26 0
-238 25 27 132 0
-25 26 238 0
-27 26 238 0
-132 26 238 0
-239 -27 0
-239 26 28 133 0
-26 27 239 0
-28 27 239 0
-133 27 239 0
-240 -28 0
-240 27 29 134 0
-27 28 240 0
-29 28 240 0
-134 28 240 0
-241 -29 0
-241 28 30 135 0
-28 29 241 0
-30 29 241 0
-135 29 241 0
-242 -30 0
-242 29 31 136 0
-29 30 242 0
-31 30 242 0
-136 30 242 0
-243 -31 0
-243 30 32 137 0
-30 31 243 0
-32 31 243 0
-137 31 243 0
-244 -32 0
-244 31 33 138 0
-31 32 244 0
-33 32 244 0
-138 32 244 0
-245 -33 0
-245 32 34 139 0
-32 33 245 0
-34 33 245 0
-139 33 245 0
-246 -34 0
-246 33 35 140 0
-33 34 246 0
-35 34 246 0
-140 34 246 0
-247 -35 0
-247 34 36 141 0
-34 35 247 0
-36 35 247 0
-141 35 247 0
-248 -36 0
-248 35 37 142 0
-35 36 248 0
-37 36 248 0
-142 36 248 0
-249 -37 0
-249 36 38 143 0
-36 37 249 0
-38 37 249 0
-143 37 249 0
-250 -38 0
-250 37 39 144 0
-37 38 250 0
-39 38 250 0
-144 38 250 0
-251 -39 0
-251 38 40 145 0
-38 39 251 0
-40 39 251 0
-145 39 251 0
-252 -40 0
-252 39 41 146 0
-39 40 252 0
-41 40 252 0
-146 40 252 0
-253 -41 0
-253 40 42 147 0
-40 41 253 0
-42 41 253 0
-147 41 253 0
-254 -42 0
-254 41 43 148 0
-41 42 254 0
-43 42 254 0
-148 42 254 0
-255 -43 0
-255 42 44 149 0
-42 43 255 0
-44 43 255 0
-149 43 255 0
-256 -44 0
-256 43 45 150 0
-43 44 256 0
-45 44 256 0
-150 44 256 0
-257 -45 0
-257 44 46 151 0
-44 45 257 0
-46 45 257 0
-151 45 257 0
-258 -46 0
-258 45 47 152 0
-45 46 258 0
-47 46 258 0
-152 46 258 0
-259 -47 0
-259 46 48 153 0
-46 47 259 0
-48 47 259 0
-153 47 259 0
-260 -48 0
-260 47 49 154 0
-47 48 260 0
-49 48 260 0
-154 48 260 0
-261 -49 0
-261 48 50 155 0
-48 49 261 0
-50 49 261 0
-155 49 261 0
-262 -50 0
-262 49 51 156 0
-49 50 262 0
-51 50 262 0
-156 50 262 0
-263 -51 0
-263 50 52 157 0
-50 51 263 0
-52 51 263 0
-157 51 263 0
-264 -52 0
-264 51 53 158 0
-51 52 264 0
-53 52 264 0
-158 52 264 0
-265 -53 0
-265 52 54 159 0
-52 53 265 0
-54 53 265 0
-159 53 265 0
-266 -54 0
-266 53 55 160 0
-53 54 266 0
-55 54 266 0
-160 54 266 0
-267 -55 0
-267 54 56 161 0
-54 55 267 0
-56 55 267 0
-161 55 267 0
-268 -56 0
-268 55 57 162 0
-55 56 268 0
-57 56 268 0
-162 56 268 0
-269 -57 0
-269 56 58 163 0
-56 57 269 0
-58 57 269 0
-163 57 269 0
-270 -58 0
-270 57 59 164 0
-57 58 270 0
-59 58 270 0
-164 58 270 0
-271 -59 0
-271 58 60 165 0
-58 59 271 0
-60 59 271 0
-165 59 271 0
-272 -60 0
-272 59 61 166 0
-59 60 272 0
-61 60 272 0
-166 60 272 0
-273 -61 0
-273 60 62 167 0
-60 61 273 0
-62 61 273 0
-167 61 273 0
-274 -62 0
-274 61 63 168 0
-61 62 274 0
-63 62 274 0
-168 62 274 0
-275 -63 0
-275 62 64 169 0
-62 63 275 0
-64 63 275 0
-169 63 275 0
-276 -64 0
-276 63 65 170 0
-63 64 276 0
-65 64 276 0
-170 64 276 0
-277 -65 0
-277 64 66 171 0
-64 65 277 0
-66 65 277 0
-171 65 277 0
-278 -66 0
-278 65 67 172 0
-65 66 278 0
-67 66 278 0
-172 66 278 0
-279 -67 0
-279 66 68 173 0
-66 67 279 0
-68 67 279 0
-173 67 279 0
-280 -68 0
-280 67 69 174 0
-67 68 280 0
-69 68 280 0
-174 68 280 0
-281 -69 0
-281 68 70 175 0
-68 69 281 0
-70 69 281 0
-175 69 281 0
-282 -70 0
-282 69 71 176 0
-69 70 282 0
-71 70 282 0
-176 70 282 0
-283 -71 0
-283 70 72 177 0
-70 71 283 0
-72 71 283 0
-177 71 283 0
-284 -72 0
-284 71 73 178 0
-71 72 284 0
-73 72 284 0
-178 72 284 0
-285 -73 0
-285 72 74 179 0
-72 73 285 0
-74 73 285 0
-179 73 285 0
-286 -74 0
-286 73 75 180 0
-73 74 286 0
-75 74 286 0
-180 74 286 0
-287 -75 0
-287 74 76 181 0
-74 75 287 0
-76 75 287 0
-181 75 287 0
-288 -76 0
-288 75 77 182 0
-75 76 288 0
-77 76 288 0
-182 76 288 0
-289 -77 0
-289 76 78 183 0
-76 77 289 0
-78 77 289 0
-183 77 289 0
-290 -78 0
-290 77 79 184 0
-77 78 290 0
-79 78 290 0
-184 78 290 0
-291 -79 0
-291 78 80 185 0
-78 79 291 0
-80 79 291 0
-185 79 291 0
-292 -80 0
-292 79 81 186 0
-79 80 292 0
-81 80 292 0
-186 80 292 0
-293 -81 0
-293 80 82 187 0
-80 81 293 0
-82 81 293 0
-187 81 293 0
-294 -82 0
-294 81 83 188 0
-81 82 294 0
-83 82 294 0
-188 82 294 0
-295 -83 0
-295 82 84 189 0
-82 83 295 0
-84 83 295 0
-189 83 295 0
-296 -84 0
-296 83 85 190 0
-83 84 296 0
-85 84 296 0
-190 84 296 0
-297 -85 0
-297 84 86 191 0
-84 85 297 0
-86 85 297 0
-191 85 297 0
-298 -86 0
-298 85 87 192 0
-85 86 298 0
-87 86 298 0
-192 86 298 0
-299 -87 0
-299 86 88 193 0
-86 87 299 0
-88 87 299 0
-193 87 299 0
-300 -88 0
-300 87 89 194 0
-87 88 300 0
-89 88 300 0
-194 88 300 0
-301 -89 0
-301 88 90 195 0
-88 89 301 0
-90 89 301 0
-195 89 301 0
-302 -90 0
-302 89 91 196 0
-89 90 302 0
-91 90 302 0
-196 90 302 0
-303 -91 0
-303 90 92 197 0
-90 91 303 0
-92 91 303 0
-197 91 303 0
-304 -92 0
-304 91 93 198 0
-91 92 304 0
-93 92 304 0
-198 92 304 0
-305 -93 0
-305 92 94 199 0
-92 93 305 0
-94 93 305 0
-199 93 305 0
-306 -94 0
-306 93 95 200 0
-93 94 306 0
-95 94 306 0
-200 94 306 0
-307 -95 0
-307 94 96 201 0
-94 95 307 0
-96 95 307 0
-201 95 307 0
-308 -96 0
-308 95 97 202 0
-95 96 308 0
-97 96 308 0
-202 96 308 0
-309 -97 0
-309 96 98 203 0
-96 97 309 0
-98 97 309 0
-203 97 309 0
-310 -98 0
-310 97 99 204 0
-97 98 310 0
-99 98 310 0
-204 98 310 0
-311 -99 0
-311 98 100 205 0
-98 99 311 0
-100 99 311 0
-205 99 311 0
-312 -100 0
-312 99 101 206 0
-99 100 312 0
-101 100 312 0
-206 100 312 0
-313 -101 0
-313 100 102 207 0
-100 101 313 0
-102 101 313 0
-207 101 313 0
-314 -102 0
-314 101 103 208 0
-101 102 314 0
-103 102 314 0
-208 102 314 0
-315 -103 0
-315 102 104 209 0
-102 103 315 0
-104 103 315 0
-209 103 315 0
-316 -104 0
-316 103 105 210 0
-103 104 316 0
-105 104 316 0
-210 104 316 0
-317 -105 0
-317 104 106 211 0
-104 105 317 0
-106 105 317 0
-211 105 317 0
-318 -106 0
-318 1 105 212 0
-1 106 318 0
-105 106 318 0
-212 106 318 0
-319 -107 0
-319 1 111 209 0
-1 107 319 0
-111 107 319 0
-209 107 319 0
-320 -108 0
-320 2 112 210 0
-2 108 320 0
-112 108 320 0
-210 108 320 0
-321 -109 0
-321 3 113 211 0
-3 109 321 0
-113 109 321 0
-211 109 321 0
-322 -110 0
-322 4 114 212 0
-4 110 322 0
-114 110 322 0
-212 110 322 0
-323 -111 0
-323 5 107 115 0
-5 111 323 0
-107 111 323 0
-115 111 323 0
-324 -112 0
-324 6 108 116 0
-6 112 324 0
-108 112 324 0
-116 112 324 0
-325 -113 0
-325 7 109 117 0
-7 113 325 0
-109 113 325 0
-117 113 325 0
-326 -114 0
-326 8 110 118 0
-8 114 326 0
-110 114 326 0
-118 114 326 0
-327 -115 0
-327 9 111 119 0
-9 115 327 0
-111 115 327 0
-119 115 327 0
-328 -116 0
-328 10 112 120 0
-10 116 328 0
-112 116 328 0
-120 116 328 0
-329 -117 0
-329 11 113 121 0
-11 117 329 0
-113 117 329 0
-121 117 329 0
-330 -118 0
-330 12 114 122 0
-12 118 330 0
-114 118 330 0
-122 118 330 0
-331 -119 0
-331 13 115 123 0
-13 119 331 0
-115 119 331 0
-123 119 331 0
-332 -120 0
-332 14 116 124 0
-14 120 332 0
-116 120 332 0
-124 120 332 0
-333 -121 0
-333 15 117 125 0
-15 121 333 0
-117 121 333 0
-125 121 333 0
-334 -122 0
-334 16 118 126 0
-16 122 334 0
-118 122 334 0
-126 122 334 0
-335 -123 0
-335 17 119 127 0
-17 123 335 0
-119 123 335 0
-127 123 335 0
-336 -124 0
-336 18 120 128 0
-18 124 336 0
-120 124 336 0
-128 124 336 0
-337 -125 0
-337 19 121 129 0
-19 125 337 0
-121 125 337 0
-129 125 337 0
-338 -126 0
-338 20 122 130 0
-20 126 338 0
-122 126 338 0
-130 126 338 0
-339 -127 0
-339 21 123 131 0
-21 127 339 0
-123 127 339 0
-131 127 339 0
-340 -128 0
-340 22 124 132 0
-22 128 340 0
-124 128 340 0
-132 128 340 0
-341 -129 0
-341 23 125 133 0
-23 129 341 0
-125 129 341 0
-133 129 341 0
-342 -130 0
-342 24 126 134 0
-24 130 342 0
-126 130 342 0
-134 130 342 0
-343 -131 0
-343 25 127 135 0
-25 131 343 0
-127 131 343 0
-135 131 343 0
-344 -132 0
-344 26 128 136 0
-26 132 344 0
-128 132 344 0
-136 132 344 0
-345 -133 0
-345 27 129 137 0
-27 133 345 0
-129 133 345 0
-137 133 345 0
-346 -134 0
-346 28 130 138 0
-28 134 346 0
-130 134 346 0
-138 134 346 0
-347 -135 0
-347 29 131 139 0
-29 135 347 0
-131 135 347 0
-139 135 347 0
-348 -136 0
-348 30 132 140 0
-30 136 348 0
-132 136 348 0
-140 136 348 0
-349 -137 0
-349 31 133 141 0
-31 137 349 0
-133 137 349 0
-141 137 349 0
-350 -138 0
-350 32 134 142 0
-32 138 350 0
-134 138 350 0
-142 138 350 0
-351 -139 0
-351 33 135 143 0
-33 139 351 0
-135 139 351 0
-143 139 351 0
-352 -140 0
-352 34 136 144 0
-34 140 352 0
-136 140 352 0
-144 140 352 0
-353 -141 0
-353 35 137 145 0
-35 141 353 0
-137 141 353 0
-145 141 353 0
-354 -142 0
-354 36 138 146 0
-36 142 354 0
-138 142 354 0
-146 142 354 0
-355 -143 0
-355 37 139 147 0
-37 143 355 0
-139 143 355 0
-147 143 355 0
-356 -144 0
-356 38 140 148 0
-38 144 356 0
-140 144 356 0
-148 144 356 0
-357 -145 0
-357 39 141 149 0
-39 145 357 0
-141 145 357 0
-149 145 357 0
-358 -146 0
-358 40 142 150 0
-40 146 358 0
-142 146 358 0
-150 146 358 0
-359 -147 0
-359 41 143 151 0
-41 147 359 0
-143 147 359 0
-151 147 359 0
-360 -148 0
-360 42 144 152 0
-42 148 360 0
-144 148 360 0
-152 148 360 0
-361 -149 0
-361 43 145 153 0
-43 149 361 0
-145 149 361 0
-153 149 361 0
-362 -150 0
-362 44 146 154 0
-44 150 362 0
-146 150 362 0
-154 150 362 0
-363 -151 0
-363 45 147 155 0
-45 151 363 0
-147 151 363 0
-155 151 363 0
-364 -152 0
-364 46 148 156 0
-46 152 364 0
-148 152 364 0
-156 152 364 0
-365 -153 0
-365 47 149 157 0
-47 153 365 0
-149 153 365 0
-157 153 365 0
-366 -154 0
-366 48 150 158 0
-48 154 366 0
-150 154 366 0
-158 154 366 0
-367 -155 0
-367 49 151 159 0
-49 155 367 0
-151 155 367 0
-159 155 367 0
-368 -156 0
-368 50 152 160 0
-50 156 368 0
-152 156 368 0
-160 156 368 0
-369 -157 0
-369 51 153 161 0
-51 157 369 0
-153 157 369 0
-161 157 369 0
-370 -158 0
-370 52 154 162 0
-52 158 370 0
-154 158 370 0
-162 158 370 0
-371 -159 0
-371 53 155 163 0
-53 159 371 0
-155 159 371 0
-163 159 371 0
-372 -160 0
-372 54 156 164 0
-54 160 372 0
-156 160 372 0
-164 160 372 0
-373 -161 0
-373 55 157 165 0
-55 161 373 0
-157 161 373 0
-165 161 373 0
-374 -162 0
-374 56 158 166 0
-56 162 374 0
-158 162 374 0
-166 162 374 0
-375 -163 0
-375 57 159 167 0
-57 163 375 0
-159 163 375 0
-167 163 375 0
-376 -164 0
-376 58 160 168 0
-58 164 376 0
-160 164 376 0
-168 164 376 0
-377 -165 0
-377 59 161 169 0
-59 165 377 0
-161 165 377 0
-169 165 377 0
-378 -166 0
-378 60 162 170 0
-60 166 378 0
-162 166 378 0
-170 166 378 0
-379 -167 0
-379 61 163 171 0
-61 167 379 0
-163 167 379 0
-171 167 379 0
-380 -168 0
-380 62 164 172 0
-62 168 380 0
-164 168 380 0
-172 168 380 0
-381 -169 0
-381 63 165 173 0
-63 169 381 0
-165 169 381 0
-173 169 381 0
-382 -170 0
-382 64 166 174 0
-64 170 382 0
-166 170 382 0
-174 170 382 0
-383 -171 0
-383 65 167 175 0
-65 171 383 0
-167 171 383 0
-175 171 383 0
-384 -172 0
-384 66 168 176 0
-66 172 384 0
-168 172 384 0
-176 172 384 0
-385 -173 0
-385 67 169 177 0
-67 173 385 0
-169 173 385 0
-177 173 385 0
-386 -174 0
-386 68 170 178 0
-68 174 386 0
-170 174 386 0
-178 174 386 0
-387 -175 0
-387 69 171 179 0
-69 175 387 0
-171 175 387 0
-179 175 387 0
-388 -176 0
-388 70 172 180 0
-70 176 388 0
-172 176 388 0
-180 176 388 0
-389 -177 0
-389 71 173 181 0
-71 177 389 0
-173 177 389 0
-181 177 389 0
-390 -178 0
-390 72 174 182 0
-72 178 390 0
-174 178 390 0
-182 178 390 0
-391 -179 0
-391 73 175 183 0
-73 179 391 0
-175 179 391 0
-183 179 391 0
-392 -180 0
-392 74 176 184 0
-74 180 392 0
-176 180 392 0
-184 180 392 0
-393 -181 0
-393 75 177 185 0
-75 181 393 0
-177 181 393 0
-185 181 393 0
-394 -182 0
-394 76 178 186 0
-76 182 394 0
-178 182 394 0
-186 182 394 0
-395 -183 0
-395 77 179 187 0
-77 183 395 0
-179 183 395 0
-187 183 395 0
-396 -184 0
-396 78 180 188 0
-78 184 396 0
-180 184 396 0
-188 184 396 0
-397 -185 0
-397 79 181 189 0
-79 185 397 0
-181 185 397 0
-189 185 397 0
-398 -186 0
-398 80 182 190 0
-80 186 398 0
-182 186 398 0
-190 186 398 0
-399 -187 0
-399 81 183 191 0
-81 187 399 0
-183 187 399 0
-191 187 399 0
-400 -188 0
-400 82 184 192 0
-82 188 400 0
-184 188 400 0
-192 188 400 0
-401 -189 0
-401 83 185 193 0
-83 189 401 0
-185 189 401 0
-193 189 401 0
-402 -190 0
-402 84 186 194 0
-84 190 402 0
-186 190 402 0
-194 190 402 0
-403 -191 0
-403 85 187 195 0
-85 191 403 0
-187 191 403 0
-195 191 403 0
-404 -192 0
-404 86 188 196 0
-86 192 404 0
-188 192 404 0
-196 192 404 0
-405 -193 0
-405 87 189 197 0
-87 193 405 0
-189 193 405 0
-197 193 405 0
-406 -194 0
-406 88 190 198 0
-88 194 406 0
-190 194 406 0
-198 194 406 0
-407 -195 0
-407 89 191 199 0
-89 195 407 0
-191 195 407 0
-199 195 407 0
-408 -196 0
-408 90 192 200 0
-90 196 408 0
-192 196 408 0
-200 196 408 0
-409 -197 0
-409 91 193 201 0
-91 197 409 0
-193 197 409 0
-201 197 409 0
-410 -198 0
-410 92 194 202 0
-92 198 410 0
-194 198 410 0
-202 198 410 0
-411 -199 0
-411 93 195 203 0
-93 199 411 0
-195 199 411 0
-203 199 411 0
-412 -200 0
-412 94 196 204 0
-94 200 412 0
-196 200 412 0
-204 200 412 0
-413 -201 0
-413 95 197 205 0
-95 201 413 0
-197 201 413 0
-205 201 413 0
-414 -202 0
-414 96 198 206 0
-96 202 414 0
-198 202 414 0
-206 202 414 0
-415 -203 0
-415 97 199 207 0
-97 203 415 0
-199 203 415 0
-207 203 415 0
-416 -204 0
-416 98 200 208 0
-98 204 416 0
-200 204 416 0
-208 204 416 0
-417 -205 0
-417 99 201 209 0
-99 205 417 0
-201 205 417 0
-209 205 417 0
-418 -206 0
-418 100 202 210 0
-100 206 418 0
-202 206 418 0
-210 206 418 0
-419 -207 0
-419 101 203 211 0
-101 207 419 0
-203 207 419 0
-211 207 419 0
-420 -208 0
-420 102 204 212 0
-102 208 420 0
-204 208 420 0
-212 208 420 0
-421 -209 0
-421 103 107 205 0
-103 209 421 0
-107 209 421 0
-205 209 421 0
-422 -210 0
-422 104 108 206 0
-104 210 422 0
-108 210 422 0
-206 210 422 0
-423 -211 0
-423 105 109 207 0
-105 211 423 0
-109 211 423 0
-207 211 423 0
-424 -212 0
-424 106 110 208 0
-106 212 424 0
-110 212 424 0
-208 212 424 0
1 425 0
-425 426 0
2 -425 427 0
-427 428 0
3 -427 429 0
-429 430 0
4 -429 431 0
-431 432 0
5 -431 433 0
-433 434 0
6 -433 435 0
-435 436 0
7 -435 437 0
-437 438 0
8 -437 439 0
-439 440 0
9 -439 441 0
-441 442 0
10 -441 443 0
-443 444 0
11 -443 445 0
-445 446 0
12 -445 447 0
-447 448 0
13 -447 449 0
-449 450 0
14 -449 451 0
-451 452 0
15 -451 453 0
-453 454 0
16 -453 455 0
-455 456 0
17 -455 457 0
-457 458 0
18 -457 459 0
-459 460 0
19 -459 461 0
-461 462 0
20 -461 463 0
-463 464 0
21 -463 465 0
-465 466 0
22 -465 467 0
-467 468 0
23 -467 469 0
-469 470 0
24 -469 471 0
-471 472 0
25 -471 473 0
-473 474 0
26 -473 475 0
-475 476 0
27 -475 477 0
-477 478 0
28 -477 479 0
-479 480 0
29 -479 481 0
-481 482 0
30 -481 483 0
-483 484 0
31 -483 485 0
-485 486 0
32 -485 487 0
-487 488 0
33 -487 489 0
-489 490 0
34 -489 491 0
-491 492 0
35 -491 493 0
-493 494 0
36 -493 495 0
-495 496 0
37 -495 497 0
-497 498 0
38 -497 499 0
-499 500 0
39 -499 501 0
-501 502 0
40 -501 503 0
-503 504 0
41 -503 505 0
-505 506 0
42 -505 507 0
-507 508 0
43 -507 509 0
-509 510 0
44 -509 511 0
-511 512 0
45 -511 513 0
-513 514 0
46 -513 515 0
-515 516 0
47 -515 517 0
-517 518 0
48 -517 519 0
-519 520 0
49 -519 521 0
-521 522 0
50 -521 523 0
-523 524 0
51 -523 525 0
-525 526 0
52 -525 527 0
-527 528 0
53 -527 529 0
-529 530 0
54 -529 531 0
-531 532 0
55 -531 533 0
-533 534 0
56 -533 535 0
-535 536 0
57 -535 537 0
-537 538 0
58 -537 539 0
-539 540 0
59 -539 541 0
-541 542 0
60 -541 543 0
-543 544 0
61 -543 545 0
-545 546 0
62 -545 547 0
-547 548 0
63 -547 549 0
-549 550 0
64 -549 551 0
-551 552 0
65 -551 553 0
-553 554 0
66 -553 555 0
-555 556 0
67 -555 557 0
-557 558 0
68 -557 559 0
-559 560 0
69 -559 561 0
-561 562 0
70 -561 563 0
-563 564 0
71 -563 565 0
-565 566 0
72 -565 567 0
-567 568 0
73 -567 569 0
-569 570 0
74 -569 571 0
-571 572 0
75 -571 573 0
-573 574 0
76 -573 575 0
-575 576 0
77 -575 577 0
-577 578 0
78 -577 579 0
-579 580 0
79 -579 581 0
-581 582 0
80 -581 583 0
-583 584 0
81 -583 585 0
-585 586 0
82 -585 587 0
-587 588 0
83 -587 589 0
-589 590 0
84 -589 591 0
-591 592 0
85 -591 593 0
-593 594 0
86 -593 595 0
-595 596 0
87 -595 597 0
-597 598 0
88 -597 599 0
-599 600 0
89 -599 601 0
-601 602 0
90 -601 603 0
-603 604 0
91 -603 605 0
-605 606 0
92 -605 607 0
-607 608 0
93 -607 609 0
-609 610 0
94 -609 611 0
-611 612 0
95 -611 613 0
-613 614 0
96 -613 615 0
-615 616 0
97 -615 617 0
-617 618 0
98 -617 619 0
-619 620 0
99 -619 621 0
-621 622 0
100 -621 623 0
-623 624 0
101 -623 625 0
-625 626 0
102 -625 627 0
-627 628 0
103 -627 629 0
-629 630 0
104 -629 631 0
-631 632 0
105 -631 633 0
-633 634 0
106 -633 635 0
-635 636 0
107 -635 637 0
-637 638 0
108 -637 639 0
-639 640 0
109 -639 641 0
-641 642 0
110 -641 643 0
-643 644 0
111 -643 645 0
-645 646 0
112 -645 647 0
-647 648 0
113 -647 649 0
-649 650 0
114 -649 651 0
-651 652 0
115 -651 653 0
-653 654 0
116 -653 655 0
-655 656 0
117 -655 657 0
-657 658 0
118 -657 659 0
-659 660 0
119 -659 661 0
-661 662 0
120 -661 663 0
-663 664 0
121 -663 665 0
-665 666 0
122 -665 667 0
-667 668 0
123 -667 669 0
-669 670 0
124 -669 671 0
-671 672 0
125 -671 673 0
-673 674 0
126 -673 675 0
-675 676 0
127 -675 677 0
-677 678 0
128 -677 679 0
-679 680 0
129 -679 681 0
-681 682 0
130 -681 683 0
-683 684 0
131 -683 685 0
-685 686 0
132 -685 687 0
-687 688 0
133 -687 689 0
-689 690 0
134 -689 691 0
-691 692 0
135 -691 693 0
-693 694 0
136 -693 695 0
-695 696 0
137 -695 697 0
-697 698 0
138 -697 699 0
-699 700 0
139 -699 701 0
-701 702 0
140 -701 703 0
-703 704 0
141 -703 705 0
-705 706 0
142 -705 707 0
-707 708 0
143 -707 709 0
-709 710 0
144 -709 711 0
-711 712 0
145 -711 713 0
-713 714 0
146 -713 715 0
-715 716 0
147 -715 717 0
-717 718 0
148 -717 719 0
-719 720 0
149 -719 721 0
-721 722 0
150 -721 723 0
-723 724 0
151 -723 725 0
-725 726 0
152 -725 727 0
-727 728 0
153 -727 729 0
-729 730 0
154 -729 731 0
-731 732 0
155 -731 733 0
-733 734 0
156 -733 735 0
-735 736 0
157 -735 737 0
-737 738 0
158 -737 739 0
-739 740 0
159 -739 741 0
-741 742 0
160 -741 743 0
-743 744 0
161 -743 745 0
-745 746 0
162 -745 747 0
-747 748 0
163 -747 749 0
-749 750 0
164 -749 751 0
-751 752 0
165 -751 753 0
-753 754 0
166 -753 755 0
-755 756 0
167 -755 757 0
-757 758 0
168 -757 759 0
-759 760 0
169 -759 761 0
-761 762 0
170 -761 763 0
-763 764 0
171 -763 765 0
-765 766 0
172 -765 767 0
-767 768 0
173 -767 769 0
-769 770 0
174 -769 771 0
-771 772 0
175 -771 773 0
-773 774 0
176 -773 775 0
-775 776 0
177 -775 777 0
-777 778 0
178 -777 779 0
-779 780 0
179 -779 781 0
-781 782 0
180 -781 783 0
-783 784 0
181 -783 785 0
-785 786 0
182 -785 787 0
-787 788 0
183 -787 789 0
-789 790 0
184 -789 791 0
-791 792 0
185 -791 793 0
-793 794 0
186 -793 795 0
-795 796 0
187 -795 797 0
-797 798 0
188 -797 799 0
-799 800 0
189 -799 801 0
-801 802 0
190 -801 803 0
-803 804 0
191 -803 805 0
-805 806 0
192 -805 807 0
-807 808 0
193 -807 809 0
-809 810 0
194 -809 811 0
-811 812 0
195 -811 813 0
-813 814 0
196 -813 815 0
-815 816 0
197 -815 0
2 426 0
-426 817 0
3 -426 428 0
-428 818 0
4 -428 430 0
-430 819 0
5 -430 432 0
-432 820 0
6 -432 434 0
-434 821 0
7 -434 436 0
-436 822 0
8 -436 438 0
-438 823 0
9 -438 440 0
-440 824 0
10 -440 442 0
-442 825 0
11 -442 444 0
-444 826 0
12 -444 446 0
-446 827 0
13 -446 448 0
-448 828 0
14 -448 450 0
-450 829 0
15 -450 452 0
-452 830 0
16 -452 454 0
-454 831 0
17 -454 456 0
-456 832 0
18 -456 458 0
-458 833 0
19 -458 460 0
-460 834 0
20 -460 462 0
-462 835 0
21 -462 464 0
-464 836 0
22 -464 466 0
-466 837 0
23 -466 468 0
-468 838 0
24 -468 470 0
-470 839 0
25 -470 472 0
-472 840 0
26 -472 474 0
-474 841 0
27 -474 476 0
-476 842 0
28 -476 478 0
-478 843 0
29 -478 480 0
-480 844 0
30 -480 482 0
-482 845 0
31 -482 484 0
-484 846 0
32 -484 486 0
-486 847 0
33 -486 488 0
-488 848 0
34 -488 490 0
-490 849 0
35 -490 492 0
-492 850 0
36 -492 494 0
-494 851 0
37 -494 496 0
-496 852 0
38 -496 498 0
-498 853 0
39 -498 500 0
-500 854 0
40 -500 502 0
-502 855 0
41 -502 504 0
-504 856 0
42 -504 506 0
-506 857 0
43 -506 508 0
-508 858 0
44 -508 510 0
-510 859 0
45 -510 512 0
-512 860 0
46 -512 514 0
-514 861 0
47 -514 516 0
-516 862 0
48 -516 518 0
-518 863 0
49 -518 520 0
-520 864 0
50 -520 522 0
-522 865 0
51 -522 524 0
-524 866 0
52 -524 526 0
-526 867 0
53 -526 528 0
-528 868 0
54 -528 530 0
-530 869 0
55 -530 532 0
-532 870 0
56 -532 534 0
-534 871 0
57 -534 536 0
-536 872 0
58 -536 538 0
-538 873 0
59 -538 540 0
-540 874 0
60 -540 542 0
-542 875 0
61 -542 544 0
-544 876 0
62 -544 546 0
-546 877 0
63 -546 548 0
-548 878 0
64 -548 550 0
-550 879 0
65 -550 552 0
-552 880 0
66 -552 554 0
-554 881 0
67 -554 556 0
-556 882 0
68 -556 558 0
-558 883 0
69 -558 560 0
-560 884 0
70 -560 562 0
-562 885 0
71 -562 564 0
-564 886 0
72 -564 566 0
-566 887 0
73 -566 568 0
-568 888 0
74 -568 570 0
-570 889 0
75 -570 572 0
-572 890 0
76 -572 574 0
-574 891 0
77 -574 576 0
-576 892 0
78 -576 578 0
-578 893 0
79 -578 580 0
-580 894 0
80 -580 582 0
-582 895 0
81 -582 584 0
-584 896 0
82 -584 586 0
-586 897 0
83 -586 588 0
-588 898 0
84 -588 590 0
-590 899 0
85 -590 592 0
-592 900 0
86 -592 594 0
-594 901 0
87 -594 596 0
-596 902 0
88 -596 598 0
-598 903 0
89 -598 600 0
-600 904 0
90 -600 602 0
-602 905 0
91 -602 604 0
-604 906 0
92 -604 606 0
-606 907 0
93 -606 608 0
-608 908 0
94 -608 610 0
-610 909 0
95 -610 612 0
-612 910 0
96 -612 614 0
-614 911 0
97 -614 616 0
-616 912 0
98 -616 618 0
-618 913 0
99 -618 620 0
-620 914 0
100 -620 622 0
-622 915 0
101 -622 624 0
-624 916 0
102 -624 626 0
-626 917 0
103 -626 628 0
-628 918 0
104 -628 630 0
-630 919 0
105 -630 632 0
-632 920 0
106 -632 634 0
-634 921 0
107 -634 636 0
-636 922 0
108 -636 638 0
-638 923 0
109 -638 640 0
-640 924 0
110 -640 642 0
-642 925 0
111 -642 644 0
-644 926 0
112 -644 646 0
-646 927 0
113 -646 648 0
-648 928 0
114 -648 650 0
-650 929 0
115 -650 652 0
-652 930 0
116 -652 654 0
-654 931 0
117 -654 656 0
-656 932 0
118 -656 658 0
-658 933 0
119 -658 660 0
-660 934 0
120 -660 662 0
-662 935 0
121 -662 664 0
-664 936 0
122 -664 666 0
-666 937 0
123 -666 668 0
-668 938 0
124 -668 670 0
-670 939 0
125 -670 672 0
-672 940 0
126 -672 674 0
-674 941 0
127 -674 676 0
-676 942 0
128 -676 678 0
-678 943 0
129 -678 680 0
-680 944 0
130 -680 682 0
-682 945 0
131 -682 684 0
-684 946 0
132 -684 686 0
-686 947 0
133 -686 688 0
-688 948 0
134 -688 690 0
-690 949 0
135 -690 692 0
-692 950 0
136 -692 694 0
-694 951 0
137 -694 696 0
-696 952 0
138 -696 698 0
-698 953 0
139 -698 700 0
-700 954 0
140 -700 702 0
-702 955 0
141 -702 704 0
-704 956 0
142 -704 706 0
-706 957 0
143 -706 708 0
-708 958 0
144 -708 710 0
-710 959 0
145 -710 712 0
-712 960 0
146 -712 714 0
-714 961 0
147 -714 716 0
-716 962 0
148 -716 718 0
-718 963 0
149 -718 720 0
-720 964 0
150 -720 722 0
-722 965 0
151 -722 724 0
-724 966 0
152 -724 726 0
-726 967 0
153 -726 728 0
-728 968 0
154 -728 730 0
-730 969 0
155 -730 732 0
-732 970 0
156 -732 734 0
-734 971 0
157 -734 736 0
-736 972 0
158 -736 738 0
-738 973 0
159 -738 740 0
-740 974 0
160 -740 742 0
-742 975 0
161 -742 744 0
-744 976 0
162 -744 746 0
-746 977 0
163 -746 748 0
-748 978 0
164 -748 750 0
-750 979 0
165 -750 752 0
-752 980 0
166 -752 754 0
-754 981 0
167 -754 756 0
-756 982 0
168 -756 758 0
-758 983 0
169 -758 760 0
-760 984 0
170 -760 762 0
-762 985 0
171 -762 764 0
-764 986 0
172 -764 766 0
-766 987 0
173 -766 768 0
-768 988 0
174 -768 770 0
-770 989 0
175 -770 772 0
-772 990 0
176 -772 774 0
-774 991 0
177 -774 776 0
-776 992 0
178 -776 778 0
-778 993 0
179 -778 780 0
-780 994 0
180 -780 782 0
-782 995 0
181 -782 784 0
-784 996 0
182 -784 786 0
-786 997 0
183 -786 788 0
-788 998 0
184 -788 790 0
-790 999 0
185 -790 792 0
-792 1000 0
186 -792 794 0
-794 1001 0
187 -794 796 0
-796 1002 0
188 -796 798 0
-798 1003 0
189 -798 800 0
-800 1004 0
190 -800 802 0
-802 1005 0
191 -802 804 0
-804 1006 0
192 -804 806 0
-806 1007 0
193 -806 808 0
-808 1008 0
194 -808 810 0
-810 1009 0
195 -810 812 0
-812 1010 0
196 -812 814 0
-814 1011 0
197 -814 816 0
-816 1012 0
198 -816 0
3 817 0
-817 1013 0
4 -817 818 0
-818 1014 0
5 -818 819 0
-819 1015 0
6 -819 820 0
-820 1016 0
7 -820 821 0
-821 1017 0
8 -821 822 0
-822 1018 0
9 -822 823 0
-823 1019 0
10 -823 824 0
-824 1020 0
11 -824 825 0
-825 1021 0
12 -825 826 0
-826 1022 0
13 -826 827 0
-827 1023 0
14 -827 828 0
-828 1024 0
15 -828 829 0
-829 1025 0
16 -829 830 0
-830 1026 0
17 -830 831 0
-831 1027 0
18 -831 832 0
-832 1028 0
19 -832 833 0
-833 1029 0
20 -833 834 0
-834 1030 0
21 -834 835 0
-835 1031 0
22 -835 836 0
-836 1032 0
23 -836 837 0
-837 1033 0
24 -837 838 0
-838 1034 0
25 -838 839 0
-839 1035 0
26 -839 840 0
-840 1036 0
27 -840 841 0
-841 1037 0
28 -841 842 0
-842 1038 0
29 -842 843 0
-843 1039 0
30 -843 844 0
-844 1040 0
31 -844 845 0
-845 1041 0
32 -845 846 0
-846 1042 0
33 -846 847 0
-847 1043 0
34 -847 848 0
-848 1044 0
35 -848 849 0
-849 1045 0
36 -849 850 0
-850 1046 0
37 -850 851 0
-851 1047 0
38 -851 852 0
-852 1048 0
39 -852 853 0
-853 1049 0
40 -853 854 0
-854 1050 0
41 -854 855 0
-855 1051 0
42 -855 856 0
-856 1052 0
43 -856 857 0
-857 1053 0
44 -857 858 0
-858 1054 0
45 -858 859 0
-859 1055 0
46 -859 860 0
-860 1056 0
47 -860 861 0
-861 1057 0
48 -861 862 0
-862 1058 0
49 -862 863 0
-863 1059 0
50 -863 864 0
-864 1060 0
51 -864 865 0
-865 1061 0
52 -865 866 0
-866 1062 0
53 -866 867 0
-867 1063 0
54 -867 868 0
-868 1064 0
55 -868 869 0
-869 1065 0
56 -869 870 0
-870 1066 0
57 -870 871 0
-871 1067 0
58 -871 872 0
-872 1068 0
59 -872 873 0
-873 1069 0
60 -873 874 0
-874 1070 0
61 -874 875 0
-875 1071 0
62 -875 876 0
-876 1072 0
63 -876 877 0
-877 1073 0
64 -877 878 0
-878 1074 0
65 -878 879 0
-879 1075 0
66 -879 880 0
-880 1076 0
67 -880 881 0
-881 1077 0
68 -881 882 0
-882 1078 0
69 -882 883 0
-883 1079 0
70 -883 884 0
-884 1080 0
71 -884 885 0
-885 1081 0
72 -885 886 0
-886 1082 0
73 -886 887 0
-887 1083 0
74 -887 888 0
-888 1084 0
75 -888 889 0
-889 1085 0
76 -889 890 0
-890 1086 0
77 -890 891 0
-891 1087 0
78 -891 892 0
-892 1088 0
79 -892 893 0
-893 1089 0
80 -893 894 0
-894 1090 0
81 -894 895 0
-895 1091 0
82 -895 896 0
-896 1092 0
83 -896 897 0
-897 1093 0
84 -897 898 0
-898 1094 0
85 -898 899 0
-899 1095 0
86 -899 900 0
-900 1096 0
87 -900 901 0
-901 1097 0
88 -901 902 0
-902 1098 0
89 -902 903 0
-903 1099 0
90 -903 904 0
-904 1100 0
91 -904 905 0
-905 1101 0
92 -905 906 0
-906 1102 0
93 -906 907 0
-907 1103 0
94 -907 908 0
-908 1104 0
95 -908 909 0
-909 1105 0
96 -909 910 0
-910 1106 0
97 -910 911 0
-911 1107 0
98 -911 912 0
-912 1108 0
99 -912 913 0
-913 1109 0
100 -913 914 0
-914 1110 0
101 -914 915 0
-915 1111 0
102 -915 916 0
-916 1112 0
103 -916 917 0
-917 1113 0
104 -917 918 0
-918 1114 0
105 -918 919 0
-919 1115 0
106 -919 920 0
-920 1116 0
107 -920 921 0
-921 1117 0
108 -921 922 0
-922 1118 0
109 -922 923 0
-923 1119 0
110 -923 924 0
-924 1120 0
111 -924 925 0
-925 1121 0
112 -925 926 0
-926 1122 0
113 -926 927 0
-927 1123 0
114 -927 928 0
-928 1124 0
115 -928 929 0
-929 1125 0
116 -929 930 0
-930 1126 0
117 -930 931 0
-931 1127 0
118 -931 932 0
-932 1128 0
119 -932 933 0
-933 1129 0
120 -933 934 0
-934 1130 0
121 -934 935 0
-935 1131 0
122 -935 936 0
-936 1132 0
123 -936 937 0
-937 1133 0
124 -937 938 0
-938 1134 0
125 -938 939 0
-939 1135 0
126 -939 940 0
-940 1136 0
127 -940 941 0
-941 1137 0
128 -941 942 0
-942 1138 0
129 -942 943 0
-943 1139 0
130 -943 944 0
-944 1140 0
131 -944 945 0
-945 1141 0
132 -945 946 0
-946 1142 0
133 -946 947 0
-947 1143 0
134 -947 948 0
-948 1144 0
135 -948 949 0
-949 1145 0
136 -949 950 0
-950 1146 0
137 -950 951 0
-951 1147 0
138 -951 952 0
-952 1148 0
139 -952 953 0
-953 1149 0
140 -953 954 0
-954 1150 0
141 -954 955 0
-955 1151 0
142 -955 956 0
-956 1152 0
143 -956 957 0
-957 1153 0
144 -957 958 0
-958 1154 0
145 -958 959 0
-959 1155 0
146 -959 960 0
-960 1156 0
147 -960 961 0
-961 1157 0
148 -961 962 0
-962 1158 0
149 -962 963 0
-963 1159 0
150 -963 964 0
-964 1160 0
151 -964 965 0
-965 1161 0
152 -965 966 0
-966 1162 0
153 -966 967 0
-967 1163 0
154 -967 968 0
-968 1164 0
155 -968 969 0
-969 1165 0
156 -969 970 0
-970 1166 0
157 -970 971 0
-971 1167 0
158 -971 972 0
-972 1168 0
159 -972 973 0
-973 1169 0
160 -973 974 0
-974 1170 0
161 -974 975 0
-975 1171 0
162 -975 976 0
-976 1172 0
163 -976 977 0
-977 1173 0
164 -977 978 0
-978 1174 0
165 -978 979 0
-979 1175 0
166 -979 980 0
-980 1176 0
167 -980 981 0
-981 1177 0
168 -981 982 0
-982 1178 0
169 -982 983 0
-983 1179 0
170 -983 984 0
-984 1180 0
171 -984 985 0
-985 1181 0
172 -985 986 0
-986 1182 0
173 -986 987 0
-987 1183 0
174 -987 988 0
-988 1184 0
175 -988 989 0
-989 1185 0
176 -989 990 0
-990 1186 0
177 -990 991 0
-991 1187 0
178 -991 992 0
-992 1188 0
179 -992 993 0
-993 1189 0
180 -993 994 0
-994 1190 0
181 -994 995 0
-995 1191 0
182 -995 996 0
-996 1192 0
183 -996 997 0
-997 1193 0
184 -997 998 0
-998 1194 0
185 -998 999 0
-999 1195 0
186 -999 1000 0
-1000 1196 0
187 -1000 1001 0
-1001 1197 0
188 -1001 1002 0
-1002 1198 0
189 -1002 1003 0
-1003 1199 0
190 -1003 1004 0
-1004 1200 0
191 -1004 1005 0
-1005 1201 0
192 -1005 1006 0
-1006 1202 0
193 -1006 1007 0
-1007 1203 0
194 -1007 1008 0
-1008 1204 0
195 -1008 1009 0
-1009 1205 0
196 -1009 1010 0
-1010 1206 0
197 -1010 1011 0
-1011 1207 0
198 -1011 1012 0
-1012 1208 0
199 -1012 0
4 1013 0
-1013 1209 0
5 -1013 1014 0
-1014 1210 0
6 -1014 1015 0
-1015 1211 0
7 -1015 1016 0
-1016 1212 0
8 -1016 1017 0
-1017 1213 0
9 -1017 1018 0
-1018 1214 0
10 -1018 1019 0
-1019 1215 0
11 -1019 1020 0
-1020 1216 0
12 -1020 1021 0
-1021 1217 0
13 -1021 1022 0
-1022 1218 0
14 -1022 1023 0
-1023 1219 0
15 -1023 1024 0
-1024 1220 0
16 -1024 1025 0
-1025 1221 0
17 -1025 1026 0
-1026 1222 0
18 -1026 1027 0
-1027 1223 0
19 -1027 1028 0
-1028 1224 0
20 -1028 1029 0
-1029 1225 0
21 -1029 1030 0
-1030 1226 0
22 -1030 1031 0
-1031 1227 0
23 -1031 1032 0
-1032 1228 0
24 -1032 1033 0
-1033 1229 0
25 -1033 1034 0
-1034 1230 0
26 -1034 1035 0
-1035 1231 0
27 -1035 1036 0
-1036 1232 0
28 -1036 1037 0
-1037 1233 0
29 -1037 1038 0
-1038 1234 0
30 -1038 1039 0
-1039 1235 0
31 -1039 1040 0
-1040 1236 0
32 -1040 1041 0
-1041 1237 0
33 -1041 1042 0
-1042 1238 0
34 -1042 1043 0
-1043 1239 0
35 -1043 1044 0
-1044 1240 0
36 -1044 1045 0
-1045 1241 0
37 -1045 1046 0
-1046 1242 0
38 -1046 1047 0
-1047 1243 0
39 -1047 1048 0
-1048 1244 0
40 -1048 1049 0
-1049 1245 0
41 -1049 1050 0
-1050 1246 0
42 -1050 1051 0
-1051 1247 0
43 -1051 1052 0
-1052 1248 0
44 -1052 1053 0
-1053 1249 0
45 -1053 1054 0
-1054 1250 0
46 -1054 1055 0
-1055 1251 0
47 -1055 1056 0
-1056 1252 0
48 -1056 1057 0
-1057 1253 0
49 -1057 1058 0
-1058 1254 0
50 -1058 1059 0
-1059 1255 0
51 -1059 1060 0
-1060 1256 0
52 -1060 1061 0
-1061 1257 0
53 -1061 1062 0
-1062 1258 0
54 -1062 1063 0
-1063 1259 0
55 -1063 1064 0
-1064 1260 0
56 -1064 1065 0
-1065 1261 0
57 -1065 1066 0
-1066 1262 0
58 -1066 1067 0
-1067 1263 0
59 -1067 1068 0
-1068 1264 0
60 -1068 1069 0
-1069 1265 0
61 -1069 1070 0
-1070 1266 0
62 -1070 1071 0
-1071 1267 0
63 -1071 1072 0
-1072 1268 0
64 -1072 1073 0
-1073 1269 0
65 -1073 1074 0
-1074 1270 0
66 -1074 1075 0
-1075 1271 0
67 -1075 1076 0
-1076 1272 0
68 -1076 1077 0
-1077 1273 0
69 -1077 1078 0
-1078 1274 0
70 -1078 1079 0
-1079 1275 0
71 -1079 1080 0
-1080 1276 0
72 -1080 1081 0
-1081 1277 0
73 -1081 1082 0
-1082 1278 0
74 -1082 1083 0
-1083 1279 0
75 -1083 1084 0
-1084 1280 0
76 -1084 1085 0
-1085 1281 0
77 -1085 1086 0
-1086 1282 0
78 -1086 1087 0
-1087 1283 0
79 -1087 1088 0
-1088 1284 0
80 -1088 1089 0
-1089 1285 0
81 -1089 1090 0
-1090 1286 0
82 -1090 1091 0
-1091 1287 0
83 -1091 1092 0
-1092 1288 0
84 -1092 1093 0
-1093 1289 0
85 -1093 1094 0
-1094 1290 0
86 -1094 1095 0
-1095 1291 0
87 -1095 1096 0
-1096 1292 0
88 -1096 1097 0
-1097 1293 0
89 -1097 1098 0
-1098 1294 0
90 -1098 1099 0
-1099 1295 0
91 -1099 1100 0
-1100 1296 0
92 -1100 1101 0
-1101 1297 0
93 -1101 1102 0
-1102 1298 0
94 -1102 1103 0
-1103 1299 0
95 -1103 1104 0
-1104 1300 0
96 -1104 1105 0
-1105 1301 0
97 -1105 1106 0
-1106 1302 0
98 -1106 1107 0
-1107 1303 0
99 -1107 1108 0
-1108 1304 0
100 -1108 1109 0
-1109 1305 0
101 -1109 1110 0
-1110 1306 0
102 -1110 1111 0
-1111 1307 0
103 -1111 1112 0
-1112 1308 0
104 -1112 1113 0
-1113 1309 0
105 -1113 1114 0
-1114 1310 0
106 -1114 1115 0
-1115 1311 0
107 -1115 1116 0
-1116 1312 0
108 -1116 1117 0
-1117 1313 0
109 -1117 1118 0
-1118 1314 0
110 -1118 1119 0
-1119 1315 0
111 -1119 1120 0
-1120 1316 0
112 -1120 1121 0
-1121 1317 0
113 -1121 1122 0
-1122 1318 0
114 -1122 1123 0
-1123 1319 0
115 -1123 1124 0
-1124 1320 0
116 -1124 1125 0
-1125 1321 0
117 -1125 1126 0
-1126 1322 0
118 -1126 1127 0
-1127 1323 0
119 -1127 1128 0
-1128 1324 0
120 -1128 1129 0
-1129 1325 0
121 -1129 1130 0
-1130 1326 0
122 -1130 1131 0
-1131 1327 0
123 -1131 1132 0
-1132 1328 0
124 -1132 1133 0
-1133 1329 0
125 -1133 1134 0
-1134 1330 0
126 -1134 1135 0
-1135 1331 0
127 -1135 1136 0
-1136 1332 0
128 -1136 1137 0
-1137 1333 0
129 -1137 1138 0
-1138 1334 0
130 -1138 1139 0
-1139 1335 0
131 -1139 1140 0
-1140 1336 0
132 -1140 1141 0
-1141 1337 0
133 -1141 1142 0
-1142 1338 0
134 -1142 1143 0
-1143 1339 0
135 -1143 1144 0
-1144 1340 0
136 -1144 1145 0
-1145 1341 0
137 -1145 1146 0
-1146 1342 0
138 -1146 1147 0
-1147 1343 0
139 -1147 1148 0
-1148 1344 0
140 -1148 1149 0
-1149 1345 0
141 -1149 1150 0
-1150 1346 0
142 -1150 1151 0
-1151 1347 0
143 -1151 1152 0
-1152 1348 0
144 -1152 1153 0
-1153 1349 0
145 -1153 1154 0
-1154 1350 0
146 -1154 1155 0
-1155 1351 0
147 -1155 1156 0
-1156 1352 0
148 -1156 1157 0
-1157 1353 0
149 -1157 1158 0
-1158 1354 0
150 -1158 1159 0
-1159 1355 0
151 -1159 1160 0
-1160 1356 0
152 -1160 1161 0
-1161 1357 0
153 -1161 1162 0
-1162 1358 0
154 -1162 1163 0
-1163 1359 0
155 -1163 1164 0
-1164 1360 0
156 -1164 1165 0
-1165 1361 0
157 -1165 1166 0
-1166 1362 0
158 -1166 1167 0
-1167 1363 0
159 -1167 1168 0
-1168 1364 0
160 -1168 1169 0
-1169 1365 0
161 -1169 1170 0
-1170 1366 0
162 -1170 1171 0
-1171 1367 0
163 -1171 1172 0
-1172 1368 0
164 -1172 1173 0
-1173 1369 0
165 -1173 1174 0
-1174 1370 0
166 -1174 1175 0
-1175 1371 0
167 -1175 1176 0
-1176 1372 0
168 -1176 1177 0
-1177 1373 0
169 -1177 1178 0
-1178 1374 0
170 -1178 1179 0
-1179 1375 0
171 -1179 1180 0
-1180 1376 0
172 -1180 1181 0
-1181 1377 0
173 -1181 1182 0
-1182 1378 0
174 -1182 1183 0
-1183 1379 0
175 -1183 1184 0
-1184 1380 0
176 -1184 1185 0
-1185 1381 0
177 -1185 1186 0
-1186 1382 0
178 -1186 1187 0
-1187 1383 0
179 -1187 1188 0
-1188 1384 0
180 -1188 1189 0
-1189 1385 0
181 -1189 1190 0
-1190 1386 0
182 -1190 1191 0
-1191 1387 0
183 -1191 1192 0
-1192 1388 0
184 -1192 1193 0
-1193 1389 0
185 -1193 1194 0
-1194 1390 0
186 -1194 1195 0
-1195 1391 0
187 -1195 1196 0
-1196 1392 0
188 -1196 1197 0
-1197 1393 0
189 -1197 1198 0
-1198 1394 0
190 -1198 1199 0
-1199 1395 0
191 -1199 1200 0
-1200 1396 0
192 -1200 1201 0
-1201 1397 0
193 -1201 1202 0
-1202 1398 0
194 -1202 1203 0
-1203 1399 0
195 -1203 1204 0
-1204 1400 0
196 -1204 1205 0
-1205 1401 0
197 -1205 1206 0
-1206 1402 0
198 -1206 1207 0
-1207 1403 0
199 -1207 1208 0
-1208 1404 0
200 -1208 0
5 1209 0
-1209 1405 0
6 -1209 1210 0
-1210 1406 0
7 -1210 1211 0
-1211 1407 0
8 -1211 1212 0
-1212 1408 0
9 -1212 1213 0
-1213 1409 0
10 -1213 1214 0
-1214 1410 0
11 -1214 1215 0
-1215 1411 0
12 -1215 1216 0
-1216 1412 0
13 -1216 1217 0
-1217 1413 0
14 -1217 1218 0
-1218 1414 0
15 -1218 1219 0
-1219 1415 0
16 -1219 1220 0
-1220 1416 0
17 -1220 1221 0
-1221 1417 0
18 -1221 1222 0
-1222 1418 0
19 -1222 1223 0
-1223 1419 0
20 -1223 1224 0
-1224 1420 0
21 -1224 1225 0
-1225 1421 0
22 -1225 1226 0
-1226 1422 0
23 -1226 1227 0
-1227 1423 0
24 -1227 1228 0
-1228 1424 0
25 -1228 1229 0
-1229 1425 0
26 -1229 1230 0
-1230 1426 0
27 -1230 1231 0
-1231 1427 0
28 -1231 1232 0
-1232 1428 0
29 -1232 1233 0
-1233 1429 0
30 -1233 1234 0
-1234 1430 0
31 -1234 1235 0
-1235 1431 0
32 -1235 1236 0
-1236 1432 0
33 -1236 1237 0
-1237 1433 0
34 -1237 1238 0
-1238 1434 0
35 -1238 1239 0
-1239 1435 0
36 -1239 1240 0
-1240 1436 0
37 -1240 1241 0
-1241 1437 0
38 -1241 1242 0
-1242 1438 0
39 -1242 1243 0
-1243 1439 0
40 -1243 1244 0
-1244 1440 0
41 -1244 1245 0
-1245 1441 0
42 -1245 1246 0
-1246 1442 0
43 -1246 1247 0
-1247 1443 0
44 -1247 1248 0
-1248 1444 0
45 -1248 1249 0
-1249 1445 0
46 -1249 1250 0
-1250 1446 0
47 -1250 1251 0
-1251 1447 0
48 -1251 1252 0
-1252 1448 0
49 -1252 1253 0
-1253 1449 0
50 -1253 1254 0
-1254 1450 0
51 -1254 1255 0
-1255 1451 0
52 -1255 1256 0
-1256 1452 0
53 -1256 1257 0
-1257 1453 0
54 -1257 1258 0
-1258 1454 0
55 -1258 1259 0
-1259 1455 0
56 -1259 1260 0
-1260 1456 0
57 -1260 1261 0
-1261 1457 0
58 -1261 1262 0
-1262 1458 0
59 -1262 1263 0
-1263 1459 0
60 -1263 1264 0
-1264 1460 0
61 -1264 1265 0
-1265 1461 0
62 -1265 1266 0
-1266 1462 0
63 -1266 1267 0
-1267 1463 0
64 -1267 1268 0
-1268 1464 0
65 -1268 1269 0
-1269 1465 0
66 -1269 1270 0
-1270 1466 0
67 -1270 1271 0
-1271 1467 0
68 -1271 1272 0
-1272 1468 0
69 -1272 1273 0
-1273 1469 0
70 -1273 1274 0
-1274 1470 0
71 -1274 1275 0
-1275 1471 0
72 -1275 1276 0
-1276 1472 0
73 -1276 1277 0
-1277 1473 0
74 -1277 1278 0
-1278 1474 0
75 -1278 1279 0
-1279 1475 0
76 -1279 1280 0
-1280 1476 0
77 -1280 1281 0
-1281 1477 0
78 -1281 1282 0
-1282 1478 0
79 -1282 1283 0
-1283 1479 0
80 -1283 1284 0
-1284 1480 0
81 -1284 1285 0
-1285 1481 0
82 -1285 1286 0
-1286 1482 0
83 -1286 1287 0
-1287 1483 0
84 -1287 1288 0
-1288 1484 0
85 -1288 1289 0
-1289 1485 0
86 -1289 1290 0
-1290 1486 0
87 -1290 1291 0
-1291 1487 0
88 -1291 1292 0
-1292 1488 0
89 -1292 1293 0
-1293 1489 0
90 -1293 1294 0
-1294 1490 0
91 -1294 1295 0
-1295 1491 0
92 -1295 1296 0
-1296 1492 0
93 -1296 1297 0
-1297 1493 0
94 -1297 1298 0
-1298 1494 0
95 -1298 1299 0
-1299 1495 0
96 -1299 1300 0
-1300 1496 0
97 -1300 1301 0
-1301 1497 0
98 -1301 1302 0
-1302 1498 0
99 -1302 1303 0
-1303 1499 0
100 -1303 1304 0
-1304 1500 0
101 -1304 1305 0
-1305 1501 0
102 -1305 1306 0
-1306 1502 0
103 -1306 1307 0
-1307 1503 0
104 -1307 1308 0
-1308 1504 0
105 -1308 1309 0
-1309 1505 0
106 -1309 1310 0
-1310 1506 0
107 -1310 1311 0
-1311 1507 0
108 -1311 1312 0
-1312 1508 0
109 -1312 1313 0
-1313 1509 0
110 -1313 1314 0
-1314 1510 0
111 -1314 1315 0
-1315 1511 0
112 -1315 1316 0
-1316 1512 0
113 -1316 1317 0
-1317 1513 0
114 -1317 1318 0
-1318 1514 0
115 -1318 1319 0
-1319 1515 0
116 -1319 1320 0
-1320 1516 0
117 -1320 1321 0
-1321 1517 0
118 -1321 1322 0
-1322 1518 0
119 -1322 1323 0
-1323 1519 0
120 -1323 1324 0
-1324 1520 0
121 -1324 1325 0
-1325 1521 0
122 -1325 1326 0
-1326 1522 0
123 -1326 1327 0
-1327 1523 0
124 -1327 1328 0
-1328 1524 0
125 -1328 1329 0
-1329 1525 0
126 -1329 1330 0
-1330 1526 0
127 -1330 1331 0
-1331 1527 0
128 -1331 1332 0
-1332 1528 0
129 -1332 1333 0
-1333 1529 0
130 -1333 1334 0
-1334 1530 0
131 -1334 1335 0
-1335 1531 0
132 -1335 1336 0
-1336 1532 0
133 -1336 1337 0
-1337 1533 0
134 -1337 1338 0
-1338 1534 0
135 -1338 1339 0
-1339 1535 0
136 -1339 1340 0
-1340 1536 0
137 -1340 1341 0
-1341 1537 0
138 -1341 1342 0
-1342 1538 0
139 -1342 1343 0
-1343 1539 0
140 -1343 1344 0
-1344 1540 0
141 -1344 1345 0
-1345 1541 0
142 -1345 1346 0
-1346 1542 0
143 -1346 1347 0
-1347 1543 0
144 -1347 1348 0
-1348 1544 0
145 -1348 1349 0
-1349 1545 0
146 -1349 1350 0
-1350 1546 0
147 -1350 1351 0
-1351 1547 0
148 -1351 1352 0
-1352 1548 0
149 -1352 1353 0
-1353 1549 0
150 -1353 1354 0
-1354 1550 0
151 -1354 1355 0
-1355 1551 0
152 -1355 1356 0
-1356 1552 0
153 -1356 1357 0
-1357 1553 0
154 -1357 1358 0
-1358 1554 0
155 -1358 1359 0
-1359 1555 0
156 -1359 1360 0
-1360 1556 0
157 -1360 1361 0
-1361 1557 0
158 -1361 1362 0
-1362 1558 0
159 -1362 1363 0
-1363 1559 0
160 -1363 1364 0
-1364 1560 0
161 -1364 1365 0
-1365 1561 0
162 -1365 1366 0
-1366 1562 0
163 -1366 1367 0
-1367 1563 0
164 -1367 1368 0
-1368 1564 0
165 -1368 1369 0
-1369 1565 0
166 -1369 1370 0
-1370 1566 0
167 -1370 1371 0
-1371 1567 0
168 -1371 1372 0
-1372 1568 0
169 -1372 1373 0
-1373 1569 0
170 -1373 1374 0
-1374 1570 0
171 -1374 1375 0
-1375 1571 0
172 -1375 1376 0
-1376 1572 0
173 -1376 1377 0
-1377 1573 0
174 -1377 1378 0
-1378 1574 0
175 -1378 1379 0
-1379 1575 0
176 -1379 1380 0
-1380 1576 0
177 -1380 1381 0
-1381 1577 0
178 -1381 1382 0
-1382 1578 0
179 -1382 1383 0
-1383 1579 0
180 -1383 1384 0
-1384 1580 0
181 -1384 1385 0
-1385 1581 0
182 -1385 1386 0
-1386 1582 0
183 -1386 1387 0
-1387 1583 0
184 -1387 1388 0
-1388 1584 0
185 -1388 1389 0
-1389 1585 0
186 -1389 1390 0
-1390 1586 0
187 -1390 1391 0
-1391 1587 0
188 -1391 1392 0
-1392 1588 0
189 -1392 1393 0
-1393 1589 0
190 -1393 1394 0
-1394 1590 0
191 -1394 1395 0
-1395 1591 0
192 -1395 1396 0
-1396 1592 0
193 -1396 1397 0
-1397 1593 0
194 -1397 1398 0
-1398 1594 0
195 -1398 1399 0
-1399 1595 0
196 -1399 1400 0
-1400 1596 0
197 -1400 1401 0
-1401 1597 0
198 -1401 1402 0
-1402 1598 0
199 -1402 1403 0
-1403 1599 0
200 -1403 1404 0
-1404 1600 0
201 -1404 0
6 1405 0
-1405 1601 0
7 -1405 1406 0
-1406 1602 0
8 -1406 1407 0
-1407 1603 0
9 -1407 1408 0
-1408 1604 0
10 -1408 1409 0
-1409 1605 0
11 -1409 1410 0
-1410 1606 0
12 -1410 1411 0
-1411 1607 0
13 -1411 1412 0
-1412 1608 0
14 -1412 1413 0
-1413 1609 0
15 -1413 1414 0
-1414 1610 0
16 -1414 1415 0
-1415 1611 0
17 -1415 1416 0
-1416 1612 0
18 -1416 1417 0
-1417 1613 0
19 -1417 1418 0
-1418 1614 0
20 -1418 1419 0
-1419 1615 0
21 -1419 1420 0
-1420 1616 0
22 -1420 1421 0
-1421 1617 0
23 -1421 1422 0
-1422 1618 0
24 -1422 1423 0
-1423 1619 0
25 -1423 1424 0
-1424 1620 0
26 -1424 1425 0
-1425 1621 0
27 -1425 1426 0
-1426 1622 0
28 -1426 1427 0
-1427 1623 0
29 -1427 1428 0
-1428 1624 0
30 -1428 1429 0
-1429 1625 0
31 -1429 1430 0
-1430 1626 0
32 -1430 1431 0
-1431 1627 0
33 -1431 1432 0
-1432 1628 0
34 -1432 1433 0
-1433 1629 0
35 -1433 1434 0
-1434 1630 0
36 -1434 1435 0
-1435 1631 0
37 -1435 1436 0
-1436 1632 0
38 -1436 1437 0
-1437 1633 0
39 -1437 1438 0
-1438 1634 0
40 -1438 1439 0
-1439 1635 0
41 -1439 1440 0
-1440 1636 0
42 -1440 1441 0
-1441 1637 0
43 -1441 1442 0
-1442 1638 0
44 -1442 1443 0
-1443 1639 0
45 -1443 1444 0
-1444 1640 0
46 -1444 1445 0
-1445 1641 0
47 -1445 1446 0
-1446 1642 0
48 -1446 1447 0
-1447 1643 0
49 -1447 1448 0
-1448 1644 0
50 -1448 1449 0
-1449 1645 0
51 -1449 1450 0
-1450 1646 0
52 -1450 1451 0
-1451 1647 0
53 -1451 1452 0
-1452 1648 0
54 -1452 1453 0
-1453 1649 0
55 -1453 1454 0
-1454 1650 0
56 -1454 1455 0
-1455 1651 0
57 -1455 1456 0
-1456 1652 0
58 -1456 1457 0
-1457 1653 0
59 -1457 1458 0
-1458 1654 0
60 -1458 1459 0
-1459 1655 0
61 -1459 1460 0
-1460 1656 0
62 -1460 1461 0
-1461 1657 0
63 -1461 1462 0
-1462 1658 0
64 -1462 1463 0
-1463 1659 0
65 -1463 1464 0
-1464 1660 0
66 -1464 1465 0
-1465 1661 0
67 -1465 1466 0
-1466 1662 0
68 -1466 1467 0
-1467 1663 0
69 -1467 1468 0
-1468 1664 0
70 -1468 1469 0
-1469 1665 0
71 -1469 1470 0
-1470 1666 0
72 -1470 1471 0
-1471 1667 0
73 -1471 1472 0
-1472 1668 0
74 -1472 1473 0
-1473 1669 0
75 -1473 1474 0
-1474 1670 0
76 -1474 1475 0
-1475 1671 0
77 -1475 1476 0
-1476 1672 0
78 -1476 1477 0
-1477 1673 0
79 -1477 1478 0
-1478 1674 0
80 -1478 1479 0
-1479 1675 0
81 -1479 1480 0
-1480 1676 0
82 -1480 1481 0
-1481 1677 0
83 -1481 1482 0
-1482 1678 0
84 -1482 1483 0
-1483 1679 0
85 -1483 1484 0
-1484 1680 0
86 -1484 1485 0
-1485 1681 0
87 -1485 1486 0
-1486 1682 0
88 -1486 1487 0
-1487 1683 0
89 -1487 1488 0
-1488 1684 0
90 -1488 1489 0
-1489 1685 0
91 -1489 1490 0
-1490 1686 0
92 -1490 1491 0
-1491 1687 0
93 -1491 1492 0
-1492 1688 0
94 -1492 1493 0
-1493 1689 0
95 -1493 1494 0
-1494 1690 0
96 -1494 1495 0
-1495 1691 0
97 -1495 1496 0
-1496 1692 0
98 -1496 1497 0
-1497 1693 0
99 -1497 1498 0
-1498 1694 0
100 -1498 1499 0
-1499 1695 0
101 -1499 1500 0
-1500 1696 0
102 -1500 1501 0
-1501 1697 0
103 -1501 1502 0
-1502 1698 0
104 -1502 1503 0
-1503 1699 0
105 -1503 1504 0
-1504 1700 0
106 -1504 1505 0
-1505 1701 0
107 -1505 1506 0
-1506 1702 0
108 -1506 1507 0
-1507 1703 0
109 -1507 1508 0
-1508 1704 0
110 -1508 1509 0
-1509 1705 0
111 -1509 1510 0
-1510 1706 0
112 -1510 1511 0
-1511 1707 0
113 -1511 1512 0
-1512 1708 0
114 -1512 1513 0
-1513 1709 0
115 -1513 1514 0
-1514 1710 0
116 -1514 1515 0
-1515 1711 0
117 -1515 1516 0
-1516 1712 0
118 -1516 1517 0
-1517 1713 0
119 -1517 1518 0
-1518 1714 0
120 -1518 1519 0
-1519 1715 0
121 -1519 1520 0
-1520 1716 0
122 -1520 1521 0
-1521 1717 0
123 -1521 1522 0
-1522 1718 0
124 -1522 1523 0
-1523 1719 0
125 -1523 1524 0
-1524 1720 0
126 -1524 1525 0
-1525 1721 0
127 -1525 1526 0
-1526 1722 0
128 -1526 1527 0
-1527 1723 0
129 -1527 1528 0
-1528 1724 0
130 -1528 1529 0
-1529 1725 0
131 -1529 1530 0
-1530 1726 0
132 -1530 1531 0
-1531 1727 0
133 -1531 1532 0
-1532 1728 0
134 -1532 1533 0
-1533 1729 0
135 -1533 1534 0
-1534 1730 0
136 -1534 1535 0
-1535 1731 0
137 -1535 1536 0
-1536 1732 0
138 -1536 1537 0
-1537 1733 0
139 -1537 1538 0
-1538 1734 0
140 -1538 1539 0
-1539 1735 0
141 -1539 1540 0
-1540 1736 0
142 -1540 1541 0
-1541 1737 0
143 -1541 1542 0
-1542 1738 0
144 -1542 1543 0
-1543 1739 0
145 -1543 1544 0
-1544 1740 0
146 -1544 1545 0
-1545 1741 0
147 -1545 1546 0
-1546 1742 0
148 -1546 1547 0
-1547 1743 0
149 -1547 1548 0
-1548 1744 0
150 -1548 1549 0
-1549 1745 0
151 -1549 1550 0
-1550 1746 0
152 -1550 1551 0
-1551 1747 0
153 -1551 1552 0
-1552 1748 0
154 -1552 1553 0
-1553 1749 0
155 -1553 1554 0
-1554 1750 0
156 -1554 1555 0
-1555 1751 0
157 -1555 1556 0
-1556 1752 0
158 -1556 1557 0
-1557 1753 0
159 -1557 1558 0
-1558 1754 0
160 -1558 1559 0
-1559 1755 0
161 -1559 1560 0
-1560 1756 0
162 -1560 1561 0
-1561 1757 0
163 -1561 1562 0
-1562 1758 0
164 -1562 1563 0
-1563 1759 0
165 -1563 1564 0
-1564 1760 0
166 -1564 1565 0
-1565 1761 0
167 -1565 1566 0
-1566 1762 0
168 -1566 1567 0
-1567 1763 0
169 -1567 1568 0
-1568 1764 0
170 -1568 1569 0
-1569 1765 0
171 -1569 1570 0
-1570 1766 0
172 -1570 1571 0
-1571 1767 0
173 -1571 1572 0
-1572 1768 0
174 -1572 1573 0
-1573 1769 0
175 -1573 1574 0
-1574 1770 0
176 -1574 1575 0
-1575 1771 0
177 -1575 1576 0
-1576 1772 0
178 -1576 1577 0
-1577 1773 0
179 -1577 1578 0
-1578 1774 0
180 -1578 1579 0
-1579 1775 0
181 -1579 1580 0
-1580 1776 0
182 -1580 1581 0
-1581 1777 0
183 -1581 1582 0
-1582 1778 0
184 -1582 1583 0
-1583 1779 0
185 -1583 1584 0
-1584 1780 0
186 -1584 1585 0
-1585 1781 0
187 -1585 1586 0
-1586 1782 0
188 -1586 1587 0
-1587 1783 0
189 -1587 1588 0
-1588 1784 0
190 -1588 1589 0
-1589 1785 0
191 -1589 1590 0
-1590 1786 0
192 -1590 1591 0
-1591 1787 0
193 -1591 1592 0
-1592 1788 0
194 -1592 1593 0
-1593 1789 0
195 -1593 1594 0
-1594 1790 0
196 -1594 1595 0
-1595 1791 0
197 -1595 1596 0
-1596 1792 0
198 -1596 1597 0
-1597 1793 0
199 -1597 1598 0
-1598 1794 0
200 -1598 1599 0
-1599 1795 0
201 -1599 1600 0
-1600 1796 0
202 -1600 0
7 1601 0
-1601 1797 0
8 -1601 1602 0
-1602 1798 0
9 -1602 1603 0
-1603 1799 0
10 -1603 1604 0
-1604 1800 0
11 -1604 1605 0
-1605 1801 0
12 -1605 1606 0
-1606 1802 0
13 -1606 1607 0
-1607 1803 0
14 -1607 1608 0
-1608 1804 0
15 -1608 1609 0
-1609 1805 0
16 -1609 1610 0
-1610 1806 0
17 -1610 1611 0
-1611 1807 0
18 -1611 1612 0
-1612 1808 0
19 -1612 1613 0
-1613 1809 0
20 -1613 1614 0
-1614 1810 0
21 -1614 1615 0
-1615 1811 0
22 -1615 1616 0
-1616 1812 0
23 -1616 1617 0
-1617 1813 0
24 -1617 1618 0
-1618 1814 0
25 -1618 1619 0
-1619 1815 0
26 -1619 1620 0
-1620 1816 0
27 -1620 1621 0
-1621 1817 0
28 -1621 1622 0
-1622 1818 0
29 -1622 1623 0
-1623 1819 0
30 -1623 1624 0
-1624 1820 0
31 -1624 1625 0
-1625 1821 0
32 -1625 1626 0
-1626 1822 0
33 -1626 1627 0
-1627 1823 0
34 -1627 1628 0
-1628 1824 0
35 -1628 1629 0
-1629 1825 0
36 -1629 1630 0
-1630 1826 0
37 -1630 1631 0
-1631 1827 0
38 -1631 1632 0
-1632 1828 0
39 -1632 1633 0
-1633 1829 0
40 -1633 1634 0
-1634 1830 0
41 -1634 1635 0
-1635 1831 0
42 -1635 1636 0
-1636 1832 0
43 -1636 1637 0
-1637 1833 0
44 -1637 1638 0
-1638 1834 0
45 -1638 1639 0
-1639 1835 0
46 -1639 1640 0
-1640 1836 0
47 -1640 1641 0
-1641 1837 0
48 -1641 1642 0
-1642 1838 0
49 -1642 1643 0
-1643 1839 0
50 -1643 1644 0
-1644 1840 0
51 -1644 1645 0
-1645 1841 0
52 -1645 1646 0
-1646 1842 0
53 -1646 1647 0
-1647 1843 0
54 -1647 1648 0
-1648 1844 0
55 -1648 1649 0
-1649 1845 0
56 -1649 1650 0
-1650 1846 0
57 -1650 1651 0
-1651 1847 0
58 -1651 1652 0
-1652 1848 0
59 -1652 1653 0
-1653 1849 0
60 -1653 1654 0
-1654 1850 0
61 -1654 1655 0
-1655 1851 0
62 -1655 1656 0
-1656 1852 0
63 -1656 1657 0
-1657 1853 0
64 -1657 1658 0
-1658 1854 0
65 -1658 1659 0
-1659 1855 0
66 -1659 1660 0
-1660 1856 0
67 -1660 1661 0
-1661 1857 0
68 -1661 1662 0
-1662 1858 0
69 -1662 1663 0
-1663 1859 0
70 -1663 1664 0
-1664 1860 0
71 -1664 1665 0
-1665 1861 0
72 -1665 1666 0
-1666 1862 0
73 -1666 1667 0
-1667 1863 0
74 -1667 1668 0
-1668 1864 0
75 -1668 1669 0
-1669 1865 0
76 -1669 1670 0
-1670 1866 0
77 -1670 1671 0
-1671 1867 0
78 -1671 1672 0
-1672 1868 0
79 -1672 1673 0
-1673 1869 0
80 -1673 1674 0
-1674 1870 0
81 -1674 1675 0
-1675 1871 0
82 -1675 1676 0
-1676 1872 0
83 -1676 1677 0
-1677 1873 0
84 -1677 1678 0
-1678 1874 0
85 -1678 1679 0
-1679 1875 0
86 -1679 1680 0
-1680 1876 0
87 -1680 1681 0
-1681 1877 0
88 -1681 1682 0
-1682 1878 0
89 -1682 1683 0
-1683 1879 0
90 -1683 1684 0
-1684 1880 0
91 -1684 1685 0
-1685 1881 0
92 -1685 1686 0
-1686 1882 0
93 -1686 1687 0
-1687 1883 0
94 -1687 1688 0
-1688 1884 0
95 -1688 1689 0
-1689 1885 0
96 -1689 1690 0
-1690 1886 0
97 -1690 1691 0
-1691 1887 0
98 -1691 1692 0
-1692 1888 0
99 -1692 1693 0
-1693 1889 0
100 -1693 1694 0
-1694 1890 0
101 -1694 1695 0
-1695 1891 0
102 -1695 1696 0
-1696 1892 0
103 -1696 1697 0
-1697 1893 0
104 -1697 1698 0
-1698 1894 0
105 -1698 1699 0
-1699 1895 0
106 -1699 1700 0
-1700 1896 0
107 -1700 1701 0
-1701 1897 0
108 -1701 1702 0
-1702 1898 0
109 -1702 1703 0
-1703 1899 0
110 -1703 1704 0
-1704 1900 0
111 -1704 1705 0
-1705 1901 0
112 -1705 1706 0
-1706 1902 0
113 -1706 1707 0
-1707 1903 0
114 -1707 1708 0
-1708 1904 0
115 -1708 1709 0
-1709 1905 0
116 -1709 1710 0
-1710 1906 0
117 -1710 1711 0
-1711 1907 0
118 -1711 1712 0
-1712 1908 0
119 -1712 1713 0
-1713 1909 0
120 -1713 1714 0
-1714 1910 0
121 -1714 1715 0
-1715 1911 0
122 -1715 1716 0
-1716 1912 0
123 -1716 1717 0
-1717 1913 0
124 -1717 1718 0
-1718 1914 0
125 -1718 1719 0
-1719 1915 0
126 -1719 1720 0
-1720 1916 0
127 -1720 1721 0
-1721 1917 0
128 -1721 1722 0
-1722 1918 0
129 -1722 1723 0
-1723 1919 0
130 -1723 1724 0
-1724 1920 0
131 -1724 1725 0
-1725 1921 0
132 -1725 1726 0
-1726 1922 0
133 -1726 1727 0
-1727 1923 0
134 -1727 1728 0
-1728 1924 0
135 -1728 1729 0
-1729 1925 0
136 -1729 1730 0
-1730 1926 0
137 -1730 1731 0
-1731 1927 0
138 -1731 1732 0
-1732 1928 0
139 -1732 1733 0
-1733 1929 0
140 -1733 1734 0
-1734 1930 0
141 -1734 1735 0
-1735 1931 0
142 -1735 1736 0
-1736 1932 0
143 -1736 1737 0
-1737 1933 0
144 -1737 1738 0
-1738 1934 0
145 -1738 1739 0
-1739 1935 0
146 -1739 1740 0
-1740 1936 0
147 -1740 1741 0
-1741 1937 0
148 -1741 1742 0
-1742 1938 0
149 -1742 1743 0
-1743 1939 0
150 -1743 1744 0
-1744 1940 0
151 -1744 1745 0
-1745 1941 0
152 -1745 1746 0
-1746 1942 0
153 -1746 1747 0
-1747 1943 0
154 -1747 1748 0
-1748 1944 0
155 -1748 1749 0
-1749 1945 0
156 -1749 1750 0
-1750 1946 0
157 -1750 1751 0
-1751 1947 0
158 -1751 1752 0
-1752 1948 0
159 -1752 1753 0
-1753 1949 0
160 -1753 1754 0
-1754 1950 0
161 -1754 1755 0
-1755 1951 0
162 -1755 1756 0
-1756 1952 0
163 -1756 1757 0
-1757 1953 0
164 -1757 1758 0
-1758 1954 0
165 -1758 1759 0
-1759 1955 0
166 -1759 1760 0
-1760 1956 0
167 -1760 1761 0
-1761 1957 0
168 -1761 1762 0
-1762 1958 0
169 -1762 1763 0
-1763 1959 0
170 -1763 1764 0
-1764 1960 0
171 -1764 1765 0
-1765 1961 0
172 -1765 1766 0
-1766 1962 0
173 -1766 1767 0
-1767 1963 0
174 -1767 1768 0
-1768 1964 0
175 -1768 1769 0
-1769 1965 0
176 -1769 1770 0
-1770 1966 0
177 -1770 1771 0
-1771 1967 0
178 -1771 1772 0
-1772 1968 0
179 -1772 1773 0
-1773 1969 0
180 -1773 1774 0
-1774 1970 0
181 -1774 1775 0
-1775 1971 0
182 -1775 1776 0
-1776 1972 0
183 -1776 1777 0
-1777 1973 0
184 -1777 1778 0
-1778 1974 0
185 -1778 1779 0
-1779 1975 0
186 -1779 1780 0
-1780 1976 0
187 -1780 1781 0
-1781 1977 0
188 -1781 1782 0
-1782 1978 0
189 -1782 1783 0
-1783 1979 0
190 -1783 1784 0
-1784 1980 0
191 -1784 1785 0
-1785 1981 0
192 -1785 1786 0
-1786 1982 0
193 -1786 1787 0
-1787 1983 0
194 -1787 1788 0
-1788 1984 0
195 -1788 1789 0
-1789 1985 0
196 -1789 1790 0
-1790 1986 0
197 -1790 1791 0
-1791 1987 0
198 -1791 1792 0
-1792 1988 0
199 -1792 1793 0
-1793 1989 0
200 -1793 1794 0
-1794 1990 0
201 -1794 1795 0
-1795 1991 0
202 -1795 1796 0
-1796 1992 0
203 -1796 0
8 1797 0
-1797 1993 0
9 -1797 1798 0
-1798 1994 0
10 -1798 1799 0
-1799 1995 0
11 -1799 1800 0
-1800 1996 0
12 -1800 1801 0
-1801 1997 0
13 -1801 1802 0
-1802 1998 0
14 -1802 1803 0
-1803 1999 0
15 -1803 1804 0
-1804 2000 0
16 -1804 1805 0
-1805 2001 0
17 -1805 1806 0
-1806 2002 0
18 -1806 1807 0
-1807 2003 0
19 -1807 1808 0
-1808 2004 0
20 -1808 1809 0
-1809 2005 0
21 -1809 1810 0
-1810 2006 0
22 -1810 1811 0
-1811 2007 0
23 -1811 1812 0
-1812 2008 0
24 -1812 1813 0
-1813 2009 0
25 -1813 1814 0
-1814 2010 0
26 -1814 1815 0
-1815 2011 0
27 -1815 1816 0
-1816 2012 0
28 -1816 1817 0
-1817 2013 0
29 -1817 1818 0
-1818 2014 0
30 -1818 1819 0
-1819 2015 0
31 -1819 1820 0
-1820 2016 0
32 -1820 1821 0
-1821 2017 0
33 -1821 1822 0
-1822 2018 0
34 -1822 1823 0
-1823 2019 0
35 -1823 1824 0
-1824 2020 0
36 -1824 1825 0
-1825 2021 0
37 -1825 1826 0
-1826 2022 0
38 -1826 1827 0
-1827 2023 0
39 -1827 1828 0
-1828 2024 0
40 -1828 1829 0
-1829 2025 0
41 -1829 1830 0
-1830 2026 0
42 -1830 1831 0
-1831 2027 0
43 -1831 1832 0
-1832 2028 0
44 -1832 1833 0
-1833 2029 0
45 -1833 1834 0
-1834 2030 0
46 -1834 1835 0
-1835 2031 0
47 -1835 1836 0
-1836 2032 0
48 -1836 1837 0
-1837 2033 0
49 -1837 1838 0
-1838 2034 0
50 -1838 1839 0
-1839 2035 0
51 -1839 1840 0
-1840 2036 0
52 -1840 1841 0
-1841 2037 0
53 -1841 1842 0
-1842 2038 0
54 -1842 1843 0
-1843 2039 0
55 -1843 1844 0
-1844 2040 0
56 -1844 1845 0
-1845 2041 0
57 -1845 1846 0
-1846 2042 0
58 -1846 1847 0
-1847 2043 0
59 -1847 1848 0
-1848 2044 0
60 -1848 1849 0
-1849 2045 0
61 -1849 1850 0
-1850 2046 0
62 -1850 1851 0
-1851 2047 0
63 -1851 1852 0
-1852 2048 0
64 -1852 1853 0
-1853 2049 0
65 -1853 1854 0
-1854 2050 0
66 -1854 1855 0
-1855 2051 0
67 -1855 1856 0
-1856 2052 0
68 -1856 1857 0
-1857 2053 0
69 -1857 1858 0
-1858 2054 0
70 -1858 1859 0
-1859 2055 0
71 -1859 1860 0
-1860 2056 0
72 -1860 1861 0
-1861 2057 0
73 -1861 1862 0
-1862 2058 0
74 -1862 1863 0
-1863 2059 0
75 -1863 1864 0
-1864 2060 0
76 -1864 1865 0
-1865 2061 0
77 -1865 1866 0
-1866 2062 0
78 -1866 1867 0
-1867 2063 0
79 -1867 1868 0
-1868 2064 0
80 -1868 1869 0
-1869 2065 0
81 -1869 1870 0
-1870 2066 0
82 -1870 1871 0
-1871 2067 0
83 -1871 1872 0
-1872 2068 0
84 -1872 1873 0
-1873 2069 0
85 -1873 1874 0
-1874 2070 0
86 -1874 1875 0
-1875 2071 0
87 -1875 1876 0
-1876 2072 0
88 -1876 1877 0
-1877 2073 0
89 -1877 1878 0
-1878 2074 0
90 -1878 1879 0
-1879 2075 0
91 -1879 1880 0
-1880 2076 0
92 -1880 1881 0
-1881 2077 0
93 -1881 1882 0
-1882 2078 0
94 -1882 1883 0
-1883 2079 0
95 -1883 1884 0
-1884 2080 0
96 -1884 1885 0
-1885 2081 0
97 -1885 1886 0
-1886 2082 0
98 -1886 1887 0
-1887 2083 0
99 -1887 1888 0
-1888 2084 0
100 -1888 1889 0
-1889 2085 0
101 -1889 1890 0
-1890 2086 0
102 -1890 1891 0
-1891 2087 0
103 -1891 1892 0
-1892 2088 0
104 -1892 1893 0
-1893 2089 0
105 -1893 1894 0
-1894 2090 0
106 -1894 1895 0
-1895 2091 0
107 -1895 1896 0
-1896 2092 0
108 -1896 1897 0
-1897 2093 0
109 -1897 1898 0
-1898 2094 0
110 -1898 1899 0
-1899 2095 0
111 -1899 1900 0
-1900 2096 0
112 -1900 1901 0
-1901 2097 0
113 -1901 1902 0
-1902 2098 0
114 -1902 1903 0
-1903 2099 0
115 -1903 1904 0
-1904 2100 0
116 -1904 1905 0
-1905 2101 0
117 -1905 1906 0
-1906 2102 0
118 -1906 1907 0
-1907 2103 0
119 -1907 1908 0
-1908 2104 0
120 -1908 1909 0
-1909 2105 0
121 -1909 1910 0
-1910 2106 0
122 -1910 1911 0
-1911 2107 0
123 -1911 1912 0
-1912 2108 0
124 -1912 1913 0
-1913 2109 0
125 -1913 1914 0
-1914 2110 0
126 -1914 1915 0
-1915 2111 0
127 -1915 1916 0
-1916 2112 0
128 -1916 1917 0
-1917 2113 0
129 -1917 1918 0
-1918 2114 0
130 -1918 1919 0
-1919 2115 0
131 -1919 1920 0
-1920 2116 0
132 -1920 1921 0
-1921 2117 0
133 -1921 1922 0
-1922 2118 0
134 -1922 1923 0
-1923 2119 0
135 -1923 1924 0
-1924 2120 0
136 -1924 1925 0
-1925 2121 0
137 -1925 1926 0
-1926 2122 0
138 -1926 1927 0
-1927 2123 0
139 -1927 1928 0
-1928 2124 0
140 -1928 1929 0
-1929 2125 0
141 -1929 1930 0
-1930 2126 0
142 -1930 1931 0
-1931 2127 0
143 -1931 1932 0
-1932 2128 0
144 -1932 1933 0
-1933 2129 0
145 -1933 1934 0
-1934 2130 0
146 -1934 1935 0
-1935 2131 0
147 -1935 1936 0
-1936 2132 0
148 -1936 1937 0
-1937 2133 0
149 -1937 1938 0
-1938 2134 0
150 -1938 1939 0
-1939 2135 0
151 -1939 1940 0
-1940 2136 0
152 -1940 1941 0
-1941 2137 0
153 -1941 1942 0
-1942 2138 0
154 -1942 1943 0
-1943 2139 0
155 -1943 1944 0
-1944 2140 0
156 -1944 1945 0
-1945 2141 0
157 -1945 1946 0
-1946 2142 0
158 -1946 1947 0
-1947 2143 0
159 -1947 1948 0
-1948 2144 0
160 -1948 1949 0
-1949 2145 0
161 -1949 1950 0
-1950 2146 0
162 -1950 1951 0
-1951 2147 0
163 -1951 1952 0
-1952 2148 0
164 -1952 1953 0
-1953 2149 0
165 -1953 1954 0
-1954 2150 0
166 -1954 1955 0
-1955 2151 0
167 -1955 1956 0
-1956 2152 0
168 -1956 1957 0
-1957 2153 0
169 -1957 1958 0
-1958 2154 0
170 -1958 1959 0
-1959 2155 0
171 -1959 1960 0
-1960 2156 0
172 -1960 1961 0
-1961 2157 0
173 -1961 1962 0
-1962 2158 0
174 -1962 1963 0
-1963 2159 0
175 -1963 1964 0
-1964 2160 0
176 -1964 1965 0
-1965 2161 0
177 -1965 1966 0
-1966 2162 0
178 -1966 1967 0
-1967 2163 0
179 -1967 1968 0
-1968 2164 0
180 -1968 1969 0
-1969 2165 0
181 -1969 1970 0
-1970 2166 0
182 -1970 1971 0
-1971 2167 0
183 -1971 1972 0
-1972 2168 0
184 -1972 1973 0
-1973 2169 0
185 -1973 1974 0
-1974 2170 0
186 -1974 1975 0
-1975 2171 0
187 -1975 1976 0
-1976 2172 0
188 -1976 1977 0
-1977 2173 0
189 -1977 1978 0
-1978 2174 0
190 -1978 1979 0
-1979 2175 0
191 -1979 1980 0
-1980 2176 0
192 -1980 1981 0
-1981 2177 0
193 -1981 1982 0
-1982 2178 0
194 -1982 1983 0
-1983 2179 0
195 -1983 1984 0
-1984 2180 0
196 -1984 1985 0
-1985 2181 0
197 -1985 1986 0
-1986 2182 0
198 -1986 1987 0
-1987 2183 0
199 -1987 1988 0
-1988 2184 0
200 -1988 1989 0
-1989 2185 0
201 -1989 1990 0
-1990 2186 0
202 -1990 1991 0
-1991 2187 0
203 -1991 1992 0
-1992 2188 0
204 -1992 0
9 1993 0
-1993 2189 0
10 -1993 1994 0
-1994 2190 0
11 -1994 1995 0
-1995 2191 0
12 -1995 1996 0
-1996 2192 0
13 -1996 1997 0
-1997 2193 0
14 -1997 1998 0
-1998 2194 0
15 -1998 1999 0
-1999 2195 0
16 -1999 2000 0
-2000 2196 0
17 -2000 2001 0
-2001 2197 0
18 -2001 2002 0
-2002 2198 0
19 -2002 2003 0
-2003 2199 0
20 -2003 2004 0
-2004 2200 0
21 -2004 2005 0
-2005 2201 0
22 -2005 2006 0
-2006 2202 0
23 -2006 2007 0
-2007 2203 0
24 -2007 2008 0
-2008 2204 0
25 -2008 2009 0
-2009 2205 0
26 -2009 2010 0
-2010 2206 0
27 -2010 2011 0
-2011 2207 0
28 -2011 2012 0
-2012 2208 0
29 -2012 2013 0
-2013 2209 0
30 -2013 2014 0
-2014 2210 0
31 -2014 2015 0
-2015 2211 0
32 -2015 2016 0
-2016 2212 0
33 -2016 2017 0
-2017 2213 0
34 -2017 2018 0
-2018 2214 0
35 -2018 2019 0
-2019 2215 0
36 -2019 2020 0
-2020 2216 0
37 -2020 2021 0
-2021 2217 0
38 -2021 2022 0
-2022 2218 0
39 -2022 2023 0
-2023 2219 0
40 -2023 2024 0
-2024 2220 0
41 -2024 2025 0
-2025 2221 0
42 -2025 2026 0
-2026 2222 0
43 -2026 2027 0
-2027 2223 0
44 -2027 2028 0
-2028 2224 0
45 -2028 2029 0
-2029 2225 0
46 -2029 2030 0
-2030 2226 0
47 -2030 2031 0
-2031 2227 0
48 -2031 2032 0
-2032 2228 0
49 -2032 2033 0
-2033 2229 0
50 -2033 2034 0
-2034 2230 0
51 -2034 2035 0
-2035 2231 0
52 -2035 2036 0
-2036 2232 0
53 -2036 2037 0
-2037 2233 0
54 -2037 2038 0
-2038 2234 0
55 -2038 2039 0
-2039 2235 0
56 -2039 2040 0
-2040 2236 0
57 -2040 2041 0
-2041 2237 0
58 -2041 2042 0
-2042 2238 0
59 -2042 2043 0
-2043 2239 0
60 -2043 2044 0
-2044 2240 0
61 -2044 2045 0
-2045 2241 0
62 -2045 2046 0
-2046 2242 0
63 -2046 2047 0
-2047 2243 0
64 -2047 2048 0
-2048 2244 0
65 -2048 2049 0
-2049 2245 0
66 -2049 2050 0
-2050 2246 0
67 -2050 2051 0
-2051 2247 0
68 -2051 2052 0
-2052 2248 0
69 -2052 2053 0
-2053 2249 0
70 -2053 2054 0
-2054 2250 0
71 -2054 2055 0
-2055 2251 0
72 -2055 2056 0
-2056 2252 0
73 -2056 2057 0
-2057 2253 0
74 -2057 2058 0
-2058 2254 0
75 -2058 2059 0
-2059 2255 0
76 -2059 2060 0
-2060 2256 0
77 -2060 2061 0
-2061 2257 0
78 -2061 2062 0
-2062 2258 0
79 -2062 2063 0
-2063 2259 0
80 -2063 2064 0
-2064 2260 0
81 -2064 2065 0
-2065 2261 0
82 -2065 2066 0
-2066 2262 0
83 -2066 2067 0
-2067 2263 0
84 -2067 2068 0
-2068 2264 0
85 -2068 2069 0
-2069 2265 0
86 -2069 2070 0
-2070 2266 0
87 -2070 2071 0
-2071 2267 0
88 -2071 2072 0
-2072 2268 0
89 -2072 2073 0
-2073 2269 0
90 -2073 2074 0
-2074 2270 0
91 -2074 2075 0
-2075 2271 0
92 -2075 2076 0
-2076 2272 0
93 -2076 2077 0
-2077 2273 0
94 -2077 2078 0
-2078 2274 0
95 -2078 2079 0
-2079 2275 0
96 -2079 2080 0
-2080 2276 0
97 -2080 2081 0
-2081 2277 0
98 -2081 2082 0
-2082 2278 0
99 -2082 2083 0
-2083 2279 0
100 -2083 2084 0
-2084 2280 0
101 -2084 2085 0
-2085 2281 0
102 -2085 2086 0
-2086 2282 0
103 -2086 2087 0
-2087 2283 0
104 -2087 2088 0
-2088 2284 0
105 -2088 2089 0
-2089 2285 0
106 -2089 2090 0
-2090 2286 0
107 -2090 2091 0
-2091 2287 0
108 -2091 2092 0
-2092 2288 0
109 -2092 2093 0
-2093 2289 0
110 -2093 2094 0
-2094 2290 0
111 -2094 2095 0
-2095 2291 0
112 -2095 2096 0
-2096 2292 0
113 -2096 2097 0
-2097 2293 0
114 -2097 2098 0
-2098 2294 0
115 -2098 2099 0
-2099 2295 0
116 -2099 2100 0
-2100 2296 0
117 -2100 2101 0
-2101 2297 0
118 -2101 2102 0
-2102 2298 0
119 -2102 2103 0
-2103 2299 0
120 -2103 2104 0
-2104 2300 0
121 -2104 2105 0
-2105 2301 0
122 -2105 2106 0
-2106 2302 0
123 -2106 2107 0
-2107 2303 0
124 -2107 2108 0
-2108 2304 0
125 -2108 2109 0
-2109 2305 0
126 -2109 2110 0
-2110 2306 0
127 -2110 2111 0
-2111 2307 0
128 -2111 2112 0
-2112 2308 0
129 -2112 2113 0
-2113 2309 0
130 -2113 2114 0
-2114 2310 0
131 -2114 2115 0
-2115 2311 0
132 -2115 2116 0
-2116 2312 0
133 -2116 2117 0
-2117 2313 0
134 -2117 2118 0
-2118 2314 0
135 -2118 2119 0
-2119 2315 0
136 -2119 2120 0
-2120 2316 0
137 -2120 2121 0
-2121 2317 0
138 -2121 2122 0
-2122 2318 0
139 -2122 2123 0
-2123 2319 0
140 -2123 2124 0
-2124 2320 0
141 -2124 2125 0
-2125 2321 0
142 -2125 2126 0
-2126 2322 0
143 -2126 2127 0
-2127 2323 0
144 -2127 2128 0
-2128 2324 0
145 -2128 2129 0
-2129 2325 0
146 -2129 2130 0
-2130 2326 0
147 -2130 2131 0
-2131 2327 0
148 -2131 2132 0
-2132 2328 0
149 -2132 2133 0
-2133 2329 0
150 -2133 2134 0
-2134 2330 0
151 -2134 2135 0
-2135 2331 0
152 -2135 2136 0
-2136 2332 0
153 -2136 2137 0
-2137 2333 0
154 -2137 2138 0
-2138 2334 0
155 -2138 2139 0
-2139 2335 0
156 -2139 2140 0
-2140 2336 0
157 -2140 2141 0
-2141 2337 0
158 -2141 2142 0
-2142 2338 0
159 -2142 2143 0
-2143 2339 0
160 -2143 2144 0
-2144 2340 0
161 -2144 2145 0
-2145 2341 0
162 -2145 2146 0
-2146 2342 0
163 -2146 2147 0
-2147 2343 0
164 -2147 2148 0
-2148 2344 0
165 -2148 2149 0
-2149 2345 0
166 -2149 2150 0
-2150 2346 0
167 -2150 2151 0
-2151 2347 0
168 -2151 2152 0
-2152 2348 0
169 -2152 2153 0
-2153 2349 0
170 -2153 2154 0
-2154 2350 0
171 -2154 2155 0
-2155 2351 0
172 -2155 2156 0
-2156 2352 0
173 -2156 2157 0
-2157 2353 0
174 -2157 2158 0
-2158 2354 0
175 -2158 2159 0
-2159 2355 0
176 -2159 2160 0
-2160 2356 0
177 -2160 2161 0
-2161 2357 0
178 -2161 2162 0
-2162 2358 0
179 -2162 2163 0
-2163 2359 0
180 -2163 2164 0
-2164 2360 0
181 -2164 2165 0
-2165 2361 0
182 -2165 2166 0
-2166 2362 0
183 -2166 2167 0
-2167 2363 0
184 -2167 2168 0
-2168 2364 0
185 -2168 2169 0
-2169 2365 0
186 -2169 2170 0
-2170 2366 0
187 -2170 2171 0
-2171 2367 0
188 -2171 2172 0
-2172 2368 0
189 -2172 2173 0
-2173 2369 0
190 -2173 2174 0
-2174 2370 0
191 -2174 2175 0
-2175 2371 0
192 -2175 2176 0
-2176 2372 0
193 -2176 2177 0
-2177 2373 0
194 -2177 2178 0
-2178 2374 0
195 -2178 2179 0
-2179 2375 0
196 -2179 2180 0
-2180 2376 0
197 -2180 2181 0
-2181 2377 0
198 -2181 2182 0
-2182 2378 0
199 -2182 2183 0
-2183 2379 0
200 -2183 2184 0
-2184 2380 0
201 -2184 2185 0
-2185 2381 0
202 -2185 2186 0
-2186 2382 0
203 -2186 2187 0
-2187 2383 0
204 -2187 2188 0
-2188 2384 0
205 -2188 0
10 2189 0
-2189 2385 0
11 -2189 2190 0
-2190 2386 0
12 -2190 2191 0
-2191 2387 0
13 -2191 2192 0
-2192 2388 0
14 -2192 2193 0
-2193 2389 0
15 -2193 2194 0
-2194 2390 0
16 -2194 2195 0
-2195 2391 0
17 -2195 2196 0
-2196 2392 0
18 -2196 2197 0
-2197 2393 0
19 -2197 2198 0
-2198 2394 0
20 -2198 2199 0
-2199 2395 0
21 -2199 2200 0
-2200 2396 0
22 -2200 2201 0
-2201 2397 0
23 -2201 2202 0
-2202 2398 0
24 -2202 2203 0
-2203 2399 0
25 -2203 2204 0
-2204 2400 0
26 -2204 2205 0
-2205 2401 0
27 -2205 2206 0
-2206 2402 0
28 -2206 2207 0
-2207 2403 0
29 -2207 2208 0
-2208 2404 0
30 -2208 2209 0
-2209 2405 0
31 -2209 2210 0
-2210 2406 0
32 -2210 2211 0
-2211 2407 0
33 -2211 2212 0
-2212 2408 0
34 -2212 2213 0
-2213 2409 0
35 -2213 2214 0
-2214 2410 0
36 -2214 2215 0
-2215 2411 0
37 -2215 2216 0
-2216 2412 0
38 -2216 2217 0
-2217 2413 0
39 -2217 2218 0
-2218 2414 0
40 -2218 2219 0
-2219 2415 0
41 -2219 2220 0
-2220 2416 0
42 -2220 2221 0
-2221 2417 0
43 -2221 2222 0
-2222 2418 0
44 -2222 2223 0
-2223 2419 0
45 -2223 2224 0
-2224 2420 0
46 -2224 2225 0
-2225 2421 0
47 -2225 2226 0
-2226 2422 0
48 -2226 2227 0
-2227 2423 0
49 -2227 2228 0
-2228 2424 0
50 -2228 2229 0
-2229 2425 0
51 -2229 2230 0
-2230 2426 0
52 -2230 2231 0
-2231 2427 0
53 -2231 2232 0
-2232 2428 0
54 -2232 2233 0
-2233 2429 0
55 -2233 2234 0
-2234 2430 0
56 -2234 2235 0
-2235 2431 0
57 -2235 2236 0
-2236 2432 0
58 -2236 2237 0
-2237 2433 0
59 -2237 2238 0
-2238 2434 0
60 -2238 2239 0
-2239 2435 0
61 -2239 2240 0
-2240 2436 0
62 -2240 2241 0
-2241 2437 0
63 -2241 2242 0
-2242 2438 0
64 -2242 2243 0
-2243 2439 0
65 -2243 2244 0
-2244 2440 0
66 -2244 2245 0
-2245 2441 0
67 -2245 2246 0
-2246 2442 0
68 -2246 2247 0
-2247 2443 0
69 -2247 2248 0
-2248 2444 0
70 -2248 2249 0
-2249 2445 0
71 -2249 2250 0
-2250 2446 0
72 -2250 2251 0
-2251 2447 0
73 -2251 2252 0
-2252 2448 0
74 -2252 2253 0
-2253 2449 0
75 -2253 2254 0
-2254 2450 0
76 -2254 2255 0
-2255 2451 0
77 -2255 2256 0
-2256 2452 0
78 -2256 2257 0
-2257 2453 0
79 -2257 2258 0
-2258 2454 0
80 -2258 2259 0
-2259 2455 0
81 -2259 2260 0
-2260 2456 0
82 -2260 2261 0
-2261 2457 0
83 -2261 2262 0
-2262 2458 0
84 -2262 2263 0
-2263 2459 0
85 -2263 2264 0
-2264 2460 0
86 -2264 2265 0
-2265 2461 0
87 -2265 2266 0
-2266 2462 0
88 -2266 2267 0
-2267 2463 0
89 -2267 2268 0
-2268 2464 0
90 -2268 2269 0
-2269 2465 0
91 -2269 2270 0
-2270 2466 0
92 -2270 2271 0
-2271 2467 0
93 -2271 2272 0
-2272 2468 0
94 -2272 2273 0
-2273 2469 0
95 -2273 2274 0
-2274 2470 0
96 -2274 2275 0
-2275 2471 0
97 -2275 2276 0
-2276 2472 0
98 -2276 2277 0
-2277 2473 0
99 -2277 2278 0
-2278 2474 0
100 -2278 2279 0
-2279 2475 0
101 -2279 2280 0
-2280 2476 0
102 -2280 2281 0
-2281 2477 0
103 -2281 2282 0
-2282 2478 0
104 -2282 2283 0
-2283 2479 0
105 -2283 2284 0
-2284 2480 0
106 -2284 2285 0
-2285 2481 0
107 -2285 2286 0
-2286 2482 0
108 -2286 2287 0
-2287 2483 0
109 -2287 2288 0
-2288 2484 0
110 -2288 2289 0
-2289 2485 0
111 -2289 2290 0
-2290 2486 0
112 -2290 2291 0
-2291 2487 0
113 -2291 2292 0
-2292 2488 0
114 -2292 2293 0
-2293 2489 0
115 -2293 2294 0
-2294 2490 0
116 -2294 2295 0
-2295 2491 0
117 -2295 2296 0
-2296 2492 0
118 -2296 2297 0
-2297 2493 0
119 -2297 2298 0
-2298 2494 0
120 -2298 2299 0
-2299 2495 0
121 -2299 2300 0
-2300 2496 0
122 -2300 2301 0
-2301 2497 0
123 -2301 2302 0
-2302 2498 0
124 -2302 2303 0
-2303 2499 0
125 -2303 2304 0
-2304 2500 0
126 -2304 2305 0
-2305 2501 0
127 -2305 2306 0
-2306 2502 0
128 -2306 2307 0
-2307 2503 0
129 -2307 2308 0
-2308 2504 0
130 -2308 2309 0
-2309 2505 0
131 -2309 2310 0
-2310 2506 0
132 -2310 2311 0
-2311 2507 0
133 -2311 2312 0
-2312 2508 0
134 -2312 2313 0
-2313 2509 0
135 -2313 2314 0
-2314 2510 0
136 -2314 2315 0
-2315 2511 0
137 -2315 2316 0
-2316 2512 0
138 -2316 2317 0
-2317 2513 0
139 -2317 2318 0
-2318 2514 0
140 -2318 2319 0
-2319 2515 0
141 -2319 2320 0
-2320 2516 0
142 -2320 2321 0
-2321 2517 0
143 -2321 2322 0
-2322 2518 0
144 -2322 2323 0
-2323 2519 0
145 -2323 2324 0
-2324 2520 0
146 -2324 2325 0
-2325 2521 0
147 -2325 2326 0
-2326 2522 0
148 -2326 2327 0
-2327 2523 0
149 -2327 2328 0
-2328 2524 0
150 -2328 2329 0
-2329 2525 0
151 -2329 2330 0
-2330 2526 0
152 -2330 2331 0
-2331 2527 0
153 -2331 2332 0
-2332 2528 0
154 -2332 2333 0
-2333 2529 0
155 -2333 2334 0
-2334 2530 0
156 -2334 2335 0
-2335 2531 0
157 -2335 2336 0
-2336 2532 0
158 -2336 2337 0
-2337 2533 0
159 -2337 2338 0
-2338 2534 0
160 -2338 2339 0
-2339 2535 0
161 -2339 2340 0
-2340 2536 0
162 -2340 2341 0
-2341 2537 0
163 -2341 2342 0
-2342 2538 0
164 -2342 2343 0
-2343 2539 0
165 -2343 2344 0
-2344 2540 0
166 -2344 2345 0
-2345 2541 0
167 -2345 2346 0
-2346 2542 0
168 -2346 2347 0
-2347 2543 0
169 -2347 2348 0
-2348 2544 0
170 -2348 2349 0
-2349 2545 0
171 -2349 2350 0
-2350 2546 0
172 -2350 2351 0
-2351 2547 0
173 -2351 2352 0
-2352 2548 0
174 -2352 2353 0
-2353 2549 0
175 -2353 2354 0
-2354 2550 0
176 -2354 2355 0
-2355 2551 0
177 -2355 2356 0
-2356 2552 0
178 -2356 2357 0
-2357 2553 0
179 -2357 2358 0
-2358 2554 0
180 -2358 2359 0
-2359 2555 0
181 -2359 2360 0
-2360 2556 0
182 -2360 2361 0
-2361 2557 0
183 -2361 2362 0
-2362 2558 0
184 -2362 2363 0
-2363 2559 0
185 -2363 2364 0
-2364 2560 0
186 -2364 2365 0
-2365 2561 0
187 -2365 2366 0
-2366 2562 0
188 -2366 2367 0
-2367 2563 0
189 -2367 2368 0
-2368 2564 0
190 -2368 2369 0
-2369 2565 0
191 -2369 2370 0
-2370 2566 0
192 -2370 2371 0
-2371 2567 0
193 -2371 2372 0
-2372 2568 0
194 -2372 2373 0
-2373 2569 0
195 -2373 2374 0
-2374 2570 0
196 -2374 2375 0
-2375 2571 0
197 -2375 2376 0
-2376 2572 0
198 -2376 2377 0
-2377 2573 0
199 -2377 2378 0
-2378 2574 0
200 -2378 2379 0
-2379 2575 0
201 -2379 2380 0
-2380 2576 0
202 -2380 2381 0
-2381 2577 0
203 -2381 2382 0
-2382 2578 0
204 -2382 2383 0
-2383 2579 0
205 -2383 2384 0
-2384 2580 0
206 -2384 0
11 2385 0
-2385 2581 0
12 -2385 2386 0
-2386 2582 0
13 -2386 2387 0
-2387 2583 0
14 -2387 2388 0
-2388 2584 0
15 -2388 2389 0
-2389 2585 0
16 -2389 2390 0
-2390 2586 0
17 -2390 2391 0
-2391 2587 0
18 -2391 2392 0
-2392 2588 0
19 -2392 2393 0
-2393 2589 0
20 -2393 2394 0
-2394 2590 0
21 -2394 2395 0
-2395 2591 0
22 -2395 2396 0
-2396 2592 0
23 -2396 2397 0
-2397 2593 0
24 -2397 2398 0
-2398 2594 0
25 -2398 2399 0
-2399 2595 0
26 -2399 2400 0
-2400 2596 0
27 -2400 2401 0
-2401 2597 0
28 -2401 2402 0
-2402 2598 0
29 -2402 2403 0
-2403 2599 0
30 -2403 2404 0
-2404 2600 0
31 -2404 2405 0
-2405 2601 0
32 -2405 2406 0
-2406 2602 0
33 -2406 2407 0
-2407 2603 0
34 -2407 2408 0
-2408 2604 0
35 -2408 2409 0
-2409 2605 0
36 -2409 2410 0
-2410 2606 0
37 -2410 2411 0
-2411 2607 0
38 -2411 2412 0
-2412 2608 0
39 -2412 2413 0
-2413 2609 0
40 -2413 2414 0
-2414 2610 0
41 -2414 2415 0
-2415 2611 0
42 -2415 2416 0
-2416 2612 0
43 -2416 2417 0
-2417 2613 0
44 -2417 2418 0
-2418 2614 0
45 -2418 2419 0
-2419 2615 0
46 -2419 2420 0
-2420 2616 0
47 -2420 2421 0
-2421 2617 0
48 -2421 2422 0
-2422 2618 0
49 -2422 2423 0
-2423 2619 0
50 -2423 2424 0
-2424 2620 0
51 -2424 2425 0
-2425 2621 0
52 -2425 2426 0
-2426 2622 0
53 -2426 2427 0
-2427 2623 0
54 -2427 2428 0
-2428 2624 0
55 -2428 2429 0
-2429 2625 0
56 -2429 2430 0
-2430 2626 0
57 -2430 2431 0
-2431 2627 0
58 -2431 2432 0
-2432 2628 0
59 -2432 2433 0
-2433 2629 0
60 -2433 2434 0
-2434 2630 0
61 -2434 2435 0
-2435 2631 0
62 -2435 2436 0
-2436 2632 0
63 -2436 2437 0
-2437 2633 0
64 -2437 2438 0
-2438 2634 0
65 -2438 2439 0
-2439 2635 0
66 -2439 2440 0
-2440 2636 0
67 -2440 2441 0
-2441 2637 0
68 -2441 2442 0
-2442 2638 0
69 -2442 2443 0
-2443 2639 0
70 -2443 2444 0
-2444 2640 0
71 -2444 2445 0
-2445 2641 0
72 -2445 2446 0
-2446 2642 0
73 -2446 2447 0
-2447 2643 0
74 -2447 2448 0
-2448 2644 0
75 -2448 2449 0
-2449 2645 0
76 -2449 2450 0
-2450 2646 0
77 -2450 2451 0
-2451 2647 0
78 -2451 2452 0
-2452 2648 0
79 -2452 2453 0
-2453 2649 0
80 -2453 2454 0
-2454 2650 0
81 -2454 2455 0
-2455 2651 0
82 -2455 2456 0
-2456 2652 0
83 -2456 2457 0
-2457 2653 0
84 -2457 2458 0
-2458 2654 0
85 -2458 2459 0
-2459 2655 0
86 -2459 2460 0
-2460 2656 0
87 -2460 2461 0
-2461 2657 0
88 -2461 2462 0
-2462 2658 0
89 -2462 2463 0
-2463 2659 0
90 -2463 2464 0
-2464 2660 0
91 -2464 2465 0
-2465 2661 0
92 -2465 2466 0
-2466 2662 0
93 -2466 2467 0
-2467 2663 0
94 -2467 2468 0
-2468 2664 0
95 -2468 2469 0
-2469 2665 0
96 -2469 2470 0
-2470 2666 0
97 -2470 2471 0
-2471 2667 0
98 -2471 2472 0
-2472 2668 0
99 -2472 2473 0
-2473 2669 0
100 -2473 2474 0
-2474 2670 0
101 -2474 2475 0
-2475 2671 0
102 -2475 2476 0
-2476 2672 0
103 -2476 2477 0
-2477 2673 0
104 -2477 2478 0
-2478 2674 0
105 -2478 2479 0
-2479 2675 0
106 -2479 2480 0
-2480 2676 0
107 -2480 2481 0
-2481 2677 0
108 -2481 2482 0
-2482 2678 0
109 -2482 2483 0
-2483 2679 0
110 -2483 2484 0
-2484 2680 0
111 -2484 2485 0
-2485 2681 0
112 -2485 2486 0
-2486 2682 0
113 -2486 2487 0
-2487 2683 0
114 -2487 2488 0
-2488 2684 0
115 -2488 2489 0
-2489 2685 0
116 -2489 2490 0
-2490 2686 0
117 -2490 2491 0
-2491 2687 0
118 -2491 2492 0
-2492 2688 0
119 -2492 2493 0
-2493 2689 0
120 -2493 2494 0
-2494 2690 0
121 -2494 2495 0
-2495 2691 0
122 -2495 2496 0
-2496 2692 0
123 -2496 2497 0
-2497 2693 0
124 -2497 2498 0
-2498 2694 0
125 -2498 2499 0
-2499 2695 0
126 -2499 2500 0
-2500 2696 0
127 -2500 2501 0
-2501 2697 0
128 -2501 2502 0
-2502 2698 0
129 -2502 2503 0
-2503 2699 0
130 -2503 2504 0
-2504 2700 0
131 -2504 2505 0
-2505 2701 0
132 -2505 2506 0
-2506 2702 0
133 -2506 2507 0
-2507 2703 0
134 -2507 2508 0
-2508 2704 0
135 -2508 2509 0
-2509 2705 0
136 -2509 2510 0
-2510 2706 0
137 -2510 2511 0
-2511 2707 0
138 -2511 2512 0
-2512 2708 0
139 -2512 2513 0
-2513 2709 0
140 -2513 2514 0
-2514 2710 0
141 -2514 2515 0
-2515 2711 0
142 -2515 2516 0
-2516 2712 0
143 -2516 2517 0
-2517 2713 0
144 -2517 2518 0
-2518 2714 0
145 -2518 2519 0
-2519 2715 0
146 -2519 2520 0
-2520 2716 0
147 -2520 2521 0
-2521 2717 0
148 -2521 2522 0
-2522 2718 0
149 -2522 2523 0
-2523 2719 0
150 -2523 2524 0
-2524 2720 0
151 -2524 2525 0
-2525 2721 0
152 -2525 2526 0
-2526 2722 0
153 -2526 2527 0
-2527 2723 0
154 -2527 2528 0
-2528 2724 0
155 -2528 2529 0
-2529 2725 0
156 -2529 2530 0
-2530 2726 0
157 -2530 2531 0
-2531 2727 0
158 -2531 2532 0
-2532 2728 0
159 -2532 2533 0
-2533 2729 0
160 -2533 2534 0
-2534 2730 0
161 -2534 2535 0
-2535 2731 0
162 -2535 2536 0
-2536 2732 0
163 -2536 2537 0
-2537 2733 0
164 -2537 2538 0
-2538 2734 0
165 -2538 2539 0
-2539 2735 0
166 -2539 2540 0
-2540 2736 0
167 -2540 2541 0
-2541 2737 0
168 -2541 2542 0
-2542 2738 0
169 -2542 2543 0
-2543 2739 0
170 -2543 2544 0
-2544 2740 0
171 -2544 2545 0
-2545 2741 0
172 -2545 2546 0
-2546 2742 0
173 -2546 2547 0
-2547 2743 0
174 -2547 2548 0
-2548 2744 0
175 -2548 2549 0
-2549 2745 0
176 -2549 2550 0
-2550 2746 0
177 -2550 2551 0
-2551 2747 0
178 -2551 2552 0
-2552 2748 0
179 -2552 2553 0
-2553 2749 0
180 -2553 2554 0
-2554 2750 0
181 -2554 2555 0
-2555 2751 0
182 -2555 2556 0
-2556 2752 0
183 -2556 2557 0
-2557 2753 0
184 -2557 2558 0
-2558 2754 0
185 -2558 2559 0
-2559 2755 0
186 -2559 2560 0
-2560 2756 0
187 -2560 2561 0
-2561 2757 0
188 -2561 2562 0
-2562 2758 0
189 -2562 2563 0
-2563 2759 0
190 -2563 2564 0
-2564 2760 0
191 -2564 2565 0
-2565 2761 0
192 -2565 2566 0
-2566 2762 0
193 -2566 2567 0
-2567 2763 0
194 -2567 2568 0
-2568 2764 0
195 -2568 2569 0
-2569 2765 0
196 -2569 2570 0
-2570 2766 0
197 -2570 2571 0
-2571 2767 0
198 -2571 2572 0
-2572 2768 0
199 -2572 2573 0
-2573 2769 0
200 -2573 2574 0
-2574 2770 0
201 -2574 2575 0
-2575 2771 0
202 -2575 2576 0
-2576 2772 0
203 -2576 2577 0
-2577 2773 0
204 -2577 2578 0
-2578 2774 0
205 -2578 2579 0
-2579 2775 0
206 -2579 2580 0
-2580 2776 0
207 -2580 0
12 2581 0
-2581 2777 0
13 -2581 2582 0
-2582 2778 0
14 -2582 2583 0
-2583 2779 0
15 -2583 2584 0
-2584 2780 0
16 -2584 2585 0
-2585 2781 0
17 -2585 2586 0
-2586 2782 0
18 -2586 2587 0
-2587 2783 0
19 -2587 2588 0
-2588 2784 0
20 -2588 2589 0
-2589 2785 0
21 -2589 2590 0
-2590 2786 0
22 -2590 2591 0
-2591 2787 0
23 -2591 2592 0
-2592 2788 0
24 -2592 2593 0
-2593 2789 0
25 -2593 2594 0
-2594 2790 0
26 -2594 2595 0
-2595 2791 0
27 -2595 2596 0
-2596 2792 0
28 -2596 2597 0
-2597 2793 0
29 -2597 2598 0
-2598 2794 0
30 -2598 2599 0
-2599 2795 0
31 -2599 2600 0
-2600 2796 0
32 -2600 2601 0
-2601 2797 0
33 -2601 2602 0
-2602 2798 0
34 -2602 2603 0
-2603 2799 0
35 -2603 2604 0
-2604 2800 0
36 -2604 2605 0
-2605 2801 0
37 -2605 2606 0
-2606 2802 0
38 -2606 2607 0
-2607 2803 0
39 -2607 2608 0
-2608 2804 0
40 -2608 2609 0
-2609 2805 0
41 -2609 2610 0
-2610 2806 0
42 -2610 2611 0
-2611 2807 0
43 -2611 2612 0
-2612 2808 0
44 -2612 2613 0
-2613 2809 0
45 -2613 2614 0
-2614 2810 0
46 -2614 2615 0
-2615 2811 0
47 -2615 2616 0
-2616 2812 0
48 -2616 2617 0
-2617 2813 0
49 -2617 2618 0
-2618 2814 0
50 -2618 2619 0
-2619 2815 0
51 -2619 2620 0
-2620 2816 0
52 -2620 2621 0
-2621 2817 0
53 -2621 2622 0
-2622 2818 0
54 -2622 2623 0
-2623 2819 0
55 -2623 2624 0
-2624 2820 0
56 -2624 2625 0
-2625 2821 0
57 -2625 2626 0
-2626 2822 0
58 -2626 2627 0
-2627 2823 0
59 -2627 2628 0
-2628 2824 0
60 -2628 2629 0
-2629 2825 0
61 -2629 2630 0
-2630 2826 0
62 -2630 2631 0
-2631 2827 0
63 -2631 2632 0
-2632 2828 0
64 -2632 2633 0
-2633 2829 0
65 -2633 2634 0
-2634 2830 0
66 -2634 2635 0
-2635 2831 0
67 -2635 2636 0
-2636 2832 0
68 -2636 2637 0
-2637 2833 0
69 -2637 2638 0
-2638 2834 0
70 -2638 2639 0
-2639 2835 0
71 -2639 2640 0
-2640 2836 0
72 -2640 2641 0
-2641 2837 0
73 -2641 2642 0
-2642 2838 0
74 -2642 2643 0
-2643 2839 0
75 -2643 2644 0
-2644 2840 0
76 -2644 2645 0
-2645 2841 0
77 -2645 2646 0
-2646 2842 0
78 -2646 2647 0
-2647 2843 0
79 -2647 2648 0
-2648 2844 0
80 -2648 2649 0
-2649 2845 0
81 -2649 2650 0
-2650 2846 0
82 -2650 2651 0
-2651 2847 0
83 -2651 2652 0
-2652 2848 0
84 -2652 2653 0
-2653 2849 0
85 -2653 2654 0
-2654 2850 0
86 -2654 2655 0
-2655 2851 0
87 -2655 2656 0
-2656 2852 0
88 -2656 2657 0
-2657 2853 0
89 -2657 2658 0
-2658 2854 0
90 -2658 2659 0
-2659 2855 0
91 -2659 2660 0
-2660 2856 0
92 -2660 2661 0
-2661 2857 0
93 -2661 2662 0
-2662 2858 0
94 -2662 2663 0
-2663 2859 0
95 -2663 2664 0
-2664 2860 0
96 -2664 2665 0
-2665 2861 0
97 -2665 2666 0
-2666 2862 0
98 -2666 2667 0
-2667 2863 0
99 -2667 2668 0
-2668 2864 0
100 -2668 2669 0
-2669 2865 0
101 -2669 2670 0
-2670 2866 0
102 -2670 2671 0
-2671 2867 0
103 -2671 2672 0
-2672 2868 0
104 -2672 2673 0
-2673 2869 0
105 -2673 2674 0
-2674 2870 0
106 -2674 2675 0
-2675 2871 0
107 -2675 2676 0
-2676 2872 0
108 -2676 2677 0
-2677 2873 0
109 -2677 2678 0
-2678 2874 0
110 -2678 2679 0
-2679 2875 0
111 -2679 2680 0
-2680 2876 0
112 -2680 2681 0
-2681 2877 0
113 -2681 2682 0
-2682 2878 0
114 -2682 2683 0
-2683 2879 0
115 -2683 2684 0
-2684 2880 0
116 -2684 2685 0
-2685 2881 0
117 -2685 2686 0
-2686 2882 0
118 -2686 2687 0
-2687 2883 0
119 -2687 2688 0
-2688 2884 0
120 -2688 2689 0
-2689 2885 0
121 -2689 2690 0
-2690 2886 0
122 -2690 2691 0
-2691 2887 0
123 -2691 2692 0
-2692 2888 0
124 -2692 2693 0
-2693 2889 0
125 -2693 2694 0
-2694 2890 0
126 -2694 2695 0
-2695 2891 0
127 -2695 2696 0
-2696 2892 0
128 -2696 2697 0
-2697 2893 0
129 -2697 2698 0
-2698 2894 0
130 -2698 2699 0
-2699 2895 0
131 -2699 2700 0
-2700 2896 0
132 -2700 2701 0
-2701 2897 0
133 -2701 2702 0
-2702 2898 0
134 -2702 2703 0
-2703 2899 0
135 -2703 2704 0
-2704 2900 0
136 -2704 2705 0
-2705 2901 0
137 -2705 2706 0
-2706 2902 0
138 -2706 2707 0
-2707 2903 0
139 -2707 2708 0
-2708 2904 0
140 -2708 2709 0
-2709 2905 0
141 -2709 2710 0
-2710 2906 0
142 -2710 2711 0
-2711 2907 0
143 -2711 2712 0
-2712 2908 0
144 -2712 2713 0
-2713 2909 0
145 -2713 2714 0
-2714 2910 0
146 -2714 2715 0
-2715 2911 0
147 -2715 2716 0
-2716 2912 0
148 -2716 2717 0
-2717 2913 0
149 -2717 2718 0
-2718 2914 0
150 -2718 2719 0
-2719 2915 0
151 -2719 2720 0
-2720 2916 0
152 -2720 2721 0
-2721 2917 0
153 -2721 2722 0
-2722 2918 0
154 -2722 2723 0
-2723 2919 0
155 -2723 2724 0
-2724 2920 0
156 -2724 2725 0
-2725 2921 0
157 -2725 2726 0
-2726 2922 0
158 -2726 2727 0
-2727 2923 0
159 -2727 2728 0
-2728 2924 0
160 -2728 2729 0
-2729 2925 0
161 -2729 2730 0
-2730 2926 0
162 -2730 2731 0
-2731 2927 0
163 -2731 2732 0
-2732 2928 0
164 -2732 2733 0
-2733 2929 0
165 -2733 2734 0
-2734 2930 0
166 -2734 2735 0
-2735 2931 0
167 -2735 2736 0
-2736 2932 0
168 -2736 2737 0
-2737 2933 0
169 -2737 2738 0
-2738 2934 0
170 -2738 2739 0
-2739 2935 0
171 -2739 2740 0
-2740 2936 0
172 -2740 2741 0
-2741 2937 0
173 -2741 2742 0
-2742 2938 0
174 -2742 2743 0
-2743 2939 0
175 -2743 2744 0
-2744 2940 0
176 -2744 2745 0
-2745 2941 0
177 -2745 2746 0
-2746 2942 0
178 -2746 2747 0
-2747 2943 0
179 -2747 2748 0
-2748 2944 0
180 -2748 2749 0
-2749 2945 0
181 -2749 2750 0
-2750 2946 0
182 -2750 2751 0
-2751 2947 0
183 -2751 2752 0
-2752 2948 0
184 -2752 2753 0
-2753 2949 0
185 -2753 2754 0
-2754 2950 0
186 -2754 2755 0
-2755 2951 0
187 -2755 2756 0
-2756 2952 0
188 -2756 2757 0
-2757 2953 0
189 -2757 2758 0
-2758 2954 0
190 -2758 2759 0
-2759 2955 0
191 -2759 2760 0
-2760 2956 0
192 -2760 2761 0
-2761 2957 0
193 -2761 2762 0
-2762 2958 0
194 -2762 2763 0
-2763 2959 0
195 -2763 2764 0
-2764 2960 0
196 -2764 2765 0
-2765 2961 0
197 -2765 2766 0
-2766 2962 0
198 -2766 2767 0
-2767 2963 0
199 -2767 2768 0
-2768 2964 0
200 -2768 2769 0
-2769 2965 0
201 -2769 2770 0
-2770 2966 0
202 -2770 2771 0
-2771 2967 0
203 -2771 2772 0
-2772 2968 0
204 -2772 2773 0
-2773 2969 0
205 -2773 2774 0
-2774 2970 0
206 -2774 2775 0
-2775 2971 0
207 -2775 2776 0
-2776 2972 0
208 -2776 0
13 2777 0
-2777 2973 0
14 -2777 2778 0
-2778 2974 0
15 -2778 2779 0
-2779 2975 0
16 -2779 2780 0
-2780 2976 0
17 -2780 2781 0
-2781 2977 0
18 -2781 2782 0
-2782 2978 0
19 -2782 2783 0
-2783 2979 0
20 -2783 2784 0
-2784 2980 0
21 -2784 2785 0
-2785 2981 0
22 -2785 2786 0
-2786 2982 0
23 -2786 2787 0
-2787 2983 0
24 -2787 2788 0
-2788 2984 0
25 -2788 2789 0
-2789 2985 0
26 -2789 2790 0
-2790 2986 0
27 -2790 2791 0
-2791 2987 0
28 -2791 2792 0
-2792 2988 0
29 -2792 2793 0
-2793 2989 0
30 -2793 2794 0
-2794 2990 0
31 -2794 2795 0
-2795 2991 0
32 -2795 2796 0
-2796 2992 0
33 -2796 2797 0
-2797 2993 0
34 -2797 2798 0
-2798 2994 0
35 -2798 2799 0
-2799 2995 0
36 -2799 2800 0
-2800 2996 0
37 -2800 2801 0
-2801 2997 0
38 -2801 2802 0
-2802 2998 0
39 -2802 2803 0
-2803 2999 0
40 -2803 2804 0
-2804 3000 0
41 -2804 2805 0
-2805 3001 0
42 -2805 2806 0
-2806 3002 0
43 -2806 2807 0
-2807 3003 0
44 -2807 2808 0
-2808 3004 0
45 -2808 2809 0
-2809 3005 0
46 -2809 2810 0
-2810 3006 0
47 -2810 2811 0
-2811 3007 0
48 -2811 2812 0
-2812 3008 0
49 -2812 2813 0
-2813 3009 0
50 -2813 2814 0
-2814 3010 0
51 -2814 2815 0
-2815 3011 0
52 -2815 2816 0
-2816 3012 0
53 -2816 2817 0
-2817 3013 0
54 -2817 2818 0
-2818 3014 0
55 -2818 2819 0
-2819 3015 0
56 -2819 2820 0
-2820 3016 0
57 -2820 2821 0
-2821 3017 0
58 -2821 2822 0
-2822 3018 0
59 -2822 2823 0
-2823 3019 0
60 -2823 2824 0
-2824 3020 0
61 -2824 2825 0
-2825 3021 0
62 -2825 2826 0
-2826 3022 0
63 -2826 2827 0
-2827 3023 0
64 -2827 2828 0
-2828 3024 0
65 -2828 2829 0
-2829 3025 0
66 -2829 2830 0
-2830 3026 0
67 -2830 2831 0
-2831 3027 0
68 -2831 2832 0
-2832 3028 0
69 -2832 2833 0
-2833 3029 0
70 -2833 2834 0
-2834 3030 0
71 -2834 2835 0
-2835 3031 0
72 -2835 2836 0
-2836 3032 0
73 -2836 2837 0
-2837 3033 0
74 -2837 2838 0
-2838 3034 0
75 -2838 2839 0
-2839 3035 0
76 -2839 2840 0
-2840 3036 0
77 -2840 2841 0
-2841 3037 0
78 -2841 2842 0
-2842 3038 0
79 -2842 2843 0
-2843 3039 0
80 -2843 2844 0
-2844 3040 0
81 -2844 2845 0
-2845 3041 0
82 -2845 2846 0
-2846 3042 0
83 -2846 2847 0
-2847 3043 0
84 -2847 2848 0
-2848 3044 0
85 -2848 2849 0
-2849 3045 0
86 -2849 2850 0
-2850 3046 0
87 -2850 2851 0
-2851 3047 0
88 -2851 2852 0
-2852 3048 0
89 -2852 2853 0
-2853 3049 0
90 -2853 2854 0
-2854 3050 0
91 -2854 2855 0
-2855 3051 0
92 -2855 2856 0
-2856 3052 0
93 -2856 2857 0
-2857 3053 0
94 -2857 2858 0
-2858 3054 0
95 -2858 2859 0
-2859 3055 0
96 -2859 2860 0
-2860 3056 0
97 -2860 2861 0
-2861 3057 0
98 -2861 2862 0
-2862 3058 0
99 -2862 2863 0
-2863 3059 0
100 -2863 2864 0
-2864 3060 0
101 -2864 2865 0
-2865 3061 0
102 -2865 2866 0
-2866 3062 0
103 -2866 2867 0
-2867 3063 0
104 -2867 2868 0
-2868 3064 0
105 -2868 2869 0
-2869 3065 0
106 -2869 2870 0
-2870 3066 0
107 -2870 2871 0
-2871 3067 0
108 -2871 2872 0
-2872 3068 0
109 -2872 2873 0
-2873 3069 0
110 -2873 2874 0
-2874 3070 0
111 -2874 2875 0
-2875 3071 0
112 -2875 2876 0
-2876 3072 0
113 -2876 2877 0
-2877 3073 0
114 -2877 2878 0
-2878 3074 0
115 -2878 2879 0
-2879 3075 0
116 -2879 2880 0
-2880 3076 0
117 -2880 2881 0
-2881 3077 0
118 -2881 2882 0
-2882 3078 0
119 -2882 2883 0
-2883 3079 0
120 -2883 2884 0
-2884 3080 0
121 -2884 2885 0
-2885 3081 0
122 -2885 2886 0
-2886 3082 0
123 -2886 2887 0
-2887 3083 0
124 -2887 2888 0
-2888 3084 0
125 -2888 2889 0
-2889 3085 0
126 -2889 2890 0
-2890 3086 0
127 -2890 2891 0
-2891 3087 0
128 -2891 2892 0
-2892 3088 0
129 -2892 2893 0
-2893 3089 0
130 -2893 2894 0
-2894 3090 0
131 -2894 2895 0
-2895 3091 0
132 -2895 2896 0
-2896 3092 0
133 -2896 2897 0
-2897 3093 0
134 -2897 2898 0
-2898 3094 0
135 -2898 2899 0
-2899 3095 0
136 -2899 2900 0
-2900 3096 0
137 -2900 2901 0
-2901 3097 0
138 -2901 2902 0
-2902 3098 0
139 -2902 2903 0
-2903 3099 0
140 -2903 2904 0
-2904 3100 0
141 -2904 2905 0
-2905 3101 0
142 -2905 2906 0
-2906 3102 0
143 -2906 2907 0
-2907 3103 0
144 -2907 2908 0
-2908 3104 0
145 -2908 2909 0
-2909 3105 0
146 -2909 2910 0
-2910 3106 0
147 -2910 2911 0
-2911 3107 0
148 -2911 2912 0
-2912 3108 0
149 -2912 2913 0
-2913 3109 0
150 -2913 2914 0
-2914 3110 0
151 -2914 2915 0
-2915 3111 0
152 -2915 2916 0
-2916 3112 0
153 -2916 2917 0
-2917 3113 0
154 -2917 2918 0
-2918 3114 0
155 -2918 2919 0
-2919 3115 0
156 -2919 2920 0
-2920 3116 0
157 -2920 2921 0
-2921 3117 0
158 -2921 2922 0
-2922 3118 0
159 -2922 2923 0
-2923 3119 0
160 -2923 2924 0
-2924 3120 0
161 -2924 2925 0
-2925 3121 0
162 -2925 2926 0
-2926 3122 0
163 -2926 2927 0
-2927 3123 0
164 -2927 2928 0
-2928 3124 0
165 -2928 2929 0
-2929 3125 0
166 -2929 2930 0
-2930 3126 0
167 -2930 2931 0
-2931 3127 0
168 -2931 2932 0
-2932 3128 0
169 -2932 2933 0
-2933 3129 0
170 -2933 2934 0
-2934 3130 0
171 -2934 2935 0
-2935 3131 0
172 -2935 2936 0
-2936 3132 0
173 -2936 2937 0
-2937 3133 0
174 -2937 2938 0
-2938 3134 0
175 -2938 2939 0
-2939 3135 0
176 -2939 2940 0
-2940 3136 0
177 -2940 2941 0
-2941 3137 0
178 -2941 2942 0
-2942 3138 0
179 -2942 2943 0
-2943 3139 0
180 -2943 2944 0
-2944 3140 0
181 -2944 2945 0
-2945 3141 0
182 -2945 2946 0
-2946 3142 0
183 -2946 2947 0
-2947 3143 0
184 -2947 2948 0
-2948 3144 0
185 -2948 2949 0
-2949 3145 0
186 -2949 2950 0
-2950 3146 0
187 -2950 2951 0
-2951 3147 0
188 -2951 2952 0
-2952 3148 0
189 -2952 2953 0
-2953 3149 0
190 -2953 2954 0
-2954 3150 0
191 -2954 2955 0
-2955 3151 0
192 -2955 2956 0
-2956 3152 0
193 -2956 2957 0
-2957 3153 0
194 -2957 2958 0
-2958 3154 0
195 -2958 2959 0
-2959 3155 0
196 -2959 2960 0
-2960 3156 0
197 -2960 2961 0
-2961 3157 0
198 -2961 2962 0
-2962 3158 0
199 -2962 2963 0
-2963 3159 0
200 -2963 2964 0
-2964 3160 0
201 -2964 2965 0
-2965 3161 0
202 -2965 2966 0
-2966 3162 0
203 -2966 2967 0
-2967 3163 0
204 -2967 2968 0
-2968 3164 0
205 -2968 2969 0
-2969 3165 0
206 -2969 2970 0
-2970 3166 0
207 -2970 2971 0
-2971 3167 0
208 -2971 2972 0
-2972 3168 0
209 -2972 0
14 2973 0
-2973 3169 0
15 -2973 2974 0
-2974 3170 0
16 -2974 2975 0
-2975 3171 0
17 -2975 2976 0
-2976 3172 0
18 -2976 2977 0
-2977 3173 0
19 -2977 2978 0
-2978 3174 0
20 -2978 2979 0
-2979 3175 0
21 -2979 2980 0
-2980 3176 0
22 -2980 2981 0
-2981 3177 0
23 -2981 2982 0
-2982 3178 0
24 -2982 2983 0
-2983 3179 0
25 -2983 2984 0
-2984 3180 0
26 -2984 2985 0
-2985 3181 0
27 -2985 2986 0
-2986 3182 0
28 -2986 2987 0
-2987 3183 0
29 -2987 2988 0
-2988 3184 0
30 -2988 2989 0
-2989 3185 0
31 -2989 2990 0
-2990 3186 0
32 -2990 2991 0
-2991 3187 0
33 -2991 2992 0
-2992 3188 0
34 -2992 2993 0
-2993 3189 0
35 -2993 2994 0
-2994 3190 0
36 -2994 2995 0
-2995 3191 0
37 -2995 2996 0
-2996 3192 0
38 -2996 2997 0
-2997 3193 0
39 -2997 2998 0
-2998 3194 0
40 -2998 2999 0
-2999 3195 0
41 -2999 3000 0
-3000 3196 0
42 -3000 3001 0
-3001 3197 0
43 -3001 3002 0
-3002 3198 0
44 -3002 3003 0
-3003 3199 0
45 -3003 3004 0
-3004 3200 0
46 -3004 3005 0
-3005 3201 0
47 -3005 3006 0
-3006 3202 0
48 -3006 3007 0
-3007 3203 0
49 -3007 3008 0
-3008 3204 0
50 -3008 3009 0
-3009 3205 0
51 -3009 3010 0
-3010 3206 0
52 -3010 3011 0
-3011 3207 0
53 -3011 3012 0
-3012 3208 0
54 -3012 3013 0
-3013 3209 0
55 -3013 3014 0
-3014 3210 0
56 -3014 3015 0
-3015 3211 0
57 -3015 3016 0
-3016 3212 0
58 -3016 3017 0
-3017 3213 0
59 -3017 3018 0
-3018 3214 0
60 -3018 3019 0
-3019 3215 0
61 -3019 3020 0
-3020 3216 0
62 -3020 3021 0
-3021 3217 0
63 -3021 3022 0
-3022 3218 0
64 -3022 3023 0
-3023 3219 0
65 -3023 3024 0
-3024 3220 0
66 -3024 3025 0
-3025 3221 0
67 -3025 3026 0
-3026 3222 0
68 -3026 3027 0
-3027 3223 0
69 -3027 3028 0
-3028 3224 0
70 -3028 3029 0
-3029 3225 0
71 -3029 3030 0
-3030 3226 0
72 -3030 3031 0
-3031 3227 0
73 -3031 3032 0
-3032 3228 0
74 -3032 3033 0
-3033 3229 0
75 -3033 3034 0
-3034 3230 0
76 -3034 3035 0
-3035 3231 0
77 -3035 3036 0
-3036 3232 0
78 -3036 3037 0
-3037 3233 0
79 -3037 3038 0
-3038 3234 0
80 -3038 3039 0
-3039 3235 0
81 -3039 3040 0
-3040 3236 0
82 -3040 3041 0
-3041 3237 0
83 -3041 3042 0
-3042 3238 0
84 -3042 3043 0
-3043 3239 0
85 -3043 3044 0
-3044 3240 0
86 -3044 3045 0
-3045 3241 0
87 -3045 3046 0
-3046 3242 0
88 -3046 3047 0
-3047 3243 0
89 -3047 3048 0
-3048 3244 0
90 -3048 3049 0
-3049 3245 0
91 -3049 3050 0
-3050 3246 0
92 -3050 3051 0
-3051 3247 0
93 -3051 3052 0
-3052 3248 0
94 -3052 3053 0
-3053 3249 0
95 -3053 3054 0
-3054 3250 0
96 -3054 3055 0
-3055 3251 0
97 -3055 3056 0
-3056 3252 0
98 -3056 3057 0
-3057 3253 0
99 -3057 3058 0
-3058 3254 0
100 -3058 3059 0
-3059 3255 0
101 -3059 3060 0
-3060 3256 0
102 -3060 3061 0
-3061 3257 0
103 -3061 3062 0
-3062 3258 0
104 -3062 3063 0
-3063 3259 0
105 -3063 3064 0
-3064 3260 0
106 -3064 3065 0
-3065 3261 0
107 -3065 3066 0
-3066 3262 0
108 -3066 3067 0
-3067 3263 0
109 -3067 3068 0
-3068 3264 0
110 -3068 3069 0
-3069 3265 0
111 -3069 3070 0
-3070 3266 0
112 -3070 3071 0
-3071 3267 0
113 -3071 3072 0
-3072 3268 0
114 -3072 3073 0
-3073 3269 0
115 -3073 3074 0
-3074 3270 0
116 -3074 3075 0
-3075 3271 0
117 -3075 3076 0
-3076 3272 0
118 -3076 3077 0
-3077 3273 0
119 -3077 3078 0
-3078 3274 0
120 -3078 3079 0
-3079 3275 0
121 -3079 3080 0
-3080 3276 0
122 -3080 3081 0
-3081 3277 0
123 -3081 3082 0
-3082 3278 0
124 -3082 3083 0
-3083 3279 0
125 -3083 3084 0
-3084 3280 0
126 -3084 3085 0
-3085 3281 0
127 -3085 3086 0
-3086 3282 0
128 -3086 3087 0
-3087 3283 0
129 -3087 3088 0
-3088 3284 0
130 -3088 3089 0
-3089 3285 0
131 -3089 3090 0
-3090 3286 0
132 -3090 3091 0
-3091 3287 0
133 -3091 3092 0
-3092 3288 0
134 -3092 3093 0
-3093 3289 0
135 -3093 3094 0
-3094 3290 0
136 -3094 3095 0
-3095 3291 0
137 -3095 3096 0
-3096 3292 0
138 -3096 3097 0
-3097 3293 0
139 -3097 3098 0
-3098 3294 0
140 -3098 3099 0
-3099 3295 0
141 -3099 3100 0
-3100 3296 0
142 -3100 3101 0
-3101 3297 0
143 -3101 3102 0
-3102 3298 0
144 -3102 3103 0
-3103 3299 0
145 -3103 3104 0
-3104 3300 0
146 -3104 3105 0
-3105 3301 0
147 -3105 3106 0
-3106 3302 0
148 -3106 3107 0
-3107 3303 0
149 -3107 3108 0
-3108 3304 0
150 -3108 3109 0
-3109 3305 0
151 -3109 3110 0
-3110 3306 0
152 -3110 3111 0
-3111 3307 0
153 -3111 3112 0
-3112 3308 0
154 -3112 3113 0
-3113 3309 0
155 -3113 3114 0
-3114 3310 0
156 -3114 3115 0
-3115 3311 0
157 -3115 3116 0
-3116 3312 0
158 -3116 3117 0
-3117 3313 0
159 -3117 3118 0
-3118 3314 0
160 -3118 3119 0
-3119 3315 0
161 -3119 3120 0
-3120 3316 0
162 -3120 3121 0
-3121 3317 0
163 -3121 3122 0
-3122 3318 0
164 -3122 3123 0
-3123 3319 0
165 -3123 3124 0
-3124 3320 0
166 -3124 3125 0
-3125 3321 0
167 -3125 3126 0
-3126 3322 0
168 -3126 3127 0
-3127 3323 0
169 -3127 3128 0
-3128 3324 0
170 -3128 3129 0
-3129 3325 0
171 -3129 3130 0
-3130 3326 0
172 -3130 3131 0
-3131 3327 0
173 -3131 3132 0
-3132 3328 0
174 -3132 3133 0
-3133 3329 0
175 -3133 3134 0
-3134 3330 0
176 -3134 3135 0
-3135 3331 0
177 -3135 3136 0
-3136 3332 0
178 -3136 3137 0
-3137 3333 0
179 -3137 3138 0
-3138 3334 0
180 -3138 3139 0
-3139 3335 0
181 -3139 3140 0
-3140 3336 0
182 -3140 3141 0
-3141 3337 0
183 -3141 3142 0
-3142 3338 0
184 -3142 3143 0
-3143 3339 0
185 -3143 3144 0
-3144 3340 0
186 -3144 3145 0
-3145 3341 0
187 -3145 3146 0
-3146 3342 0
188 -3146 3147 0
-3147 3343 0
189 -3147 3148 0
-3148 3344 0
190 -3148 3149 0
-3149 3345 0
191 -3149 3150 0
-3150 3346 0
192 -3150 3151 0
-3151 3347 0
193 -3151 3152 0
-3152 3348 0
194 -3152 3153 0
-3153 3349 0
195 -3153 3154 0
-3154 3350 0
196 -3154 3155 0
-3155 3351 0
197 -3155 3156 0
-3156 3352 0
198 -3156 3157 0
-3157 3353 0
199 -3157 3158 0
-3158 3354 0
200 -3158 3159 0
-3159 3355 0
201 -3159 3160 0
-3160 3356 0
202 -3160 3161 0
-3161 3357 0
203 -3161 3162 0
-3162 3358 0
204 -3162 3163 0
-3163 3359 0
205 -3163 3164 0
-3164 3360 0
206 -3164 3165 0
-3165 3361 0
207 -3165 3166 0
-3166 3362 0
208 -3166 3167 0
-3167 3363 0
209 -3167 3168 0
-3168 3364 0
210 -3168 0
15 3169 0
-3169 3365 0
16 -3169 3170 0
-3170 3366 0
17 -3170 3171 0
-3171 3367 0
18 -3171 3172 0
-3172 3368 0
19 -3172 3173 0
-3173 3369 0
20 -3173 3174 0
-3174 3370 0
21 -3174 3175 0
-3175 3371 0
22 -3175 3176 0
-3176 3372 0
23 -3176 3177 0
-3177 3373 0
24 -3177 3178 0
-3178 3374 0
25 -3178 3179 0
-3179 3375 0
26 -3179 3180 0
-3180 3376 0
27 -3180 3181 0
-3181 3377 0
28 -3181 3182 0
-3182 3378 0
29 -3182 3183 0
-3183 3379 0
30 -3183 3184 0
-3184 3380 0
31 -3184 3185 0
-3185 3381 0
32 -3185 3186 0
-3186 3382 0
33 -3186 3187 0
-3187 3383 0
34 -3187 3188 0
-3188 3384 0
35 -3188 3189 0
-3189 3385 0
36 -3189 3190 0
-3190 3386 0
37 -3190 3191 0
-3191 3387 0
38 -3191 3192 0
-3192 3388 0
39 -3192 3193 0
-3193 3389 0
40 -3193 3194 0
-3194 3390 0
41 -3194 3195 0
-3195 3391 0
42 -3195 3196 0
-3196 3392 0
43 -3196 3197 0
-3197 3393 0
44 -3197 3198 0
-3198 3394 0
45 -3198 3199 0
-3199 3395 0
46 -3199 3200 0
-3200 3396 0
47 -3200 3201 0
-3201 3397 0
48 -3201 3202 0
-3202 3398 0
49 -3202 3203 0
-3203 3399 0
50 -3203 3204 0
-3204 3400 0
51 -3204 3205 0
-3205 3401 0
52 -3205 3206 0
-3206 3402 0
53 -3206 3207 0
-3207 3403 0
54 -3207 3208 0
-3208 3404 0
55 -3208 3209 0
-3209 3405 0
56 -3209 3210 0
-3210 3406 0
57 -3210 3211 0
-3211 3407 0
58 -3211 3212 0
-3212 3408 0
59 -3212 3213 0
-3213 3409 0
60 -3213 3214 0
-3214 3410 0
61 -3214 3215 0
-3215 3411 0
62 -3215 3216 0
-3216 3412 0
63 -3216 3217 0
-3217 3413 0
64 -3217 3218 0
-3218 3414 0
65 -3218 3219 0
-3219 3415 0
66 -3219 3220 0
-3220 3416 0
67 -3220 3221 0
-3221 3417 0
68 -3221 3222 0
-3222 3418 0
69 -3222 3223 0
-3223 3419 0
70 -3223 3224 0
-3224 3420 0
71 -3224 3225 0
-3225 3421 0
72 -3225 3226 0
-3226 3422 0
73 -3226 3227 0
-3227 3423 0
74 -3227 3228 0
-3228 3424 0
75 -3228 3229 0
-3229 3425 0
76 -3229 3230 0
-3230 3426 0
77 -3230 3231 0
-3231 3427 0
78 -3231 3232 0
-3232 3428 0
79 -3232 3233 0
-3233 3429 0
80 -3233 3234 0
-3234 3430 0
81 -3234 3235 0
-3235 3431 0
82 -3235 3236 0
-3236 3432 0
83 -3236 3237 0
-3237 3433 0
84 -3237 3238 0
-3238 3434 0
85 -3238 3239 0
-3239 3435 0
86 -3239 3240 0
-3240 3436 0
87 -3240 3241 0
-3241 3437 0
88 -3241 3242 0
-3242 3438 0
89 -3242 3243 0
-3243 3439 0
90 -3243 3244 0
-3244 3440 0
91 -3244 3245 0
-3245 3441 0
92 -3245 3246 0
-3246 3442 0
93 -3246 3247 0
-3247 3443 0
94 -3247 3248 0
-3248 3444 0
95 -3248 3249 0
-3249 3445 0
96 -3249 3250 0
-3250 3446 0
97 -3250 3251 0
-3251 3447 0
98 -3251 3252 0
-3252 3448 0
99 -3252 3253 0
-3253 3449 0
100 -3253 3254 0
-3254 3450 0
101 -3254 3255 0
-3255 3451 0
102 -3255 3256 0
-3256 3452 0
103 -3256 3257 0
-3257 3453 0
104 -3257 3258 0
-3258 3454 0
105 -3258 3259 0
-3259 3455 0
106 -3259 3260 0
-3260 3456 0
107 -3260 3261 0
-3261 3457 0
108 -3261 3262 0
-3262 3458 0
109 -3262 3263 0
-3263 3459 0
110 -3263 3264 0
-3264 3460 0
111 -3264 3265 0
-3265 3461 0
112 -3265 3266 0
-3266 3462 0
113 -3266 3267 0
-3267 3463 0
114 -3267 3268 0
-3268 3464 0
115 -3268 3269 0
-3269 3465 0
116 -3269 3270 0
-3270 3466 0
117 -3270 3271 0
-3271 3467 0
118 -3271 3272 0
-3272 3468 0
119 -3272 3273 0
-3273 3469 0
120 -3273 3274 0
-3274 3470 0
121 -3274 3275 0
-3275 3471 0
122 -3275 3276 0
-3276 3472 0
123 -3276 3277 0
-3277 3473 0
124 -3277 3278 0
-3278 3474 0
125 -3278 3279 0
-3279 3475 0
126 -3279 3280 0
-3280 3476 0
127 -3280 3281 0
-3281 3477 0
128 -3281 3282 0
-3282 3478 0
129 -3282 3283 0
-3283 3479 0
130 -3283 3284 0
-3284 3480 0
131 -3284 3285 0
-3285 3481 0
132 -3285 3286 0
-3286 3482 0
133 -3286 3287 0
-3287 3483 0
134 -3287 3288 0
-3288 3484 0
135 -3288 3289 0
-3289 3485 0
136 -3289 3290 0
-3290 3486 0
137 -3290 3291 0
-3291 3487 0
138 -3291 3292 0
-3292 3488 0
139 -3292 3293 0
-3293 3489 0
140 -3293 3294 0
-3294 3490 0
141 -3294 3295 0
-3295 3491 0
142 -3295 3296 0
-3296 3492 0
143 -3296 3297 0
-3297 3493 0
144 -3297 3298 0
-3298 3494 0
145 -3298 3299 0
-3299 3495 0
146 -3299 3300 0
-3300 3496 0
147 -3300 3301 0
-3301 3497 0
148 -3301 3302 0
-3302 3498 0
149 -3302 3303 0
-3303 3499 0
150 -3303 3304 0
-3304 3500 0
151 -3304 3305 0
-3305 3501 0
152 -3305 3306 0
-3306 3502 0
153 -3306 3307 0
-3307 3503 0
154 -3307 3308 0
-3308 3504 0
155 -3308 3309 0
-3309 3505 0
156 -3309 3310 0
-3310 3506 0
157 -3310 3311 0
-3311 3507 0
158 -3311 3312 0
-3312 3508 0
159 -3312 3313 0
-3313 3509 0
160 -3313 3314 0
-3314 3510 0
161 -3314 3315 0
-3315 3511 0
162 -3315 3316 0
-3316 3512 0
163 -3316 3317 0
-3317 3513 0
164 -3317 3318 0
-3318 3514 0
165 -3318 3319 0
-3319 3515 0
166 -3319 3320 0
-3320 3516 0
167 -3320 3321 0
-3321 3517 0
168 -3321 3322 0
-3322 3518 0
169 -3322 3323 0
-3323 3519 0
170 -3323 3324 0
-3324 3520 0
171 -3324 3325 0
-3325 3521 0
172 -3325 3326 0
-3326 3522 0
173 -3326 3327 0
-3327 3523 0
174 -3327 3328 0
-3328 3524 0
175 -3328 3329 0
-3329 3525 0
176 -3329 3330 0
-3330 3526 0
177 -3330 3331 0
-3331 3527 0
178 -3331 3332 0
-3332 3528 0
179 -3332 3333 0
-3333 3529 0
180 -3333 3334 0
-3334 3530 0
181 -3334 3335 0
-3335 3531 0
182 -3335 3336 0
-3336 3532 0
183 -3336 3337 0
-3337 3533 0
184 -3337 3338 0
-3338 3534 0
185 -3338 3339 0
-3339 3535 0
186 -3339 3340 0
-3340 3536 0
187 -3340 3341 0
-3341 3537 0
188 -3341 3342 0
-3342 3538 0
189 -3342 3343 0
-3343 3539 0
190 -3343 3344 0
-3344 3540 0
191 -3344 3345 0
-3345 3541 0
192 -3345 3346 0
-3346 3542 0
193 -3346 3347 0
-3347 3543 0
194 -3347 3348 0
-3348 3544 0
195 -3348 3349 0
-3349 3545 0
196 -3349 3350 0
-3350 3546 0
197 -3350 3351 0
-3351 3547 0
198 -3351 3352 0
-3352 3548 0
199 -3352 3353 0
-3353 3549 0
200 -3353 3354 0
-3354 3550 0
201 -3354 3355 0
-3355 3551 0
202 -3355 3356 0
-3356 3552 0
203 -3356 3357 0
-3357 3553 0
204 -3357 3358 0
-3358 3554 0
205 -3358 3359 0
-3359 3555 0
206 -3359 3360 0
-3360 3556 0
207 -3360 3361 0
-3361 3557 0
208 -3361 3362 0
-3362 3558 0
209 -3362 3363 0
-3363 3559 0
210 -3363 3364 0
-3364 3560 0
211 -3364 0
16 3365 0
17 -3365 3366 0
18 -3366 3367 0
19 -3367 3368 0
20 -3368 3369 0
21 -3369 3370 0
22 -3370 3371 0
23 -3371 3372 0
24 -3372 3373 0
25 -3373 3374 0
26 -3374 3375 0
27 -3375 3376 0
28 -3376 3377 0
29 -3377 3378 0
30 -3378 3379 0
31 -3379 3380 0
32 -3380 3381 0
33 -3381 3382 0
34 -3382 3383 0
35 -3383 3384 0
36 -3384 3385 0
37 -3385 3386 0
38 -3386 3387 0
39 -3387 3388 0
40 -3388 3389 0
41 -3389 3390 0
42 -3390 3391 0
43 -3391 3392 0
44 -3392 3393 0
45 -3393 3394 0
46 -3394 3395 0
47 -3395 3396 0
48 -3396 3397 0
49 -3397 3398 0
50 -3398 3399 0
51 -3399 3400 0
52 -3400 3401 0
53 -3401 3402 0
54 -3402 3403 0
55 -3403 3404 0
56 -3404 3405 0
57 -3405 3406 0
58 -3406 3407 0
59 -3407 3408 0
60 -3408 3409 0
61 -3409 3410 0
62 -3410 3411 0
63 -3411 3412 0
64 -3412 3413 0
65 -3413 3414 0
66 -3414 3415 0
67 -3415 3416 0
68 -3416 3417 0
69 -3417 3418 0
70 -3418 3419 0
71 -3419 3420 0
72 -3420 3421 0
73 -3421 3422 0
74 -3422 3423 0
75 -3423 3424 0
76 -3424 3425 0
77 -3425 3426 0
78 -3426 3427 0
79 -3427 3428 0
80 -3428 3429 0
81 -3429 3430 0
82 -3430 3431 0
83 -3431 3432 0
84 -3432 3433 0
85 -3433 3434 0
86 -3434 3435 0
87 -3435 3436 0
88 -3436 3437 0
89 -3437 3438 0
90 -3438 3439 0
91 -3439 3440 0
92 -3440 3441 0
93 -3441 3442 0
94 -3442 3443 0
95 -3443 3444 0
96 -3444 3445 0
97 -3445 3446 0
98 -3446 3447 0
99 -3447 3448 0
100 -3448 3449 0
101 -3449 3450 0
102 -3450 3451 0
103 -3451 3452 0
104 -3452 3453 0
105 -3453 3454 0
106 -3454 3455 0
107 -3455 3456 0
108 -3456 3457 0
109 -3457 3458 0
110 -3458 3459 0
111 -3459 3460 0
112 -3460 3461 0
113 -3461 3462 0
114 -3462 3463 0
115 -3463 3464 0
116 -3464 3465 0
117 -3465 3466 0
118 -3466 3467 0
119 -3467 3468 0
120 -3468 3469 0
121 -3469 3470 0
122 -3470 3471 0
123 -3471 3472 0
124 -3472 3473 0
125 -3473 3474 0
126 -3474 3475 0
127 -3475 3476 0
128 -3476 3477 0
129 -3477 3478 0
130 -3478 3479 0
131 -3479 3480 0
132 -3480 3481 0
133 -3481 3482 0
134 -3482 3483 0
135 -3483 3484 0
136 -3484 3485 0
137 -3485 3486 0
138 -3486 3487 0
139 -3487 3488 0
140 -3488 3489 0
141 -3489 3490 0
142 -3490 3491 0
143 -3491 3492 0
144 -3492 3493 0
145 -3493 3494 0
146 -3494 3495 0
147 -3495 3496 0
148 -3496 3497 0
149 -3497 3498 0
150 -3498 3499 0
151 -3499 3500 0
152 -3500 3501 0
153 -3501 3502 0
154 -3502 3503 0
155 -3503 3504 0
156 -3504 3505 0
157 -3505 3506 0
158 -3506 3507 0
159 -3507 3508 0
160 -3508 3509 0
161 -3509 3510 0
162 -3510 3511 0
163 -3511 3512 0
164 -3512 3513 0
165 -3513 3514 0
166 -3514 3515 0
167 -3515 3516 0
168 -3516 3517 0
169 -3517 3518 0
170 -3518 3519 0
171 -3519 3520 0
172 -3520 3521 0
173 -3521 3522 0
174 -3522 3523 0
175 -3523 3524 0
176 -3524 3525 0
177 -3525 3526 0
178 -3526 3527 0
179 -3527 3528 0
180 -3528 3529 0
181 -3529 3530 0
182 -3530 3531 0
183 -3531 3532 0
184 -3532 3533 0
185 -3533 3534 0
186 -3534 3535 0
187 -3535 3536 0
188 -3536 3537 0
189 -3537 3538 0
190 -3538 3539 0
191 -3539 3540 0
192 -3540 3541 0
193 -3541 3542 0
194 -3542 3543 0
195 -3543 3544 0
196 -3544 3545 0
197 -3545 3546 0
198 -3546 3547 0
199 -3547 3548 0
200 -3548 3549 0
201 -3549 3550 0
202 -3550 3551 0
203 -3551 3552 0
204 -3552 3553 0
205 -3553 3554 0
206 -3554 3555 0
207 -3555 3556 0
208 -3556 3557 0
209 -3557 3558 0
210 -3558 3559 0
211 -3559 3560 0
212 -3560 0
-1 3561 0
-3561 3562 0
-2 -3561 3563 0
-3563 3564 0
-3 -3563 3565 0
-3565 3566 0
-4 -3565 3567 0
-3567 3568 0
-5 -3567 3569 0
-3569 3570 0
-6 -3569 3571 0
-3571 3572 0
-7 -3571 3573 0
-3573 3574 0
-8 -3573 3575 0
-3575 3576 0
-9 -3575 3577 0
-3577 3578 0
-10 -3577 3579 0
-3579 3580 0
-11 -3579 3581 0
-3581 3582 0
-12 -3581 3583 0
-3583 3584 0
-13 -3583 3585 0
-3585 3586 0
-14 -3585 3587 0
-3587 3588 0
-15 -3587 3589 0
-3589 3590 0
-16 -3589 3591 0
-3591 3592 0
-17 -3591 0
-2 3562 0
-3562 3593 0
-3 -3562 3564 0
-3564 3594 0
-4 -3564 3566 0
-3566 3595 0
-5 -3566 3568 0
-3568 3596 0
-6 -3568 3570 0
-3570 3597 0
-7 -3570 3572 0
-3572 3598 0
-8 -3572 3574 0
-3574 3599 0
-9 -3574 3576 0
-3576 3600 0
-10 -3576 3578 0
-3578 3601 0
-11 -3578 3580 0
-3580 3602 0
-12 -3580 3582 0
-3582 3603 0
-13 -3582 3584 0
-3584 3604 0
-14 -3584 3586 0
-3586 3605 0
-15 -3586 3588 0
-3588 3606 0
-16 -3588 3590 0
-3590 3607 0
-17 -3590 3592 0
-3592 3608 0
-18 -3592 0
-3 3593 0
-3593 3609 0
-4 -3593 3594 0
-3594 3610 0
-5 -3594 3595 0
-3595 3611 0
-6 -3595 3596 0
-3596 3612 0
-7 -3596 3597 0
-3597 3613 0
-8 -3597 3598 0
-3598 3614 0
-9 -3598 3599 0
-3599 3615 0
-10 -3599 3600 0
-3600 3616 0
-11 -3600 3601 0
-3601 3617 0
-12 -3601 3602 0
-3602 3618 0
-13 -3602 3603 0
-3603 3619 0
-14 -3603 3604 0
-3604 3620 0
-15 -3604 3605 0
-3605 3621 0
-16 -3605 3606 0
-3606 3622 0
-17 -3606 3607 0
-3607 3623 0
-18 -3607 3608 0
-3608 3624 0
-19 -3608 0
-4 3609 0
-3609 3625 0
-5 -3609 3610 0
-3610 3626 0
-6 -3610 3611 0
-3611 3627 0
-7 -3611 3612 0
-3612 3628 0
-8 -3612 3613 0
-3613 3629 0
-9 -3613 3614 0
-3614 3630 0
-10 -3614 3615 0
-3615 3631 0
-11 -3615 3616 0
-3616 3632 0
-12 -3616 3617 0
-3617 3633 0
-13 -3617 3618 0
-3618 3634 0
-14 -3618 3619 0
-3619 3635 0
-15 -3619 3620 0
-3620 3636 0
-16 -3620 3621 0
-3621 3637 0
-17 -3621 3622 0
-3622 3638 0
-18 -3622 3623 0
-3623 3639 0
-19 -3623 3624 0
-3624 3640 0
-20 -3624 0
-5 3625 0
-3625 3641 0
-6 -3625 3626 0
-3626 3642 0
-7 -3626 3627 0
-3627 3643 0
-8 -3627 3628 0
-3628 3644 0
-9 -3628 3629 0
-3629 3645 0
-10 -3629 3630 0
-3630 3646 0
-11 -3630 3631 0
-3631 3647 0
-12 -3631 3632 0
-3632 3648 0
-13 -3632 3633 0
-3633 3649 0
-14 -3633 3634 0
-3634 3650 0
-15 -3634 3635 0
-3635 3651 0
-16 -3635 3636 0
-3636 3652 0
-17 -3636 3637 0
-3637 3653 0
-18 -3637 3638 0
-3638 3654 0
-19 -3638 3639 0
-3639 3655 0
-20 -3639 3640 0
-3640 3656 0
-21 -3640 0
-6 3641 0
-3641 3657 0
-7 -3641 3642 0
-3642 3658 0
-8 -3642 3643 0
-3643 3659 0
-9 -3643 3644 0
-3644 3660 0
-10 -3644 3645 0
-3645 3661 0
-11 -3645 3646 0
-3646 3662 0
-12 -3646 3647 0
-3647 3663 0
-13 -3647 3648 0
-3648 3664 0
-14 -3648 3649 0
-3649 3665 0
-15 -3649 3650 0
-3650 3666 0
-16 -3650 3651 0
-3651 3667 0
-17 -3651 3652 0
-3652 3668 0
-18 -3652 3653 0
-3653 3669 0
-19 -3653 3654 0
-3654 3670 0
-20 -3654 3655 0
-3655 3671 0
-21 -3655 3656 0
-3656 3672 0
-22 -3656 0
-7 3657 0
-3657 3673 0
-8 -3657 3658 0
-3658 3674 0
-9 -3658 3659 0
-3659 3675 0
-10 -3659 3660 0
-3660 3676 0
-11 -3660 3661 0
-3661 3677 0
-12 -3661 3662 0
-3662 3678 0
-13 -3662 3663 0
-3663 3679 0
-14 -3663 3664 0
-3664 3680 0
-15 -3664 3665 0
-3665 3681 0
-16 -3665 3666 0
-3666 3682 0
-17 -3666 3667 0
-3667 3683 0
-18 -3667 3668 0
-3668 3684 0
-19 -3668 3669 0
-3669 3685 0
-20 -3669 3670 0
-3670 3686 0
-21 -3670 3671 0
-3671 3687 0
-22 -3671 3672 0
-3672 3688 0
-23 -3672 0
-8 3673 0
-3673 3689 0
-9 -3673 3674 0
-3674 3690 0
-10 -3674 3675 0
-3675 3691 0
-11 -3675 3676 0
-3676 3692 0
-12 -3676 3677 0
-3677 3693 0
-13 -3677 3678 0
-3678 3694 0
-14 -3678 3679 0
-3679 3695 0
-15 -3679 3680 0
-3680 3696 0
-16 -3680 3681 0
-3681 3697 0
-17 -3681 3682 0
-3682 3698 0
-18 -3682 3683 0
-3683 3699 0
-19 -3683 3684 0
-3684 3700 0
-20 -3684 3685 0
-3685 3701 0
-21 -3685 3686 0
-3686 3702 0
-22 -3686 3687 0
-3687 3703 0
-23 -3687 3688 0
-3688 3704 0
-24 -3688 0
-9 3689 0
-3689 3705 0
-10 -3689 3690 0
-3690 3706 0
-11 -3690 3691 0
-3691 3707 0
-12 -3691 3692 0
-3692 3708 0
-13 -3692 3693 0
-3693 3709 0
-14 -3693 3694 0
-3694 3710 0
-15 -3694 3695 0
-3695 3711 0
-16 -3695 3696 0
-3696 3712 0
-17 -3696 3697 0
-3697 3713 0
-18 -3697 3698 0
-3698 3714 0
-19 -3698 3699 0
-3699 3715 0
-20 -3699 3700 0
-3700 3716 0
-21 -3700 3701 0
-3701 3717 0
-22 -3701 3702 0
-3702 3718 0
-23 -3702 3703 0
-3703 3719 0
-24 -3703 3704 0
-3704 3720 0
-25 -3704 0
-10 3705 0
-3705 3721 0
-11 -3705 3706 0
-3706 3722 0
-12 -3706 3707 0
-3707 3723 0
-13 -3707 3708 0
-3708 3724 0
-14 -3708 3709 0
-3709 3725 0
-15 -3709 3710 0
-3710 3726 0
-16 -3710 3711 0
-3711 3727 0
-17 -3711 3712 0
-3712 3728 0
-18 -3712 3713 0
-3713 3729 0
-19 -3713 3714 0
-3714 3730 0
-20 -3714 3715 0
-3715 3731 0
-21 -3715 3716 0
-3716 3732 0
-22 -3716 3717 0
-3717 3733 0
-23 -3717 3718 0
-3718 3734 0
-24 -3718 3719 0
-3719 3735 0
-25 -3719 3720 0
-3720 3736 0
-26 -3720 0
-11 3721 0
-3721 3737 0
-12 -3721 3722 0
-3722 3738 0
-13 -3722 3723 0
-3723 3739 0
-14 -3723 3724 0
-3724 3740 0
-15 -3724 3725 0
-3725 3741 0
-16 -3725 3726 0
-3726 3742 0
-17 -3726 3727 0
-3727 3743 0
-18 -3727 3728 0
-3728 3744 0
-19 -3728 3729 0
-3729 3745 0
-20 -3729 3730 0
-3730 3746 0
-21 -3730 3731 0
-3731 3747 0
-22 -3731 3732 0
-3732 3748 0
-23 -3732 3733 0
-3733 3749 0
-24 -3733 3734 0
-3734 3750 0
-25 -3734 3735 0
-3735 3751 0
-26 -3735 3736 0
-3736 3752 0
-27 -3736 0
-12 3737 0
-3737 3753 0
-13 -3737 3738 0
-3738 3754 0
-14 -3738 3739 0
-3739 3755 0
-15 -3739 3740 0
-3740 3756 0
-16 -3740 3741 0
-3741 3757 0
-17 -3741 3742 0
-3742 3758 0
-18 -3742 3743 0
-3743 3759 0
-19 -3743 3744 0
-3744 3760 0
-20 -3744 3745 0
-3745 3761 0
-21 -3745 3746 0
-3746 3762 0
-22 -3746 3747 0
-3747 3763 0
-23 -3747 3748 0
-3748 3764 0
-24 -3748 3749 0
-3749 3765 0
-25 -3749 3750 0
-3750 3766 0
-26 -3750 3751 0
-3751 3767 0
-27 -3751 3752 0
-3752 3768 0
-28 -3752 0
-13 3753 0
-3753 3769 0
-14 -3753 3754 0
-3754 3770 0
-15 -3754 3755 0
-3755 3771 0
-16 -3755 3756 0
-3756 3772 0
-17 -3756 3757 0
-3757 3773 0
-18 -3757 3758 0
-3758 3774 0
-19 -3758 3759 0
-3759 3775 0
-20 -3759 3760 0
-3760 3776 0
-21 -3760 3761 0
-3761 3777 0
-22 -3761 3762 0
-3762 3778 0
-23 -3762 3763 0
-3763 3779 0
-24 -3763 3764 0
-3764 3780 0
-25 -3764 3765 0
-3765 3781 0
-26 -3765 3766 0
-3766 3782 0
-27 -3766 3767 0
-3767 3783 0
-28 -3767 3768 0
-3768 3784 0
-29 -3768 0
-14 3769 0
-3769 3785 0
-15 -3769 3770 0
-3770 3786 0
-16 -3770 3771 0
-3771 3787 0
-17 -3771 3772 0
-3772 3788 0
-18 -3772 3773 0
-3773 3789 0
-19 -3773 3774 0
-3774 3790 0
-20 -3774 3775 0
-3775 3791 0
-21 -3775 3776 0
-3776 3792 0
-22 -3776 3777 0
-3777 3793 0
-23 -3777 3778 0
-3778 3794 0
-24 -3778 3779 0
-3779 3795 0
-25 -3779 3780 0
-3780 3796 0
-26 -3780 3781 0
-3781 3797 0
-27 -3781 3782 0
-3782 3798 0
-28 -3782 3783 0
-3783 3799 0
-29 -3783 3784 0
-3784 3800 0
-30 -3784 0
-15 3785 0
-3785 3801 0
-16 -3785 3786 0
-3786 3802 0
-17 -3786 3787 0
-3787 3803 0
-18 -3787 3788 0
-3788 3804 0
-19 -3788 3789 0
-3789 3805 0
-20 -3789 3790 0
-3790 3806 0
-21 -3790 3791 0
-3791 3807 0
-22 -3791 3792 0
-3792 3808 0
-23 -3792 3793 0
-3793 3809 0
-24 -3793 3794 0
-3794 3810 0
-25 -3794 3795 0
-3795 3811 0
-26 -3795 3796 0
-3796 3812 0
-27 -3796 3797 0
-3797 3813 0
-28 -3797 3798 0
-3798 3814 0
-29 -3798 3799 0
-3799 3815 0
-30 -3799 3800 0
-3800 3816 0
-31 -3800 0
-16 3801 0
-3801 3817 0
-17 -3801 3802 0
-3802 3818 0
-18 -3802 3803 0
-3803 3819 0
-19 -3803 3804 0
-3804 3820 0
-20 -3804 3805 0
-3805 3821 0
-21 -3805 3806 0
-3806 3822 0
-22 -3806 3807 0
-3807 3823 0
-23 -3807 3808 0
-3808 3824 0
-24 -3808 3809 0
-3809 3825 0
-25 -3809 3810 0
-3810 3826 0
-26 -3810 3811 0
-3811 3827 0
-27 -3811 3812 0
-3812 3828 0
-28 -3812 3813 0
-3813 3829 0
-29 -3813 3814 0
-3814 3830 0
-30 -3814 3815 0
-3815 3831 0
-31 -3815 3816 0
-3816 3832 0
-32 -3816 0
-17 3817 0
-3817 3833 0
-18 -3817 3818 0
-3818 3834 0
-19 -3818 3819 0
-3819 3835 0
-20 -3819 3820 0
-3820 3836 0
-21 -3820 3821 0
-3821 3837 0
-22 -3821 3822 0
-3822 3838 0
-23 -3822 3823 0
-3823 3839 0
-24 -3823 3824 0
-3824 3840 0
-25 -3824 3825 0
-3825 3841 0
-26 -3825 3826 0
-3826 3842 0
-27 -3826 3827 0
-3827 3843 0
-28 -3827 3828 0
-3828 3844 0
-29 -3828 3829 0
-3829 3845 0
-30 -3829 3830 0
-3830 3846 0
-31 -3830 3831 0
-3831 3847 0
-32 -3831 3832 0
-3832 3848 0
-33 -3832 0
-18 3833 0
-3833 3849 0
-19 -3833 3834 0
-3834 3850 0
-20 -3834 3835 0
-3835 3851 0
-21 -3835 3836 0
-3836 3852 0
-22 -3836 3837 0
-3837 3853 0
-23 -3837 3838 0
-3838 3854 0
-24 -3838 3839 0
-3839 3855 0
-25 -3839 3840 0
-3840 3856 0
-26 -3840 3841 0
-3841 3857 0
-27 -3841 3842 0
-3842 3858 0
-28 -3842 3843 0
-3843 3859 0
-29 -3843 3844 0
-3844 3860 0
-30 -3844 3845 0
-3845 3861 0
-31 -3845 3846 0
-3846 3862 0
-32 -3846 3847 0
-3847 3863 0
-33 -3847 3848 0
-3848 3864 0
-34 -3848 0
-19 3849 0
-3849 3865 0
-20 -3849 3850 0
-3850 3866 0
-21 -3850 3851 0
-3851 3867 0
-22 -3851 3852 0
-3852 3868 0
-23 -3852 3853 0
-3853 3869 0
-24 -3853 3854 0
-3854 3870 0
-25 -3854 3855 0
-3855 3871 0
-26 -3855 3856 0
-3856 3872 0
-27 -3856 3857 0
-3857 3873 0
-28 -3857 3858 0
-3858 3874 0
-29 -3858 3859 0
-3859 3875 0
-30 -3859 3860 0
-3860 3876 0
-31 -3860 3861 0
-3861 3877 0
-32 -3861 3862 0
-3862 3878 0
-33 -3862 3863 0
-3863 3879 0
-34 -3863 3864 0
-3864 3880 0
-35 -3864 0
-20 3865 0
-3865 3881 0
-21 -3865 3866 0
-3866 3882 0
-22 -3866 3867 0
-3867 3883 0
-23 -3867 3868 0
-3868 3884 0
-24 -3868 3869 0
-3869 3885 0
-25 -3869 3870 0
-3870 3886 0
-26 -3870 3871 0
-3871 3887 0
-27 -3871 3872 0
-3872 3888 0
-28 -3872 3873 0
-3873 3889 0
-29 -3873 3874 0
-3874 3890 0
-30 -3874 3875 0
-3875 3891 0
-31 -3875 3876 0
-3876 3892 0
-32 -3876 3877 0
-3877 3893 0
-33 -3877 3878 0
-3878 3894 0
-34 -3878 3879 0
-3879 3895 0
-35 -3879 3880 0
-3880 3896 0
-36 -3880 0
-21 3881 0
-3881 3897 0
-22 -3881 3882 0
-3882 3898 0
-23 -3882 3883 0
-3883 3899 0
-24 -3883 3884 0
-3884 3900 0
-25 -3884 3885 0
-3885 3901 0
-26 -3885 3886 0
-3886 3902 0
-27 -3886 3887 0
-3887 3903 0
-28 -3887 3888 0
-3888 3904 0
-29 -3888 3889 0
-3889 3905 0
-30 -3889 3890 0
-3890 3906 0
-31 -3890 3891 0
-3891 3907 0
-32 -3891 3892 0
-3892 3908 0
-33 -3892 3893 0
-3893 3909 0
-34 -3893 3894 0
-3894 3910 0
-35 -3894 3895 0
-3895 3911 0
-36 -3895 3896 0
-3896 3912 0
-37 -3896 0
-22 3897 0
-3897 3913 0
-23 -3897 3898 0
-3898 3914 0
-24 -3898 3899 0
-3899 3915 0
-25 -3899 3900 0
-3900 3916 0
-26 -3900 3901 0
-3901 3917 0
-27 -3901 3902 0
-3902 3918 0
-28 -3902 3903 0
-3903 3919 0
-29 -3903 3904 0
-3904 3920 0
-30 -3904 3905 0
-3905 3921 0
-31 -3905 3906 0
-3906 3922 0
-32 -3906 3907 0
-3907 3923 0
-33 -3907 3908 0
-3908 3924 0
-34 -3908 3909 0
-3909 3925 0
-35 -3909 3910 0
-3910 3926 0
-36 -3910 3911 0
-3911 3927 0
-37 -3911 3912 0
-3912 3928 0
-38 -3912 0
-23 3913 0
-3913 3929 0
-24 -3913 3914 0
-3914 3930 0
-25 -3914 3915 0
-3915 3931 0
-26 -3915 3916 0
-3916 3932 0
-27 -3916 3917 0
-3917 3933 0
-28 -3917 3918 0
-3918 3934 0
-29 -3918 3919 0
-3919 3935 0
-30 -3919 3920 0
-3920 3936 0
-31 -3920 3921 0
-3921 3937 0
-32 -3921 3922 0
-3922 3938 0
-33 -3922 3923 0
-3923 3939 0
-34 -3923 3924 0
-3924 3940 0
-35 -3924 3925 0
-3925 3941 0
-36 -3925 3926 0
-3926 3942 0
-37 -3926 3927 0
-3927 3943 0
-38 -3927 3928 0
-3928 3944 0
-39 -3928 0
-24 3929 0
-3929 3945 0
-25 -3929 3930 0
-3930 3946 0
-26 -3930 3931 0
-3931 3947 0
-27 -3931 3932 0
-3932 3948 0
-28 -3932 3933 0
-3933 3949 0
-29 -3933 3934 0
-3934 3950 0
-30 -3934 3935 0
-3935 3951 0
-31 -3935 3936 0
-3936 3952 0
-32 -3936 3937 0
-3937 3953 0
-33 -3937 3938 0
-3938 3954 0
-34 -3938 3939 0
-3939 3955 0
-35 -3939 3940 0
-3940 3956 0
-36 -3940 3941 0
-3941 3957 0
-37 -3941 3942 0
-3942 3958 0
-38 -3942 3943 0
-3943 3959 0
-39 -3943 3944 0
-3944 3960 0
-40 -3944 0
-25 3945 0
-3945 3961 0
-26 -3945 3946 0
-3946 3962 0
-27 -3946 3947 0
-3947 3963 0
-28 -3947 3948 0
-3948 3964 0
-29 -3948 3949 0
-3949 3965 0
-30 -3949 3950 0
-3950 3966 0
-31 -3950 3951 0
-3951 3967 0
-32 -3951 3952 0
-3952 3968 0
-33 -3952 3953 0
-3953 3969 0
-34 -3953 3954 0
-3954 3970 0
-35 -3954 3955 0
-3955 3971 0
-36 -3955 3956 0
-3956 3972 0
-37 -3956 3957 0
-3957 3973 0
-38 -3957 3958 0
-3958 3974 0
-39 -3958 3959 0
-3959 3975 0
-40 -3959 3960 0
-3960 3976 0
-41 -3960 0
-26 3961 0
-3961 3977 0
-27 -3961 3962 0
-3962 3978 0
-28 -3962 3963 0
-3963 3979 0
-29 -3963 3964 0
-3964 3980 0
-30 -3964 3965 0
-3965 3981 0
-31 -3965 3966 0
-3966 3982 0
-32 -3966 3967 0
-3967 3983 0
-33 -3967 3968 0
-3968 3984 0
-34 -3968 3969 0
-3969 3985 0
-35 -3969 3970 0
-3970 3986 0
-36 -3970 3971 0
-3971 3987 0
-37 -3971 3972 0
-3972 3988 0
-38 -3972 3973 0
-3973 3989 0
-39 -3973 3974 0
-3974 3990 0
-40 -3974 3975 0
-3975 3991 0
-41 -3975 3976 0
-3976 3992 0
-42 -3976 0
-27 3977 0
-3977 3993 0
-28 -3977 3978 0
-3978 3994 0
-29 -3978 3979 0
-3979 3995 0
-30 -3979 3980 0
-3980 3996 0
-31 -3980 3981 0
-3981 3997 0
-32 -3981 3982 0
-3982 3998 0
-33 -3982 3983 0
-3983 3999 0
-34 -3983 3984 0
-3984 4000 0
-35 -3984 3985 0
-3985 4001 0
-36 -3985 3986 0
-3986 4002 0
-37 -3986 3987 0
-3987 4003 0
-38 -3987 3988 0
-3988 4004 0
-39 -3988 3989 0
-3989 4005 0
-40 -3989 3990 0
-3990 4006 0
-41 -3990 3991 0
-3991 4007 0
-42 -3991 3992 0
-3992 4008 0
-43 -3992 0
-28 3993 0
-3993 4009 0
-29 -3993 3994 0
-3994 4010 0
-30 -3994 3995 0
-3995 4011 0
-31 -3995 3996 0
-3996 4012 0
-32 -3996 3997 0
-3997 4013 0
-33 -3997 3998 0
-3998 4014 0
-34 -3998 3999 0
-3999 4015 0
-35 -3999 4000 0
-4000 4016 0
-36 -4000 4001 0
-4001 4017 0
-37 -4001 4002 0
-4002 4018 0
-38 -4002 4003 0
-4003 4019 0
-39 -4003 4004 0
-4004 4020 0
-40 -4004 4005 0
-4005 4021 0
-41 -4005 4006 0
-4006 4022 0
-42 -4006 4007 0
-4007 4023 0
-43 -4007 4008 0
-4008 4024 0
-44 -4008 0
-29 4009 0
-4009 4025 0
-30 -4009 4010 0
-4010 4026 0
-31 -4010 4011 0
-4011 4027 0
-32 -4011 4012 0
-4012 4028 0
-33 -4012 4013 0
-4013 4029 0
-34 -4013 4014 0
-4014 4030 0
-35 -4014 4015 0
-4015 4031 0
-36 -4015 4016 0
-4016 4032 0
-37 -4016 4017 0
-4017 4033 0
-38 -4017 4018 0
-4018 4034 0
-39 -4018 4019 0
-4019 4035 0
-40 -4019 4020 0
-4020 4036 0
-41 -4020 4021 0
-4021 4037 0
-42 -4021 4022 0
-4022 4038 0
-43 -4022 4023 0
-4023 4039 0
-44 -4023 4024 0
-4024 4040 0
-45 -4024 0
-30 4025 0
-4025 4041 0
-31 -4025 4026 0
-4026 4042 0
-32 -4026 4027 0
-4027 4043 0
-33 -4027 4028 0
-4028 4044 0
-34 -4028 4029 0
-4029 4045 0
-35 -4029 4030 0
-4030 4046 0
-36 -4030 4031 0
-4031 4047 0
-37 -4031 4032 0
-4032 4048 0
-38 -4032 4033 0
-4033 4049 0
-39 -4033 4034 0
-4034 4050 0
-40 -4034 4035 0
-4035 4051 0
-41 -4035 4036 0
-4036 4052 0
-42 -4036 4037 0
-4037 4053 0
-43 -4037 4038 0
-4038 4054 0
-44 -4038 4039 0
-4039 4055 0
-45 -4039 4040 0
-4040 4056 0
-46 -4040 0
-31 4041 0
-4041 4057 0
-32 -4041 4042 0
-4042 4058 0
-33 -4042 4043 0
-4043 4059 0
-34 -4043 4044 0
-4044 4060 0
-35 -4044 4045 0
-4045 4061 0
-36 -4045 4046 0
-4046 4062 0
-37 -4046 4047 0
-4047 4063 0
-38 -4047 4048 0
-4048 4064 0
-39 -4048 4049 0
-4049 4065 0
-40 -4049 4050 0
-4050 4066 0
-41 -4050 4051 0
-4051 4067 0
-42 -4051 4052 0
-4052 4068 0
-43 -4052 4053 0
-4053 4069 0
-44 -4053 4054 0
-4054 4070 0
-45 -4054 4055 0
-4055 4071 0
-46 -4055 4056 0
-4056 4072 0
-47 -4056 0
-32 4057 0
-4057 4073 0
-33 -4057 4058 0
-4058 4074 0
-34 -4058 4059 0
-4059 4075 0
-35 -4059 4060 0
-4060 4076 0
-36 -4060 4061 0
-4061 4077 0
-37 -4061 4062 0
-4062 4078 0
-38 -4062 4063 0
-4063 4079 0
-39 -4063 4064 0
-4064 4080 0
-40 -4064 4065 0
-4065 4081 0
-41 -4065 4066 0
-4066 4082 0
-42 -4066 4067 0
-4067 4083 0
-43 -4067 4068 0
-4068 4084 0
-44 -4068 4069 0
-4069 4085 0
-45 -4069 4070 0
-4070 4086 0
-46 -4070 4071 0
-4071 4087 0
-47 -4071 4072 0
-4072 4088 0
-48 -4072 0
-33 4073 0
-4073 4089 0
-34 -4073 4074 0
-4074 4090 0
-35 -4074 4075 0
-4075 4091 0
-36 -4075 4076 0
-4076 4092 0
-37 -4076 4077 0
-4077 4093 0
-38 -4077 4078 0
-4078 4094 0
-39 -4078 4079 0
-4079 4095 0
-40 -4079 4080 0
-4080 4096 0
-41 -4080 4081 0
-4081 4097 0
-42 -4081 4082 0
-4082 4098 0
-43 -4082 4083 0
-4083 4099 0
-44 -4083 4084 0
-4084 4100 0
-45 -4084 4085 0
-4085 4101 0
-46 -4085 4086 0
-4086 4102 0
-47 -4086 4087 0
-4087 4103 0
-48 -4087 4088 0
-4088 4104 0
-49 -4088 0
-34 4089 0
-4089 4105 0
-35 -4089 4090 0
-4090 4106 0
-36 -4090 4091 0
-4091 4107 0
-37 -4091 4092 0
-4092 4108 0
-38 -4092 4093 0
-4093 4109 0
-39 -4093 4094 0
-4094 4110 0
-40 -4094 4095 0
-4095 4111 0
-41 -4095 4096 0
-4096 4112 0
-42 -4096 4097 0
-4097 4113 0
-43 -4097 4098 0
-4098 4114 0
-44 -4098 4099 0
-4099 4115 0
-45 -4099 4100 0
-4100 4116 0
-46 -4100 4101 0
-4101 4117 0
-47 -4101 4102 0
-4102 4118 0
-48 -4102 4103 0
-4103 4119 0
-49 -4103 4104 0
-4104 4120 0
-50 -4104 0
-35 4105 0
-4105 4121 0
-36 -4105 4106 0
-4106 4122 0
-37 -4106 4107 0
-4107 4123 0
-38 -4107 4108 0
-4108 4124 0
-39 -4108 4109 0
-4109 4125 0
-40 -4109 4110 0
-4110 4126 0
-41 -4110 4111 0
-4111 4127 0
-42 -4111 4112 0
-4112 4128 0
-43 -4112 4113 0
-4113 4129 0
-44 -4113 4114 0
-4114 4130 0
-45 -4114 4115 0
-4115 4131 0
-46 -4115 4116 0
-4116 4132 0
-47 -4116 4117 0
-4117 4133 0
-48 -4117 4118 0
-4118 4134 0
-49 -4118 4119 0
-4119 4135 0
-50 -4119 4120 0
-4120 4136 0
-51 -4120 0
-36 4121 0
-4121 4137 0
-37 -4121 4122 0
-4122 4138 0
-38 -4122 4123 0
-4123 4139 0
-39 -4123 4124 0
-4124 4140 0
-40 -4124 4125 0
-4125 4141 0
-41 -4125 4126 0
-4126 4142 0
-42 -4126 4127 0
-4127 4143 0
-43 -4127 4128 0
-4128 4144 0
-44 -4128 4129 0
-4129 4145 0
-45 -4129 4130 0
-4130 4146 0
-46 -4130 4131 0
-4131 4147 0
-47 -4131 4132 0
-4132 4148 0
-48 -4132 4133 0
-4133 4149 0
-49 -4133 4134 0
-4134 4150 0
-50 -4134 4135 0
-4135 4151 0
-51 -4135 4136 0
-4136 4152 0
-52 -4136 0
-37 4137 0
-4137 4153 0
-38 -4137 4138 0
-4138 4154 0
-39 -4138 4139 0
-4139 4155 0
-40 -4139 4140 0
-4140 4156 0
-41 -4140 4141 0
-4141 4157 0
-42 -4141 4142 0
-4142 4158 0
-43 -4142 4143 0
-4143 4159 0
-44 -4143 4144 0
-4144 4160 0
-45 -4144 4145 0
-4145 4161 0
-46 -4145 4146 0
-4146 4162 0
-47 -4146 4147 0
-4147 4163 0
-48 -4147 4148 0
-4148 4164 0
-49 -4148 4149 0
-4149 4165 0
-50 -4149 4150 0
-4150 4166 0
-51 -4150 4151 0
-4151 4167 0
-52 -4151 4152 0
-4152 4168 0
-53 -4152 0
-38 4153 0
-4153 4169 0
-39 -4153 4154 0
-4154 4170 0
-40 -4154 4155 0
-4155 4171 0
-41 -4155 4156 0
-4156 4172 0
-42 -4156 4157 0
-4157 4173 0
-43 -4157 4158 0
-4158 4174 0
-44 -4158 4159 0
-4159 4175 0
-45 -4159 4160 0
-4160 4176 0
-46 -4160 4161 0
-4161 4177 0
-47 -4161 4162 0
-4162 4178 0
-48 -4162 4163 0
-4163 4179 0
-49 -4163 4164 0
-4164 4180 0
-50 -4164 4165 0
-4165 4181 0
-51 -4165 4166 0
-4166 4182 0
-52 -4166 4167 0
-4167 4183 0
-53 -4167 4168 0
-4168 4184 0
-54 -4168 0
-39 4169 0
-4169 4185 0
-40 -4169 4170 0
-4170 4186 0
-41 -4170 4171 0
-4171 4187 0
-42 -4171 4172 0
-4172 4188 0
-43 -4172 4173 0
-4173 4189 0
-44 -4173 4174 0
-4174 4190 0
-45 -4174 4175 0
-4175 4191 0
-46 -4175 4176 0
-4176 4192 0
-47 -4176 4177 0
-4177 4193 0
-48 -4177 4178 0
-4178 4194 0
-49 -4178 4179 0
-4179 4195 0
-50 -4179 4180 0
-4180 4196 0
-51 -4180 4181 0
-4181 4197 0
-52 -4181 4182 0
-4182 4198 0
-53 -4182 4183 0
-4183 4199 0
-54 -4183 4184 0
-4184 4200 0
-55 -4184 0
-40 4185 0
-4185 4201 0
-41 -4185 4186 0
-4186 4202 0
-42 -4186 4187 0
-4187 4203 0
-43 -4187 4188 0
-4188 4204 0
-44 -4188 4189 0
-4189 4205 0
-45 -4189 4190 0
-4190 4206 0
-46 -4190 4191 0
-4191 4207 0
-47 -4191 4192 0
-4192 4208 0
-48 -4192 4193 0
-4193 4209 0
-49 -4193 4194 0
-4194 4210 0
-50 -4194 4195 0
-4195 4211 0
-51 -4195 4196 0
-4196 4212 0
-52 -4196 4197 0
-4197 4213 0
-53 -4197 4198 0
-4198 4214 0
-54 -4198 4199 0
-4199 4215 0
-55 -4199 4200 0
-4200 4216 0
-56 -4200 0
-41 4201 0
-4201 4217 0
-42 -4201 4202 0
-4202 4218 0
-43 -4202 4203 0
-4203 4219 0
-44 -4203 4204 0
-4204 4220 0
-45 -4204 4205 0
-4205 4221 0
-46 -4205 4206 0
-4206 4222 0
-47 -4206 4207 0
-4207 4223 0
-48 -4207 4208 0
-4208 4224 0
-49 -4208 4209 0
-4209 4225 0
-50 -4209 4210 0
-4210 4226 0
-51 -4210 4211 0
-4211 4227 0
-52 -4211 4212 0
-4212 4228 0
-53 -4212 4213 0
-4213 4229 0
-54 -4213 4214 0
-4214 4230 0
-55 -4214 4215 0
-4215 4231 0
-56 -4215 4216 0
-4216 4232 0
-57 -4216 0
-42 4217 0
-4217 4233 0
-43 -4217 4218 0
-4218 4234 0
-44 -4218 4219 0
-4219 4235 0
-45 -4219 4220 0
-4220 4236 0
-46 -4220 4221 0
-4221 4237 0
-47 -4221 4222 0
-4222 4238 0
-48 -4222 4223 0
-4223 4239 0
-49 -4223 4224 0
-4224 4240 0
-50 -4224 4225 0
-4225 4241 0
-51 -4225 4226 0
-4226 4242 0
-52 -4226 4227 0
-4227 4243 0
-53 -4227 4228 0
-4228 4244 0
-54 -4228 4229 0
-4229 4245 0
-55 -4229 4230 0
-4230 4246 0
-56 -4230 4231 0
-4231 4247 0
-57 -4231 4232 0
-4232 4248 0
-58 -4232 0
-43 4233 0
-4233 4249 0
-44 -4233 4234 0
-4234 4250 0
-45 -4234 4235 0
-4235 4251 0
-46 -4235 4236 0
-4236 4252 0
-47 -4236 4237 0
-4237 4253 0
-48 -4237 4238 0
-4238 4254 0
-49 -4238 4239 0
-4239 4255 0
-50 -4239 4240 0
-4240 4256 0
-51 -4240 4241 0
-4241 4257 0
-52 -4241 4242 0
-4242 4258 0
-53 -4242 4243 0
-4243 4259 0
-54 -4243 4244 0
-4244 4260 0
-55 -4244 4245 0
-4245 4261 0
-56 -4245 4246 0
-4246 4262 0
-57 -4246 4247 0
-4247 4263 0
-58 -4247 4248 0
-4248 4264 0
-59 -4248 0
-44 4249 0
-4249 4265 0
-45 -4249 4250 0
-4250 4266 0
-46 -4250 4251 0
-4251 4267 0
-47 -4251 4252 0
-4252 4268 0
-48 -4252 4253 0
-4253 4269 0
-49 -4253 4254 0
-4254 4270 0
-50 -4254 4255 0
-4255 4271 0
-51 -4255 4256 0
-4256 4272 0
-52 -4256 4257 0
-4257 4273 0
-53 -4257 4258 0
-4258 4274 0
-54 -4258 4259 0
-4259 4275 0
-55 -4259 4260 0
-4260 4276 0
-56 -4260 4261 0
-4261 4277 0
-57 -4261 4262 0
-4262 4278 0
-58 -4262 4263 0
-4263 4279 0
-59 -4263 4264 0
-4264 4280 0
-60 -4264 0
-45 4265 0
-4265 4281 0
-46 -4265 4266 0
-4266 4282 0
-47 -4266 4267 0
-4267 4283 0
-48 -4267 4268 0
-4268 4284 0
-49 -4268 4269 0
-4269 4285 0
-50 -4269 4270 0
-4270 4286 0
-51 -4270 4271 0
-4271 4287 0
-52 -4271 4272 0
-4272 4288 0
-53 -4272 4273 0
-4273 4289 0
-54 -4273 4274 0
-4274 4290 0
-55 -4274 4275 0
-4275 4291 0
-56 -4275 4276 0
-4276 4292 0
-57 -4276 4277 0
-4277 4293 0
-58 -4277 4278 0
-4278 4294 0
-59 -4278 4279 0
-4279 4295 0
-60 -4279 4280 0
-4280 4296 0
-61 -4280 0
-46 4281 0
-4281 4297 0
-47 -4281 4282 0
-4282 4298 0
-48 -4282 4283 0
-4283 4299 0
-49 -4283 4284 0
-4284 4300 0
-50 -4284 4285 0
-4285 4301 0
-51 -4285 4286 0
-4286 4302 0
-52 -4286 4287 0
-4287 4303 0
-53 -4287 4288 0
-4288 4304 0
-54 -4288 4289 0
-4289 4305 0
-55 -4289 4290 0
-4290 4306 0
-56 -4290 4291 0
-4291 4307 0
-57 -4291 4292 0
-4292 4308 0
-58 -4292 4293 0
-4293 4309 0
-59 -4293 4294 0
-4294 4310 0
-60 -4294 4295 0
-4295 4311 0
-61 -4295 4296 0
-4296 4312 0
-62 -4296 0
-47 4297 0
-4297 4313 0
-48 -4297 4298 0
-4298 4314 0
-49 -4298 4299 0
-4299 4315 0
-50 -4299 4300 0
-4300 4316 0
-51 -4300 4301 0
-4301 4317 0
-52 -4301 4302 0
-4302 4318 0
-53 -4302 4303 0
-4303 4319 0
-54 -4303 4304 0
-4304 4320 0
-55 -4304 4305 0
-4305 4321 0
-56 -4305 4306 0
-4306 4322 0
-57 -4306 4307 0
-4307 4323 0
-58 -4307 4308 0
-4308 4324 0
-59 -4308 4309 0
-4309 4325 0
-60 -4309 4310 0
-4310 4326 0
-61 -4310 4311 0
-4311 4327 0
-62 -4311 4312 0
-4312 4328 0
-63 -4312 0
-48 4313 0
-4313 4329 0
-49 -4313 4314 0
-4314 4330 0
-50 -4314 4315 0
-4315 4331 0
-51 -4315 4316 0
-4316 4332 0
-52 -4316 4317 0
-4317 4333 0
-53 -4317 4318 0
-4318 4334 0
-54 -4318 4319 0
-4319 4335 0
-55 -4319 4320 0
-4320 4336 0
-56 -4320 4321 0
-4321 4337 0
-57 -4321 4322 0
-4322 4338 0
-58 -4322 4323 0
-4323 4339 0
-59 -4323 4324 0
-4324 4340 0
-60 -4324 4325 0
-4325 4341 0
-61 -4325 4326 0
-4326 4342 0
-62 -4326 4327 0
-4327 4343 0
-63 -4327 4328 0
-4328 4344 0
-64 -4328 0
-49 4329 0
-4329 4345 0
-50 -4329 4330 0
-4330 4346 0
-51 -4330 4331 0
-4331 4347 0
-52 -4331 4332 0
-4332 4348 0
-53 -4332 4333 0
-4333 4349 0
-54 -4333 4334 0
-4334 4350 0
-55 -4334 4335 0
-4335 4351 0
-56 -4335 4336 0
-4336 4352 0
-57 -4336 4337 0
-4337 4353 0
-58 -4337 4338 0
-4338 4354 0
-59 -4338 4339 0
-4339 4355 0
-60 -4339 4340 0
-4340 4356 0
-61 -4340 4341 0
-4341 4357 0
-62 -4341 4342 0
-4342 4358 0
-63 -4342 4343 0
-4343 4359 0
-64 -4343 4344 0
-4344 4360 0
-65 -4344 0
-50 4345 0
-4345 4361 0
-51 -4345 4346 0
-4346 4362 0
-52 -4346 4347 0
-4347 4363 0
-53 -4347 4348 0
-4348 4364 0
-54 -4348 4349 0
-4349 4365 0
-55 -4349 4350 0
-4350 4366 0
-56 -4350 4351 0
-4351 4367 0
-57 -4351 4352 0
-4352 4368 0
-58 -4352 4353 0
-4353 4369 0
-59 -4353 4354 0
-4354 4370 0
-60 -4354 4355 0
-4355 4371 0
-61 -4355 4356 0
-4356 4372 0
-62 -4356 4357 0
-4357 4373 0
-63 -4357 4358 0
-4358 4374 0
-64 -4358 4359 0
-4359 4375 0
-65 -4359 4360 0
-4360 4376 0
-66 -4360 0
-51 4361 0
-4361 4377 0
-52 -4361 4362 0
-4362 4378 0
-53 -4362 4363 0
-4363 4379 0
-54 -4363 4364 0
-4364 4380 0
-55 -4364 4365 0
-4365 4381 0
-56 -4365 4366 0
-4366 4382 0
-57 -4366 4367 0
-4367 4383 0
-58 -4367 4368 0
-4368 4384 0
-59 -4368 4369 0
-4369 4385 0
-60 -4369 4370 0
-4370 4386 0
-61 -4370 4371 0
-4371 4387 0
-62 -4371 4372 0
-4372 4388 0
-63 -4372 4373 0
-4373 4389 0
-64 -4373 4374 0
-4374 4390 0
-65 -4374 4375 0
-4375 4391 0
-66 -4375 4376 0
-4376 4392 0
-67 -4376 0
-52 4377 0
-4377 4393 0
-53 -4377 4378 0
-4378 4394 0
-54 -4378 4379 0
-4379 4395 0
-55 -4379 4380 0
-4380 4396 0
-56 -4380 4381 0
-4381 4397 0
-57 -4381 4382 0
-4382 4398 0
-58 -4382 4383 0
-4383 4399 0
-59 -4383 4384 0
-4384 4400 0
-60 -4384 4385 0
-4385 4401 0
-61 -4385 4386 0
-4386 4402 0
-62 -4386 4387 0
-4387 4403 0
-63 -4387 4388 0
-4388 4404 0
-64 -4388 4389 0
-4389 4405 0
-65 -4389 4390 0
-4390 4406 0
-66 -4390 4391 0
-4391 4407 0
-67 -4391 4392 0
-4392 4408 0
-68 -4392 0
-53 4393 0
-4393 4409 0
-54 -4393 4394 0
-4394 4410 0
-55 -4394 4395 0
-4395 4411 0
-56 -4395 4396 0
-4396 4412 0
-57 -4396 4397 0
-4397 4413 0
-58 -4397 4398 0
-4398 4414 0
-59 -4398 4399 0
-4399 4415 0
-60 -4399 4400 0
-4400 4416 0
-61 -4400 4401 0
-4401 4417 0
-62 -4401 4402 0
-4402 4418 0
-63 -4402 4403 0
-4403 4419 0
-64 -4403 4404 0
-4404 4420 0
-65 -4404 4405 0
-4405 4421 0
-66 -4405 4406 0
-4406 4422 0
-67 -4406 4407 0
-4407 4423 0
-68 -4407 4408 0
-4408 4424 0
-69 -4408 0
-54 4409 0
-4409 4425 0
-55 -4409 4410 0
-4410 4426 0
-56 -4410 4411 0
-4411 4427 0
-57 -4411 4412 0
-4412 4428 0
-58 -4412 4413 0
-4413 4429 0
-59 -4413 4414 0
-4414 4430 0
-60 -4414 4415 0
-4415 4431 0
-61 -4415 4416 0
-4416 4432 0
-62 -4416 4417 0
-4417 4433 0
-63 -4417 4418 0
-4418 4434 0
-64 -4418 4419 0
-4419 4435 0
-65 -4419 4420 0
-4420 4436 0
-66 -4420 4421 0
-4421 4437 0
-67 -4421 4422 0
-4422 4438 0
-68 -4422 4423 0
-4423 4439 0
-69 -4423 4424 0
-4424 4440 0
-70 -4424 0
-55 4425 0
-4425 4441 0
-56 -4425 4426 0
-4426 4442 0
-57 -4426 4427 0
-4427 4443 0
-58 -4427 4428 0
-4428 4444 0
-59 -4428 4429 0
-4429 4445 0
-60 -4429 4430 0
-4430 4446 0
-61 -4430 4431 0
-4431 4447 0
-62 -4431 4432 0
-4432 4448 0
-63 -4432 4433 0
-4433 4449 0
-64 -4433 4434 0
-4434 4450 0
-65 -4434 4435 0
-4435 4451 0
-66 -4435 4436 0
-4436 4452 0
-67 -4436 4437 0
-4437 4453 0
-68 -4437 4438 0
-4438 4454 0
-69 -4438 4439 0
-4439 4455 0
-70 -4439 4440 0
-4440 4456 0
-71 -4440 0
-56 4441 0
-4441 4457 0
-57 -4441 4442 0
-4442 4458 0
-58 -4442 4443 0
-4443 4459 0
-59 -4443 4444 0
-4444 4460 0
-60 -4444 4445 0
-4445 4461 0
-61 -4445 4446 0
-4446 4462 0
-62 -4446 4447 0
-4447 4463 0
-63 -4447 4448 0
-4448 4464 0
-64 -4448 4449 0
-4449 4465 0
-65 -4449 4450 0
-4450 4466 0
-66 -4450 4451 0
-4451 4467 0
-67 -4451 4452 0
-4452 4468 0
-68 -4452 4453 0
-4453 4469 0
-69 -4453 4454 0
-4454 4470 0
-70 -4454 4455 0
-4455 4471 0
-71 -4455 4456 0
-4456 4472 0
-72 -4456 0
-57 4457 0
-4457 4473 0
-58 -4457 4458 0
-4458 4474 0
-59 -4458 4459 0
-4459 4475 0
-60 -4459 4460 0
-4460 4476 0
-61 -4460 4461 0
-4461 4477 0
-62 -4461 4462 0
-4462 4478 0
-63 -4462 4463 0
-4463 4479 0
-64 -4463 4464 0
-4464 4480 0
-65 -4464 4465 0
-4465 4481 0
-66 -4465 4466 0
-4466 4482 0
-67 -4466 4467 0
-4467 4483 0
-68 -4467 4468 0
-4468 4484 0
-69 -4468 4469 0
-4469 4485 0
-70 -4469 4470 0
-4470 4486 0
-71 -4470 4471 0
-4471 4487 0
-72 -4471 4472 0
-4472 4488 0
-73 -4472 0
-58 4473 0
-4473 4489 0
-59 -4473 4474 0
-4474 4490 0
-60 -4474 4475 0
-4475 4491 0
-61 -4475 4476 0
-4476 4492 0
-62 -4476 4477 0
-4477 4493 0
-63 -4477 4478 0
-4478 4494 0
-64 -4478 4479 0
-4479 4495 0
-65 -4479 4480 0
-4480 4496 0
-66 -4480 4481 0
-4481 4497 0
-67 -4481 4482 0
-4482 4498 0
-68 -4482 4483 0
-4483 4499 0
-69 -4483 4484 0
-4484 4500 0
-70 -4484 4485 0
-4485 4501 0
-71 -4485 4486 0
-4486 4502 0
-72 -4486 4487 0
-4487 4503 0
-73 -4487 4488 0
-4488 4504 0
-74 -4488 0
-59 4489 0
-4489 4505 0
-60 -4489 4490 0
-4490 4506 0
-61 -4490 4491 0
-4491 4507 0
-62 -4491 4492 0
-4492 4508 0
-63 -4492 4493 0
-4493 4509 0
-64 -4493 4494 0
-4494 4510 0
-65 -4494 4495 0
-4495 4511 0
-66 -4495 4496 0
-4496 4512 0
-67 -4496 4497 0
-4497 4513 0
-68 -4497 4498 0
-4498 4514 0
-69 -4498 4499 0
-4499 4515 0
-70 -4499 4500 0
-4500 4516 0
-71 -4500 4501 0
-4501 4517 0
-72 -4501 4502 0
-4502 4518 0
-73 -4502 4503 0
-4503 4519 0
-74 -4503 4504 0
-4504 4520 0
-75 -4504 0
-60 4505 0
-4505 4521 0
-61 -4505 4506 0
-4506 4522 0
-62 -4506 4507 0
-4507 4523 0
-63 -4507 4508 0
-4508 4524 0
-64 -4508 4509 0
-4509 4525 0
-65 -4509 4510 0
-4510 4526 0
-66 -4510 4511 0
-4511 4527 0
-67 -4511 4512 0
-4512 4528 0
-68 -4512 4513 0
-4513 4529 0
-69 -4513 4514 0
-4514 4530 0
-70 -4514 4515 0
-4515 4531 0
-71 -4515 4516 0
-4516 4532 0
-72 -4516 4517 0
-4517 4533 0
-73 -4517 4518 0
-4518 4534 0
-74 -4518 4519 0
-4519 4535 0
-75 -4519 4520 0
-4520 4536 0
-76 -4520 0
-61 4521 0
-4521 4537 0
-62 -4521 4522 0
-4522 4538 0
-63 -4522 4523 0
-4523 4539 0
-64 -4523 4524 0
-4524 4540 0
-65 -4524 4525 0
-4525 4541 0
-66 -4525 4526 0
-4526 4542 0
-67 -4526 4527 0
-4527 4543 0
-68 -4527 4528 0
-4528 4544 0
-69 -4528 4529 0
-4529 4545 0
-70 -4529 4530 0
-4530 4546 0
-71 -4530 4531 0
-4531 4547 0
-72 -4531 4532 0
-4532 4548 0
-73 -4532 4533 0
-4533 4549 0
-74 -4533 4534 0
-4534 4550 0
-75 -4534 4535 0
-4535 4551 0
-76 -4535 4536 0
-4536 4552 0
-77 -4536 0
-62 4537 0
-4537 4553 0
-63 -4537 4538 0
-4538 4554 0
-64 -4538 4539 0
-4539 4555 0
-65 -4539 4540 0
-4540 4556 0
-66 -4540 4541 0
-4541 4557 0
-67 -4541 4542 0
-4542 4558 0
-68 -4542 4543 0
-4543 4559 0
-69 -4543 4544 0
-4544 4560 0
-70 -4544 4545 0
-4545 4561 0
-71 -4545 4546 0
-4546 4562 0
-72 -4546 4547 0
-4547 4563 0
-73 -4547 4548 0
-4548 4564 0
-74 -4548 4549 0
-4549 4565 0
-75 -4549 4550 0
-4550 4566 0
-76 -4550 4551 0
-4551 4567 0
-77 -4551 4552 0
-4552 4568 0
-78 -4552 0
-63 4553 0
-4553 4569 0
-64 -4553 4554 0
-4554 4570 0
-65 -4554 4555 0
-4555 4571 0
-66 -4555 4556 0
-4556 4572 0
-67 -4556 4557 0
-4557 4573 0
-68 -4557 4558 0
-4558 4574 0
-69 -4558 4559 0
-4559 4575 0
-70 -4559 4560 0
-4560 4576 0
-71 -4560 4561 0
-4561 4577 0
-72 -4561 4562 0
-4562 4578 0
-73 -4562 4563 0
-4563 4579 0
-74 -4563 4564 0
-4564 4580 0
-75 -4564 4565 0
-4565 4581 0
-76 -4565 4566 0
-4566 4582 0
-77 -4566 4567 0
-4567 4583 0
-78 -4567 4568 0
-4568 4584 0
-79 -4568 0
-64 4569 0
-4569 4585 0
-65 -4569 4570 0
-4570 4586 0
-66 -4570 4571 0
-4571 4587 0
-67 -4571 4572 0
-4572 4588 0
-68 -4572 4573 0
-4573 4589 0
-69 -4573 4574 0
-4574 4590 0
-70 -4574 4575 0
-4575 4591 0
-71 -4575 4576 0
-4576 4592 0
-72 -4576 4577 0
-4577 4593 0
-73 -4577 4578 0
-4578 4594 0
-74 -4578 4579 0
-4579 4595 0
-75 -4579 4580 0
-4580 4596 0
-76 -4580 4581 0
-4581 4597 0
-77 -4581 4582 0
-4582 4598 0
-78 -4582 4583 0
-4583 4599 0
-79 -4583 4584 0
-4584 4600 0
-80 -4584 0
-65 4585 0
-4585 4601 0
-66 -4585 4586 0
-4586 4602 0
-67 -4586 4587 0
-4587 4603 0
-68 -4587 4588 0
-4588 4604 0
-69 -4588 4589 0
-4589 4605 0
-70 -4589 4590 0
-4590 4606 0
-71 -4590 4591 0
-4591 4607 0
-72 -4591 4592 0
-4592 4608 0
-73 -4592 4593 0
-4593 4609 0
-74 -4593 4594 0
-4594 4610 0
-75 -4594 4595 0
-4595 4611 0
-76 -4595 4596 0
-4596 4612 0
-77 -4596 4597 0
-4597 4613 0
-78 -4597 4598 0
-4598 4614 0
-79 -4598 4599 0
-4599 4615 0
-80 -4599 4600 0
-4600 4616 0
-81 -4600 0
-66 4601 0
-4601 4617 0
-67 -4601 4602 0
-4602 4618 0
-68 -4602 4603 0
-4603 4619 0
-69 -4603 4604 0
-4604 4620 0
-70 -4604 4605 0
-4605 4621 0
-71 -4605 4606 0
-4606 4622 0
-72 -4606 4607 0
-4607 4623 0
-73 -4607 4608 0
-4608 4624 0
-74 -4608 4609 0
-4609 4625 0
-75 -4609 4610 0
-4610 4626 0
-76 -4610 4611 0
-4611 4627 0
-77 -4611 4612 0
-4612 4628 0
-78 -4612 4613 0
-4613 4629 0
-79 -4613 4614 0
-4614 4630 0
-80 -4614 4615 0
-4615 4631 0
-81 -4615 4616 0
-4616 4632 0
-82 -4616 0
-67 4617 0
-4617 4633 0
-68 -4617 4618 0
-4618 4634 0
-69 -4618 4619 0
-4619 4635 0
-70 -4619 4620 0
-4620 4636 0
-71 -4620 4621 0
-4621 4637 0
-72 -4621 4622 0
-4622 4638 0
-73 -4622 4623 0
-4623 4639 0
-74 -4623 4624 0
-4624 4640 0
-75 -4624 4625 0
-4625 4641 0
-76 -4625 4626 0
-4626 4642 0
-77 -4626 4627 0
-4627 4643 0
-78 -4627 4628 0
-4628 4644 0
-79 -4628 4629 0
-4629 4645 0
-80 -4629 4630 0
-4630 4646 0
-81 -4630 4631 0
-4631 4647 0
-82 -4631 4632 0
-4632 4648 0
-83 -4632 0
-68 4633 0
-4633 4649 0
-69 -4633 4634 0
-4634 4650 0
-70 -4634 4635 0
-4635 4651 0
-71 -4635 4636 0
-4636 4652 0
-72 -4636 4637 0
-4637 4653 0
-73 -4637 4638 0
-4638 4654 0
-74 -4638 4639 0
-4639 4655 0
-75 -4639 4640 0
-4640 4656 0
-76 -4640 4641 0
-4641 4657 0
-77 -4641 4642 0
-4642 4658 0
-78 -4642 4643 0
-4643 4659 0
-79 -4643 4644 0
-4644 4660 0
-80 -4644 4645 0
-4645 4661 0
-81 -4645 4646 0
-4646 4662 0
-82 -4646 4647 0
-4647 4663 0
-83 -4647 4648 0
-4648 4664 0
-84 -4648 0
-69 4649 0
-4649 4665 0
-70 -4649 4650 0
-4650 4666 0
-71 -4650 4651 0
-4651 4667 0
-72 -4651 4652 0
-4652 4668 0
-73 -4652 4653 0
-4653 4669 0
-74 -4653 4654 0
-4654 4670 0
-75 -4654 4655 0
-4655 4671 0
-76 -4655 4656 0
-4656 4672 0
-77 -4656 4657 0
-4657 4673 0
-78 -4657 4658 0
-4658 4674 0
-79 -4658 4659 0
-4659 4675 0
-80 -4659 4660 0
-4660 4676 0
-81 -4660 4661 0
-4661 4677 0
-82 -4661 4662 0
-4662 4678 0
-83 -4662 4663 0
-4663 4679 0
-84 -4663 4664 0
-4664 4680 0
-85 -4664 0
-70 4665 0
-4665 4681 0
-71 -4665 4666 0
-4666 4682 0
-72 -4666 4667 0
-4667 4683 0
-73 -4667 4668 0
-4668 4684 0
-74 -4668 4669 0
-4669 4685 0
-75 -4669 4670 0
-4670 4686 0
-76 -4670 4671 0
-4671 4687 0
-77 -4671 4672 0
-4672 4688 0
-78 -4672 4673 0
-4673 4689 0
-79 -4673 4674 0
-4674 4690 0
-80 -4674 4675 0
-4675 4691 0
-81 -4675 4676 0
-4676 4692 0
-82 -4676 4677 0
-4677 4693 0
-83 -4677 4678 0
-4678 4694 0
-84 -4678 4679 0
-4679 4695 0
-85 -4679 4680 0
-4680 4696 0
-86 -4680 0
-71 4681 0
-4681 4697 0
-72 -4681 4682 0
-4682 4698 0
-73 -4682 4683 0
-4683 4699 0
-74 -4683 4684 0
-4684 4700 0
-75 -4684 4685 0
-4685 4701 0
-76 -4685 4686 0
-4686 4702 0
-77 -4686 4687 0
-4687 4703 0
-78 -4687 4688 0
-4688 4704 0
-79 -4688 4689 0
-4689 4705 0
-80 -4689 4690 0
-4690 4706 0
-81 -4690 4691 0
-4691 4707 0
-82 -4691 4692 0
-4692 4708 0
-83 -4692 4693 0
-4693 4709 0
-84 -4693 4694 0
-4694 4710 0
-85 -4694 4695 0
-4695 4711 0
-86 -4695 4696 0
-4696 4712 0
-87 -4696 0
-72 4697 0
-4697 4713 0
-73 -4697 4698 0
-4698 4714 0
-74 -4698 4699 0
-4699 4715 0
-75 -4699 4700 0
-4700 4716 0
-76 -4700 4701 0
-4701 4717 0
-77 -4701 4702 0
-4702 4718 0
-78 -4702 4703 0
-4703 4719 0
-79 -4703 4704 0
-4704 4720 0
-80 -4704 4705 0
-4705 4721 0
-81 -4705 4706 0
-4706 4722 0
-82 -4706 4707 0
-4707 4723 0
-83 -4707 4708 0
-4708 4724 0
-84 -4708 4709 0
-4709 4725 0
-85 -4709 4710 0
-4710 4726 0
-86 -4710 4711 0
-4711 4727 0
-87 -4711 4712 0
-4712 4728 0
-88 -4712 0
-73 4713 0
-4713 4729 0
-74 -4713 4714 0
-4714 4730 0
-75 -4714 4715 0
-4715 4731 0
-76 -4715 4716 0
-4716 4732 0
-77 -4716 4717 0
-4717 4733 0
-78 -4717 4718 0
-4718 4734 0
-79 -4718 4719 0
-4719 4735 0
-80 -4719 4720 0
-4720 4736 0
-81 -4720 4721 0
-4721 4737 0
-82 -4721 4722 0
-4722 4738 0
-83 -4722 4723 0
-4723 4739 0
-84 -4723 4724 0
-4724 4740 0
-85 -4724 4725 0
-4725 4741 0
-86 -4725 4726 0
-4726 4742 0
-87 -4726 4727 0
-4727 4743 0
-88 -4727 4728 0
-4728 4744 0
-89 -4728 0
-74 4729 0
-4729 4745 0
-75 -4729 4730 0
-4730 4746 0
-76 -4730 4731 0
-4731 4747 0
-77 -4731 4732 0
-4732 4748 0
-78 -4732 4733 0
-4733 4749 0
-79 -4733 4734 0
-4734 4750 0
-80 -4734 4735 0
-4735 4751 0
-81 -4735 4736 0
-4736 4752 0
-82 -4736 4737 0
-4737 4753 0
-83 -4737 4738 0
-4738 4754 0
-84 -4738 4739 0
-4739 4755 0
-85 -4739 4740 0
-4740 4756 0
-86 -4740 4741 0
-4741 4757 0
-87 -4741 4742 0
-4742 4758 0
-88 -4742 4743 0
-4743 4759 0
-89 -4743 4744 0
-4744 4760 0
-90 -4744 0
-75 4745 0
-4745 4761 0
-76 -4745 4746 0
-4746 4762 0
-77 -4746 4747 0
-4747 4763 0
-78 -4747 4748 0
-4748 4764 0
-79 -4748 4749 0
-4749 4765 0
-80 -4749 4750 0
-4750 4766 0
-81 -4750 4751 0
-4751 4767 0
-82 -4751 4752 0
-4752 4768 0
-83 -4752 4753 0
-4753 4769 0
-84 -4753 4754 0
-4754 4770 0
-85 -4754 4755 0
-4755 4771 0
-86 -4755 4756 0
-4756 4772 0
-87 -4756 4757 0
-4757 4773 0
-88 -4757 4758 0
-4758 4774 0
-89 -4758 4759 0
-4759 4775 0
-90 -4759 4760 0
-4760 4776 0
-91 -4760 0
-76 4761 0
-4761 4777 0
-77 -4761 4762 0
-4762 4778 0
-78 -4762 4763 0
-4763 4779 0
-79 -4763 4764 0
-4764 4780 0
-80 -4764 4765 0
-4765 4781 0
-81 -4765 4766 0
-4766 4782 0
-82 -4766 4767 0
-4767 4783 0
-83 -4767 4768 0
-4768 4784 0
-84 -4768 4769 0
-4769 4785 0
-85 -4769 4770 0
-4770 4786 0
-86 -4770 4771 0
-4771 4787 0
-87 -4771 4772 0
-4772 4788 0
-88 -4772 4773 0
-4773 4789 0
-89 -4773 4774 0
-4774 4790 0
-90 -4774 4775 0
-4775 4791 0
-91 -4775 4776 0
-4776 4792 0
-92 -4776 0
-77 4777 0
-4777 4793 0
-78 -4777 4778 0
-4778 4794 0
-79 -4778 4779 0
-4779 4795 0
-80 -4779 4780 0
-4780 4796 0
-81 -4780 4781 0
-4781 4797 0
-82 -4781 4782 0
-4782 4798 0
-83 -4782 4783 0
-4783 4799 0
-84 -4783 4784 0
-4784 4800 0
-85 -4784 4785 0
-4785 4801 0
-86 -4785 4786 0
-4786 4802 0
-87 -4786 4787 0
-4787 4803 0
-88 -4787 4788 0
-4788 4804 0
-89 -4788 4789 0
-4789 4805 0
-90 -4789 4790 0
-4790 4806 0
-91 -4790 4791 0
-4791 4807 0
-92 -4791 4792 0
-4792 4808 0
-93 -4792 0
-78 4793 0
-4793 4809 0
-79 -4793 4794 0
-4794 4810 0
-80 -4794 4795 0
-4795 4811 0
-81 -4795 4796 0
-4796 4812 0
-82 -4796 4797 0
-4797 4813 0
-83 -4797 4798 0
-4798 4814 0
-84 -4798 4799 0
-4799 4815 0
-85 -4799 4800 0
-4800 4816 0
-86 -4800 4801 0
-4801 4817 0
-87 -4801 4802 0
-4802 4818 0
-88 -4802 4803 0
-4803 4819 0
-89 -4803 4804 0
-4804 4820 0
-90 -4804 4805 0
-4805 4821 0
-91 -4805 4806 0
-4806 4822 0
-92 -4806 4807 0
-4807 4823 0
-93 -4807 4808 0
-4808 4824 0
-94 -4808 0
-79 4809 0
-4809 4825 0
-80 -4809 4810 0
-4810 4826 0
-81 -4810 4811 0
-4811 4827 0
-82 -4811 4812 0
-4812 4828 0
-83 -4812 4813 0
-4813 4829 0
-84 -4813 4814 0
-4814 4830 0
-85 -4814 4815 0
-4815 4831 0
-86 -4815 4816 0
-4816 4832 0
-87 -4816 4817 0
-4817 4833 0
-88 -4817 4818 0
-4818 4834 0
-89 -4818 4819 0
-4819 4835 0
-90 -4819 4820 0
-4820 4836 0
-91 -4820 4821 0
-4821 4837 0
-92 -4821 4822 0
-4822 4838 0
-93 -4822 4823 0
-4823 4839 0
-94 -4823 4824 0
-4824 4840 0
-95 -4824 0
-80 4825 0
-4825 4841 0
-81 -4825 4826 0
-4826 4842 0
-82 -4826 4827 0
-4827 4843 0
-83 -4827 4828 0
-4828 4844 0
-84 -4828 4829 0
-4829 4845 0
-85 -4829 4830 0
-4830 4846 0
-86 -4830 4831 0
-4831 4847 0
-87 -4831 4832 0
-4832 4848 0
-88 -4832 4833 0
-4833 4849 0
-89 -4833 4834 0
-4834 4850 0
-90 -4834 4835 0
-4835 4851 0
-91 -4835 4836 0
-4836 4852 0
-92 -4836 4837 0
-4837 4853 0
-93 -4837 4838 0
-4838 4854 0
-94 -4838 4839 0
-4839 4855 0
-95 -4839 4840 0
-4840 4856 0
-96 -4840 0
-81 4841 0
-4841 4857 0
-82 -4841 4842 0
-4842 4858 0
-83 -4842 4843 0
-4843 4859 0
-84 -4843 4844 0
-4844 4860 0
-85 -4844 4845 0
-4845 4861 0
-86 -4845 4846 0
-4846 4862 0
-87 -4846 4847 0
-4847 4863 0
-88 -4847 4848 0
-4848 4864 0
-89 -4848 4849 0
-4849 4865 0
-90 -4849 4850 0
-4850 4866 0
-91 -4850 4851 0
-4851 4867 0
-92 -4851 4852 0
-4852 4868 0
-93 -4852 4853 0
-4853 4869 0
-94 -4853 4854 0
-4854 4870 0
-95 -4854 4855 0
-4855 4871 0
-96 -4855 4856 0
-4856 4872 0
-97 -4856 0
-82 4857 0
-4857 4873 0
-83 -4857 4858 0
-4858 4874 0
-84 -4858 4859 0
-4859 4875 0
-85 -4859 4860 0
-4860 4876 0
-86 -4860 4861 0
-4861 4877 0
-87 -4861 4862 0
-4862 4878 0
-88 -4862 4863 0
-4863 4879 0
-89 -4863 4864 0
-4864 4880 0
-90 -4864 4865 0
-4865 4881 0
-91 -4865 4866 0
-4866 4882 0
-92 -4866 4867 0
-4867 4883 0
-93 -4867 4868 0
-4868 4884 0
-94 -4868 4869 0
-4869 4885 0
-95 -4869 4870 0
-4870 4886 0
-96 -4870 4871 0
-4871 4887 0
-97 -4871 4872 0
-4872 4888 0
-98 -4872 0
-83 4873 0
-4873 4889 0
-84 -4873 4874 0
-4874 4890 0
-85 -4874 4875 0
-4875 4891 0
-86 -4875 4876 0
-4876 4892 0
-87 -4876 4877 0
-4877 4893 0
-88 -4877 4878 0
-4878 4894 0
-89 -4878 4879 0
-4879 4895 0
-90 -4879 4880 0
-4880 4896 0
-91 -4880 4881 0
-4881 4897 0
-92 -4881 4882 0
-4882 4898 0
-93 -4882 4883 0
-4883 4899 0
-94 -4883 4884 0
-4884 4900 0
-95 -4884 4885 0
-4885 4901 0
-96 -4885 4886 0
-4886 4902 0
-97 -4886 4887 0
-4887 4903 0
-98 -4887 4888 0
-4888 4904 0
-99 -4888 0
-84 4889 0
-4889 4905 0
-85 -4889 4890 0
-4890 4906 0
-86 -4890 4891 0
-4891 4907 0
-87 -4891 4892 0
-4892 4908 0
-88 -4892 4893 0
-4893 4909 0
-89 -4893 4894 0
-4894 4910 0
-90 -4894 4895 0
-4895 4911 0
-91 -4895 4896 0
-4896 4912 0
-92 -4896 4897 0
-4897 4913 0
-93 -4897 4898 0
-4898 4914 0
-94 -4898 4899 0
-4899 4915 0
-95 -4899 4900 0
-4900 4916 0
-96 -4900 4901 0
-4901 4917 0
-97 -4901 4902 0
-4902 4918 0
-98 -4902 4903 0
-4903 4919 0
-99 -4903 4904 0
-4904 4920 0
-100 -4904 0
-85 4905 0
-4905 4921 0
-86 -4905 4906 0
-4906 4922 0
-87 -4906 4907 0
-4907 4923 0
-88 -4907 4908 0
-4908 4924 0
-89 -4908 4909 0
-4909 4925 0
-90 -4909 4910 0
-4910 4926 0
-91 -4910 4911 0
-4911 4927 0
-92 -4911 4912 0
-4912 4928 0
-93 -4912 4913 0
-4913 4929 0
-94 -4913 4914 0
-4914 4930 0
-95 -4914 4915 0
-4915 4931 0
-96 -4915 4916 0
-4916 4932 0
-97 -4916 4917 0
-4917 4933 0
-98 -4917 4918 0
-4918 4934 0
-99 -4918 4919 0
-4919 4935 0
-100 -4919 4920 0
-4920 4936 0
-101 -4920 0
-86 4921 0
-4921 4937 0
-87 -4921 4922 0
-4922 4938 0
-88 -4922 4923 0
-4923 4939 0
-89 -4923 4924 0
-4924 4940 0
-90 -4924 4925 0
-4925 4941 0
-91 -4925 4926 0
-4926 4942 0
-92 -4926 4927 0
-4927 4943 0
-93 -4927 4928 0
-4928 4944 0
-94 -4928 4929 0
-4929 4945 0
-95 -4929 4930 0
-4930 4946 0
-96 -4930 4931 0
-4931 4947 0
-97 -4931 4932 0
-4932 4948 0
-98 -4932 4933 0
-4933 4949 0
-99 -4933 4934 0
-4934 4950 0
-100 -4934 4935 0
-4935 4951 0
-101 -4935 4936 0
-4936 4952 0
-102 -4936 0
-87 4937 0
-4937 4953 0
-88 -4937 4938 0
-4938 4954 0
-89 -4938 4939 0
-4939 4955 0
-90 -4939 4940 0
-4940 4956 0
-91 -4940 4941 0
-4941 4957 0
-92 -4941 4942 0
-4942 4958 0
-93 -4942 4943 0
-4943 4959 0
-94 -4943 4944 0
-4944 4960 0
-95 -4944 4945 0
-4945 4961 0
-96 -4945 4946 0
-4946 4962 0
-97 -4946 4947 0
-4947 4963 0
-98 -4947 4948 0
-4948 4964 0
-99 -4948 4949 0
-4949 4965 0
-100 -4949 4950 0
-4950 4966 0
-101 -4950 4951 0
-4951 4967 0
-102 -4951 4952 0
-4952 4968 0
-103 -4952 0
-88 4953 0
-4953 4969 0
-89 -4953 4954 0
-4954 4970 0
-90 -4954 4955 0
-4955 4971 0
-91 -4955 4956 0
-4956 4972 0
-92 -4956 4957 0
-4957 4973 0
-93 -4957 4958 0
-4958 4974 0
-94 -4958 4959 0
-4959 4975 0
-95 -4959 4960 0
-4960 4976 0
-96 -4960 4961 0
-4961 4977 0
-97 -4961 4962 0
-4962 4978 0
-98 -4962 4963 0
-4963 4979 0
-99 -4963 4964 0
-4964 4980 0
-100 -4964 4965 0
-4965 4981 0
-101 -4965 4966 0
-4966 4982 0
-102 -4966 4967 0
-4967 4983 0
-103 -4967 4968 0
-4968 4984 0
-104 -4968 0
-89 4969 0
-4969 4985 0
-90 -4969 4970 0
-4970 4986 0
-91 -4970 4971 0
-4971 4987 0
-92 -4971 4972 0
-4972 4988 0
-93 -4972 4973 0
-4973 4989 0
-94 -4973 4974 0
-4974 4990 0
-95 -4974 4975 0
-4975 4991 0
-96 -4975 4976 0
-4976 4992 0
-97 -4976 4977 0
-4977 4993 0
-98 -4977 4978 0
-4978 4994 0
-99 -4978 4979 0
-4979 4995 0
-100 -4979 4980 0
-4980 4996 0
-101 -4980 4981 0
-4981 4997 0
-102 -4981 4982 0
-4982 4998 0
-103 -4982 4983 0
-4983 4999 0
-104 -4983 4984 0
-4984 5000 0
-105 -4984 0
-90 4985 0
-4985 5001 0
-91 -4985 4986 0
-4986 5002 0
-92 -4986 4987 0
-4987 5003 0
-93 -4987 4988 0
-4988 5004 0
-94 -4988 4989 0
-4989 5005 0
-95 -4989 4990 0
-4990 5006 0
-96 -4990 4991 0
-4991 5007 0
-97 -4991 4992 0
-4992 5008 0
-98 -4992 4993 0
-4993 5009 0
-99 -4993 4994 0
-4994 5010 0
-100 -4994 4995 0
-4995 5011 0
-101 -4995 4996 0
-4996 5012 0
-102 -4996 4997 0
-4997 5013 0
-103 -4997 4998 0
-4998 5014 0
-104 -4998 4999 0
-4999 5015 0
-105 -4999 5000 0
-5000 5016 0
-106 -5000 0
-91 5001 0
-5001 5017 0
-92 -5001 5002 0
-5002 5018 0
-93 -5002 5003 0
-5003 5019 0
-94 -5003 5004 0
-5004 5020 0
-95 -5004 5005 0
-5005 5021 0
-96 -5005 5006 0
-5006 5022 0
-97 -5006 5007 0
-5007 5023 0
-98 -5007 5008 0
-5008 5024 0
-99 -5008 5009 0
-5009 5025 0
-100 -5009 5010 0
-5010 5026 0
-101 -5010 5011 0
-5011 5027 0
-102 -5011 5012 0
-5012 5028 0
-103 -5012 5013 0
-5013 5029 0
-104 -5013 5014 0
-5014 5030 0
-105 -5014 5015 0
-5015 5031 0
-106 -5015 5016 0
-5016 5032 0
-107 -5016 0
-92 5017 0
-5017 5033 0
-93 -5017 5018 0
-5018 5034 0
-94 -5018 5019 0
-5019 5035 0
-95 -5019 5020 0
-5020 5036 0
-96 -5020 5021 0
-5021 5037 0
-97 -5021 5022 0
-5022 5038 0
-98 -5022 5023 0
-5023 5039 0
-99 -5023 5024 0
-5024 5040 0
-100 -5024 5025 0
-5025 5041 0
-101 -5025 5026 0
-5026 5042 0
-102 -5026 5027 0
-5027 5043 0
-103 -5027 5028 0
-5028 5044 0
-104 -5028 5029 0
-5029 5045 0
-105 -5029 5030 0
-5030 5046 0
-106 -5030 5031 0
-5031 5047 0
-107 -5031 5032 0
-5032 5048 0
-108 -5032 0
-93 5033 0
-5033 5049 0
-94 -5033 5034 0
-5034 5050 0
-95 -5034 5035 0
-5035 5051 0
-96 -5035 5036 0
-5036 5052 0
-97 -5036 5037 0
-5037 5053 0
-98 -5037 5038 0
-5038 5054 0
-99 -5038 5039 0
-5039 5055 0
-100 -5039 5040 0
-5040 5056 0
-101 -5040 5041 0
-5041 5057 0
-102 -5041 5042 0
-5042 5058 0
-103 -5042 5043 0
-5043 5059 0
-104 -5043 5044 0
-5044 5060 0
-105 -5044 5045 0
-5045 5061 0
-106 -5045 5046 0
-5046 5062 0
-107 -5046 5047 0
-5047 5063 0
-108 -5047 5048 0
-5048 5064 0
-109 -5048 0
-94 5049 0
-5049 5065 0
-95 -5049 5050 0
-5050 5066 0
-96 -5050 5051 0
-5051 5067 0
-97 -5051 5052 0
-5052 5068 0
-98 -5052 5053 0
-5053 5069 0
-99 -5053 5054 0
-5054 5070 0
-100 -5054 5055 0
-5055 5071 0
-101 -5055 5056 0
-5056 5072 0
-102 -5056 5057 0
-5057 5073 0
-103 -5057 5058 0
-5058 5074 0
-104 -5058 5059 0
-5059 5075 0
-105 -5059 5060 0
-5060 5076 0
-106 -5060 5061 0
-5061 5077 0
-107 -5061 5062 0
-5062 5078 0
-108 -5062 5063 0
-5063 5079 0
-109 -5063 5064 0
-5064 5080 0
-110 -5064 0
-95 5065 0
-5065 5081 0
-96 -5065 5066 0
-5066 5082 0
-97 -5066 5067 0
-5067 5083 0
-98 -5067 5068 0
-5068 5084 0
-99 -5068 5069 0
-5069 5085 0
-100 -5069 5070 0
-5070 5086 0
-101 -5070 5071 0
-5071 5087 0
-102 -5071 5072 0
-5072 5088 0
-103 -5072 5073 0
-5073 5089 0
-104 -5073 5074 0
-5074 5090 0
-105 -5074 5075 0
-5075 5091 0
-106 -5075 5076 0
-5076 5092 0
-107 -5076 5077 0
-5077 5093 0
-108 -5077 5078 0
-5078 5094 0
-109 -5078 5079 0
-5079 5095 0
-110 -5079 5080 0
-5080 5096 0
-111 -5080 0
-96 5081 0
-5081 5097 0
-97 -5081 5082 0
-5082 5098 0
-98 -5082 5083 0
-5083 5099 0
-99 -5083 5084 0
-5084 5100 0
-100 -5084 5085 0
-5085 5101 0
-101 -5085 5086 0
-5086 5102 0
-102 -5086 5087 0
-5087 5103 0
-103 -5087 5088 0
-5088 5104 0
-104 -5088 5089 0
-5089 5105 0
-105 -5089 5090 0
-5090 5106 0
-106 -5090 5091 0
-5091 5107 0
-107 -5091 5092 0
-5092 5108 0
-108 -5092 5093 0
-5093 5109 0
-109 -5093 5094 0
-5094 5110 0
-110 -5094 5095 0
-5095 5111 0
-111 -5095 5096 0
-5096 5112 0
-112 -5096 0
-97 5097 0
-5097 5113 0
-98 -5097 5098 0
-5098 5114 0
-99 -5098 5099 0
-5099 5115 0
-100 -5099 5100 0
-5100 5116 0
-101 -5100 5101 0
-5101 5117 0
-102 -5101 5102 0
-5102 5118 0
-103 -5102 5103 0
-5103 5119 0
-104 -5103 5104 0
-5104 5120 0
-105 -5104 5105 0
-5105 5121 0
-106 -5105 5106 0
-5106 5122 0
-107 -5106 5107 0
-5107 5123 0
-108 -5107 5108 0
-5108 5124 0
-109 -5108 5109 0
-5109 5125 0
-110 -5109 5110 0
-5110 5126 0
-111 -5110 5111 0
-5111 5127 0
-112 -5111 5112 0
-5112 5128 0
-113 -5112 0
-98 5113 0
-5113 5129 0
-99 -5113 5114 0
-5114 5130 0
-100 -5114 5115 0
-5115 5131 0
-101 -5115 5116 0
-5116 5132 0
-102 -5116 5117 0
-5117 5133 0
-103 -5117 5118 0
-5118 5134 0
-104 -5118 5119 0
-5119 5135 0
-105 -5119 5120 0
-5120 5136 0
-106 -5120 5121 0
-5121 5137 0
-107 -5121 5122 0
-5122 5138 0
-108 -5122 5123 0
-5123 5139 0
-109 -5123 5124 0
-5124 5140 0
-110 -5124 5125 0
-5125 5141 0
-111 -5125 5126 0
-5126 5142 0
-112 -5126 5127 0
-5127 5143 0
-113 -5127 5128 0
-5128 5144 0
-114 -5128 0
-99 5129 0
-5129 5145 0
-100 -5129 5130 0
-5130 5146 0
-101 -5130 5131 0
-5131 5147 0
-102 -5131 5132 0
-5132 5148 0
-103 -5132 5133 0
-5133 5149 0
-104 -5133 5134 0
-5134 5150 0
-105 -5134 5135 0
-5135 5151 0
-106 -5135 5136 0
-5136 5152 0
-107 -5136 5137 0
-5137 5153 0
-108 -5137 5138 0
-5138 5154 0
-109 -5138 5139 0
-5139 5155 0
-110 -5139 5140 0
-5140 5156 0
-111 -5140 5141 0
-5141 5157 0
-112 -5141 5142 0
-5142 5158 0
-113 -5142 5143 0
-5143 5159 0
-114 -5143 5144 0
-5144 5160 0
-115 -5144 0
-100 5145 0
-5145 5161 0
-101 -5145 5146 0
-5146 5162 0
-102 -5146 5147 0
-5147 5163 0
-103 -5147 5148 0
-5148 5164 0
-104 -5148 5149 0
-5149 5165 0
-105 -5149 5150 0
-5150 5166 0
-106 -5150 5151 0
-5151 5167 0
-107 -5151 5152 0
-5152 5168 0
-108 -5152 5153 0
-5153 5169 0
-109 -5153 5154 0
-5154 5170 0
-110 -5154 5155 0
-5155 5171 0
-111 -5155 5156 0
-5156 5172 0
-112 -5156 5157 0
-5157 5173 0
-113 -5157 5158 0
-5158 5174 0
-114 -5158 5159 0
-5159 5175 0
-115 -5159 5160 0
-5160 5176 0
-116 -5160 0
-101 5161 0
-5161 5177 0
-102 -5161 5162 0
-5162 5178 0
-103 -5162 5163 0
-5163 5179 0
-104 -5163 5164 0
-5164 5180 0
-105 -5164 5165 0
-5165 5181 0
-106 -5165 5166 0
-5166 5182 0
-107 -5166 5167 0
-5167 5183 0
-108 -5167 5168 0
-5168 5184 0
-109 -5168 5169 0
-5169 5185 0
-110 -5169 5170 0
-5170 5186 0
-111 -5170 5171 0
-5171 5187 0
-112 -5171 5172 0
-5172 5188 0
-113 -5172 5173 0
-5173 5189 0
-114 -5173 5174 0
-5174 5190 0
-115 -5174 5175 0
-5175 5191 0
-116 -5175 5176 0
-5176 5192 0
-117 -5176 0
-102 5177 0
-5177 5193 0
-103 -5177 5178 0
-5178 5194 0
-104 -5178 5179 0
-5179 5195 0
-105 -5179 5180 0
-5180 5196 0
-106 -5180 5181 0
-5181 5197 0
-107 -5181 5182 0
-5182 5198 0
-108 -5182 5183 0
-5183 5199 0
-109 -5183 5184 0
-5184 5200 0
-110 -5184 5185 0
-5185 5201 0
-111 -5185 5186 0
-5186 5202 0
-112 -5186 5187 0
-5187 5203 0
-113 -5187 5188 0
-5188 5204 0
-114 -5188 5189 0
-5189 5205 0
-115 -5189 5190 0
-5190 5206 0
-116 -5190 5191 0
-5191 5207 0
-117 -5191 5192 0
-5192 5208 0
-118 -5192 0
-103 5193 0
-5193 5209 0
-104 -5193 5194 0
-5194 5210 0
-105 -5194 5195 0
-5195 5211 0
-106 -5195 5196 0
-5196 5212 0
-107 -5196 5197 0
-5197 5213 0
-108 -5197 5198 0
-5198 5214 0
-109 -5198 5199 0
-5199 5215 0
-110 -5199 5200 0
-5200 5216 0
-111 -5200 5201 0
-5201 5217 0
-112 -5201 5202 0
-5202 5218 0
-113 -5202 5203 0
-5203 5219 0
-114 -5203 5204 0
-5204 5220 0
-115 -5204 5205 0
-5205 5221 0
-116 -5205 5206 0
-5206 5222 0
-117 -5206 5207 0
-5207 5223 0
-118 -5207 5208 0
-5208 5224 0
-119 -5208 0
-104 5209 0
-5209 5225 0
-105 -5209 5210 0
-5210 5226 0
-106 -5210 5211 0
-5211 5227 0
-107 -5211 5212 0
-5212 5228 0
-108 -5212 5213 0
-5213 5229 0
-109 -5213 5214 0
-5214 5230 0
-110 -5214 5215 0
-5215 5231 0
-111 -5215 5216 0
-5216 5232 0
-112 -5216 5217 0
-5217 5233 0
-113 -5217 5218 0
-5218 5234 0
-114 -5218 5219 0
-5219 5235 0
-115 -5219 5220 0
-5220 5236 0
-116 -5220 5221 0
-5221 5237 0
-117 -5221 5222 0
-5222 5238 0
-118 -5222 5223 0
-5223 5239 0
-119 -5223 5224 0
-5224 5240 0
-120 -5224 0
-105 5225 0
-5225 5241 0
-106 -5225 5226 0
-5226 5242 0
-107 -5226 5227 0
-5227 5243 0
-108 -5227 5228 0
-5228 5244 0
-109 -5228 5229 0
-5229 5245 0
-110 -5229 5230 0
-5230 5246 0
-111 -5230 5231 0
-5231 5247 0
-112 -5231 5232 0
-5232 5248 0
-113 -5232 5233 0
-5233 5249 0
-114 -5233 5234 0
-5234 5250 0
-115 -5234 5235 0
-5235 5251 0
-116 -5235 5236 0
-5236 5252 0
-117 -5236 5237 0
-5237 5253 0
-118 -5237 5238 0
-5238 5254 0
-119 -5238 5239 0
-5239 5255 0
-120 -5239 5240 0
-5240 5256 0
-121 -5240 0
-106 5241 0
-5241 5257 0
-107 -5241 5242 0
-5242 5258 0
-108 -5242 5243 0
-5243 5259 0
-109 -5243 5244 0
-5244 5260 0
-110 -5244 5245 0
-5245 5261 0
-111 -5245 5246 0
-5246 5262 0
-112 -5246 5247 0
-5247 5263 0
-113 -5247 5248 0
-5248 5264 0
-114 -5248 5249 0
-5249 5265 0
-115 -5249 5250 0
-5250 5266 0
-116 -5250 5251 0
-5251 5267 0
-117 -5251 5252 0
-5252 5268 0
-118 -5252 5253 0
-5253 5269 0
-119 -5253 5254 0
-5254 5270 0
-120 -5254 5255 0
-5255 5271 0
-121 -5255 5256 0
-5256 5272 0
-122 -5256 0
-107 5257 0
-5257 5273 0
-108 -5257 5258 0
-5258 5274 0
-109 -5258 5259 0
-5259 5275 0
-110 -5259 5260 0
-5260 5276 0
-111 -5260 5261 0
-5261 5277 0
-112 -5261 5262 0
-5262 5278 0
-113 -5262 5263 0
-5263 5279 0
-114 -5263 5264 0
-5264 5280 0
-115 -5264 5265 0
-5265 5281 0
-116 -5265 5266 0
-5266 5282 0
-117 -5266 5267 0
-5267 5283 0
-118 -5267 5268 0
-5268 5284 0
-119 -5268 5269 0
-5269 5285 0
-120 -5269 5270 0
-5270 5286 0
-121 -5270 5271 0
-5271 5287 0
-122 -5271 5272 0
-5272 5288 0
-123 -5272 0
-108 5273 0
-5273 5289 0
-109 -5273 5274 0
-5274 5290 0
-110 -5274 5275 0
-5275 5291 0
-111 -5275 5276 0
-5276 5292 0
-112 -5276 5277 0
-5277 5293 0
-113 -5277 5278 0
-5278 5294 0
-114 -5278 5279 0
-5279 5295 0
-115 -5279 5280 0
-5280 5296 0
-116 -5280 5281 0
-5281 5297 0
-117 -5281 5282 0
-5282 5298 0
-118 -5282 5283 0
-5283 5299 0
-119 -5283 5284 0
-5284 5300 0
-120 -5284 5285 0
-5285 5301 0
-121 -5285 5286 0
-5286 5302 0
-122 -5286 5287 0
-5287 5303 0
-123 -5287 5288 0
-5288 5304 0
-124 -5288 0
-109 5289 0
-5289 5305 0
-110 -5289 5290 0
-5290 5306 0
-111 -5290 5291 0
-5291 5307 0
-112 -5291 5292 0
-5292 5308 0
-113 -5292 5293 0
-5293 5309 0
-114 -5293 5294 0
-5294 5310 0
-115 -5294 5295 0
-5295 5311 0
-116 -5295 5296 0
-5296 5312 0
-117 -5296 5297 0
-5297 5313 0
-118 -5297 5298 0
-5298 5314 0
-119 -5298 5299 0
-5299 5315 0
-120 -5299 5300 0
-5300 5316 0
-121 -5300 5301 0
-5301 5317 0
-122 -5301 5302 0
-5302 5318 0
-123 -5302 5303 0
-5303 5319 0
-124 -5303 5304 0
-5304 5320 0
-125 -5304 0
-110 5305 0
-5305 5321 0
-111 -5305 5306 0
-5306 5322 0
-112 -5306 5307 0
-5307 5323 0
-113 -5307 5308 0
-5308 5324 0
-114 -5308 5309 0
-5309 5325 0
-115 -5309 5310 0
-5310 5326 0
-116 -5310 5311 0
-5311 5327 0
-117 -5311 5312 0
-5312 5328 0
-118 -5312 5313 0
-5313 5329 0
-119 -5313 5314 0
-5314 5330 0
-120 -5314 5315 0
-5315 5331 0
-121 -5315 5316 0
-5316 5332 0
-122 -5316 5317 0
-5317 5333 0
-123 -5317 5318 0
-5318 5334 0
-124 -5318 5319 0
-5319 5335 0
-125 -5319 5320 0
-5320 5336 0
-126 -5320 0
-111 5321 0
-5321 5337 0
-112 -5321 5322 0
-5322 5338 0
-113 -5322 5323 0
-5323 5339 0
-114 -5323 5324 0
-5324 5340 0
-115 -5324 5325 0
-5325 5341 0
-116 -5325 5326 0
-5326 5342 0
-117 -5326 5327 0
-5327 5343 0
-118 -5327 5328 0
-5328 5344 0
-119 -5328 5329 0
-5329 5345 0
-120 -5329 5330 0
-5330 5346 0
-121 -5330 5331 0
-5331 5347 0
-122 -5331 5332 0
-5332 5348 0
-123 -5332 5333 0
-5333 5349 0
-124 -5333 5334 0
-5334 5350 0
-125 -5334 5335 0
-5335 5351 0
-126 -5335 5336 0
-5336 5352 0
-127 -5336 0
-112 5337 0
-5337 5353 0
-113 -5337 5338 0
-5338 5354 0
-114 -5338 5339 0
-5339 5355 0
-115 -5339 5340 0
-5340 5356 0
-116 -5340 5341 0
-5341 5357 0
-117 -5341 5342 0
-5342 5358 0
-118 -5342 5343 0
-5343 5359 0
-119 -5343 5344 0
-5344 5360 0
-120 -5344 5345 0
-5345 5361 0
-121 -5345 5346 0
-5346 5362 0
-122 -5346 5347 0
-5347 5363 0
-123 -5347 5348 0
-5348 5364 0
-124 -5348 5349 0
-5349 5365 0
-125 -5349 5350 0
-5350 5366 0
-126 -5350 5351 0
-5351 5367 0
-127 -5351 5352 0
-5352 5368 0
-128 -5352 0
-113 5353 0
-5353 5369 0
-114 -5353 5354 0
-5354 5370 0
-115 -5354 5355 0
-5355 5371 0
-116 -5355 5356 0
-5356 5372 0
-117 -5356 5357 0
-5357 5373 0
-118 -5357 5358 0
-5358 5374 0
-119 -5358 5359 0
-5359 5375 0
-120 -5359 5360 0
-5360 5376 0
-121 -5360 5361 0
-5361 5377 0
-122 -5361 5362 0
-5362 5378 0
-123 -5362 5363 0
-5363 5379 0
-124 -5363 5364 0
-5364 5380 0
-125 -5364 5365 0
-5365 5381 0
-126 -5365 5366 0
-5366 5382 0
-127 -5366 5367 0
-5367 5383 0
-128 -5367 5368 0
-5368 5384 0
-129 -5368 0
-114 5369 0
-5369 5385 0
-115 -5369 5370 0
-5370 5386 0
-116 -5370 5371 0
-5371 5387 0
-117 -5371 5372 0
-5372 5388 0
-118 -5372 5373 0
-5373 5389 0
-119 -5373 5374 0
-5374 5390 0
-120 -5374 5375 0
-5375 5391 0
-121 -5375 5376 0
-5376 5392 0
-122 -5376 5377 0
-5377 5393 0
-123 -5377 5378 0
-5378 5394 0
-124 -5378 5379 0
-5379 5395 0
-125 -5379 5380 0
-5380 5396 0
-126 -5380 5381 0
-5381 5397 0
-127 -5381 5382 0
-5382 5398 0
-128 -5382 5383 0
-5383 5399 0
-129 -5383 5384 0
-5384 5400 0
-130 -5384 0
-115 5385 0
-5385 5401 0
-116 -5385 5386 0
-5386 5402 0
-117 -5386 5387 0
-5387 5403 0
-118 -5387 5388 0
-5388 5404 0
-119 -5388 5389 0
-5389 5405 0
-120 -5389 5390 0
-5390 5406 0
-121 -5390 5391 0
-5391 5407 0
-122 -5391 5392 0
-5392 5408 0
-123 -5392 5393 0
-5393 5409 0
-124 -5393 5394 0
-5394 5410 0
-125 -5394 5395 0
-5395 5411 0
-126 -5395 5396 0
-5396 5412 0
-127 -5396 5397 0
-5397 5413 0
-128 -5397 5398 0
-5398 5414 0
-129 -5398 5399 0
-5399 5415 0
-130 -5399 5400 0
-5400 5416 0
-131 -5400 0
-116 5401 0
-5401 5417 0
-117 -5401 5402 0
-5402 5418 0
-118 -5402 5403 0
-5403 5419 0
-119 -5403 5404 0
-5404 5420 0
-120 -5404 5405 0
-5405 5421 0
-121 -5405 5406 0
-5406 5422 0
-122 -5406 5407 0
-5407 5423 0
-123 -5407 5408 0
-5408 5424 0
-124 -5408 5409 0
-5409 5425 0
-125 -5409 5410 0
-5410 5426 0
-126 -5410 5411 0
-5411 5427 0
-127 -5411 5412 0
-5412 5428 0
-128 -5412 5413 0
-5413 5429 0
-129 -5413 5414 0
-5414 5430 0
-130 -5414 5415 0
-5415 5431 0
-131 -5415 5416 0
-5416 5432 0
-132 -5416 0
-117 5417 0
-5417 5433 0
-118 -5417 5418 0
-5418 5434 0
-119 -5418 5419 0
-5419 5435 0
-120 -5419 5420 0
-5420 5436 0
-121 -5420 5421 0
-5421 5437 0
-122 -5421 5422 0
-5422 5438 0
-123 -5422 5423 0
-5423 5439 0
-124 -5423 5424 0
-5424 5440 0
-125 -5424 5425 0
-5425 5441 0
-126 -5425 5426 0
-5426 5442 0
-127 -5426 5427 0
-5427 5443 0
-128 -5427 5428 0
-5428 5444 0
-129 -5428 5429 0
-5429 5445 0
-130 -5429 5430 0
-5430 5446 0
-131 -5430 5431 0
-5431 5447 0
-132 -5431 5432 0
-5432 5448 0
-133 -5432 0
-118 5433 0
-5433 5449 0
-119 -5433 5434 0
-5434 5450 0
-120 -5434 5435 0
-5435 5451 0
-121 -5435 5436 0
-5436 5452 0
-122 -5436 5437 0
-5437 5453 0
-123 -5437 5438 0
-5438 5454 0
-124 -5438 5439 0
-5439 5455 0
-125 -5439 5440 0
-5440 5456 0
-126 -5440 5441 0
-5441 5457 0
-127 -5441 5442 0
-5442 5458 0
-128 -5442 5443 0
-5443 5459 0
-129 -5443 5444 0
-5444 5460 0
-130 -5444 5445 0
-5445 5461 0
-131 -5445 5446 0
-5446 5462 0
-132 -5446 5447 0
-5447 5463 0
-133 -5447 5448 0
-5448 5464 0
-134 -5448 0
-119 5449 0
-5449 5465 0
-120 -5449 5450 0
-5450 5466 0
-121 -5450 5451 0
-5451 5467 0
-122 -5451 5452 0
-5452 5468 0
-123 -5452 5453 0
-5453 5469 0
-124 -5453 5454 0
-5454 5470 0
-125 -5454 5455 0
-5455 5471 0
-126 -5455 5456 0
-5456 5472 0
-127 -5456 5457 0
-5457 5473 0
-128 -5457 5458 0
-5458 5474 0
-129 -5458 5459 0
-5459 5475 0
-130 -5459 5460 0
-5460 5476 0
-131 -5460 5461 0
-5461 5477 0
-132 -5461 5462 0
-5462 5478 0
-133 -5462 5463 0
-5463 5479 0
-134 -5463 5464 0
-5464 5480 0
-135 -5464 0
-120 5465 0
-5465 5481 0
-121 -5465 5466 0
-5466 5482 0
-122 -5466 5467 0
-5467 5483 0
-123 -5467 5468 0
-5468 5484 0
-124 -5468 5469 0
-5469 5485 0
-125 -5469 5470 0
-5470 5486 0
-126 -5470 5471 0
-5471 5487 0
-127 -5471 5472 0
-5472 5488 0
-128 -5472 5473 0
-5473 5489 0
-129 -5473 5474 0
-5474 5490 0
-130 -5474 5475 0
-5475 5491 0
-131 -5475 5476 0
-5476 5492 0
-132 -5476 5477 0
-5477 5493 0
-133 -5477 5478 0
-5478 5494 0
-134 -5478 5479 0
-5479 5495 0
-135 -5479 5480 0
-5480 5496 0
-136 -5480 0
-121 5481 0
-5481 5497 0
-122 -5481 5482 0
-5482 5498 0
-123 -5482 5483 0
-5483 5499 0
-124 -5483 5484 0
-5484 5500 0
-125 -5484 5485 0
-5485 5501 0
-126 -5485 5486 0
-5486 5502 0
-127 -5486 5487 0
-5487 5503 0
-128 -5487 5488 0
-5488 5504 0
-129 -5488 5489 0
-5489 5505 0
-130 -5489 5490 0
-5490 5506 0
-131 -5490 5491 0
-5491 5507 0
-132 -5491 5492 0
-5492 5508 0
-133 -5492 5493 0
-5493 5509 0
-134 -5493 5494 0
-5494 5510 0
-135 -5494 5495 0
-5495 5511 0
-136 -5495 5496 0
-5496 5512 0
-137 -5496 0
-122 5497 0
-5497 5513 0
-123 -5497 5498 0
-5498 5514 0
-124 -5498 5499 0
-5499 5515 0
-125 -5499 5500 0
-5500 5516 0
-126 -5500 5501 0
-5501 5517 0
-127 -5501 5502 0
-5502 5518 0
-128 -5502 5503 0
-5503 5519 0
-129 -5503 5504 0
-5504 5520 0
-130 -5504 5505 0
-5505 5521 0
-131 -5505 5506 0
-5506 5522 0
-132 -5506 5507 0
-5507 5523 0
-133 -5507 5508 0
-5508 5524 0
-134 -5508 5509 0
-5509 5525 0
-135 -5509 5510 0
-5510 5526 0
-136 -5510 5511 0
-5511 5527 0
-137 -5511 5512 0
-5512 5528 0
-138 -5512 0
-123 5513 0
-5513 5529 0
-124 -5513 5514 0
-5514 5530 0
-125 -5514 5515 0
-5515 5531 0
-126 -5515 5516 0
-5516 5532 0
-127 -5516 5517 0
-5517 5533 0
-128 -5517 5518 0
-5518 5534 0
-129 -5518 5519 0
-5519 5535 0
-130 -5519 5520 0
-5520 5536 0
-131 -5520 5521 0
-5521 5537 0
-132 -5521 5522 0
-5522 5538 0
-133 -5522 5523 0
-5523 5539 0
-134 -5523 5524 0
-5524 5540 0
-135 -5524 5525 0
-5525 5541 0
-136 -5525 5526 0
-5526 5542 0
-137 -5526 5527 0
-5527 5543 0
-138 -5527 5528 0
-5528 5544 0
-139 -5528 0
-124 5529 0
-5529 5545 0
-125 -5529 5530 0
-5530 5546 0
-126 -5530 5531 0
-5531 5547 0
-127 -5531 5532 0
-5532 5548 0
-128 -5532 5533 0
-5533 5549 0
-129 -5533 5534 0
-5534 5550 0
-130 -5534 5535 0
-5535 5551 0
-131 -5535 5536 0
-5536 5552 0
-132 -5536 5537 0
-5537 5553 0
-133 -5537 5538 0
-5538 5554 0
-134 -5538 5539 0
-5539 5555 0
-135 -5539 5540 0
-5540 5556 0
-136 -5540 5541 0
-5541 5557 0
-137 -5541 5542 0
-5542 5558 0
-138 -5542 5543 0
-5543 5559 0
-139 -5543 5544 0
-5544 5560 0
-140 -5544 0
-125 5545 0
-5545 5561 0
-126 -5545 5546 0
-5546 5562 0
-127 -5546 5547 0
-5547 5563 0
-128 -5547 5548 0
-5548 5564 0
-129 -5548 5549 0
-5549 5565 0
-130 -5549 5550 0
-5550 5566 0
-131 -5550 5551 0
-5551 5567 0
-132 -5551 5552 0
-5552 5568 0
-133 -5552 5553 0
-5553 5569 0
-134 -5553 5554 0
-5554 5570 0
-135 -5554 5555 0
-5555 5571 0
-136 -5555 5556 0
-5556 5572 0
-137 -5556 5557 0
-5557 5573 0
-138 -5557 5558 0
-5558 5574 0
-139 -5558 5559 0
-5559 5575 0
-140 -5559 5560 0
-5560 5576 0
-141 -5560 0
-126 5561 0
-5561 5577 0
-127 -5561 5562 0
-5562 5578 0
-128 -5562 5563 0
-5563 5579 0
-129 -5563 5564 0
-5564 5580 0
-130 -5564 5565 0
-5565 5581 0
-131 -5565 5566 0
-5566 5582 0
-132 -5566 5567 0
-5567 5583 0
-133 -5567 5568 0
-5568 5584 0
-134 -5568 5569 0
-5569 5585 0
-135 -5569 5570 0
-5570 5586 0
-136 -5570 5571 0
-5571 5587 0
-137 -5571 5572 0
-5572 5588 0
-138 -5572 5573 0
-5573 5589 0
-139 -5573 5574 0
-5574 5590 0
-140 -5574 5575 0
-5575 5591 0
-141 -5575 5576 0
-5576 5592 0
-142 -5576 0
-127 5577 0
-5577 5593 0
-128 -5577 5578 0
-5578 5594 0
-129 -5578 5579 0
-5579 5595 0
-130 -5579 5580 0
-5580 5596 0
-131 -5580 5581 0
-5581 5597 0
-132 -5581 5582 0
-5582 5598 0
-133 -5582 5583 0
-5583 5599 0
-134 -5583 5584 0
-5584 5600 0
-135 -5584 5585 0
-5585 5601 0
-136 -5585 5586 0
-5586 5602 0
-137 -5586 5587 0
-5587 5603 0
-138 -5587 5588 0
-5588 5604 0
-139 -5588 5589 0
-5589 5605 0
-140 -5589 5590 0
-5590 5606 0
-141 -5590 5591 0
-5591 5607 0
-142 -5591 5592 0
-5592 5608 0
-143 -5592 0
-128 5593 0
-5593 5609 0
-129 -5593 5594 0
-5594 5610 0
-130 -5594 5595 0
-5595 5611 0
-131 -5595 5596 0
-5596 5612 0
-132 -5596 5597 0
-5597 5613 0
-133 -5597 5598 0
-5598 5614 0
-134 -5598 5599 0
-5599 5615 0
-135 -5599 5600 0
-5600 5616 0
-136 -5600 5601 0
-5601 5617 0
-137 -5601 5602 0
-5602 5618 0
-138 -5602 5603 0
-5603 5619 0
-139 -5603 5604 0
-5604 5620 0
-140 -5604 5605 0
-5605 5621 0
-141 -5605 5606 0
-5606 5622 0
-142 -5606 5607 0
-5607 5623 0
-143 -5607 5608 0
-5608 5624 0
-144 -5608 0
-129 5609 0
-5609 5625 0
-130 -5609 5610 0
-5610 5626 0
-131 -5610 5611 0
-5611 5627 0
-132 -5611 5612 0
-5612 5628 0
-133 -5612 5613 0
-5613 5629 0
-134 -5613 5614 0
-5614 5630 0
-135 -5614 5615 0
-5615 5631 0
-136 -5615 5616 0
-5616 5632 0
-137 -5616 5617 0
-5617 5633 0
-138 -5617 5618 0
-5618 5634 0
-139 -5618 5619 0
-5619 5635 0
-140 -5619 5620 0
-5620 5636 0
-141 -5620 5621 0
-5621 5637 0
-142 -5621 5622 0
-5622 5638 0
-143 -5622 5623 0
-5623 5639 0
-144 -5623 5624 0
-5624 5640 0
-145 -5624 0
-130 5625 0
-5625 5641 0
-131 -5625 5626 0
-5626 5642 0
-132 -5626 5627 0
-5627 5643 0
-133 -5627 5628 0
-5628 5644 0
-134 -5628 5629 0
-5629 5645 0
-135 -5629 5630 0
-5630 5646 0
-136 -5630 5631 0
-5631 5647 0
-137 -5631 5632 0
-5632 5648 0
-138 -5632 5633 0
-5633 5649 0
-139 -5633 5634 0
-5634 5650 0
-140 -5634 5635 0
-5635 5651 0
-141 -5635 5636 0
-5636 5652 0
-142 -5636 5637 0
-5637 5653 0
-143 -5637 5638 0
-5638 5654 0
-144 -5638 5639 0
-5639 5655 0
-145 -5639 5640 0
-5640 5656 0
-146 -5640 0
-131 5641 0
-5641 5657 0
-132 -5641 5642 0
-5642 5658 0
-133 -5642 5643 0
-5643 5659 0
-134 -5643 5644 0
-5644 5660 0
-135 -5644 5645 0
-5645 5661 0
-136 -5645 5646 0
-5646 5662 0
-137 -5646 5647 0
-5647 5663 0
-138 -5647 5648 0
-5648 5664 0
-139 -5648 5649 0
-5649 5665 0
-140 -5649 5650 0
-5650 5666 0
-141 -5650 5651 0
-5651 5667 0
-142 -5651 5652 0
-5652 5668 0
-143 -5652 5653 0
-5653 5669 0
-144 -5653 5654 0
-5654 5670 0
-145 -5654 5655 0
-5655 5671 0
-146 -5655 5656 0
-5656 5672 0
-147 -5656 0
-132 5657 0
-5657 5673 0
-133 -5657 5658 0
-5658 5674 0
-134 -5658 5659 0
-5659 5675 0
-135 -5659 5660 0
-5660 5676 0
-136 -5660 5661 0
-5661 5677 0
-137 -5661 5662 0
-5662 5678 0
-138 -5662 5663 0
-5663 5679 0
-139 -5663 5664 0
-5664 5680 0
-140 -5664 5665 0
-5665 5681 0
-141 -5665 5666 0
-5666 5682 0
-142 -5666 5667 0
-5667 5683 0
-143 -5667 5668 0
-5668 5684 0
-144 -5668 5669 0
-5669 5685 0
-145 -5669 5670 0
-5670 5686 0
-146 -5670 5671 0
-5671 5687 0
-147 -5671 5672 0
-5672 5688 0
-148 -5672 0
-133 5673 0
-5673 5689 0
-134 -5673 5674 0
-5674 5690 0
-135 -5674 5675 0
-5675 5691 0
-136 -5675 5676 0
-5676 5692 0
-137 -5676 5677 0
-5677 5693 0
-138 -5677 5678 0
-5678 5694 0
-139 -5678 5679 0
-5679 5695 0
-140 -5679 5680 0
-5680 5696 0
-141 -5680 5681 0
-5681 5697 0
-142 -5681 5682 0
-5682 5698 0
-143 -5682 5683 0
-5683 5699 0
-144 -5683 5684 0
-5684 5700 0
-145 -5684 5685 0
-5685 5701 0
-146 -5685 5686 0
-5686 5702 0
-147 -5686 5687 0
-5687 5703 0
-148 -5687 5688 0
-5688 5704 0
-149 -5688 0
-134 5689 0
-5689 5705 0
-135 -5689 5690 0
-5690 5706 0
-136 -5690 5691 0
-5691 5707 0
-137 -5691 5692 0
-5692 5708 0
-138 -5692 5693 0
-5693 5709 0
-139 -5693 5694 0
-5694 5710 0
-140 -5694 5695 0
-5695 5711 0
-141 -5695 5696 0
-5696 5712 0
-142 -5696 5697 0
-5697 5713 0
-143 -5697 5698 0
-5698 5714 0
-144 -5698 5699 0
-5699 5715 0
-145 -5699 5700 0
-5700 5716 0
-146 -5700 5701 0
-5701 5717 0
-147 -5701 5702 0
-5702 5718 0
-148 -5702 5703 0
-5703 5719 0
-149 -5703 5704 0
-5704 5720 0
-150 -5704 0
-135 5705 0
-5705 5721 0
-136 -5705 5706 0
-5706 5722 0
-137 -5706 5707 0
-5707 5723 0
-138 -5707 5708 0
-5708 5724 0
-139 -5708 5709 0
-5709 5725 0
-140 -5709 5710 0
-5710 5726 0
-141 -5710 5711 0
-5711 5727 0
-142 -5711 5712 0
-5712 5728 0
-143 -5712 5713 0
-5713 5729 0
-144 -5713 5714 0
-5714 5730 0
-145 -5714 5715 0
-5715 5731 0
-146 -5715 5716 0
-5716 5732 0
-147 -5716 5717 0
-5717 5733 0
-148 -5717 5718 0
-5718 5734 0
-149 -5718 5719 0
-5719 5735 0
-150 -5719 5720 0
-5720 5736 0
-151 -5720 0
-136 5721 0
-5721 5737 0
-137 -5721 5722 0
-5722 5738 0
-138 -5722 5723 0
-5723 5739 0
-139 -5723 5724 0
-5724 5740 0
-140 -5724 5725 0
-5725 5741 0
-141 -5725 5726 0
-5726 5742 0
-142 -5726 5727 0
-5727 5743 0
-143 -5727 5728 0
-5728 5744 0
-144 -5728 5729 0
-5729 5745 0
-145 -5729 5730 0
-5730 5746 0
-146 -5730 5731 0
-5731 5747 0
-147 -5731 5732 0
-5732 5748 0
-148 -5732 5733 0
-5733 5749 0
-149 -5733 5734 0
-5734 5750 0
-150 -5734 5735 0
-5735 5751 0
-151 -5735 5736 0
-5736 5752 0
-152 -5736 0
-137 5737 0
-5737 5753 0
-138 -5737 5738 0
-5738 5754 0
-139 -5738 5739 0
-5739 5755 0
-140 -5739 5740 0
-5740 5756 0
-141 -5740 5741 0
-5741 5757 0
-142 -5741 5742 0
-5742 5758 0
-143 -5742 5743 0
-5743 5759 0
-144 -5743 5744 0
-5744 5760 0
-145 -5744 5745 0
-5745 5761 0
-146 -5745 5746 0
-5746 5762 0
-147 -5746 5747 0
-5747 5763 0
-148 -5747 5748 0
-5748 5764 0
-149 -5748 5749 0
-5749 5765 0
-150 -5749 5750 0
-5750 5766 0
-151 -5750 5751 0
-5751 5767 0
-152 -5751 5752 0
-5752 5768 0
-153 -5752 0
-138 5753 0
-5753 5769 0
-139 -5753 5754 0
-5754 5770 0
-140 -5754 5755 0
-5755 5771 0
-141 -5755 5756 0
-5756 5772 0
-142 -5756 5757 0
-5757 5773 0
-143 -5757 5758 0
-5758 5774 0
-144 -5758 5759 0
-5759 5775 0
-145 -5759 5760 0
-5760 5776 0
-146 -5760 5761 0
-5761 5777 0
-147 -5761 5762 0
-5762 5778 0
-148 -5762 5763 0
-5763 5779 0
-149 -5763 5764 0
-5764 5780 0
-150 -5764 5765 0
-5765 5781 0
-151 -5765 5766 0
-5766 5782 0
-152 -5766 5767 0
-5767 5783 0
-153 -5767 5768 0
-5768 5784 0
-154 -5768 0
-139 5769 0
-5769 5785 0
-140 -5769 5770 0
-5770 5786 0
-141 -5770 5771 0
-5771 5787 0
-142 -5771 5772 0
-5772 5788 0
-143 -5772 5773 0
-5773 5789 0
-144 -5773 5774 0
-5774 5790 0
-145 -5774 5775 0
-5775 5791 0
-146 -5775 5776 0
-5776 5792 0
-147 -5776 5777 0
-5777 5793 0
-148 -5777 5778 0
-5778 5794 0
-149 -5778 5779 0
-5779 5795 0
-150 -5779 5780 0
-5780 5796 0
-151 -5780 5781 0
-5781 5797 0
-152 -5781 5782 0
-5782 5798 0
-153 -5782 5783 0
-5783 5799 0
-154 -5783 5784 0
-5784 5800 0
-155 -5784 0
-140 5785 0
-5785 5801 0
-141 -5785 5786 0
-5786 5802 0
-142 -5786 5787 0
-5787 5803 0
-143 -5787 5788 0
-5788 5804 0
-144 -5788 5789 0
-5789 5805 0
-145 -5789 5790 0
-5790 5806 0
-146 -5790 5791 0
-5791 5807 0
-147 -5791 5792 0
-5792 5808 0
-148 -5792 5793 0
-5793 5809 0
-149 -5793 5794 0
-5794 5810 0
-150 -5794 5795 0
-5795 5811 0
-151 -5795 5796 0
-5796 5812 0
-152 -5796 5797 0
-5797 5813 0
-153 -5797 5798 0
-5798 5814 0
-154 -5798 5799 0
-5799 5815 0
-155 -5799 5800 0
-5800 5816 0
-156 -5800 0
-141 5801 0
-5801 5817 0
-142 -5801 5802 0
-5802 5818 0
-143 -5802 5803 0
-5803 5819 0
-144 -5803 5804 0
-5804 5820 0
-145 -5804 5805 0
-5805 5821 0
-146 -5805 5806 0
-5806 5822 0
-147 -5806 5807 0
-5807 5823 0
-148 -5807 5808 0
-5808 5824 0
-149 -5808 5809 0
-5809 5825 0
-150 -5809 5810 0
-5810 5826 0
-151 -5810 5811 0
-5811 5827 0
-152 -5811 5812 0
-5812 5828 0
-153 -5812 5813 0
-5813 5829 0
-154 -5813 5814 0
-5814 5830 0
-155 -5814 5815 0
-5815 5831 0
-156 -5815 5816 0
-5816 5832 0
-157 -5816 0
-142 5817 0
-5817 5833 0
-143 -5817 5818 0
-5818 5834 0
-144 -5818 5819 0
-5819 5835 0
-145 -5819 5820 0
-5820 5836 0
-146 -5820 5821 0
-5821 5837 0
-147 -5821 5822 0
-5822 5838 0
-148 -5822 5823 0
-5823 5839 0
-149 -5823 5824 0
-5824 5840 0
-150 -5824 5825 0
-5825 5841 0
-151 -5825 5826 0
-5826 5842 0
-152 -5826 5827 0
-5827 5843 0
-153 -5827 5828 0
-5828 5844 0
-154 -5828 5829 0
-5829 5845 0
-155 -5829 5830 0
-5830 5846 0
-156 -5830 5831 0
-5831 5847 0
-157 -5831 5832 0
-5832 5848 0
-158 -5832 0
-143 5833 0
-5833 5849 0
-144 -5833 5834 0
-5834 5850 0
-145 -5834 5835 0
-5835 5851 0
-146 -5835 5836 0
-5836 5852 0
-147 -5836 5837 0
-5837 5853 0
-148 -5837 5838 0
-5838 5854 0
-149 -5838 5839 0
-5839 5855 0
-150 -5839 5840 0
-5840 5856 0
-151 -5840 5841 0
-5841 5857 0
-152 -5841 5842 0
-5842 5858 0
-153 -5842 5843 0
-5843 5859 0
-154 -5843 5844 0
-5844 5860 0
-155 -5844 5845 0
-5845 5861 0
-156 -5845 5846 0
-5846 5862 0
-157 -5846 5847 0
-5847 5863 0
-158 -5847 5848 0
-5848 5864 0
-159 -5848 0
-144 5849 0
-5849 5865 0
-145 -5849 5850 0
-5850 5866 0
-146 -5850 5851 0
-5851 5867 0
-147 -5851 5852 0
-5852 5868 0
-148 -5852 5853 0
-5853 5869 0
-149 -5853 5854 0
-5854 5870 0
-150 -5854 5855 0
-5855 5871 0
-151 -5855 5856 0
-5856 5872 0
-152 -5856 5857 0
-5857 5873 0
-153 -5857 5858 0
-5858 5874 0
-154 -5858 5859 0
-5859 5875 0
-155 -5859 5860 0
-5860 5876 0
-156 -5860 5861 0
-5861 5877 0
-157 -5861 5862 0
-5862 5878 0
-158 -5862 5863 0
-5863 5879 0
-159 -5863 5864 0
-5864 5880 0
-160 -5864 0
-145 5865 0
-5865 5881 0
-146 -5865 5866 0
-5866 5882 0
-147 -5866 5867 0
-5867 5883 0
-148 -5867 5868 0
-5868 5884 0
-149 -5868 5869 0
-5869 5885 0
-150 -5869 5870 0
-5870 5886 0
-151 -5870 5871 0
-5871 5887 0
-152 -5871 5872 0
-5872 5888 0
-153 -5872 5873 0
-5873 5889 0
-154 -5873 5874 0
-5874 5890 0
-155 -5874 5875 0
-5875 5891 0
-156 -5875 5876 0
-5876 5892 0
-157 -5876 5877 0
-5877 5893 0
-158 -5877 5878 0
-5878 5894 0
-159 -5878 5879 0
-5879 5895 0
-160 -5879 5880 0
-5880 5896 0
-161 -5880 0
-146 5881 0
-5881 5897 0
-147 -5881 5882 0
-5882 5898 0
-148 -5882 5883 0
-5883 5899 0
-149 -5883 5884 0
-5884 5900 0
-150 -5884 5885 0
-5885 5901 0
-151 -5885 5886 0
-5886 5902 0
-152 -5886 5887 0
-5887 5903 0
-153 -5887 5888 0
-5888 5904 0
-154 -5888 5889 0
-5889 5905 0
-155 -5889 5890 0
-5890 5906 0
-156 -5890 5891 0
-5891 5907 0
-157 -5891 5892 0
-5892 5908 0
-158 -5892 5893 0
-5893 5909 0
-159 -5893 5894 0
-5894 5910 0
-160 -5894 5895 0
-5895 5911 0
-161 -5895 5896 0
-5896 5912 0
-162 -5896 0
-147 5897 0
-5897 5913 0
-148 -5897 5898 0
-5898 5914 0
-149 -5898 5899 0
-5899 5915 0
-150 -5899 5900 0
-5900 5916 0
-151 -5900 5901 0
-5901 5917 0
-152 -5901 5902 0
-5902 5918 0
-153 -5902 5903 0
-5903 5919 0
-154 -5903 5904 0
-5904 5920 0
-155 -5904 5905 0
-5905 5921 0
-156 -5905 5906 0
-5906 5922 0
-157 -5906 5907 0
-5907 5923 0
-158 -5907 5908 0
-5908 5924 0
-159 -5908 5909 0
-5909 5925 0
-160 -5909 5910 0
-5910 5926 0
-161 -5910 5911 0
-5911 5927 0
-162 -5911 5912 0
-5912 5928 0
-163 -5912 0
-148 5913 0
-5913 5929 0
-149 -5913 5914 0
-5914 5930 0
-150 -5914 5915 0
-5915 5931 0
-151 -5915 5916 0
-5916 5932 0
-152 -5916 5917 0
-5917 5933 0
-153 -5917 5918 0
-5918 5934 0
-154 -5918 5919 0
-5919 5935 0
-155 -5919 5920 0
-5920 5936 0
-156 -5920 5921 0
-5921 5937 0
-157 -5921 5922 0
-5922 5938 0
-158 -5922 5923 0
-5923 5939 0
-159 -5923 5924 0
-5924 5940 0
-160 -5924 5925 0
-5925 5941 0
-161 -5925 5926 0
-5926 5942 0
-162 -5926 5927 0
-5927 5943 0
-163 -5927 5928 0
-5928 5944 0
-164 -5928 0
-149 5929 0
-5929 5945 0
-150 -5929 5930 0
-5930 5946 0
-151 -5930 5931 0
-5931 5947 0
-152 -5931 5932 0
-5932 5948 0
-153 -5932 5933 0
-5933 5949 0
-154 -5933 5934 0
-5934 5950 0
-155 -5934 5935 0
-5935 5951 0
-156 -5935 5936 0
-5936 5952 0
-157 -5936 5937 0
-5937 5953 0
-158 -5937 5938 0
-5938 5954 0
-159 -5938 5939 0
-5939 5955 0
-160 -5939 5940 0
-5940 5956 0
-161 -5940 5941 0
-5941 5957 0
-162 -5941 5942 0
-5942 5958 0
-163 -5942 5943 0
-5943 5959 0
-164 -5943 5944 0
-5944 5960 0
-165 -5944 0
-150 5945 0
-5945 5961 0
-151 -5945 5946 0
-5946 5962 0
-152 -5946 5947 0
-5947 5963 0
-153 -5947 5948 0
-5948 5964 0
-154 -5948 5949 0
-5949 5965 0
-155 -5949 5950 0
-5950 5966 0
-156 -5950 5951 0
-5951 5967 0
-157 -5951 5952 0
-5952 5968 0
-158 -5952 5953 0
-5953 5969 0
-159 -5953 5954 0
-5954 5970 0
-160 -5954 5955 0
-5955 5971 0
-161 -5955 5956 0
-5956 5972 0
-162 -5956 5957 0
-5957 5973 0
-163 -5957 5958 0
-5958 5974 0
-164 -5958 5959 0
-5959 5975 0
-165 -5959 5960 0
-5960 5976 0
-166 -5960 0
-151 5961 0
-5961 5977 0
-152 -5961 5962 0
-5962 5978 0
-153 -5962 5963 0
-5963 5979 0
-154 -5963 5964 0
-5964 5980 0
-155 -5964 5965 0
-5965 5981 0
-156 -5965 5966 0
-5966 5982 0
-157 -5966 5967 0
-5967 5983 0
-158 -5967 5968 0
-5968 5984 0
-159 -5968 5969 0
-5969 5985 0
-160 -5969 5970 0
-5970 5986 0
-161 -5970 5971 0
-5971 5987 0
-162 -5971 5972 0
-5972 5988 0
-163 -5972 5973 0
-5973 5989 0
-164 -5973 5974 0
-5974 5990 0
-165 -5974 5975 0
-5975 5991 0
-166 -5975 5976 0
-5976 5992 0
-167 -5976 0
-152 5977 0
-5977 5993 0
-153 -5977 5978 0
-5978 5994 0
-154 -5978 5979 0
-5979 5995 0
-155 -5979 5980 0
-5980 5996 0
-156 -5980 5981 0
-5981 5997 0
-157 -5981 5982 0
-5982 5998 0
-158 -5982 5983 0
-5983 5999 0
-159 -5983 5984 0
-5984 6000 0
-160 -5984 5985 0
-5985 6001 0
-161 -5985 5986 0
-5986 6002 0
-162 -5986 5987 0
-5987 6003 0
-163 -5987 5988 0
-5988 6004 0
-164 -5988 5989 0
-5989 6005 0
-165 -5989 5990 0
-5990 6006 0
-166 -5990 5991 0
-5991 6007 0
-167 -5991 5992 0
-5992 6008 0
-168 -5992 0
-153 5993 0
-5993 6009 0
-154 -5993 5994 0
-5994 6010 0
-155 -5994 5995 0
-5995 6011 0
-156 -5995 5996 0
-5996 6012 0
-157 -5996 5997 0
-5997 6013 0
-158 -5997 5998 0
-5998 6014 0
-159 -5998 5999 0
-5999 6015 0
-160 -5999 6000 0
-6000 6016 0
-161 -6000 6001 0
-6001 6017 0
-162 -6001 6002 0
-6002 6018 0
-163 -6002 6003 0
-6003 6019 0
-164 -6003 6004 0
-6004 6020 0
-165 -6004 6005 0
-6005 6021 0
-166 -6005 6006 0
-6006 6022 0
-167 -6006 6007 0
-6007 6023 0
-168 -6007 6008 0
-6008 6024 0
-169 -6008 0
-154 6009 0
-6009 6025 0
-155 -6009 6010 0
-6010 6026 0
-156 -6010 6011 0
-6011 6027 0
-157 -6011 6012 0
-6012 6028 0
-158 -6012 6013 0
-6013 6029 0
-159 -6013 6014 0
-6014 6030 0
-160 -6014 6015 0
-6015 6031 0
-161 -6015 6016 0
-6016 6032 0
-162 -6016 6017 0
-6017 6033 0
-163 -6017 6018 0
-6018 6034 0
-164 -6018 6019 0
-6019 6035 0
-165 -6019 6020 0
-6020 6036 0
-166 -6020 6021 0
-6021 6037 0
-167 -6021 6022 0
-6022 6038 0
-168 -6022 6023 0
-6023 6039 0
-169 -6023 6024 0
-6024 6040 0
-170 -6024 0
-155 6025 0
-6025 6041 0
-156 -6025 6026 0
-6026 6042 0
-157 -6026 6027 0
-6027 6043 0
-158 -6027 6028 0
-6028 6044 0
-159 -6028 6029 0
-6029 6045 0
-160 -6029 6030 0
-6030 6046 0
-161 -6030 6031 0
-6031 6047 0
-162 -6031 6032 0
-6032 6048 0
-163 -6032 6033 0
-6033 6049 0
-164 -6033 6034 0
-6034 6050 0
-165 -6034 6035 0
-6035 6051 0
-166 -6035 6036 0
-6036 6052 0
-167 -6036 6037 0
-6037 6053 0
-168 -6037 6038 0
-6038 6054 0
-169 -6038 6039 0
-6039 6055 0
-170 -6039 6040 0
-6040 6056 0
-171 -6040 0
-156 6041 0
-6041 6057 0
-157 -6041 6042 0
-6042 6058 0
-158 -6042 6043 0
-6043 6059 0
-159 -6043 6044 0
-6044 6060 0
-160 -6044 6045 0
-6045 6061 0
-161 -6045 6046 0
-6046 6062 0
-162 -6046 6047 0
-6047 6063 0
-163 -6047 6048 0
-6048 6064 0
-164 -6048 6049 0
-6049 6065 0
-165 -6049 6050 0
-6050 6066 0
-166 -6050 6051 0
-6051 6067 0
-167 -6051 6052 0
-6052 6068 0
-168 -6052 6053 0
-6053 6069 0
-169 -6053 6054 0
-6054 6070 0
-170 -6054 6055 0
-6055 6071 0
-171 -6055 6056 0
-6056 6072 0
-172 -6056 0
-157 6057 0
-6057 6073 0
-158 -6057 6058 0
-6058 6074 0
-159 -6058 6059 0
-6059 6075 0
-160 -6059 6060 0
-6060 6076 0
-161 -6060 6061 0
-6061 6077 0
-162 -6061 6062 0
-6062 6078 0
-163 -6062 6063 0
-6063 6079 0
-164 -6063 6064 0
-6064 6080 0
-165 -6064 6065 0
-6065 6081 0
-166 -6065 6066 0
-6066 6082 0
-167 -6066 6067 0
-6067 6083 0
-168 -6067 6068 0
-6068 6084 0
-169 -6068 6069 0
-6069 6085 0
-170 -6069 6070 0
-6070 6086 0
-171 -6070 6071 0
-6071 6087 0
-172 -6071 6072 0
-6072 6088 0
-173 -6072 0
-158 6073 0
-6073 6089 0
-159 -6073 6074 0
-6074 6090 0
-160 -6074 6075 0
-6075 6091 0
-161 -6075 6076 0
-6076 6092 0
-162 -6076 6077 0
-6077 6093 0
-163 -6077 6078 0
-6078 6094 0
-164 -6078 6079 0
-6079 6095 0
-165 -6079 6080 0
-6080 6096 0
-166 -6080 6081 0
-6081 6097 0
-167 -6081 6082 0
-6082 6098 0
-168 -6082 6083 0
-6083 6099 0
-169 -6083 6084 0
-6084 6100 0
-170 -6084 6085 0
-6085 6101 0
-171 -6085 6086 0
-6086 6102 0
-172 -6086 6087 0
-6087 6103 0
-173 -6087 6088 0
-6088 6104 0
-174 -6088 0
-159 6089 0
-6089 6105 0
-160 -6089 6090 0
-6090 6106 0
-161 -6090 6091 0
-6091 6107 0
-162 -6091 6092 0
-6092 6108 0
-163 -6092 6093 0
-6093 6109 0
-164 -6093 6094 0
-6094 6110 0
-165 -6094 6095 0
-6095 6111 0
-166 -6095 6096 0
-6096 6112 0
-167 -6096 6097 0
-6097 6113 0
-168 -6097 6098 0
-6098 6114 0
-169 -6098 6099 0
-6099 6115 0
-170 -6099 6100 0
-6100 6116 0
-171 -6100 6101 0
-6101 6117 0
-172 -6101 6102 0
-6102 6118 0
-173 -6102 6103 0
-6103 6119 0
-174 -6103 6104 0
-6104 6120 0
-175 -6104 0
-160 6105 0
-6105 6121 0
-161 -6105 6106 0
-6106 6122 0
-162 -6106 6107 0
-6107 6123 0
-163 -6107 6108 0
-6108 6124 0
-164 -6108 6109 0
-6109 6125 0
-165 -6109 6110 0
-6110 6126 0
-166 -6110 6111 0
-6111 6127 0
-167 -6111 6112 0
-6112 6128 0
-168 -6112 6113 0
-6113 6129 0
-169 -6113 6114 0
-6114 6130 0
-170 -6114 6115 0
-6115 6131 0
-171 -6115 6116 0
-6116 6132 0
-172 -6116 6117 0
-6117 6133 0
-173 -6117 6118 0
-6118 6134 0
-174 -6118 6119 0
-6119 6135 0
-175 -6119 6120 0
-6120 6136 0
-176 -6120 0
-161 6121 0
-6121 6137 0
-162 -6121 6122 0
-6122 6138 0
-163 -6122 6123 0
-6123 6139 0
-164 -6123 6124 0
-6124 6140 0
-165 -6124 6125 0
-6125 6141 0
-166 -6125 6126 0
-6126 6142 0
-167 -6126 6127 0
-6127 6143 0
-168 -6127 6128 0
-6128 6144 0
-169 -6128 6129 0
-6129 6145 0
-170 -6129 6130 0
-6130 6146 0
-171 -6130 6131 0
-6131 6147 0
-172 -6131 6132 0
-6132 6148 0
-173 -6132 6133 0
-6133 6149 0
-174 -6133 6134 0
-6134 6150 0
-175 -6134 6135 0
-6135 6151 0
-176 -6135 6136 0
-6136 6152 0
-177 -6136 0
-162 6137 0
-6137 6153 0
-163 -6137 6138 0
-6138 6154 0
-164 -6138 6139 0
-6139 6155 0
-165 -6139 6140 0
-6140 6156 0
-166 -6140 6141 0
-6141 6157 0
-167 -6141 6142 0
-6142 6158 0
-168 -6142 6143 0
-6143 6159 0
-169 -6143 6144 0
-6144 6160 0
-170 -6144 6145 0
-6145 6161 0
-171 -6145 6146 0
-6146 6162 0
-172 -6146 6147 0
-6147 6163 0
-173 -6147 6148 0
-6148 6164 0
-174 -6148 6149 0
-6149 6165 0
-175 -6149 6150 0
-6150 6166 0
-176 -6150 6151 0
-6151 6167 0
-177 -6151 6152 0
-6152 6168 0
-178 -6152 0
-163 6153 0
-6153 6169 0
-164 -6153 6154 0
-6154 6170 0
-165 -6154 6155 0
-6155 6171 0
-166 -6155 6156 0
-6156 6172 0
-167 -6156 6157 0
-6157 6173 0
-168 -6157 6158 0
-6158 6174 0
-169 -6158 6159 0
-6159 6175 0
-170 -6159 6160 0
-6160 6176 0
-171 -6160 6161 0
-6161 6177 0
-172 -6161 6162 0
-6162 6178 0
-173 -6162 6163 0
-6163 6179 0
-174 -6163 6164 0
-6164 6180 0
-175 -6164 6165 0
-6165 6181 0
-176 -6165 6166 0
-6166 6182 0
-177 -6166 6167 0
-6167 6183 0
-178 -6167 6168 0
-6168 6184 0
-179 -6168 0
-164 6169 0
-6169 6185 0
-165 -6169 6170 0
-6170 6186 0
-166 -6170 6171 0
-6171 6187 0
-167 -6171 6172 0
-6172 6188 0
-168 -6172 6173 0
-6173 6189 0
-169 -6173 6174 0
-6174 6190 0
-170 -6174 6175 0
-6175 6191 0
-171 -6175 6176 0
-6176 6192 0
-172 -6176 6177 0
-6177 6193 0
-173 -6177 6178 0
-6178 6194 0
-174 -6178 6179 0
-6179 6195 0
-175 -6179 6180 0
-6180 6196 0
-176 -6180 6181 0
-6181 6197 0
-177 -6181 6182 0
-6182 6198 0
-178 -6182 6183 0
-6183 6199 0
-179 -6183 6184 0
-6184 6200 0
-180 -6184 0
-165 6185 0
-6185 6201 0
-166 -6185 6186 0
-6186 6202 0
-167 -6186 6187 0
-6187 6203 0
-168 -6187 6188 0
-6188 6204 0
-169 -6188 6189 0
-6189 6205 0
-170 -6189 6190 0
-6190 6206 0
-171 -6190 6191 0
-6191 6207 0
-172 -6191 6192 0
-6192 6208 0
-173 -6192 6193 0
-6193 6209 0
-174 -6193 6194 0
-6194 6210 0
-175 -6194 6195 0
-6195 6211 0
-176 -6195 6196 0
-6196 6212 0
-177 -6196 6197 0
-6197 6213 0
-178 -6197 6198 0
-6198 6214 0
-179 -6198 6199 0
-6199 6215 0
-180 -6199 6200 0
-6200 6216 0
-181 -6200 0
-166 6201 0
-6201 6217 0
-167 -6201 6202 0
-6202 6218 0
-168 -6202 6203 0
-6203 6219 0
-169 -6203 6204 0
-6204 6220 0
-170 -6204 6205 0
-6205 6221 0
-171 -6205 6206 0
-6206 6222 0
-172 -6206 6207 0
-6207 6223 0
-173 -6207 6208 0
-6208 6224 0
-174 -6208 6209 0
-6209 6225 0
-175 -6209 6210 0
-6210 6226 0
-176 -6210 6211 0
-6211 6227 0
-177 -6211 6212 0
-6212 6228 0
-178 -6212 6213 0
-6213 6229 0
-179 -6213 6214 0
-6214 6230 0
-180 -6214 6215 0
-6215 6231 0
-181 -6215 6216 0
-6216 6232 0
-182 -6216 0
-167 6217 0
-6217 6233 0
-168 -6217 6218 0
-6218 6234 0
-169 -6218 6219 0
-6219 6235 0
-170 -6219 6220 0
-6220 6236 0
-171 -6220 6221 0
-6221 6237 0
-172 -6221 6222 0
-6222 6238 0
-173 -6222 6223 0
-6223 6239 0
-174 -6223 6224 0
-6224 6240 0
-175 -6224 6225 0
-6225 6241 0
-176 -6225 6226 0
-6226 6242 0
-177 -6226 6227 0
-6227 6243 0
-178 -6227 6228 0
-6228 6244 0
-179 -6228 6229 0
-6229 6245 0
-180 -6229 6230 0
-6230 6246 0
-181 -6230 6231 0
-6231 6247 0
-182 -6231 6232 0
-6232 6248 0
-183 -6232 0
-168 6233 0
-6233 6249 0
-169 -6233 6234 0
-6234 6250 0
-170 -6234 6235 0
-6235 6251 0
-171 -6235 6236 0
-6236 6252 0
-172 -6236 6237 0
-6237 6253 0
-173 -6237 6238 0
-6238 6254 0
-174 -6238 6239 0
-6239 6255 0
-175 -6239 6240 0
-6240 6256 0
-176 -6240 6241 0
-6241 6257 0
-177 -6241 6242 0
-6242 6258 0
-178 -6242 6243 0
-6243 6259 0
-179 -6243 6244 0
-6244 6260 0
-180 -6244 6245 0
-6245 6261 0
-181 -6245 6246 0
-6246 6262 0
-182 -6246 6247 0
-6247 6263 0
-183 -6247 6248 0
-6248 6264 0
-184 -6248 0
-169 6249 0
-6249 6265 0
-170 -6249 6250 0
-6250 6266 0
-171 -6250 6251 0
-6251 6267 0
-172 -6251 6252 0
-6252 6268 0
-173 -6252 6253 0
-6253 6269 0
-174 -6253 6254 0
-6254 6270 0
-175 -6254 6255 0
-6255 6271 0
-176 -6255 6256 0
-6256 6272 0
-177 -6256 6257 0
-6257 6273 0
-178 -6257 6258 0
-6258 6274 0
-179 -6258 6259 0
-6259 6275 0
-180 -6259 6260 0
-6260 6276 0
-181 -6260 6261 0
-6261 6277 0
-182 -6261 6262 0
-6262 6278 0
-183 -6262 6263 0
-6263 6279 0
-184 -6263 6264 0
-6264 6280 0
-185 -6264 0
-170 6265 0
-6265 6281 0
-171 -6265 6266 0
-6266 6282 0
-172 -6266 6267 0
-6267 6283 0
-173 -6267 6268 0
-6268 6284 0
-174 -6268 6269 0
-6269 6285 0
-175 -6269 6270 0
-6270 6286 0
-176 -6270 6271 0
-6271 6287 0
-177 -6271 6272 0
-6272 6288 0
-178 -6272 6273 0
-6273 6289 0
-179 -6273 6274 0
-6274 6290 0
-180 -6274 6275 0
-6275 6291 0
-181 -6275 6276 0
-6276 6292 0
-182 -6276 6277 0
-6277 6293 0
-183 -6277 6278 0
-6278 6294 0
-184 -6278 6279 0
-6279 6295 0
-185 -6279 6280 0
-6280 6296 0
-186 -6280 0
-171 6281 0
-6281 6297 0
-172 -6281 6282 0
-6282 6298 0
-173 -6282 6283 0
-6283 6299 0
-174 -6283 6284 0
-6284 6300 0
-175 -6284 6285 0
-6285 6301 0
-176 -6285 6286 0
-6286 6302 0
-177 -6286 6287 0
-6287 6303 0
-178 -6287 6288 0
-6288 6304 0
-179 -6288 6289 0
-6289 6305 0
-180 -6289 6290 0
-6290 6306 0
-181 -6290 6291 0
-6291 6307 0
-182 -6291 6292 0
-6292 6308 0
-183 -6292 6293 0
-6293 6309 0
-184 -6293 6294 0
-6294 6310 0
-185 -6294 6295 0
-6295 6311 0
-186 -6295 6296 0
-6296 6312 0
-187 -6296 0
-172 6297 0
-6297 6313 0
-173 -6297 6298 0
-6298 6314 0
-174 -6298 6299 0
-6299 6315 0
-175 -6299 6300 0
-6300 6316 0
-176 -6300 6301 0
-6301 6317 0
-177 -6301 6302 0
-6302 6318 0
-178 -6302 6303 0
-6303 6319 0
-179 -6303 6304 0
-6304 6320 0
-180 -6304 6305 0
-6305 6321 0
-181 -6305 6306 0
-6306 6322 0
-182 -6306 6307 0
-6307 6323 0
-183 -6307 6308 0
-6308 6324 0
-184 -6308 6309 0
-6309 6325 0
-185 -6309 6310 0
-6310 6326 0
-186 -6310 6311 0
-6311 6327 0
-187 -6311 6312 0
-6312 6328 0
-188 -6312 0
-173 6313 0
-6313 6329 0
-174 -6313 6314 0
-6314 6330 0
-175 -6314 6315 0
-6315 6331 0
-176 -6315 6316 0
-6316 6332 0
-177 -6316 6317 0
-6317 6333 0
-178 -6317 6318 0
-6318 6334 0
-179 -6318 6319 0
-6319 6335 0
-180 -6319 6320 0
-6320 6336 0
-181 -6320 6321 0
-6321 6337 0
-182 -6321 6322 0
-6322 6338 0
-183 -6322 6323 0
-6323 6339 0
-184 -6323 6324 0
-6324 6340 0
-185 -6324 6325 0
-6325 6341 0
-186 -6325 6326 0
-6326 6342 0
-187 -6326 6327 0
-6327 6343 0
-188 -6327 6328 0
-6328 6344 0
-189 -6328 0
-174 6329 0
-6329 6345 0
-175 -6329 6330 0
-6330 6346 0
-176 -6330 6331 0
-6331 6347 0
-177 -6331 6332 0
-6332 6348 0
-178 -6332 6333 0
-6333 6349 0
-179 -6333 6334 0
-6334 6350 0
-180 -6334 6335 0
-6335 6351 0
-181 -6335 6336 0
-6336 6352 0
-182 -6336 6337 0
-6337 6353 0
-183 -6337 6338 0
-6338 6354 0
-184 -6338 6339 0
-6339 6355 0
-185 -6339 6340 0
-6340 6356 0
-186 -6340 6341 0
-6341 6357 0
-187 -6341 6342 0
-6342 6358 0
-188 -6342 6343 0
-6343 6359 0
-189 -6343 6344 0
-6344 6360 0
-190 -6344 0
-175 6345 0
-6345 6361 0
-176 -6345 6346 0
-6346 6362 0
-177 -6346 6347 0
-6347 6363 0
-178 -6347 6348 0
-6348 6364 0
-179 -6348 6349 0
-6349 6365 0
-180 -6349 6350 0
-6350 6366 0
-181 -6350 6351 0
-6351 6367 0
-182 -6351 6352 0
-6352 6368 0
-183 -6352 6353 0
-6353 6369 0
-184 -6353 6354 0
-6354 6370 0
-185 -6354 6355 0
-6355 6371 0
-186 -6355 6356 0
-6356 6372 0
-187 -6356 6357 0
-6357 6373 0
-188 -6357 6358 0
-6358 6374 0
-189 -6358 6359 0
-6359 6375 0
-190 -6359 6360 0
-6360 6376 0
-191 -6360 0
-176 6361 0
-6361 6377 0
-177 -6361 6362 0
-6362 6378 0
-178 -6362 6363 0
-6363 6379 0
-179 -6363 6364 0
-6364 6380 0
-180 -6364 6365 0
-6365 6381 0
-181 -6365 6366 0
-6366 6382 0
-182 -6366 6367 0
-6367 6383 0
-183 -6367 6368 0
-6368 6384 0
-184 -6368 6369 0
-6369 6385 0
-185 -6369 6370 0
-6370 6386 0
-186 -6370 6371 0
-6371 6387 0
-187 -6371 6372 0
-6372 6388 0
-188 -6372 6373 0
-6373 6389 0
-189 -6373 6374 0
-6374 6390 0
-190 -6374 6375 0
-6375 6391 0
-191 -6375 6376 0
-6376 6392 0
-192 -6376 0
-177 6377 0
-6377 6393 0
-178 -6377 6378 0
-6378 6394 0
-179 -6378 6379 0
-6379 6395 0
-180 -6379 6380 0
-6380 6396 0
-181 -6380 6381 0
-6381 6397 0
-182 -6381 6382 0
-6382 6398 0
-183 -6382 6383 0
-6383 6399 0
-184 -6383 6384 0
-6384 6400 0
-185 -6384 6385 0
-6385 6401 0
-186 -6385 6386 0
-6386 6402 0
-187 -6386 6387 0
-6387 6403 0
-188 -6387 6388 0
-6388 6404 0
-189 -6388 6389 0
-6389 6405 0
-190 -6389 6390 0
-6390 6406 0
-191 -6390 6391 0
-6391 6407 0
-192 -6391 6392 0
-6392 6408 0
-193 -6392 0
-178 6393 0
-6393 6409 0
-179 -6393 6394 0
-6394 6410 0
-180 -6394 6395 0
-6395 6411 0
-181 -6395 6396 0
-6396 6412 0
-182 -6396 6397 0
-6397 6413 0
-183 -6397 6398 0
-6398 6414 0
-184 -6398 6399 0
-6399 6415 0
-185 -6399 6400 0
-6400 6416 0
-186 -6400 6401 0
-6401 6417 0
-187 -6401 6402 0
-6402 6418 0
-188 -6402 6403 0
-6403 6419 0
-189 -6403 6404 0
-6404 6420 0
-190 -6404 6405 0
-6405 6421 0
-191 -6405 6406 0
-6406 6422 0
-192 -6406 6407 0
-6407 6423 0
-193 -6407 6408 0
-6408 6424 0
-194 -6408 0
-179 6409 0
-6409 6425 0
-180 -6409 6410 0
-6410 6426 0
-181 -6410 6411 0
-6411 6427 0
-182 -6411 6412 0
-6412 6428 0
-183 -6412 6413 0
-6413 6429 0
-184 -6413 6414 0
-6414 6430 0
-185 -6414 6415 0
-6415 6431 0
-186 -6415 6416 0
-6416 6432 0
-187 -6416 6417 0
-6417 6433 0
-188 -6417 6418 0
-6418 6434 0
-189 -6418 6419 0
-6419 6435 0
-190 -6419 6420 0
-6420 6436 0
-191 -6420 6421 0
-6421 6437 0
-192 -6421 6422 0
-6422 6438 0
-193 -6422 6423 0
-6423 6439 0
-194 -6423 6424 0
-6424 6440 0
-195 -6424 0
-180 6425 0
-6425 6441 0
-181 -6425 6426 0
-6426 6442 0
-182 -6426 6427 0
-6427 6443 0
-183 -6427 6428 0
-6428 6444 0
-184 -6428 6429 0
-6429 6445 0
-185 -6429 6430 0
-6430 6446 0
-186 -6430 6431 0
-6431 6447 0
-187 -6431 6432 0
-6432 6448 0
-188 -6432 6433 0
-6433 6449 0
-189 -6433 6434 0
-6434 6450 0
-190 -6434 6435 0
-6435 6451 0
-191 -6435 6436 0
-6436 6452 0
-192 -6436 6437 0
-6437 6453 0
-193 -6437 6438 0
-6438 6454 0
-194 -6438 6439 0
-6439 6455 0
-195 -6439 6440 0
-6440 6456 0
-196 -6440 0
-181 6441 0
-6441 6457 0
-182 -6441 6442 0
-6442 6458 0
-183 -6442 6443 0
-6443 6459 0
-184 -6443 6444 0
-6444 6460 0
-185 -6444 6445 0
-6445 6461 0
-186 -6445 6446 0
-6446 6462 0
-187 -6446 6447 0
-6447 6463 0
-188 -6447 6448 0
-6448 6464 0
-189 -6448 6449 0
-6449 6465 0
-190 -6449 6450 0
-6450 6466 0
-191 -6450 6451 0
-6451 6467 0
-192 -6451 6452 0
-6452 6468 0
-193 -6452 6453 0
-6453 6469 0
-194 -6453 6454 0
-6454 6470 0
-195 -6454 6455 0
-6455 6471 0
-196 -6455 6456 0
-6456 6472 0
-197 -6456 0
-182 6457 0
-6457 6473 0
-183 -6457 6458 0
-6458 6474 0
-184 -6458 6459 0
-6459 6475 0
-185 -6459 6460 0
-6460 6476 0
-186 -6460 6461 0
-6461 6477 0
-187 -6461 6462 0
-6462 6478 0
-188 -6462 6463 0
-6463 6479 0
-189 -6463 6464 0
-6464 6480 0
-190 -6464 6465 0
-6465 6481 0
-191 -6465 6466 0
-6466 6482 0
-192 -6466 6467 0
-6467 6483 0
-193 -6467 6468 0
-6468 6484 0
-194 -6468 6469 0
-6469 6485 0
-195 -6469 6470 0
-6470 6486 0
-196 -6470 6471 0
-6471 6487 0
-197 -6471 6472 0
-6472 6488 0
-198 -6472 0
-183 6473 0
-6473 6489 0
-184 -6473 6474 0
-6474 6490 0
-185 -6474 6475 0
-6475 6491 0
-186 -6475 6476 0
-6476 6492 0
-187 -6476 6477 0
-6477 6493 0
-188 -6477 6478 0
-6478 6494 0
-189 -6478 6479 0
-6479 6495 0
-190 -6479 6480 0
-6480 6496 0
-191 -6480 6481 0
-6481 6497 0
-192 -6481 6482 0
-6482 6498 0
-193 -6482 6483 0
-6483 6499 0
-194 -6483 6484 0
-6484 6500 0
-195 -6484 6485 0
-6485 6501 0
-196 -6485 6486 0
-6486 6502 0
-197 -6486 6487 0
-6487 6503 0
-198 -6487 6488 0
-6488 6504 0
-199 -6488 0
-184 6489 0
-6489 6505 0
-185 -6489 6490 0
-6490 6506 0
-186 -6490 6491 0
-6491 6507 0
-187 -6491 6492 0
-6492 6508 0
-188 -6492 6493 0
-6493 6509 0
-189 -6493 6494 0
-6494 6510 0
-190 -6494 6495 0
-6495 6511 0
-191 -6495 6496 0
-6496 6512 0
-192 -6496 6497 0
-6497 6513 0
-193 -6497 6498 0
-6498 6514 0
-194 -6498 6499 0
-6499 6515 0
-195 -6499 6500 0
-6500 6516 0
-196 -6500 6501 0
-6501 6517 0
-197 -6501 6502 0
-6502 6518 0
-198 -6502 6503 0
-6503 6519 0
-199 -6503 6504 0
-6504 6520 0
-200 -6504 0
-185 6505 0
-6505 6521 0
-186 -6505 6506 0
-6506 6522 0
-187 -6506 6507 0
-6507 6523 0
-188 -6507 6508 0
-6508 6524 0
-189 -6508 6509 0
-6509 6525 0
-190 -6509 6510 0
-6510 6526 0
-191 -6510 6511 0
-6511 6527 0
-192 -6511 6512 0
-6512 6528 0
-193 -6512 6513 0
-6513 6529 0
-194 -6513 6514 0
-6514 6530 0
-195 -6514 6515 0
-6515 6531 0
-196 -6515 6516 0
-6516 6532 0
-197 -6516 6517 0
-6517 6533 0
-198 -6517 6518 0
-6518 6534 0
-199 -6518 6519 0
-6519 6535 0
-200 -6519 6520 0
-6520 6536 0
-201 -6520 0
-186 6521 0
-6521 6537 0
-187 -6521 6522 0
-6522 6538 0
-188 -6522 6523 0
-6523 6539 0
-189 -6523 6524 0
-6524 6540 0
-190 -6524 6525 0
-6525 6541 0
-191 -6525 6526 0
-6526 6542 0
-192 -6526 6527 0
-6527 6543 0
-193 -6527 6528 0
-6528 6544 0
-194 -6528 6529 0
-6529 6545 0
-195 -6529 6530 0
-6530 6546 0
-196 -6530 6531 0
-6531 6547 0
-197 -6531 6532 0
-6532 6548 0
-198 -6532 6533 0
-6533 6549 0
-199 -6533 6534 0
-6534 6550 0
-200 -6534 6535 0
-6535 6551 0
-201 -6535 6536 0
-6536 6552 0
-202 -6536 0
-187 6537 0
-6537 6553 0
-188 -6537 6538 0
-6538 6554 0
-189 -6538 6539 0
-6539 6555 0
-190 -6539 6540 0
-6540 6556 0
-191 -6540 6541 0
-6541 6557 0
-192 -6541 6542 0
-6542 6558 0
-193 -6542 6543 0
-6543 6559 0
-194 -6543 6544 0
-6544 6560 0
-195 -6544 6545 0
-6545 6561 0
-196 -6545 6546 0
-6546 6562 0
-197 -6546 6547 0
-6547 6563 0
-198 -6547 6548 0
-6548 6564 0
-199 -6548 6549 0
-6549 6565 0
-200 -6549 6550 0
-6550 6566 0
-201 -6550 6551 0
-6551 6567 0
-202 -6551 6552 0
-6552 6568 0
-203 -6552 0
-188 6553 0
-6553 6569 0
-189 -6553 6554 0
-6554 6570 0
-190 -6554 6555 0
-6555 6571 0
-191 -6555 6556 0
-6556 6572 0
-192 -6556 6557 0
-6557 6573 0
-193 -6557 6558 0
-6558 6574 0
-194 -6558 6559 0
-6559 6575 0
-195 -6559 6560 0
-6560 6576 0
-196 -6560 6561 0
-6561 6577 0
-197 -6561 6562 0
-6562 6578 0
-198 -6562 6563 0
-6563 6579 0
-199 -6563 6564 0
-6564 6580 0
-200 -6564 6565 0
-6565 6581 0
-201 -6565 6566 0
-6566 6582 0
-202 -6566 6567 0
-6567 6583 0
-203 -6567 6568 0
-6568 6584 0
-204 -6568 0
-189 6569 0
-6569 6585 0
-190 -6569 6570 0
-6570 6586 0
-191 -6570 6571 0
-6571 6587 0
-192 -6571 6572 0
-6572 6588 0
-193 -6572 6573 0
-6573 6589 0
-194 -6573 6574 0
-6574 6590 0
-195 -6574 6575 0
-6575 6591 0
-196 -6575 6576 0
-6576 6592 0
-197 -6576 6577 0
-6577 6593 0
-198 -6577 6578 0
-6578 6594 0
-199 -6578 6579 0
-6579 6595 0
-200 -6579 6580 0
-6580 6596 0
-201 -6580 6581 0
-6581 6597 0
-202 -6581 6582 0
-6582 6598 0
-203 -6582 6583 0
-6583 6599 0
-204 -6583 6584 0
-6584 6600 0
-205 -6584 0
-190 6585 0
-6585 6601 0
-191 -6585 6586 0
-6586 6602 0
-192 -6586 6587 0
-6587 6603 0
-193 -6587 6588 0
-6588 6604 0
-194 -6588 6589 0
-6589 6605 0
-195 -6589 6590 0
-6590 6606 0
-196 -6590 6591 0
-6591 6607 0
-197 -6591 6592 0
-6592 6608 0
-198 -6592 6593 0
-6593 6609 0
-199 -6593 6594 0
-6594 6610 0
-200 -6594 6595 0
-6595 6611 0
-201 -6595 6596 0
-6596 6612 0
-202 -6596 6597 0
-6597 6613 0
-203 -6597 6598 0
-6598 6614 0
-204 -6598 6599 0
-6599 6615 0
-205 -6599 6600 0
-6600 6616 0
-206 -6600 0
-191 6601 0
-6601 6617 0
-192 -6601 6602 0
-6602 6618 0
-193 -6602 6603 0
-6603 6619 0
-194 -6603 6604 0
-6604 6620 0
-195 -6604 6605 0
-6605 6621 0
-196 -6605 6606 0
-6606 6622 0
-197 -6606 6607 0
-6607 6623 0
-198 -6607 6608 0
-6608 6624 0
-199 -6608 6609 0
-6609 6625 0
-200 -6609 6610 0
-6610 6626 0
-201 -6610 6611 0
-6611 6627 0
-202 -6611 6612 0
-6612 6628 0
-203 -6612 6613 0
-6613 6629 0
-204 -6613 6614 0
-6614 6630 0
-205 -6614 6615 0
-6615 6631 0
-206 -6615 6616 0
-6616 6632 0
-207 -6616 0
-192 6617 0
-6617 6633 0
-193 -6617 6618 0
-6618 6634 0
-194 -6618 6619 0
-6619 6635 0
-195 -6619 6620 0
-6620 6636 0
-196 -6620 6621 0
-6621 6637 0
-197 -6621 6622 0
-6622 6638 0
-198 -6622 6623 0
-6623 6639 0
-199 -6623 6624 0
-6624 6640 0
-200 -6624 6625 0
-6625 6641 0
-201 -6625 6626 0
-6626 6642 0
-202 -6626 6627 0
-6627 6643 0
-203 -6627 6628 0
-6628 6644 0
-204 -6628 6629 0
-6629 6645 0
-205 -6629 6630 0
-6630 6646 0
-206 -6630 6631 0
-6631 6647 0
-207 -6631 6632 0
-6632 6648 0
-208 -6632 0
-193 6633 0
-6633 6649 0
-194 -6633 6634 0
-6634 6650 0
-195 -6634 6635 0
-6635 6651 0
-196 -6635 6636 0
-6636 6652 0
-197 -6636 6637 0
-6637 6653 0
-198 -6637 6638 0
-6638 6654 0
-199 -6638 6639 0
-6639 6655 0
-200 -6639 6640 0
-6640 6656 0
-201 -6640 6641 0
-6641 6657 0
-202 -6641 6642 0
-6642 6658 0
-203 -6642 6643 0
-6643 6659 0
-204 -6643 6644 0
-6644 6660 0
-205 -6644 6645 0
-6645 6661 0
-206 -6645 6646 0
-6646 6662 0
-207 -6646 6647 0
-6647 6663 0
-208 -6647 6648 0
-6648 6664 0
-209 -6648 0
-194 6649 0
-6649 6665 0
-195 -6649 6650 0
-6650 6666 0
-196 -6650 6651 0
-6651 6667 0
-197 -6651 6652 0
-6652 6668 0
-198 -6652 6653 0
-6653 6669 0
-199 -6653 6654 0
-6654 6670 0
-200 -6654 6655 0
-6655 6671 0
-201 -6655 6656 0
-6656 6672 0
-202 -6656 6657 0
-6657 6673 0
-203 -6657 6658 0
-6658 6674 0
-204 -6658 6659 0
-6659 6675 0
-205 -6659 6660 0
-6660 6676 0
-206 -6660 6661 0
-6661 6677 0
-207 -6661 6662 0
-6662 6678 0
-208 -6662 6663 0
-6663 6679 0
-209 -6663 6664 0
-6664 6680 0
-210 -6664 0
-195 6665 0
-6665 6681 0
-196 -6665 6666 0
-6666 6682 0
-197 -6666 6667 0
-6667 6683 0
-198 -6667 6668 0
-6668 6684 0
-199 -6668 6669 0
-6669 6685 0
-200 -6669 6670 0
-6670 6686 0
-201 -6670 6671 0
-6671 6687 0
-202 -6671 6672 0
-6672 6688 0
-203 -6672 6673 0
-6673 6689 0
-204 -6673 6674 0
-6674 6690 0
-205 -6674 6675 0
-6675 6691 0
-206 -6675 6676 0
-6676 6692 0
-207 -6676 6677 0
-6677 6693 0
-208 -6677 6678 0
-6678 6694 0
-209 -6678 6679 0
-6679 6695 0
-210 -6679 6680 0
-6680 6696 0
-211 -6680 0
-196 6681 0
-197 -6681 6682 0
-198 -6682 6683 0
-199 -6683 6684 0
-200 -6684 6685 0
-201 -6685 6686 0
-202 -6686 6687 0
-203 -6687 6688 0
-204 -6688 6689 0
-205 -6689 6690 0
-206 -6690 6691 0
-207 -6691 6692 0
-208 -6692 6693 0
-209 -6693 6694 0
-210 -6694 6695 0
-211 -6695 6696 0
-212 -6696 0
-213 6697 0
-6697 6698 0
-214 -6697 6699 0
-6699 6700 0
-215 -6699 6701 0
-6701 6702 0
-216 -6701 6703 0
-6703 6704 0
-217 -6703 6705 0
-6705 6706 0
-218 -6705 6707 0
-6707 6708 0
-219 -6707 6709 0
-6709 6710 0
-220 -6709 6711 0
-6711 6712 0
-221 -6711 6713 0
-6713 6714 0
-222 -6713 0
-214 6698 0
-6698 6715 0
-215 -6698 6700 0
-6700 6716 0
-216 -6700 6702 0
-6702 6717 0
-217 -6702 6704 0
-6704 6718 0
-218 -6704 6706 0
-6706 6719 0
-219 -6706 6708 0
-6708 6720 0
-220 -6708 6710 0
-6710 6721 0
-221 -6710 6712 0
-6712 6722 0
-222 -6712 6714 0
-6714 6723 0
-223 -6714 0
-215 6715 0
-6715 6724 0
-216 -6715 6716 0
-6716 6725 0
-217 -6716 6717 0
-6717 6726 0
-218 -6717 6718 0
-6718 6727 0
-219 -6718 6719 0
-6719 6728 0
-220 -6719 6720 0
-6720 6729 0
-221 -6720 6721 0
-6721 6730 0
-222 -6721 6722 0
-6722 6731 0
-223 -6722 6723 0
-6723 6732 0
-224 -6723 0
-216 6724 0
-6724 6733 0
-217 -6724 6725 0
-6725 6734 0
-218 -6725 6726 0
-6726 6735 0
-219 -6726 6727 0
-6727 6736 0
-220 -6727 6728 0
-6728 6737 0
-221 -6728 6729 0
-6729 6738 0
-222 -6729 6730 0
-6730 6739 0
-223 -6730 6731 0
-6731 6740 0
-224 -6731 6732 0
-6732 6741 0
-225 -6732 0
-217 6733 0
-6733 6742 0
-218 -6733 6734 0
-6734 6743 0
-219 -6734 6735 0
-6735 6744 0
-220 -6735 6736 0
-6736 6745 0
-221 -6736 6737 0
-6737 6746 0
-222 -6737 6738 0
-6738 6747 0
-223 -6738 6739 0
-6739 6748 0
-224 -6739 6740 0
-6740 6749 0
-225 -6740 6741 0
-6741 6750 0
-226 -6741 0
-218 6742 0
-6742 6751 0
-219 -6742 6743 0
-6743 6752 0
-220 -6743 6744 0
-6744 6753 0
-221 -6744 6745 0
-6745 6754 0
-222 -6745 6746 0
-6746 6755 0
-223 -6746 6747 0
-6747 6756 0
-224 -6747 6748 0
-6748 6757 0
-225 -6748 6749 0
-6749 6758 0
-226 -6749 6750 0
-6750 6759 0
-227 -6750 0
-219 6751 0
-6751 6760 0
-220 -6751 6752 0
-6752 6761 0
-221 -6752 6753 0
-6753 6762 0
-222 -6753 6754 0
-6754 6763 0
-223 -6754 6755 0
-6755 6764 0
-224 -6755 6756 0
-6756 6765 0
-225 -6756 6757 0
-6757 6766 0
-226 -6757 6758 0
-6758 6767 0
-227 -6758 6759 0
-6759 6768 0
-228 -6759 0
-220 6760 0
-6760 6769 0
-221 -6760 6761 0
-6761 6770 0
-222 -6761 6762 0
-6762 6771 0
-223 -6762 6763 0
-6763 6772 0
-224 -6763 6764 0
-6764 6773 0
-225 -6764 6765 0
-6765 6774 0
-226 -6765 6766 0
-6766 6775 0
-227 -6766 6767 0
-6767 6776 0
-228 -6767 6768 0
-6768 6777 0
-229 -6768 0
-221 6769 0
-6769 6778 0
-222 -6769 6770 0
-6770 6779 0
-223 -6770 6771 0
-6771 6780 0
-224 -6771 6772 0
-6772 6781 0
-225 -6772 6773 0
-6773 6782 0
-226 -6773 6774 0
-6774 6783 0
-227 -6774 6775 0
-6775 6784 0
-228 -6775 6776 0
-6776 6785 0
-229 -6776 6777 0
-6777 6786 0
-230 -6777 0
-222 6778 0
-6778 6787 0
-223 -6778 6779 0
-6779 6788 0
-224 -6779 6780 0
-6780 6789 0
-225 -6780 6781 0
-6781 6790 0
-226 -6781 6782 0
-6782 6791 0
-227 -6782 6783 0
-6783 6792 0
-228 -6783 6784 0
-6784 6793 0
-229 -6784 6785 0
-6785 6794 0
-230 -6785 6786 0
-6786 6795 0
-231 -6786 0
-223 6787 0
-6787 6796 0
-224 -6787 6788 0
-6788 6797 0
-225 -6788 6789 0
-6789 6798 0
-226 -6789 6790 0
-6790 6799 0
-227 -6790 6791 0
-6791 6800 0
-228 -6791 6792 0
-6792 6801 0
-229 -6792 6793 0
-6793 6802 0
-230 -6793 6794 0
-6794 6803 0
-231 -6794 6795 0
-6795 6804 0
-232 -6795 0
-224 6796 0
-6796 6805 0
-225 -6796 6797 0
-6797 6806 0
-226 -6797 6798 0
-6798 6807 0
-227 -6798 6799 0
-6799 6808 0
-228 -6799 6800 0
-6800 6809 0
-229 -6800 6801 0
-6801 6810 0
-230 -6801 6802 0
-6802 6811 0
-231 -6802 6803 0
-6803 6812 0
-232 -6803 6804 0
-6804 6813 0
-233 -6804 0
-225 6805 0
-6805 6814 0
-226 -6805 6806 0
-6806 6815 0
-227 -6806 6807 0
-6807 6816 0
-228 -6807 6808 0
-6808 6817 0
-229 -6808 6809 0
-6809 6818 0
-230 -6809 6810 0
-6810 6819 0
-231 -6810 6811 0
-6811 6820 0
-232 -6811 6812 0
-6812 6821 0
-233 -6812 6813 0
-6813 6822 0
-234 -6813 0
-226 6814 0
-6814 6823 0
-227 -6814 6815 0
-6815 6824 0
-228 -6815 6816 0
-6816 6825 0
-229 -6816 6817 0
-6817 6826 0
-230 -6817 6818 0
-6818 6827 0
-231 -6818 6819 0
-6819 6828 0
-232 -6819 6820 0
-6820 6829 0
-233 -6820 6821 0
-6821 6830 0
-234 -6821 6822 0
-6822 6831 0
-235 -6822 0
-227 6823 0
-6823 6832 0
-228 -6823 6824 0
-6824 6833 0
-229 -6824 6825 0
-6825 6834 0
-230 -6825 6826 0
-6826 6835 0
-231 -6826 6827 0
-6827 6836 0
-232 -6827 6828 0
-6828 6837 0
-233 -6828 6829 0
-6829 6838 0
-234 -6829 6830 0
-6830 6839 0
-235 -6830 6831 0
-6831 6840 0
-236 -6831 0
-228 6832 0
-6832 6841 0
-229 -6832 6833 0
-6833 6842 0
-230 -6833 6834 0
-6834 6843 0
-231 -6834 6835 0
-6835 6844 0
-232 -6835 6836 0
-6836 6845 0
-233 -6836 6837 0
-6837 6846 0
-234 -6837 6838 0
-6838 6847 0
-235 -6838 6839 0
-6839 6848 0
-236 -6839 6840 0
-6840 6849 0
-237 -6840 0
-229 6841 0
-6841 6850 0
-230 -6841 6842 0
-6842 6851 0
-231 -6842 6843 0
-6843 6852 0
-232 -6843 6844 0
-6844 6853 0
-233 -6844 6845 0
-6845 6854 0
-234 -6845 6846 0
-6846 6855 0
-235 -6846 6847 0
-6847 6856 0
-236 -6847 6848 0
-6848 6857 0
-237 -6848 6849 0
-6849 6858 0
-238 -6849 0
-230 6850 0
-6850 6859 0
-231 -6850 6851 0
-6851 6860 0
-232 -6851 6852 0
-6852 6861 0
-233 -6852 6853 0
-6853 6862 0
-234 -6853 6854 0
-6854 6863 0
-235 -6854 6855 0
-6855 6864 0
-236 -6855 6856 0
-6856 6865 0
-237 -6856 6857 0
-6857 6866 0
-238 -6857 6858 0
-6858 6867 0
-239 -6858 0
-231 6859 0
-6859 6868 0
-232 -6859 6860 0
-6860 6869 0
-233 -6860 6861 0
-6861 6870 0
-234 -6861 6862 0
-6862 6871 0
-235 -6862 6863 0
-6863 6872 0
-236 -6863 6864 0
-6864 6873 0
-237 -6864 6865 0
-6865 6874 0
-238 -6865 6866 0
-6866 6875 0
-239 -6866 6867 0
-6867 6876 0
-240 -6867 0
-232 6868 0
-6868 6877 0
-233 -6868 6869 0
-6869 6878 0
-234 -6869 6870 0
-6870 6879 0
-235 -6870 6871 0
-6871 6880 0
-236 -6871 6872 0
-6872 6881 0
-237 -6872 6873 0
-6873 6882 0
-238 -6873 6874 0
-6874 6883 0
-239 -6874 6875 0
-6875 6884 0
-240 -6875 6876 0
-6876 6885 0
-241 -6876 0
-233 6877 0
-6877 6886 0
-234 -6877 6878 0
-6878 6887 0
-235 -6878 6879 0
-6879 6888 0
-236 -6879 6880 0
-6880 6889 0
-237 -6880 6881 0
-6881 6890 0
-238 -6881 6882 0
-6882 6891 0
-239 -6882 6883 0
-6883 6892 0
-240 -6883 6884 0
-6884 6893 0
-241 -6884 6885 0
-6885 6894 0
-242 -6885 0
-234 6886 0
-6886 6895 0
-235 -6886 6887 0
-6887 6896 0
-236 -6887 6888 0
-6888 6897 0
-237 -6888 6889 0
-6889 6898 0
-238 -6889 6890 0
-6890 6899 0
-239 -6890 6891 0
-6891 6900 0
-240 -6891 6892 0
-6892 6901 0
-241 -6892 6893 0
-6893 6902 0
-242 -6893 6894 0
-6894 6903 0
-243 -6894 0
-235 6895 0
-6895 6904 0
-236 -6895 6896 0
-6896 6905 0
-237 -6896 6897 0
-6897 6906 0
-238 -6897 6898 0
-6898 6907 0
-239 -6898 6899 0
-6899 6908 0
-240 -6899 6900 0
-6900 6909 0
-241 -6900 6901 0
-6901 6910 0
-242 -6901 6902 0
-6902 6911 0
-243 -6902 6903 0
-6903 6912 0
-244 -6903 0
-236 6904 0
-6904 6913 0
-237 -6904 6905 0
-6905 6914 0
-238 -6905 6906 0
-6906 6915 0
-239 -6906 6907 0
-6907 6916 0
-240 -6907 6908 0
-6908 6917 0
-241 -6908 6909 0
-6909 6918 0
-242 -6909 6910 0
-6910 6919 0
-243 -6910 6911 0
-6911 6920 0
-244 -6911 6912 0
-6912 6921 0
-245 -6912 0
-237 6913 0
-6913 6922 0
-238 -6913 6914 0
-6914 6923 0
-239 -6914 6915 0
-6915 6924 0
-240 -6915 6916 0
-6916 6925 0
-241 -6916 6917 0
-6917 6926 0
-242 -6917 6918 0
-6918 6927 0
-243 -6918 6919 0
-6919 6928 0
-244 -6919 6920 0
-6920 6929 0
-245 -6920 6921 0
-6921 6930 0
-246 -6921 0
-238 6922 0
-6922 6931 0
-239 -6922 6923 0
-6923 6932 0
-240 -6923 6924 0
-6924 6933 0
-241 -6924 6925 0
-6925 6934 0
-242 -6925 6926 0
-6926 6935 0
-243 -6926 6927 0
-6927 6936 0
-244 -6927 6928 0
-6928 6937 0
-245 -6928 6929 0
-6929 6938 0
-246 -6929 6930 0
-6930 6939 0
-247 -6930 0
-239 6931 0
-6931 6940 0
-240 -6931 6932 0
-6932 6941 0
-241 -6932 6933 0
-6933 6942 0
-242 -6933 6934 0
-6934 6943 0
-243 -6934 6935 0
-6935 6944 0
-244 -6935 6936 0
-6936 6945 0
-245 -6936 6937 0
-6937 6946 0
-246 -6937 6938 0
-6938 6947 0
-247 -6938 6939 0
-6939 6948 0
-248 -6939 0
-240 6940 0
-6940 6949 0
-241 -6940 6941 0
-6941 6950 0
-242 -6941 6942 0
-6942 6951 0
-243 -6942 6943 0
-6943 6952 0
-244 -6943 6944 0
-6944 6953 0
-245 -6944 6945 0
-6945 6954 0
-246 -6945 6946 0
-6946 6955 0
-247 -6946 6947 0
-6947 6956 0
-248 -6947 6948 0
-6948 6957 0
-249 -6948 0
-241 6949 0
-6949 6958 0
-242 -6949 6950 0
-6950 6959 0
-243 -6950 6951 0
-6951 6960 0
-244 -6951 6952 0
-6952 6961 0
-245 -6952 6953 0
-6953 6962 0
-246 -6953 6954 0
-6954 6963 0
-247 -6954 6955 0
-6955 6964 0
-248 -6955 6956 0
-6956 6965 0
-249 -6956 6957 0
-6957 6966 0
-250 -6957 0
-242 6958 0
-6958 6967 0
-243 -6958 6959 0
-6959 6968 0
-244 -6959 6960 0
-6960 6969 0
-245 -6960 6961 0
-6961 6970 0
-246 -6961 6962 0
-6962 6971 0
-247 -6962 6963 0
-6963 6972 0
-248 -6963 6964 0
-6964 6973 0
-249 -6964 6965 0
-6965 6974 0
-250 -6965 6966 0
-6966 6975 0
-251 -6966 0
-243 6967 0
-6967 6976 0
-244 -6967 6968 0
-6968 6977 0
-245 -6968 6969 0
-6969 6978 0
-246 -6969 6970 0
-6970 6979 0
-247 -6970 6971 0
-6971 6980 0
-248 -6971 6972 0
-6972 6981 0
-249 -6972 6973 0
-6973 6982 0
-250 -6973 6974 0
-6974 6983 0
-251 -6974 6975 0
-6975 6984 0
-252 -6975 0
-244 6976 0
-6976 6985 0
-245 -6976 6977 0
-6977 6986 0
-246 -6977 6978 0
-6978 6987 0
-247 -6978 6979 0
-6979 6988 0
-248 -6979 6980 0
-6980 6989 0
-249 -6980 6981 0
-6981 6990 0
-250 -6981 6982 0
-6982 6991 0
-251 -6982 6983 0
-6983 6992 0
-252 -6983 6984 0
-6984 6993 0
-253 -6984 0
-245 6985 0
-6985 6994 0
-246 -6985 6986 0
-6986 6995 0
-247 -6986 6987 0
-6987 6996 0
-248 -6987 6988 0
-6988 6997 0
-249 -6988 6989 0
-6989 6998 0
-250 -6989 6990 0
-6990 6999 0
-251 -6990 6991 0
-6991 7000 0
-252 -6991 6992 0
-6992 7001 0
-253 -6992 6993 0
-6993 7002 0
-254 -6993 0
-246 6994 0
-6994 7003 0
-247 -6994 6995 0
-6995 7004 0
-248 -6995 6996 0
-6996 7005 0
-249 -6996 6997 0
-6997 7006 0
-250 -6997 6998 0
-6998 7007 0
-251 -6998 6999 0
-6999 7008 0
-252 -6999 7000 0
-7000 7009 0
-253 -7000 7001 0
-7001 7010 0
-254 -7001 7002 0
-7002 7011 0
-255 -7002 0
-247 7003 0
-7003 7012 0
-248 -7003 7004 0
-7004 7013 0
-249 -7004 7005 0
-7005 7014 0
-250 -7005 7006 0
-7006 7015 0
-251 -7006 7007 0
-7007 7016 0
-252 -7007 7008 0
-7008 7017 0
-253 -7008 7009 0
-7009 7018 0
-254 -7009 7010 0
-7010 7019 0
-255 -7010 7011 0
-7011 7020 0
-256 -7011 0
-248 7012 0
-7012 7021 0
-249 -7012 7013 0
-7013 7022 0
-250 -7013 7014 0
-7014 7023 0
-251 -7014 7015 0
-7015 7024 0
-252 -7015 7016 0
-7016 7025 0
-253 -7016 7017 0
-7017 7026 0
-254 -7017 7018 0
-7018 7027 0
-255 -7018 7019 0
-7019 7028 0
-256 -7019 7020 0
-7020 7029 0
-257 -7020 0
-249 7021 0
-7021 7030 0
-250 -7021 7022 0
-7022 7031 0
-251 -7022 7023 0
-7023 7032 0
-252 -7023 7024 0
-7024 7033 0
-253 -7024 7025 0
-7025 7034 0
-254 -7025 7026 0
-7026 7035 0
-255 -7026 7027 0
-7027 7036 0
-256 -7027 7028 0
-7028 7037 0
-257 -7028 7029 0
-7029 7038 0
-258 -7029 0
-250 7030 0
-7030 7039 0
-251 -7030 7031 0
-7031 7040 0
-252 -7031 7032 0
-7032 7041 0
-253 -7032 7033 0
-7033 7042 0
-254 -7033 7034 0
-7034 7043 0
-255 -7034 7035 0
-7035 7044 0
-256 -7035 7036 0
-7036 7045 0
-257 -7036 7037 0
-7037 7046 0
-258 -7037 7038 0
-7038 7047 0
-259 -7038 0
-251 7039 0
-7039 7048 0
-252 -7039 7040 0
-7040 7049 0
-253 -7040 7041 0
-7041 7050 0
-254 -7041 7042 0
-7042 7051 0
-255 -7042 7043 0
-7043 7052 0
-256 -7043 7044 0
-7044 7053 0
-257 -7044 7045 0
-7045 7054 0
-258 -7045 7046 0
-7046 7055 0
-259 -7046 7047 0
-7047 7056 0
-260 -7047 0
-252 7048 0
-7048 7057 0
-253 -7048 7049 0
-7049 7058 0
-254 -7049 7050 0
-7050 7059 0
-255 -7050 7051 0
-7051 7060 0
-256 -7051 7052 0
-7052 7061 0
-257 -7052 7053 0
-7053 7062 0
-258 -7053 7054 0
-7054 7063 0
-259 -7054 7055 0
-7055 7064 0
-260 -7055 7056 0
-7056 7065 0
-261 -7056 0
-253 7057 0
-7057 7066 0
-254 -7057 7058 0
-7058 7067 0
-255 -7058 7059 0
-7059 7068 0
-256 -7059 7060 0
-7060 7069 0
-257 -7060 7061 0
-7061 7070 0
-258 -7061 7062 0
-7062 7071 0
-259 -7062 7063 0
-7063 7072 0
-260 -7063 7064 0
-7064 7073 0
-261 -7064 7065 0
-7065 7074 0
-262 -7065 0
-254 7066 0
-7066 7075 0
-255 -7066 7067 0
-7067 7076 0
-256 -7067 7068 0
-7068 7077 0
-257 -7068 7069 0
-7069 7078 0
-258 -7069 7070 0
-7070 7079 0
-259 -7070 7071 0
-7071 7080 0
-260 -7071 7072 0
-7072 7081 0
-261 -7072 7073 0
-7073 7082 0
-262 -7073 7074 0
-7074 7083 0
-263 -7074 0
-255 7075 0
-7075 7084 0
-256 -7075 7076 0
-7076 7085 0
-257 -7076 7077 0
-7077 7086 0
-258 -7077 7078 0
-7078 7087 0
-259 -7078 7079 0
-7079 7088 0
-260 -7079 7080 0
-7080 7089 0
-261 -7080 7081 0
-7081 7090 0
-262 -7081 7082 0
-7082 7091 0
-263 -7082 7083 0
-7083 7092 0
-264 -7083 0
-256 7084 0
-7084 7093 0
-257 -7084 7085 0
-7085 7094 0
-258 -7085 7086 0
-7086 7095 0
-259 -7086 7087 0
-7087 7096 0
-260 -7087 7088 0
-7088 7097 0
-261 -7088 7089 0
-7089 7098 0
-262 -7089 7090 0
-7090 7099 0
-263 -7090 7091 0
-7091 7100 0
-264 -7091 7092 0
-7092 7101 0
-265 -7092 0
-257 7093 0
-7093 7102 0
-258 -7093 7094 0
-7094 7103 0
-259 -7094 7095 0
-7095 7104 0
-260 -7095 7096 0
-7096 7105 0
-261 -7096 7097 0
-7097 7106 0
-262 -7097 7098 0
-7098 7107 0
-263 -7098 7099 0
-7099 7108 0
-264 -7099 7100 0
-7100 7109 0
-265 -7100 7101 0
-7101 7110 0
-266 -7101 0
-258 7102 0
-7102 7111 0
-259 -7102 7103 0
-7103 7112 0
-260 -7103 7104 0
-7104 7113 0
-261 -7104 7105 0
-7105 7114 0
-262 -7105 7106 0
-7106 7115 0
-263 -7106 7107 0
-7107 7116 0
-264 -7107 7108 0
-7108 7117 0
-265 -7108 7109 0
-7109 7118 0
-266 -7109 7110 0
-7110 7119 0
-267 -7110 0
-259 7111 0
-7111 7120 0
-260 -7111 7112 0
-7112 7121 0
-261 -7112 7113 0
-7113 7122 0
-262 -7113 7114 0
-7114 7123 0
-263 -7114 7115 0
-7115 7124 0
-264 -7115 7116 0
-7116 7125 0
-265 -7116 7117 0
-7117 7126 0
-266 -7117 7118 0
-7118 7127 0
-267 -7118 7119 0
-7119 7128 0
-268 -7119 0
-260 7120 0
-7120 7129 0
-261 -7120 7121 0
-7121 7130 0
-262 -7121 7122 0
-7122 7131 0
-263 -7122 7123 0
-7123 7132 0
-264 -7123 7124 0
-7124 7133 0
-265 -7124 7125 0
-7125 7134 0
-266 -7125 7126 0
-7126 7135 0
-267 -7126 7127 0
-7127 7136 0
-268 -7127 7128 0
-7128 7137 0
-269 -7128 0
-261 7129 0
-7129 7138 0
-262 -7129 7130 0
-7130 7139 0
-263 -7130 7131 0
-7131 7140 0
-264 -7131 7132 0
-7132 7141 0
-265 -7132 7133 0
-7133 7142 0
-266 -7133 7134 0
-7134 7143 0
-267 -7134 7135 0
-7135 7144 0
-268 -7135 7136 0
-7136 7145 0
-269 -7136 7137 0
-7137 7146 0
-270 -7137 0
-262 7138 0
-7138 7147 0
-263 -7138 7139 0
-7139 7148 0
-264 -7139 7140 0
-7140 7149 0
-265 -7140 7141 0
-7141 7150 0
-266 -7141 7142 0
-7142 7151 0
-267 -7142 7143 0
-7143 7152 0
-268 -7143 7144 0
-7144 7153 0
-269 -7144 7145 0
-7145 7154 0
-270 -7145 7146 0
-7146 7155 0
-271 -7146 0
-263 7147 0
-7147 7156 0
-264 -7147 7148 0
-7148 7157 0
-265 -7148 7149 0
-7149 7158 0
-266 -7149 7150 0
-7150 7159 0
-267 -7150 7151 0
-7151 7160 0
-268 -7151 7152 0
-7152 7161 0
-269 -7152 7153 0
-7153 7162 0
-270 -7153 7154 0
-7154 7163 0
-271 -7154 7155 0
-7155 7164 0
-272 -7155 0
-264 7156 0
-7156 7165 0
-265 -7156 7157 0
-7157 7166 0
-266 -7157 7158 0
-7158 7167 0
-267 -7158 7159 0
-7159 7168 0
-268 -7159 7160 0
-7160 7169 0
-269 -7160 7161 0
-7161 7170 0
-270 -7161 7162 0
-7162 7171 0
-271 -7162 7163 0
-7163 7172 0
-272 -7163 7164 0
-7164 7173 0
-273 -7164 0
-265 7165 0
-7165 7174 0
-266 -7165 7166 0
-7166 7175 0
-267 -7166 7167 0
-7167 7176 0
-268 -7167 7168 0
-7168 7177 0
-269 -7168 7169 0
-7169 7178 0
-270 -7169 7170 0
-7170 7179 0
-271 -7170 7171 0
-7171 7180 0
-272 -7171 7172 0
-7172 7181 0
-273 -7172 7173 0
-7173 7182 0
-274 -7173 0
-266 7174 0
-7174 7183 0
-267 -7174 7175 0
-7175 7184 0
-268 -7175 7176 0
-7176 7185 0
-269 -7176 7177 0
-7177 7186 0
-270 -7177 7178 0
-7178 7187 0
-271 -7178 7179 0
-7179 7188 0
-272 -7179 7180 0
-7180 7189 0
-273 -7180 7181 0
-7181 7190 0
-274 -7181 7182 0
-7182 7191 0
-275 -7182 0
-267 7183 0
-7183 7192 0
-268 -7183 7184 0
-7184 7193 0
-269 -7184 7185 0
-7185 7194 0
-270 -7185 7186 0
-7186 7195 0
-271 -7186 7187 0
-7187 7196 0
-272 -7187 7188 0
-7188 7197 0
-273 -7188 7189 0
-7189 7198 0
-274 -7189 7190 0
-7190 7199 0
-275 -7190 7191 0
-7191 7200 0
-276 -7191 0
-268 7192 0
-7192 7201 0
-269 -7192 7193 0
-7193 7202 0
-270 -7193 7194 0
-7194 7203 0
-271 -7194 7195 0
-7195 7204 0
-272 -7195 7196 0
-7196 7205 0
-273 -7196 7197 0
-7197 7206 0
-274 -7197 7198 0
-7198 7207 0
-275 -7198 7199 0
-7199 7208 0
-276 -7199 7200 0
-7200 7209 0
-277 -7200 0
-269 7201 0
-7201 7210 0
-270 -7201 7202 0
-7202 7211 0
-271 -7202 7203 0
-7203 7212 0
-272 -7203 7204 0
-7204 7213 0
-273 -7204 7205 0
-7205 7214 0
-274 -7205 7206 0
-7206 7215 0
-275 -7206 7207 0
-7207 7216 0
-276 -7207 7208 0
-7208 7217 0
-277 -7208 7209 0
-7209 7218 0
-278 -7209 0
-270 7210 0
-7210 7219 0
-271 -7210 7211 0
-7211 7220 0
-272 -7211 7212 0
-7212 7221 0
-273 -7212 7213 0
-7213 7222 0
-274 -7213 7214 0
-7214 7223 0
-275 -7214 7215 0
-7215 7224 0
-276 -7215 7216 0
-7216 7225 0
-277 -7216 7217 0
-7217 7226 0
-278 -7217 7218 0
-7218 7227 0
-279 -7218 0
-271 7219 0
-7219 7228 0
-272 -7219 7220 0
-7220 7229 0
-273 -7220 7221 0
-7221 7230 0
-274 -7221 7222 0
-7222 7231 0
-275 -7222 7223 0
-7223 7232 0
-276 -7223 7224 0
-7224 7233 0
-277 -7224 7225 0
-7225 7234 0
-278 -7225 7226 0
-7226 7235 0
-279 -7226 7227 0
-7227 7236 0
-280 -7227 0
-272 7228 0
-7228 7237 0
-273 -7228 7229 0
-7229 7238 0
-274 -7229 7230 0
-7230 7239 0
-275 -7230 7231 0
-7231 7240 0
-276 -7231 7232 0
-7232 7241 0
-277 -7232 7233 0
-7233 7242 0
-278 -7233 7234 0
-7234 7243 0
-279 -7234 7235 0
-7235 7244 0
-280 -7235 7236 0
-7236 7245 0
-281 -7236 0
-273 7237 0
-7237 7246 0
-274 -7237 7238 0
-7238 7247 0
-275 -7238 7239 0
-7239 7248 0
-276 -7239 7240 0
-7240 7249 0
-277 -7240 7241 0
-7241 7250 0
-278 -7241 7242 0
-7242 7251 0
-279 -7242 7243 0
-7243 7252 0
-280 -7243 7244 0
-7244 7253 0
-281 -7244 7245 0
-7245 7254 0
-282 -7245 0
-274 7246 0
-7246 7255 0
-275 -7246 7247 0
-7247 7256 0
-276 -7247 7248 0
-7248 7257 0
-277 -7248 7249 0
-7249 7258 0
-278 -7249 7250 0
-7250 7259 0
-279 -7250 7251 0
-7251 7260 0
-280 -7251 7252 0
-7252 7261 0
-281 -7252 7253 0
-7253 7262 0
-282 -7253 7254 0
-7254 7263 0
-283 -7254 0
-275 7255 0
-7255 7264 0
-276 -7255 7256 0
-7256 7265 0
-277 -7256 7257 0
-7257 7266 0
-278 -7257 7258 0
-7258 7267 0
-279 -7258 7259 0
-7259 7268 0
-280 -7259 7260 0
-7260 7269 0
-281 -7260 7261 0
-7261 7270 0
-282 -7261 7262 0
-7262 7271 0
-283 -7262 7263 0
-7263 7272 0
-284 -7263 0
-276 7264 0
-7264 7273 0
-277 -7264 7265 0
-7265 7274 0
-278 -7265 7266 0
-7266 7275 0
-279 -7266 7267 0
-7267 7276 0
-280 -7267 7268 0
-7268 7277 0
-281 -7268 7269 0
-7269 7278 0
-282 -7269 7270 0
-7270 7279 0
-283 -7270 7271 0
-7271 7280 0
-284 -7271 7272 0
-7272 7281 0
-285 -7272 0
-277 7273 0
-7273 7282 0
-278 -7273 7274 0
-7274 7283 0
-279 -7274 7275 0
-7275 7284 0
-280 -7275 7276 0
-7276 7285 0
-281 -7276 7277 0
-7277 7286 0
-282 -7277 7278 0
-7278 7287 0
-283 -7278 7279 0
-7279 7288 0
-284 -7279 7280 0
-7280 7289 0
-285 -7280 7281 0
-7281 7290 0
-286 -7281 0
-278 7282 0
-7282 7291 0
-279 -7282 7283 0
-7283 7292 0
-280 -7283 7284 0
-7284 7293 0
-281 -7284 7285 0
-7285 7294 0
-282 -7285 7286 0
-7286 7295 0
-283 -7286 7287 0
-7287 7296 0
-284 -7287 7288 0
-7288 7297 0
-285 -7288 7289 0
-7289 7298 0
-286 -7289 7290 0
-7290 7299 0
-287 -7290 0
-279 7291 0
-7291 7300 0
-280 -7291 7292 0
-7292 7301 0
-281 -7292 7293 0
-7293 7302 0
-282 -7293 7294 0
-7294 7303 0
-283 -7294 7295 0
-7295 7304 0
-284 -7295 7296 0
-7296 7305 0
-285 -7296 7297 0
-7297 7306 0
-286 -7297 7298 0
-7298 7307 0
-287 -7298 7299 0
-7299 7308 0
-288 -7299 0
-280 7300 0
-7300 7309 0
-281 -7300 7301 0
-7301 7310 0
-282 -7301 7302 0
-7302 7311 0
-283 -7302 7303 0
-7303 7312 0
-284 -7303 7304 0
-7304 7313 0
-285 -7304 7305 0
-7305 7314 0
-286 -7305 7306 0
-7306 7315 0
-287 -7306 7307 0
-7307 7316 0
-288 -7307 7308 0
-7308 7317 0
-289 -7308 0
-281 7309 0
-7309 7318 0
-282 -7309 7310 0
-7310 7319 0
-283 -7310 7311 0
-7311 7320 0
-284 -7311 7312 0
-7312 7321 0
-285 -7312 7313 0
-7313 7322 0
-286 -7313 7314 0
-7314 7323 0
-287 -7314 7315 0
-7315 7324 0
-288 -7315 7316 0
-7316 7325 0
-289 -7316 7317 0
-7317 7326 0
-290 -7317 0
-282 7318 0
-7318 7327 0
-283 -7318 7319 0
-7319 7328 0
-284 -7319 7320 0
-7320 7329 0
-285 -7320 7321 0
-7321 7330 0
-286 -7321 7322 0
-7322 7331 0
-287 -7322 7323 0
-7323 7332 0
-288 -7323 7324 0
-7324 7333 0
-289 -7324 7325 0
-7325 7334 0
-290 -7325 7326 0
-7326 7335 0
-291 -7326 0
-283 7327 0
-7327 7336 0
-284 -7327 7328 0
-7328 7337 0
-285 -7328 7329 0
-7329 7338 0
-286 -7329 7330 0
-7330 7339 0
-287 -7330 7331 0
-7331 7340 0
-288 -7331 7332 0
-7332 7341 0
-289 -7332 7333 0
-7333 7342 0
-290 -7333 7334 0
-7334 7343 0
-291 -7334 7335 0
-7335 7344 0
-292 -7335 0
-284 7336 0
-7336 7345 0
-285 -7336 7337 0
-7337 7346 0
-286 -7337 7338 0
-7338 7347 0
-287 -7338 7339 0
-7339 7348 0
-288 -7339 7340 0
-7340 7349 0
-289 -7340 7341 0
-7341 7350 0
-290 -7341 7342 0
-7342 7351 0
-291 -7342 7343 0
-7343 7352 0
-292 -7343 7344 0
-7344 7353 0
-293 -7344 0
-285 7345 0
-7345 7354 0
-286 -7345 7346 0
-7346 7355 0
-287 -7346 7347 0
-7347 7356 0
-288 -7347 7348 0
-7348 7357 0
-289 -7348 7349 0
-7349 7358 0
-290 -7349 7350 0
-7350 7359 0
-291 -7350 7351 0
-7351 7360 0
-292 -7351 7352 0
-7352 7361 0
-293 -7352 7353 0
-7353 7362 0
-294 -7353 0
-286 7354 0
-7354 7363 0
-287 -7354 7355 0
-7355 7364 0
-288 -7355 7356 0
-7356 7365 0
-289 -7356 7357 0
-7357 7366 0
-290 -7357 7358 0
-7358 7367 0
-291 -7358 7359 0
-7359 7368 0
-292 -7359 7360 0
-7360 7369 0
-293 -7360 7361 0
-7361 7370 0
-294 -7361 7362 0
-7362 7371 0
-295 -7362 0
-287 7363 0
-7363 7372 0
-288 -7363 7364 0
-7364 7373 0
-289 -7364 7365 0
-7365 7374 0
-290 -7365 7366 0
-7366 7375 0
-291 -7366 7367 0
-7367 7376 0
-292 -7367 7368 0
-7368 7377 0
-293 -7368 7369 0
-7369 7378 0
-294 -7369 7370 0
-7370 7379 0
-295 -7370 7371 0
-7371 7380 0
-296 -7371 0
-288 7372 0
-7372 7381 0
-289 -7372 7373 0
-7373 7382 0
-290 -7373 7374 0
-7374 7383 0
-291 -7374 7375 0
-7375 7384 0
-292 -7375 7376 0
-7376 7385 0
-293 -7376 7377 0
-7377 7386 0
-294 -7377 7378 0
-7378 7387 0
-295 -7378 7379 0
-7379 7388 0
-296 -7379 7380 0
-7380 7389 0
-297 -7380 0
-289 7381 0
-7381 7390 0
-290 -7381 7382 0
-7382 7391 0
-291 -7382 7383 0
-7383 7392 0
-292 -7383 7384 0
-7384 7393 0
-293 -7384 7385 0
-7385 7394 0
-294 -7385 7386 0
-7386 7395 0
-295 -7386 7387 0
-7387 7396 0
-296 -7387 7388 0
-7388 7397 0
-297 -7388 7389 0
-7389 7398 0
-298 -7389 0
-290 7390 0
-7390 7399 0
-291 -7390 7391 0
-7391 7400 0
-292 -7391 7392 0
-7392 7401 0
-293 -7392 7393 0
-7393 7402 0
-294 -7393 7394 0
-7394 7403 0
-295 -7394 7395 0
-7395 7404 0
-296 -7395 7396 0
-7396 7405 0
-297 -7396 7397 0
-7397 7406 0
-298 -7397 7398 0
-7398 7407 0
-299 -7398 0
-291 7399 0
-7399 7408 0
-292 -7399 7400 0
-7400 7409 0
-293 -7400 7401 0
-7401 7410 0
-294 -7401 7402 0
-7402 7411 0
-295 -7402 7403 0
-7403 7412 0
-296 -7403 7404 0
-7404 7413 0
-297 -7404 7405 0
-7405 7414 0
-298 -7405 7406 0
-7406 7415 0
-299 -7406 7407 0
-7407 7416 0
-300 -7407 0
-292 7408 0
-7408 7417 0
-293 -7408 7409 0
-7409 7418 0
-294 -7409 7410 0
-7410 7419 0
-295 -7410 7411 0
-7411 7420 0
-296 -7411 7412 0
-7412 7421 0
-297 -7412 7413 0
-7413 7422 0
-298 -7413 7414 0
-7414 7423 0
-299 -7414 7415 0
-7415 7424 0
-300 -7415 7416 0
-7416 7425 0
-301 -7416 0
-293 7417 0
-7417 7426 0
-294 -7417 7418 0
-7418 7427 0
-295 -7418 7419 0
-7419 7428 0
-296 -7419 7420 0
-7420 7429 0
-297 -7420 7421 0
-7421 7430 0
-298 -7421 7422 0
-7422 7431 0
-299 -7422 7423 0
-7423 7432 0
-300 -7423 7424 0
-7424 7433 0
-301 -7424 7425 0
-7425 7434 0
-302 -7425 0
-294 7426 0
-7426 7435 0
-295 -7426 7427 0
-7427 7436 0
-296 -7427 7428 0
-7428 7437 0
-297 -7428 7429 0
-7429 7438 0
-298 -7429 7430 0
-7430 7439 0
-299 -7430 7431 0
-7431 7440 0
-300 -7431 7432 0
-7432 7441 0
-301 -7432 7433 0
-7433 7442 0
-302 -7433 7434 0
-7434 7443 0
-303 -7434 0
-295 7435 0
-7435 7444 0
-296 -7435 7436 0
-7436 7445 0
-297 -7436 7437 0
-7437 7446 0
-298 -7437 7438 0
-7438 7447 0
-299 -7438 7439 0
-7439 7448 0
-300 -7439 7440 0
-7440 7449 0
-301 -7440 7441 0
-7441 7450 0
-302 -7441 7442 0
-7442 7451 0
-303 -7442 7443 0
-7443 7452 0
-304 -7443 0
-296 7444 0
-7444 7453 0
-297 -7444 7445 0
-7445 7454 0
-298 -7445 7446 0
-7446 7455 0
-299 -7446 7447 0
-7447 7456 0
-300 -7447 7448 0
-7448 7457 0
-301 -7448 7449 0
-7449 7458 0
-302 -7449 7450 0
-7450 7459 0
-303 -7450 7451 0
-7451 7460 0
-304 -7451 7452 0
-7452 7461 0
-305 -7452 0
-297 7453 0
-7453 7462 0
-298 -7453 7454 0
-7454 7463 0
-299 -7454 7455 0
-7455 7464 0
-300 -7455 7456 0
-7456 7465 0
-301 -7456 7457 0
-7457 7466 0
-302 -7457 7458 0
-7458 7467 0
-303 -7458 7459 0
-7459 7468 0
-304 -7459 7460 0
-7460 7469 0
-305 -7460 7461 0
-7461 7470 0
-306 -7461 0
-298 7462 0
-7462 7471 0
-299 -7462 7463 0
-7463 7472 0
-300 -7463 7464 0
-7464 7473 0
-301 -7464 7465 0
-7465 7474 0
-302 -7465 7466 0
-7466 7475 0
-303 -7466 7467 0
-7467 7476 0
-304 -7467 7468 0
-7468 7477 0
-305 -7468 7469 0
-7469 7478 0
-306 -7469 7470 0
-7470 7479 0
-307 -7470 0
-299 7471 0
-7471 7480 0
-300 -7471 7472 0
-7472 7481 0
-301 -7472 7473 0
-7473 7482 0
-302 -7473 7474 0
-7474 7483 0
-303 -7474 7475 0
-7475 7484 0
-304 -7475 7476 0
-7476 7485 0
-305 -7476 7477 0
-7477 7486 0
-306 -7477 7478 0
-7478 7487 0
-307 -7478 7479 0
-7479 7488 0
-308 -7479 0
-300 7480 0
-7480 7489 0
-301 -7480 7481 0
-7481 7490 0
-302 -7481 7482 0
-7482 7491 0
-303 -7482 7483 0
-7483 7492 0
-304 -7483 7484 0
-7484 7493 0
-305 -7484 7485 0
-7485 7494 0
-306 -7485 7486 0
-7486 7495 0
-307 -7486 7487 0
-7487 7496 0
-308 -7487 7488 0
-7488 7497 0
-309 -7488 0
-301 7489 0
-7489 7498 0
-302 -7489 7490 0
-7490 7499 0
-303 -7490 7491 0
-7491 7500 0
-304 -7491 7492 0
-7492 7501 0
-305 -7492 7493 0
-7493 7502 0
-306 -7493 7494 0
-7494 7503 0
-307 -7494 7495 0
-7495 7504 0
-308 -7495 7496 0
-7496 7505 0
-309 -7496 7497 0
-7497 7506 0
-310 -7497 0
-302 7498 0
-7498 7507 0
-303 -7498 7499 0
-7499 7508 0
-304 -7499 7500 0
-7500 7509 0
-305 -7500 7501 0
-7501 7510 0
-306 -7501 7502 0
-7502 7511 0
-307 -7502 7503 0
-7503 7512 0
-308 -7503 7504 0
-7504 7513 0
-309 -7504 7505 0
-7505 7514 0
-310 -7505 7506 0
-7506 7515 0
-311 -7506 0
-303 7507 0
-7507 7516 0
-304 -7507 7508 0
-7508 7517 0
-305 -7508 7509 0
-7509 7518 0
-306 -7509 7510 0
-7510 7519 0
-307 -7510 7511 0
-7511 7520 0
-308 -7511 7512 0
-7512 7521 0
-309 -7512 7513 0
-7513 7522 0
-310 -7513 7514 0
-7514 7523 0
-311 -7514 7515 0
-7515 7524 0
-312 -7515 0
-304 7516 0
-7516 7525 0
-305 -7516 7517 0
-7517 7526 0
-306 -7517 7518 0
-7518 7527 0
-307 -7518 7519 0
-7519 7528 0
-308 -7519 7520 0
-7520 7529 0
-309 -7520 7521 0
-7521 7530 0
-310 -7521 7522 0
-7522 7531 0
-311 -7522 7523 0
-7523 7532 0
-312 -7523 7524 0
-7524 7533 0
-313 -7524 0
-305 7525 0
-7525 7534 0
-306 -7525 7526 0
-7526 7535 0
-307 -7526 7527 0
-7527 7536 0
-308 -7527 7528 0
-7528 7537 0
-309 -7528 7529 0
-7529 7538 0
-310 -7529 7530 0
-7530 7539 0
-311 -7530 7531 0
-7531 7540 0
-312 -7531 7532 0
-7532 7541 0
-313 -7532 7533 0
-7533 7542 0
-314 -7533 0
-306 7534 0
-7534 7543 0
-307 -7534 7535 0
-7535 7544 0
-308 -7535 7536 0
-7536 7545 0
-309 -7536 7537 0
-7537 7546 0
-310 -7537 7538 0
-7538 7547 0
-311 -7538 7539 0
-7539 7548 0
-312 -7539 7540 0
-7540 7549 0
-313 -7540 7541 0
-7541 7550 0
-314 -7541 7542 0
-7542 7551 0
-315 -7542 0
-307 7543 0
-7543 7552 0
-308 -7543 7544 0
-7544 7553 0
-309 -7544 7545 0
-7545 7554 0
-310 -7545 7546 0
-7546 7555 0
-311 -7546 7547 0
-7547 7556 0
-312 -7547 7548 0
-7548 7557 0
-313 -7548 7549 0
-7549 7558 0
-314 -7549 7550 0
-7550 7559 0
-315 -7550 7551 0
-7551 7560 0
-316 -7551 0
-308 7552 0
-7552 7561 0
-309 -7552 7553 0
-7553 7562 0
-310 -7553 7554 0
-7554 7563 0
-311 -7554 7555 0
-7555 7564 0
-312 -7555 7556 0
-7556 7565 0
-313 -7556 7557 0
-7557 7566 0
-314 -7557 7558 0
-7558 7567 0
-315 -7558 7559 0
-7559 7568 0
-316 -7559 7560 0
-7560 7569 0
-317 -7560 0
-309 7561 0
-7561 7570 0
-310 -7561 7562 0
-7562 7571 0
-311 -7562 7563 0
-7563 7572 0
-312 -7563 7564 0
-7564 7573 0
-313 -7564 7565 0
-7565 7574 0
-314 -7565 7566 0
-7566 7575 0
-315 -7566 7567 0
-7567 7576 0
-316 -7567 7568 0
-7568 7577 0
-317 -7568 7569 0
-7569 7578 0
-318 -7569 0
-310 7570 0
-7570 7579 0
-311 -7570 7571 0
-7571 7580 0
-312 -7571 7572 0
-7572 7581 0
-313 -7572 7573 0
-7573 7582 0
-314 -7573 7574 0
-7574 7583 0
-315 -7574 7575 0
-7575 7584 0
-316 -7575 7576 0
-7576 7585 0
-317 -7576 7577 0
-7577 7586 0
-318 -7577 7578 0
-7578 7587 0
-319 -7578 0
-311 7579 0
-7579 7588 0
-312 -7579 7580 0
-7580 7589 0
-313 -7580 7581 0
-7581 7590 0
-314 -7581 7582 0
-7582 7591 0
-315 -7582 7583 0
-7583 7592 0
-316 -7583 7584 0
-7584 7593 0
-317 -7584 7585 0
-7585 7594 0
-318 -7585 7586 0
-7586 7595 0
-319 -7586 7587 0
-7587 7596 0
-320 -7587 0
-312 7588 0
-7588 7597 0
-313 -7588 7589 0
-7589 7598 0
-314 -7589 7590 0
-7590 7599 0
-315 -7590 7591 0
-7591 7600 0
-316 -7591 7592 0
-7592 7601 0
-317 -7592 7593 0
-7593 7602 0
-318 -7593 7594 0
-7594 7603 0
-319 -7594 7595 0
-7595 7604 0
-320 -7595 7596 0
-7596 7605 0
-321 -7596 0
-313 7597 0
-7597 7606 0
-314 -7597 7598 0
-7598 7607 0
-315 -7598 7599 0
-7599 7608 0
-316 -7599 7600 0
-7600 7609 0
-317 -7600 7601 0
-7601 7610 0
-318 -7601 7602 0
-7602 7611 0
-319 -7602 7603 0
-7603 7612 0
-320 -7603 7604 0
-7604 7613 0
-321 -7604 7605 0
-7605 7614 0
-322 -7605 0
-314 7606 0
-7606 7615 0
-315 -7606 7607 0
-7607 7616 0
-316 -7607 7608 0
-7608 7617 0
-317 -7608 7609 0
-7609 7618 0
-318 -7609 7610 0
-7610 7619 0
-319 -7610 7611 0
-7611 7620 0
-320 -7611 7612 0
-7612 7621 0
-321 -7612 7613 0
-7613 7622 0
-322 -7613 7614 0
-7614 7623 0
-323 -7614 0
-315 7615 0
-7615 7624 0
-316 -7615 7616 0
-7616 7625 0
-317 -7616 7617 0
-7617 7626 0
-318 -7617 7618 0
-7618 7627 0
-319 -7618 7619 0
-7619 7628 0
-320 -7619 7620 0
-7620 7629 0
-321 -7620 7621 0
-7621 7630 0
-322 -7621 7622 0
-7622 7631 0
-323 -7622 7623 0
-7623 7632 0
-324 -7623 0
-316 7624 0
-7624 7633 0
-317 -7624 7625 0
-7625 7634 0
-318 -7625 7626 0
-7626 7635 0
-319 -7626 7627 0
-7627 7636 0
-320 -7627 7628 0
-7628 7637 0
-321 -7628 7629 0
-7629 7638 0
-322 -7629 7630 0
-7630 7639 0
-323 -7630 7631 0
-7631 7640 0
-324 -7631 7632 0
-7632 7641 0
-325 -7632 0
-317 7633 0
-7633 7642 0
-318 -7633 7634 0
-7634 7643 0
-319 -7634 7635 0
-7635 7644 0
-320 -7635 7636 0
-7636 7645 0
-321 -7636 7637 0
-7637 7646 0
-322 -7637 7638 0
-7638 7647 0
-323 -7638 7639 0
-7639 7648 0
-324 -7639 7640 0
-7640 7649 0
-325 -7640 7641 0
-7641 7650 0
-326 -7641 0
-318 7642 0
-7642 7651 0
-319 -7642 7643 0
-7643 7652 0
-320 -7643 7644 0
-7644 7653 0
-321 -7644 7645 0
-7645 7654 0
-322 -7645 7646 0
-7646 7655 0
-323 -7646 7647 0
-7647 7656 0
-324 -7647 7648 0
-7648 7657 0
-325 -7648 7649 0
-7649 7658 0
-326 -7649 7650 0
-7650 7659 0
-327 -7650 0
-319 7651 0
-7651 7660 0
-320 -7651 7652 0
-7652 7661 0
-321 -7652 7653 0
-7653 7662 0
-322 -7653 7654 0
-7654 7663 0
-323 -7654 7655 0
-7655 7664 0
-324 -7655 7656 0
-7656 7665 0
-325 -7656 7657 0
-7657 7666 0
-326 -7657 7658 0
-7658 7667 0
-327 -7658 7659 0
-7659 7668 0
-328 -7659 0
-320 7660 0
-7660 7669 0
-321 -7660 7661 0
-7661 7670 0
-322 -7661 7662 0
-7662 7671 0
-323 -7662 7663 0
-7663 7672 0
-324 -7663 7664 0
-7664 7673 0
-325 -7664 7665 0
-7665 7674 0
-326 -7665 7666 0
-7666 7675 0
-327 -7666 7667 0
-7667 7676 0
-328 -7667 7668 0
-7668 7677 0
-329 -7668 0
-321 7669 0
-7669 7678 0
-322 -7669 7670 0
-7670 7679 0
-323 -7670 7671 0
-7671 7680 0
-324 -7671 7672 0
-7672 7681 0
-325 -7672 7673 0
-7673 7682 0
-326 -7673 7674 0
-7674 7683 0
-327 -7674 7675 0
-7675 7684 0
-328 -7675 7676 0
-7676 7685 0
-329 -7676 7677 0
-7677 7686 0
-330 -7677 0
-322 7678 0
-7678 7687 0
-323 -7678 7679 0
-7679 7688 0
-324 -7679 7680 0
-7680 7689 0
-325 -7680 7681 0
-7681 7690 0
-326 -7681 7682 0
-7682 7691 0
-327 -7682 7683 0
-7683 7692 0
-328 -7683 7684 0
-7684 7693 0
-329 -7684 7685 0
-7685 7694 0
-330 -7685 7686 0
-7686 7695 0
-331 -7686 0
-323 7687 0
-7687 7696 0
-324 -7687 7688 0
-7688 7697 0
-325 -7688 7689 0
-7689 7698 0
-326 -7689 7690 0
-7690 7699 0
-327 -7690 7691 0
-7691 7700 0
-328 -7691 7692 0
-7692 7701 0
-329 -7692 7693 0
-7693 7702 0
-330 -7693 7694 0
-7694 7703 0
-331 -7694 7695 0
-7695 7704 0
-332 -7695 0
-324 7696 0
-7696 7705 0
-325 -7696 7697 0
-7697 7706 0
-326 -7697 7698 0
-7698 7707 0
-327 -7698 7699 0
-7699 7708 0
-328 -7699 7700 0
-7700 7709 0
-329 -7700 7701 0
-7701 7710 0
-330 -7701 7702 0
-7702 7711 0
-331 -7702 7703 0
-7703 7712 0
-332 -7703 7704 0
-7704 7713 0
-333 -7704 0
-325 7705 0
-7705 7714 0
-326 -7705 7706 0
-7706 7715 0
-327 -7706 7707 0
-7707 7716 0
-328 -7707 7708 0
-7708 7717 0
-329 -7708 7709 0
-7709 7718 0
-330 -7709 7710 0
-7710 7719 0
-331 -7710 7711 0
-7711 7720 0
-332 -7711 7712 0
-7712 7721 0
-333 -7712 7713 0
-7713 7722 0
-334 -7713 0
-326 7714 0
-7714 7723 0
-327 -7714 7715 0
-7715 7724 0
-328 -7715 7716 0
-7716 7725 0
-329 -7716 7717 0
-7717 7726 0
-330 -7717 7718 0
-7718 7727 0
-331 -7718 7719 0
-7719 7728 0
-332 -7719 7720 0
-7720 7729 0
-333 -7720 7721 0
-7721 7730 0
-334 -7721 7722 0
-7722 7731 0
-335 -7722 0
-327 7723 0
-7723 7732 0
-328 -7723 7724 0
-7724 7733 0
-329 -7724 7725 0
-7725 7734 0
-330 -7725 7726 0
-7726 7735 0
-331 -7726 7727 0
-7727 7736 0
-332 -7727 7728 0
-7728 7737 0
-333 -7728 7729 0
-7729 7738 0
-334 -7729 7730 0
-7730 7739 0
-335 -7730 7731 0
-7731 7740 0
-336 -7731 0
-328 7732 0
-7732 7741 0
-329 -7732 7733 0
-7733 7742 0
-330 -7733 7734 0
-7734 7743 0
-331 -7734 7735 0
-7735 7744 0
-332 -7735 7736 0
-7736 7745 0
-333 -7736 7737 0
-7737 7746 0
-334 -7737 7738 0
-7738 7747 0
-335 -7738 7739 0
-7739 7748 0
-336 -7739 7740 0
-7740 7749 0
-337 -7740 0
-329 7741 0
-7741 7750 0
-330 -7741 7742 0
-7742 7751 0
-331 -7742 7743 0
-7743 7752 0
-332 -7743 7744 0
-7744 7753 0
-333 -7744 7745 0
-7745 7754 0
-334 -7745 7746 0
-7746 7755 0
-335 -7746 7747 0
-7747 7756 0
-336 -7747 7748 0
-7748 7757 0
-337 -7748 7749 0
-7749 7758 0
-338 -7749 0
-330 7750 0
-7750 7759 0
-331 -7750 7751 0
-7751 7760 0
-332 -7751 7752 0
-7752 7761 0
-333 -7752 7753 0
-7753 7762 0
-334 -7753 7754 0
-7754 7763 0
-335 -7754 7755 0
-7755 7764 0
-336 -7755 7756 0
-7756 7765 0
-337 -7756 7757 0
-7757 7766 0
-338 -7757 7758 0
-7758 7767 0
-339 -7758 0
-331 7759 0
-7759 7768 0
-332 -7759 7760 0
-7760 7769 0
-333 -7760 7761 0
-7761 7770 0
-334 -7761 7762 0
-7762 7771 0
-335 -7762 7763 0
-7763 7772 0
-336 -7763 7764 0
-7764 7773 0
-337 -7764 7765 0
-7765 7774 0
-338 -7765 7766 0
-7766 7775 0
-339 -7766 7767 0
-7767 7776 0
-340 -7767 0
-332 7768 0
-7768 7777 0
-333 -7768 7769 0
-7769 7778 0
-334 -7769 7770 0
-7770 7779 0
-335 -7770 7771 0
-7771 7780 0
-336 -7771 7772 0
-7772 7781 0
-337 -7772 7773 0
-7773 7782 0
-338 -7773 7774 0
-7774 7783 0
-339 -7774 7775 0
-7775 7784 0
-340 -7775 7776 0
-7776 7785 0
-341 -7776 0
-333 7777 0
-7777 7786 0
-334 -7777 7778 0
-7778 7787 0
-335 -7778 7779 0
-7779 7788 0
-336 -7779 7780 0
-7780 7789 0
-337 -7780 7781 0
-7781 7790 0
-338 -7781 7782 0
-7782 7791 0
-339 -7782 7783 0
-7783 7792 0
-340 -7783 7784 0
-7784 7793 0
-341 -7784 7785 0
-7785 7794 0
-342 -7785 0
-334 7786 0
-7786 7795 0
-335 -7786 7787 0
-7787 7796 0
-336 -7787 7788 0
-7788 7797 0
-337 -7788 7789 0
-7789 7798 0
-338 -7789 7790 0
-7790 7799 0
-339 -7790 7791 0
-7791 7800 0
-340 -7791 7792 0
-7792 7801 0
-341 -7792 7793 0
-7793 7802 0
-342 -7793 7794 0
-7794 7803 0
-343 -7794 0
-335 7795 0
-7795 7804 0
-336 -7795 7796 0
-7796 7805 0
-337 -7796 7797 0
-7797 7806 0
-338 -7797 7798 0
-7798 7807 0
-339 -7798 7799 0
-7799 7808 0
-340 -7799 7800 0
-7800 7809 0
-341 -7800 7801 0
-7801 7810 0
-342 -7801 7802 0
-7802 7811 0
-343 -7802 7803 0
-7803 7812 0
-344 -7803 0
-336 7804 0
-7804 7813 0
-337 -7804 7805 0
-7805 7814 0
-338 -7805 7806 0
-7806 7815 0
-339 -7806 7807 0
-7807 7816 0
-340 -7807 7808 0
-7808 7817 0
-341 -7808 7809 0
-7809 7818 0
-342 -7809 7810 0
-7810 7819 0
-343 -7810 7811 0
-7811 7820 0
-344 -7811 7812 0
-7812 7821 0
-345 -7812 0
-337 7813 0
-7813 7822 0
-338 -7813 7814 0
-7814 7823 0
-339 -7814 7815 0
-7815 7824 0
-340 -7815 7816 0
-7816 7825 0
-341 -7816 7817 0
-7817 7826 0
-342 -7817 7818 0
-7818 7827 0
-343 -7818 7819 0
-7819 7828 0
-344 -7819 7820 0
-7820 7829 0
-345 -7820 7821 0
-7821 7830 0
-346 -7821 0
-338 7822 0
-7822 7831 0
-339 -7822 7823 0
-7823 7832 0
-340 -7823 7824 0
-7824 7833 0
-341 -7824 7825 0
-7825 7834 0
-342 -7825 7826 0
-7826 7835 0
-343 -7826 7827 0
-7827 7836 0
-344 -7827 7828 0
-7828 7837 0
-345 -7828 7829 0
-7829 7838 0
-346 -7829 7830 0
-7830 7839 0
-347 -7830 0
-339 7831 0
-7831 7840 0
-340 -7831 7832 0
-7832 7841 0
-341 -7832 7833 0
-7833 7842 0
-342 -7833 7834 0
-7834 7843 0
-343 -7834 7835 0
-7835 7844 0
-344 -7835 7836 0
-7836 7845 0
-345 -7836 7837 0
-7837 7846 0
-346 -7837 7838 0
-7838 7847 0
-347 -7838 7839 0
-7839 7848 0
-348 -7839 0
-340 7840 0
-7840 7849 0
-341 -7840 7841 0
-7841 7850 0
-342 -7841 7842 0
-7842 7851 0
-343 -7842 7843 0
-7843 7852 0
-344 -7843 7844 0
-7844 7853 0
-345 -7844 7845 0
-7845 7854 0
-346 -7845 7846 0
-7846 7855 0
-347 -7846 7847 0
-7847 7856 0
-348 -7847 7848 0
-7848 7857 0
-349 -7848 0
-341 7849 0
-7849 7858 0
-342 -7849 7850 0
-7850 7859 0
-343 -7850 7851 0
-7851 7860 0
-344 -7851 7852 0
-7852 7861 0
-345 -7852 7853 0
-7853 7862 0
-346 -7853 7854 0
-7854 7863 0
-347 -7854 7855 0
-7855 7864 0
-348 -7855 7856 0
-7856 7865 0
-349 -7856 7857 0
-7857 7866 0
-350 -7857 0
-342 7858 0
-7858 7867 0
-343 -7858 7859 0
-7859 7868 0
-344 -7859 7860 0
-7860 7869 0
-345 -7860 7861 0
-7861 7870 0
-346 -7861 7862 0
-7862 7871 0
-347 -7862 7863 0
-7863 7872 0
-348 -7863 7864 0
-7864 7873 0
-349 -7864 7865 0
-7865 7874 0
-350 -7865 7866 0
-7866 7875 0
-351 -7866 0
-343 7867 0
-7867 7876 0
-344 -7867 7868 0
-7868 7877 0
-345 -7868 7869 0
-7869 7878 0
-346 -7869 7870 0
-7870 7879 0
-347 -7870 7871 0
-7871 7880 0
-348 -7871 7872 0
-7872 7881 0
-349 -7872 7873 0
-7873 7882 0
-350 -7873 7874 0
-7874 7883 0
-351 -7874 7875 0
-7875 7884 0
-352 -7875 0
-344 7876 0
-7876 7885 0
-345 -7876 7877 0
-7877 7886 0
-346 -7877 7878 0
-7878 7887 0
-347 -7878 7879 0
-7879 7888 0
-348 -7879 7880 0
-7880 7889 0
-349 -7880 7881 0
-7881 7890 0
-350 -7881 7882 0
-7882 7891 0
-351 -7882 7883 0
-7883 7892 0
-352 -7883 7884 0
-7884 7893 0
-353 -7884 0
-345 7885 0
-7885 7894 0
-346 -7885 7886 0
-7886 7895 0
-347 -7886 7887 0
-7887 7896 0
-348 -7887 7888 0
-7888 7897 0
-349 -7888 7889 0
-7889 7898 0
-350 -7889 7890 0
-7890 7899 0
-351 -7890 7891 0
-7891 7900 0
-352 -7891 7892 0
-7892 7901 0
-353 -7892 7893 0
-7893 7902 0
-354 -7893 0
-346 7894 0
-7894 7903 0
-347 -7894 7895 0
-7895 7904 0
-348 -7895 7896 0
-7896 7905 0
-349 -7896 7897 0
-7897 7906 0
-350 -7897 7898 0
-7898 7907 0
-351 -7898 7899 0
-7899 7908 0
-352 -7899 7900 0
-7900 7909 0
-353 -7900 7901 0
-7901 7910 0
-354 -7901 7902 0
-7902 7911 0
-355 -7902 0
-347 7903 0
-7903 7912 0
-348 -7903 7904 0
-7904 7913 0
-349 -7904 7905 0
-7905 7914 0
-350 -7905 7906 0
-7906 7915 0
-351 -7906 7907 0
-7907 7916 0
-352 -7907 7908 0
-7908 7917 0
-353 -7908 7909 0
-7909 7918 0
-354 -7909 7910 0
-7910 7919 0
-355 -7910 7911 0
-7911 7920 0
-356 -7911 0
-348 7912 0
-7912 7921 0
-349 -7912 7913 0
-7913 7922 0
-350 -7913 7914 0
-7914 7923 0
-351 -7914 7915 0
-7915 7924 0
-352 -7915 7916 0
-7916 7925 0
-353 -7916 7917 0
-7917 7926 0
-354 -7917 7918 0
-7918 7927 0
-355 -7918 7919 0
-7919 7928 0
-356 -7919 7920 0
-7920 7929 0
-357 -7920 0
-349 7921 0
-7921 7930 0
-350 -7921 7922 0
-7922 7931 0
-351 -7922 7923 0
-7923 7932 0
-352 -7923 7924 0
-7924 7933 0
-353 -7924 7925 0
-7925 7934 0
-354 -7925 7926 0
-7926 7935 0
-355 -7926 7927 0
-7927 7936 0
-356 -7927 7928 0
-7928 7937 0
-357 -7928 7929 0
-7929 7938 0
-358 -7929 0
-350 7930 0
-7930 7939 0
-351 -7930 7931 0
-7931 7940 0
-352 -7931 7932 0
-7932 7941 0
-353 -7932 7933 0
-7933 7942 0
-354 -7933 7934 0
-7934 7943 0
-355 -7934 7935 0
-7935 7944 0
-356 -7935 7936 0
-7936 7945 0
-357 -7936 7937 0
-7937 7946 0
-358 -7937 7938 0
-7938 7947 0
-359 -7938 0
-351 7939 0
-7939 7948 0
-352 -7939 7940 0
-7940 7949 0
-353 -7940 7941 0
-7941 7950 0
-354 -7941 7942 0
-7942 7951 0
-355 -7942 7943 0
-7943 7952 0
-356 -7943 7944 0
-7944 7953 0
-357 -7944 7945 0
-7945 7954 0
-358 -7945 7946 0
-7946 7955 0
-359 -7946 7947 0
-7947 7956 0
-360 -7947 0
-352 7948 0
-7948 7957 0
-353 -7948 7949 0
-7949 7958 0
-354 -7949 7950 0
-7950 7959 0
-355 -7950 7951 0
-7951 7960 0
-356 -7951 7952 0
-7952 7961 0
-357 -7952 7953 0
-7953 7962 0
-358 -7953 7954 0
-7954 7963 0
-359 -7954 7955 0
-7955 7964 0
-360 -7955 7956 0
-7956 7965 0
-361 -7956 0
-353 7957 0
-7957 7966 0
-354 -7957 7958 0
-7958 7967 0
-355 -7958 7959 0
-7959 7968 0
-356 -7959 7960 0
-7960 7969 0
-357 -7960 7961 0
-7961 7970 0
-358 -7961 7962 0
-7962 7971 0
-359 -7962 7963 0
-7963 7972 0
-360 -7963 7964 0
-7964 7973 0
-361 -7964 7965 0
-7965 7974 0
-362 -7965 0
-354 7966 0
-7966 7975 0
-355 -7966 7967 0
-7967 7976 0
-356 -7967 7968 0
-7968 7977 0
-357 -7968 7969 0
-7969 7978 0
-358 -7969 7970 0
-7970 7979 0
-359 -7970 7971 0
-7971 7980 0
-360 -7971 7972 0
-7972 7981 0
-361 -7972 7973 0
-7973 7982 0
-362 -7973 7974 0
-7974 7983 0
-363 -7974 0
-355 7975 0
-7975 7984 0
-356 -7975 7976 0
-7976 7985 0
-357 -7976 7977 0
-7977 7986 0
-358 -7977 7978 0
-7978 7987 0
-359 -7978 7979 0
-7979 7988 0
-360 -7979 7980 0
-7980 7989 0
-361 -7980 7981 0
-7981 7990 0
-362 -7981 7982 0
-7982 7991 0
-363 -7982 7983 0
-7983 7992 0
-364 -7983 0
-356 7984 0
-7984 7993 0
-357 -7984 7985 0
-7985 7994 0
-358 -7985 7986 0
-7986 7995 0
-359 -7986 7987 0
-7987 7996 0
-360 -7987 7988 0
-7988 7997 0
-361 -7988 7989 0
-7989 7998 0
-362 -7989 7990 0
-7990 7999 0
-363 -7990 7991 0
-7991 8000 0
-364 -7991 7992 0
-7992 8001 0
-365 -7992 0
-357 7993 0
-7993 8002 0
-358 -7993 7994 0
-7994 8003 0
-359 -7994 7995 0
-7995 8004 0
-360 -7995 7996 0
-7996 8005 0
-361 -7996 7997 0
-7997 8006 0
-362 -7997 7998 0
-7998 8007 0
-363 -7998 7999 0
-7999 8008 0
-364 -7999 8000 0
-8000 8009 0
-365 -8000 8001 0
-8001 8010 0
-366 -8001 0
-358 8002 0
-8002 8011 0
-359 -8002 8003 0
-8003 8012 0
-360 -8003 8004 0
-8004 8013 0
-361 -8004 8005 0
-8005 8014 0
-362 -8005 8006 0
-8006 8015 0
-363 -8006 8007 0
-8007 8016 0
-364 -8007 8008 0
-8008 8017 0
-365 -8008 8009 0
-8009 8018 0
-366 -8009 8010 0
-8010 8019 0
-367 -8010 0
-359 8011 0
-8011 8020 0
-360 -8011 8012 0
-8012 8021 0
-361 -8012 8013 0
-8013 8022 0
-362 -8013 8014 0
-8014 8023 0
-363 -8014 8015 0
-8015 8024 0
-364 -8015 8016 0
-8016 8025 0
-365 -8016 8017 0
-8017 8026 0
-366 -8017 8018 0
-8018 8027 0
-367 -8018 8019 0
-8019 8028 0
-368 -8019 0
-360 8020 0
-8020 8029 0
-361 -8020 8021 0
-8021 8030 0
-362 -8021 8022 0
-8022 8031 0
-363 -8022 8023 0
-8023 8032 0
-364 -8023 8024 0
-8024 8033 0
-365 -8024 8025 0
-8025 8034 0
-366 -8025 8026 0
-8026 8035 0
-367 -8026 8027 0
-8027 8036 0
-368 -8027 8028 0
-8028 8037 0
-369 -8028 0
-361 8029 0
-8029 8038 0
-362 -8029 8030 0
-8030 8039 0
-363 -8030 8031 0
-8031 8040 0
-364 -8031 8032 0
-8032 8041 0
-365 -8032 8033 0
-8033 8042 0
-366 -8033 8034 0
-8034 8043 0
-367 -8034 8035 0
-8035 8044 0
-368 -8035 8036 0
-8036 8045 0
-369 -8036 8037 0
-8037 8046 0
-370 -8037 0
-362 8038 0
-8038 8047 0
-363 -8038 8039 0
-8039 8048 0
-364 -8039 8040 0
-8040 8049 0
-365 -8040 8041 0
-8041 8050 0
-366 -8041 8042 0
-8042 8051 0
-367 -8042 8043 0
-8043 8052 0
-368 -8043 8044 0
-8044 8053 0
-369 -8044 8045 0
-8045 8054 0
-370 -8045 8046 0
-8046 8055 0
-371 -8046 0
-363 8047 0
-8047 8056 0
-364 -8047 8048 0
-8048 8057 0
-365 -8048 8049 0
-8049 8058 0
-366 -8049 8050 0
-8050 8059 0
-367 -8050 8051 0
-8051 8060 0
-368 -8051 8052 0
-8052 8061 0
-369 -8052 8053 0
-8053 8062 0
-370 -8053 8054 0
-8054 8063 0
-371 -8054 8055 0
-8055 8064 0
-372 -8055 0
-364 8056 0
-8056 8065 0
-365 -8056 8057 0
-8057 8066 0
-366 -8057 8058 0
-8058 8067 0
-367 -8058 8059 0
-8059 8068 0
-368 -8059 8060 0
-8060 8069 0
-369 -8060 8061 0
-8061 8070 0
-370 -8061 8062 0
-8062 8071 0
-371 -8062 8063 0
-8063 8072 0
-372 -8063 8064 0
-8064 8073 0
-373 -8064 0
-365 8065 0
-8065 8074 0
-366 -8065 8066 0
-8066 8075 0
-367 -8066 8067 0
-8067 8076 0
-368 -8067 8068 0
-8068 8077 0
-369 -8068 8069 0
-8069 8078 0
-370 -8069 8070 0
-8070 8079 0
-371 -8070 8071 0
-8071 8080 0
-372 -8071 8072 0
-8072 8081 0
-373 -8072 8073 0
-8073 8082 0
-374 -8073 0
-366 8074 0
-8074 8083 0
-367 -8074 8075 0
-8075 8084 0
-368 -8075 8076 0
-8076 8085 0
-369 -8076 8077 0
-8077 8086 0
-370 -8077 8078 0
-8078 8087 0
-371 -8078 8079 0
-8079 8088 0
-372 -8079 8080 0
-8080 8089 0
-373 -8080 8081 0
-8081 8090 0
-374 -8081 8082 0
-8082 8091 0
-375 -8082 0
-367 8083 0
-8083 8092 0
-368 -8083 8084 0
-8084 8093 0
-369 -8084 8085 0
-8085 8094 0
-370 -8085 8086 0
-8086 8095 0
-371 -8086 8087 0
-8087 8096 0
-372 -8087 8088 0
-8088 8097 0
-373 -8088 8089 0
-8089 8098 0
-374 -8089 8090 0
-8090 8099 0
-375 -8090 8091 0
-8091 8100 0
-376 -8091 0
-368 8092 0
-8092 8101 0
-369 -8092 8093 0
-8093 8102 0
-370 -8093 8094 0
-8094 8103 0
-371 -8094 8095 0
-8095 8104 0
-372 -8095 8096 0
-8096 8105 0
-373 -8096 8097 0
-8097 8106 0
-374 -8097 8098 0
-8098 8107 0
-375 -8098 8099 0
-8099 8108 0
-376 -8099 8100 0
-8100 8109 0
-377 -8100 0
-369 8101 0
-8101 8110 0
-370 -8101 8102 0
-8102 8111 0
-371 -8102 8103 0
-8103 8112 0
-372 -8103 8104 0
-8104 8113 0
-373 -8104 8105 0
-8105 8114 0
-374 -8105 8106 0
-8106 8115 0
-375 -8106 8107 0
-8107 8116 0
-376 -8107 8108 0
-8108 8117 0
-377 -8108 8109 0
-8109 8118 0
-378 -8109 0
-370 8110 0
-8110 8119 0
-371 -8110 8111 0
-8111 8120 0
-372 -8111 8112 0
-8112 8121 0
-373 -8112 8113 0
-8113 8122 0
-374 -8113 8114 0
-8114 8123 0
-375 -8114 8115 0
-8115 8124 0
-376 -8115 8116 0
-8116 8125 0
-377 -8116 8117 0
-8117 8126 0
-378 -8117 8118 0
-8118 8127 0
-379 -8118 0
-371 8119 0
-8119 8128 0
-372 -8119 8120 0
-8120 8129 0
-373 -8120 8121 0
-8121 8130 0
-374 -8121 8122 0
-8122 8131 0
-375 -8122 8123 0
-8123 8132 0
-376 -8123 8124 0
-8124 8133 0
-377 -8124 8125 0
-8125 8134 0
-378 -8125 8126 0
-8126 8135 0
-379 -8126 8127 0
-8127 8136 0
-380 -8127 0
-372 8128 0
-8128 8137 0
-373 -8128 8129 0
-8129 8138 0
-374 -8129 8130 0
-8130 8139 0
-375 -8130 8131 0
-8131 8140 0
-376 -8131 8132 0
-8132 8141 0
-377 -8132 8133 0
-8133 8142 0
-378 -8133 8134 0
-8134 8143 0
-379 -8134 8135 0
-8135 8144 0
-380 -8135 8136 0
-8136 8145 0
-381 -8136 0
-373 8137 0
-8137 8146 0
-374 -8137 8138 0
-8138 8147 0
-375 -8138 8139 0
-8139 8148 0
-376 -8139 8140 0
-8140 8149 0
-377 -8140 8141 0
-8141 8150 0
-378 -8141 8142 0
-8142 8151 0
-379 -8142 8143 0
-8143 8152 0
-380 -8143 8144 0
-8144 8153 0
-381 -8144 8145 0
-8145 8154 0
-382 -8145 0
-374 8146 0
-8146 8155 0
-375 -8146 8147 0
-8147 8156 0
-376 -8147 8148 0
-8148 8157 0
-377 -8148 8149 0
-8149 8158 0
-378 -8149 8150 0
-8150 8159 0
-379 -8150 8151 0
-8151 8160 0
-380 -8151 8152 0
-8152 8161 0
-381 -8152 8153 0
-8153 8162 0
-382 -8153 8154 0
-8154 8163 0
-383 -8154 0
-375 8155 0
-8155 8164 0
-376 -8155 8156 0
-8156 8165 0
-377 -8156 8157 0
-8157 8166 0
-378 -8157 8158 0
-8158 8167 0
-379 -8158 8159 0
-8159 8168 0
-380 -8159 8160 0
-8160 8169 0
-381 -8160 8161 0
-8161 8170 0
-382 -8161 8162 0
-8162 8171 0
-383 -8162 8163 0
-8163 8172 0
-384 -8163 0
-376 8164 0
-8164 8173 0
-377 -8164 8165 0
-8165 8174 0
-378 -8165 8166 0
-8166 8175 0
-379 -8166 8167 0
-8167 8176 0
-380 -8167 8168 0
-8168 8177 0
-381 -8168 8169 0
-8169 8178 0
-382 -8169 8170 0
-8170 8179 0
-383 -8170 8171 0
-8171 8180 0
-384 -8171 8172 0
-8172 8181 0
-385 -8172 0
-377 8173 0
-8173 8182 0
-378 -8173 8174 0
-8174 8183 0
-379 -8174 8175 0
-8175 8184 0
-380 -8175 8176 0
-8176 8185 0
-381 -8176 8177 0
-8177 8186 0
-382 -8177 8178 0
-8178 8187 0
-383 -8178 8179 0
-8179 8188 0
-384 -8179 8180 0
-8180 8189 0
-385 -8180 8181 0
-8181 8190 0
-386 -8181 0
-378 8182 0
-8182 8191 0
-379 -8182 8183 0
-8183 8192 0
-380 -8183 8184 0
-8184 8193 0
-381 -8184 8185 0
-8185 8194 0
-382 -8185 8186 0
-8186 8195 0
-383 -8186 8187 0
-8187 8196 0
-384 -8187 8188 0
-8188 8197 0
-385 -8188 8189 0
-8189 8198 0
-386 -8189 8190 0
-8190 8199 0
-387 -8190 0
-379 8191 0
-8191 8200 0
-380 -8191 8192 0
-8192 8201 0
-381 -8192 8193 0
-8193 8202 0
-382 -8193 8194 0
-8194 8203 0
-383 -8194 8195 0
-8195 8204 0
-384 -8195 8196 0
-8196 8205 0
-385 -8196 8197 0
-8197 8206 0
-386 -8197 8198 0
-8198 8207 0
-387 -8198 8199 0
-8199 8208 0
-388 -8199 0
-380 8200 0
-8200 8209 0
-381 -8200 8201 0
-8201 8210 0
-382 -8201 8202 0
-8202 8211 0
-383 -8202 8203 0
-8203 8212 0
-384 -8203 8204 0
-8204 8213 0
-385 -8204 8205 0
-8205 8214 0
-386 -8205 8206 0
-8206 8215 0
-387 -8206 8207 0
-8207 8216 0
-388 -8207 8208 0
-8208 8217 0
-389 -8208 0
-381 8209 0
-8209 8218 0
-382 -8209 8210 0
-8210 8219 0
-383 -8210 8211 0
-8211 8220 0
-384 -8211 8212 0
-8212 8221 0
-385 -8212 8213 0
-8213 8222 0
-386 -8213 8214 0
-8214 8223 0
-387 -8214 8215 0
-8215 8224 0
-388 -8215 8216 0
-8216 8225 0
-389 -8216 8217 0
-8217 8226 0
-390 -8217 0
-382 8218 0
-8218 8227 0
-383 -8218 8219 0
-8219 8228 0
-384 -8219 8220 0
-8220 8229 0
-385 -8220 8221 0
-8221 8230 0
-386 -8221 8222 0
-8222 8231 0
-387 -8222 8223 0
-8223 8232 0
-388 -8223 8224 0
-8224 8233 0
-389 -8224 8225 0
-8225 8234 0
-390 -8225 8226 0
-8226 8235 0
-391 -8226 0
-383 8227 0
-8227 8236 0
-384 -8227 8228 0
-8228 8237 0
-385 -8228 8229 0
-8229 8238 0
-386 -8229 8230 0
-8230 8239 0
-387 -8230 8231 0
-8231 8240 0
-388 -8231 8232 0
-8232 8241 0
-389 -8232 8233 0
-8233 8242 0
-390 -8233 8234 0
-8234 8243 0
-391 -8234 8235 0
-8235 8244 0
-392 -8235 0
-384 8236 0
-8236 8245 0
-385 -8236 8237 0
-8237 8246 0
-386 -8237 8238 0
-8238 8247 0
-387 -8238 8239 0
-8239 8248 0
-388 -8239 8240 0
-8240 8249 0
-389 -8240 8241 0
-8241 8250 0
-390 -8241 8242 0
-8242 8251 0
-391 -8242 8243 0
-8243 8252 0
-392 -8243 8244 0
-8244 8253 0
-393 -8244 0
-385 8245 0
-8245 8254 0
-386 -8245 8246 0
-8246 8255 0
-387 -8246 8247 0
-8247 8256 0
-388 -8247 8248 0
-8248 8257 0
-389 -8248 8249 0
-8249 8258 0
-390 -8249 8250 0
-8250 8259 0
-391 -8250 8251 0
-8251 8260 0
-392 -8251 8252 0
-8252 8261 0
-393 -8252 8253 0
-8253 8262 0
-394 -8253 0
-386 8254 0
-8254 8263 0
-387 -8254 8255 0
-8255 8264 0
-388 -8255 8256 0
-8256 8265 0
-389 -8256 8257 0
-8257 8266 0
-390 -8257 8258 0
-8258 8267 0
-391 -8258 8259 0
-8259 8268 0
-392 -8259 8260 0
-8260 8269 0
-393 -8260 8261 0
-8261 8270 0
-394 -8261 8262 0
-8262 8271 0
-395 -8262 0
-387 8263 0
-8263 8272 0
-388 -8263 8264 0
-8264 8273 0
-389 -8264 8265 0
-8265 8274 0
-390 -8265 8266 0
-8266 8275 0
-391 -8266 8267 0
-8267 8276 0
-392 -8267 8268 0
-8268 8277 0
-393 -8268 8269 0
-8269 8278 0
-394 -8269 8270 0
-8270 8279 0
-395 -8270 8271 0
-8271 8280 0
-396 -8271 0
-388 8272 0
-8272 8281 0
-389 -8272 8273 0
-8273 8282 0
-390 -8273 8274 0
-8274 8283 0
-391 -8274 8275 0
-8275 8284 0
-392 -8275 8276 0
-8276 8285 0
-393 -8276 8277 0
-8277 8286 0
-394 -8277 8278 0
-8278 8287 0
-395 -8278 8279 0
-8279 8288 0
-396 -8279 8280 0
-8280 8289 0
-397 -8280 0
-389 8281 0
-8281 8290 0
-390 -8281 8282 0
-8282 8291 0
-391 -8282 8283 0
-8283 8292 0
-392 -8283 8284 0
-8284 8293 0
-393 -8284 8285 0
-8285 8294 0
-394 -8285 8286 0
-8286 8295 0
-395 -8286 8287 0
-8287 8296 0
-396 -8287 8288 0
-8288 8297 0
-397 -8288 8289 0
-8289 8298 0
-398 -8289 0
-390 8290 0
-8290 8299 0
-391 -8290 8291 0
-8291 8300 0
-392 -8291 8292 0
-8292 8301 0
-393 -8292 8293 0
-8293 8302 0
-394 -8293 8294 0
-8294 8303 0
-395 -8294 8295 0
-8295 8304 0
-396 -8295 8296 0
-8296 8305 0
-397 -8296 8297 0
-8297 8306 0
-398 -8297 8298 0
-8298 8307 0
-399 -8298 0
-391 8299 0
-8299 8308 0
-392 -8299 8300 0
-8300 8309 0
-393 -8300 8301 0
-8301 8310 0
-394 -8301 8302 0
-8302 8311 0
-395 -8302 8303 0
-8303 8312 0
-396 -8303 8304 0
-8304 8313 0
-397 -8304 8305 0
-8305 8314 0
-398 -8305 8306 0
-8306 8315 0
-399 -8306 8307 0
-8307 8316 0
-400 -8307 0
-392 8308 0
-8308 8317 0
-393 -8308 8309 0
-8309 8318 0
-394 -8309 8310 0
-8310 8319 0
-395 -8310 8311 0
-8311 8320 0
-396 -8311 8312 0
-8312 8321 0
-397 -8312 8313 0
-8313 8322 0
-398 -8313 8314 0
-8314 8323 0
-399 -8314 8315 0
-8315 8324 0
-400 -8315 8316 0
-8316 8325 0
-401 -8316 0
-393 8317 0
-8317 8326 0
-394 -8317 8318 0
-8318 8327 0
-395 -8318 8319 0
-8319 8328 0
-396 -8319 8320 0
-8320 8329 0
-397 -8320 8321 0
-8321 8330 0
-398 -8321 8322 0
-8322 8331 0
-399 -8322 8323 0
-8323 8332 0
-400 -8323 8324 0
-8324 8333 0
-401 -8324 8325 0
-8325 8334 0
-402 -8325 0
-394 8326 0
-8326 8335 0
-395 -8326 8327 0
-8327 8336 0
-396 -8327 8328 0
-8328 8337 0
-397 -8328 8329 0
-8329 8338 0
-398 -8329 8330 0
-8330 8339 0
-399 -8330 8331 0
-8331 8340 0
-400 -8331 8332 0
-8332 8341 0
-401 -8332 8333 0
-8333 8342 0
-402 -8333 8334 0
-8334 8343 0
-403 -8334 0
-395 8335 0
-8335 8344 0
-396 -8335 8336 0
-8336 8345 0
-397 -8336 8337 0
-8337 8346 0
-398 -8337 8338 0
-8338 8347 0
-399 -8338 8339 0
-8339 8348 0
-400 -8339 8340 0
-8340 8349 0
-401 -8340 8341 0
-8341 8350 0
-402 -8341 8342 0
-8342 8351 0
-403 -8342 8343 0
-8343 8352 0
-404 -8343 0
-396 8344 0
-8344 8353 0
-397 -8344 8345 0
-8345 8354 0
-398 -8345 8346 0
-8346 8355 0
-399 -8346 8347 0
-8347 8356 0
-400 -8347 8348 0
-8348 8357 0
-401 -8348 8349 0
-8349 8358 0
-402 -8349 8350 0
-8350 8359 0
-403 -8350 8351 0
-8351 8360 0
-404 -8351 8352 0
-8352 8361 0
-405 -8352 0
-397 8353 0
-8353 8362 0
-398 -8353 8354 0
-8354 8363 0
-399 -8354 8355 0
-8355 8364 0
-400 -8355 8356 0
-8356 8365 0
-401 -8356 8357 0
-8357 8366 0
-402 -8357 8358 0
-8358 8367 0
-403 -8358 8359 0
-8359 8368 0
-404 -8359 8360 0
-8360 8369 0
-405 -8360 8361 0
-8361 8370 0
-406 -8361 0
-398 8362 0
-8362 8371 0
-399 -8362 8363 0
-8363 8372 0
-400 -8363 8364 0
-8364 8373 0
-401 -8364 8365 0
-8365 8374 0
-402 -8365 8366 0
-8366 8375 0
-403 -8366 8367 0
-8367 8376 0
-404 -8367 8368 0
-8368 8377 0
-405 -8368 8369 0
-8369 8378 0
-406 -8369 8370 0
-8370 8379 0
-407 -8370 0
-399 8371 0
-8371 8380 0
-400 -8371 8372 0
-8372 8381 0
-401 -8372 8373 0
-8373 8382 0
-402 -8373 8374 0
-8374 8383 0
-403 -8374 8375 0
-8375 8384 0
-404 -8375 8376 0
-8376 8385 0
-405 -8376 8377 0
-8377 8386 0
-406 -8377 8378 0
-8378 8387 0
-407 -8378 8379 0
-8379 8388 0
-408 -8379 0
-400 8380 0
-8380 8389 0
-401 -8380 8381 0
-8381 8390 0
-402 -8381 8382 0
-8382 8391 0
-403 -8382 8383 0
-8383 8392 0
-404 -8383 8384 0
-8384 8393 0
-405 -8384 8385 0
-8385 8394 0
-406 -8385 8386 0
-8386 8395 0
-407 -8386 8387 0
-8387 8396 0
-408 -8387 8388 0
-8388 8397 0
-409 -8388 0
-401 8389 0
-8389 8398 0
-402 -8389 8390 0
-8390 8399 0
-403 -8390 8391 0
-8391 8400 0
-404 -8391 8392 0
-8392 8401 0
-405 -8392 8393 0
-8393 8402 0
-406 -8393 8394 0
-8394 8403 0
-407 -8394 8395 0
-8395 8404 0
-408 -8395 8396 0
-8396 8405 0
-409 -8396 8397 0
-8397 8406 0
-410 -8397 0
-402 8398 0
-8398 8407 0
-403 -8398 8399 0
-8399 8408 0
-404 -8399 8400 0
-8400 8409 0
-405 -8400 8401 0
-8401 8410 0
-406 -8401 8402 0
-8402 8411 0
-407 -8402 8403 0
-8403 8412 0
-408 -8403 8404 0
-8404 8413 0
-409 -8404 8405 0
-8405 8414 0
-410 -8405 8406 0
-8406 8415 0
-411 -8406 0
-403 8407 0
-8407 8416 0
-404 -8407 8408 0
-8408 8417 0
-405 -8408 8409 0
-8409 8418 0
-406 -8409 8410 0
-8410 8419 0
-407 -8410 8411 0
-8411 8420 0
-408 -8411 8412 0
-8412 8421 0
-409 -8412 8413 0
-8413 8422 0
-410 -8413 8414 0
-8414 8423 0
-411 -8414 8415 0
-8415 8424 0
-412 -8415 0
-404 8416 0
-8416 8425 0
-405 -8416 8417 0
-8417 8426 0
-406 -8417 8418 0
-8418 8427 0
-407 -8418 8419 0
-8419 8428 0
-408 -8419 8420 0
-8420 8429 0
-409 -8420 8421 0
-8421 8430 0
-410 -8421 8422 0
-8422 8431 0
-411 -8422 8423 0
-8423 8432 0
-412 -8423 8424 0
-8424 8433 0
-413 -8424 0
-405 8425 0
-8425 8434 0
-406 -8425 8426 0
-8426 8435 0
-407 -8426 8427 0
-8427 8436 0
-408 -8427 8428 0
-8428 8437 0
-409 -8428 8429 0
-8429 8438 0
-410 -8429 8430 0
-8430 8439 0
-411 -8430 8431 0
-8431 8440 0
-412 -8431 8432 0
-8432 8441 0
-413 -8432 8433 0
-8433 8442 0
-414 -8433 0
-406 8434 0
-8434 8443 0
-407 -8434 8435 0
-8435 8444 0
-408 -8435 8436 0
-8436 8445 0
-409 -8436 8437 0
-8437 8446 0
-410 -8437 8438 0
-8438 8447 0
-411 -8438 8439 0
-8439 8448 0
-412 -8439 8440 0
-8440 8449 0
-413 -8440 8441 0
-8441 8450 0
-414 -8441 8442 0
-8442 8451 0
-415 -8442 0
-407 8443 0
-8443 8452 0
-408 -8443 8444 0
-8444 8453 0
-409 -8444 8445 0
-8445 8454 0
-410 -8445 8446 0
-8446 8455 0
-411 -8446 8447 0
-8447 8456 0
-412 -8447 8448 0
-8448 8457 0
-413 -8448 8449 0
-8449 8458 0
-414 -8449 8450 0
-8450 8459 0
-415 -8450 8451 0
-8451 8460 0
-416 -8451 0
-408 8452 0
-8452 8461 0
-409 -8452 8453 0
-8453 8462 0
-410 -8453 8454 0
-8454 8463 0
-411 -8454 8455 0
-8455 8464 0
-412 -8455 8456 0
-8456 8465 0
-413 -8456 8457 0
-8457 8466 0
-414 -8457 8458 0
-8458 8467 0
-415 -8458 8459 0
-8459 8468 0
-416 -8459 8460 0
-8460 8469 0
-417 -8460 0
-409 8461 0
-8461 8470 0
-410 -8461 8462 0
-8462 8471 0
-411 -8462 8463 0
-8463 8472 0
-412 -8463 8464 0
-8464 8473 0
-413 -8464 8465 0
-8465 8474 0
-414 -8465 8466 0
-8466 8475 0
-415 -8466 8467 0
-8467 8476 0
-416 -8467 8468 0
-8468 8477 0
-417 -8468 8469 0
-8469 8478 0
-418 -8469 0
-410 8470 0
-8470 8479 0
-411 -8470 8471 0
-8471 8480 0
-412 -8471 8472 0
-8472 8481 0
-413 -8472 8473 0
-8473 8482 0
-414 -8473 8474 0
-8474 8483 0
-415 -8474 8475 0
-8475 8484 0
-416 -8475 8476 0
-8476 8485 0
-417 -8476 8477 0
-8477 8486 0
-418 -8477 8478 0
-8478 8487 0
-419 -8478 0
-411 8479 0
-8479 8488 0
-412 -8479 8480 0
-8480 8489 0
-413 -8480 8481 0
-8481 8490 0
-414 -8481 8482 0
-8482 8491 0
-415 -8482 8483 0
-8483 8492 0
-416 -8483 8484 0
-8484 8493 0
-417 -8484 8485 0
-8485 8494 0
-418 -8485 8486 0
-8486 8495 0
-419 -8486 8487 0
-8487 8496 0
-420 -8487 0
-412 8488 0
-8488 8497 0
-413 -8488 8489 0
-8489 8498 0
-414 -8489 8490 0
-8490 8499 0
-415 -8490 8491 0
-8491 8500 0
-416 -8491 8492 0
-8492 8501 0
-417 -8492 8493 0
-8493 8502 0
-418 -8493 8494 0
-8494 8503 0
-419 -8494 8495 0
-8495 8504 0
-420 -8495 8496 0
-8496 8505 0
-421 -8496 0
-413 8497 0
-8497 8506 0
-414 -8497 8498 0
-8498 8507 0
-415 -8498 8499 0
-8499 8508 0
-416 -8499 8500 0
-8500 8509 0
-417 -8500 8501 0
-8501 8510 0
-418 -8501 8502 0
-8502 8511 0
-419 -8502 8503 0
-8503 8512 0
-420 -8503 8504 0
-8504 8513 0
-421 -8504 8505 0
-8505 8514 0
-422 -8505 0
-414 8506 0
-8506 8515 0
-415 -8506 8507 0
-8507 8516 0
-416 -8507 8508 0
-8508 8517 0
-417 -8508 8509 0
-8509 8518 0
-418 -8509 8510 0
-8510 8519 0
-419 -8510 8511 0
-8511 8520 0
-420 -8511 8512 0
-8512 8521 0
-421 -8512 8513 0
-8513 8522 0
-422 -8513 8514 0
-8514 8523 0
-423 -8514 0
-415 8515 0
-416 -8515 8516 0
-417 -8516 8517 0
-418 -8517 8518 0
-419 -8518 8519 0
-420 -8519 8520 0
-421 -8520 8521 0
-422 -8521 8522 0
-423 -8522 8523 0
-424 -8523 0
1 107 0
