p cnf 3449 7069
-95 -1 0
-95 2 47 48 0
-2 1 95 0
-47 1 95 0
-48 1 95 0
-96 -2 0
-96 1 3 49 0
-1 2 96 0
-3 2 96 0
-49 2 96 0
-97 -3 0
-97 2 4 50 0
-2 3 97 0
-4 3 97 0
-50 3 97 0
-98 -4 0
-98 3 5 51 0
-3 4 98 0
-5 4 98 0
-51 4 98 0
-99 -5 0
-99 4 6 52 0
-4 5 99 0
-6 5 99 0
-52 5 99 0
-100 -6 0
-100 5 7 53 0
-5 6 100 0
-7 6 100 0
-53 6 100 0
-101 -7 0
-101 6 8 54 0
-6 7 101 0
-8 7 101 0
-54 7 101 0
-102 -8 0
-102 7 9 55 0
-7 8 102 0
-9 8 102 0
-55 8 102 0
-103 -9 0
-103 8 10 56 0
-8 9 103 0
-10 9 103 0
-56 9 103 0
-104 -10 0
-104 9 11 57 0
-9 10 104 0
-11 10 104 0
-57 10 104 0
-105 -11 0
-105 10 12 58 0
-10 11 105 0
-12 11 105 0
-58 11 105 0
-106 -12 0
-106 11 13 59 0
-11 12 106 0
-13 12 106 0
-59 12 106 0
-107 -13 0
-107 12 14 60 0
-12 13 107 0
-14 13 107 0
-60 13 107 0
-108 -14 0
-108 13 15 61 0
-13 14 108 0
-15 14 108 0
-61 14 108 0
-109 -15 0
-109 14 16 62 0
-14 15 109 0
-16 15 109 0
-62 15 109 0
-110 -16 0
-110 15 17 63 0
-15 16 110 0
-17 16 110 0
-63 16 110 0
-111 -17 0
-111 16 18 64 0
-16 17 111 0
-18 17 111 0
-64 17 111 0
-112 -18 0
-112 17 19 65 0
-17 18 112 0
-19 18 112 0
-65 18 112 0
-113 -19 0
-113 18 20 66 0
-18 19 113 0
-20 19 113 0
-66 19 113 0
-114 -20 0
-114 19 21 67 0
-19 20 114 0
-21 20 114 0
-67 20 114 0
-115 -21 0
-115 20 22 68 0
-20 21 115 0
-22 21 115 0
-68 21 115 0
-116 -22 0
-116 21 23 69 0
-21 22 116 0
-23 22 116 0
-69 22 116 0
-117 -23 0
-117 22 24 70 0
-22 23 117 0
-24 23 117 0
-70 23 117 0
-118 -24 0
-118 23 25 71 0
-23 24 118 0
-25 24 118 0
-71 24 118 0
-119 -25 0
-119 24 26 72 0
-24 25 119 0
-26 25 119 0
-72 25 119 0
-120 -26 0
-120 25 27 73 0
-25 26 120 0
-27 26 120 0
-73 26 120 0
-121 -27 0
-121 26 28 74 0
-26 27 121 0
-28 27 121 0
-74 27 121 0
-122 -28 0
-122 27 29 75 0
-27 28 122 0
-29 28 122 0
-75 28 122 0
-123 -29 0
-123 28 30 76 0
-28 29 123 0
-30 29 123 0
-76 29 123 0
-124 -30 0
-124 29 31 77 0
-29 30 124 0
-31 30 124 0
-77 30 124 0
-125 -31 0
-125 30 32 78 0
-30 31 125 0
-32 31 125 0
-78 31 125 0
-126 -32 0
-126 31 33 79 0
-31 32 126 0
-33 32 126 0
-79 32 126 0
-127 -33 0
-127 32 34 80 0
-32 33 127 0
-34 33 127 0
-80 33 127 0
-128 -34 0
-128 33 35 81 0
-33 34 128 0
-35 34 128 0
-81 34 128 0
-129 -35 0
-129 34 36 82 0
-34 35 129 0
-36 35 129 0
-82 35 129 0
-130 -36 0
-130 35 37 83 0
-35 36 130 0
-37 36 130 0
-83 36 130 0
-131 -37 0
-131 36 38 84 0
-36 37 131 0
-38 37 131 0
-84 37 131 0
-132 -38 0
-132 37 39 85 0
-37 38 132 0
-39 38 132 0
-85 38 132 0
-133 -39 0
-133 38 40 86 0
-38 39 133 0
-40 39 133 0
-86 39 133 0
-134 -40 0
-134 39 41 87 0
-39 40 134 0
-41 40 134 0
-87 40 134 0
-135 -41 0
-135 40 42 88 0
-40 41 135 0
-42 41 135 0
-88 41 135 0
-136 -42 0
-136 41 43 89 0
-41 42 136 0
-43 42 136 0
-89 42 136 0
-137 -43 0
-137 42 44 90 0
-42 43 137 0
-44 43 137 0
-90 43 137 0
-138 -44 0
-138 43 45 91 0
-43 44 138 0
-45 44 138 0
-91 44 138 0
-139 -45 0
-139 44 46 92 0
-44 45 139 0
-46 45 139 0
-92 45 139 0
-140 -46 0
-140 45 47 93 0
-45 46 140 0
-47 46 140 0
-93 46 140 0
-141 -47 0
-141 1 46 94 0
-1 47 141 0
-46 47 141 0
-94 47 141 0
-142 -48 0
-142 1 52 91 0
-1 48 142 0
-52 48 142 0
-91 48 142 0
-143 -49 0
-143 2 53 92 0
-2 49 143 0
-53 49 143 0
-92 49 143 0
-144 -50 0
-144 3 54 93 0
-3 50 144 0
-54 50 144 0
-93 50 144 0
-145 -51 0
-145 4 55 94 0
-4 51 145 0
-55 51 145 0
-94 51 145 0
-146 -52 0
-146 5 48 56 0
-5 52 146 0
-48 52 146 0
-56 52 146 0
-147 -53 0
-147 6 49 57 0
-6 53 147 0
-49 53 147 0
-57 53 147 0
-148 -54 0
-148 7 50 58 0
-7 54 148 0
-50 54 148 0
-58 54 148 0
-149 -55 0
-149 8 51 59 0
-8 55 149 0
-51 55 149 0
-59 55 149 0
-150 -56 0
-150 9 52 60 0
-9 56 150 0
-52 56 150 0
-60 56 150 0
-151 -57 0
-151 10 53 61 0
-10 57 151 0
-53 57 151 0
-61 57 151 0
-152 -58 0
-152 11 54 62 0
-11 58 152 0
-54 58 152 0
-62 58 152 0
-153 -59 0
-153 12 55 63 0
-12 59 153 0
-55 59 153 0
-63 59 153 0
-154 -60 0
-154 13 56 64 0
-13 60 154 0
-56 60 154 0
-64 60 154 0
-155 -61 0
-155 14 57 65 0
-14 61 155 0
-57 61 155 0
-65 61 155 0
-156 -62 0
-156 15 58 66 0
-15 62 156 0
-58 62 156 0
-66 62 156 0
-157 -63 0
-157 16 59 67 0
-16 63 157 0
-59 63 157 0
-67 63 157 0
-158 -64 0
-158 17 60 68 0
-17 64 158 0
-60 64 158 0
-68 64 158 0
-159 -65 0
-159 18 61 69 0
-18 65 159 0
-61 65 159 0
-69 65 159 0
-160 -66 0
-160 19 62 70 0
-19 66 160 0
-62 66 160 0
-70 66 160 0
-161 -67 0
-161 20 63 71 0
-20 67 161 0
-63 67 161 0
-71 67 161 0
-162 -68 0
-162 21 64 72 0
-21 68 162 0
-64 68 162 0
-72 68 162 0
-163 -69 0
-163 22 65 73 0
-22 69 163 0
-65 69 163 0
-73 69 163 0
-164 -70 0
-164 23 66 74 0
-23 70 164 0
-66 70 164 0
-74 70 164 0
-165 -71 0
-165 24 67 75 0
-24 71 165 0
-67 71 165 0
-75 71 165 0
-166 -72 0
-166 25 68 76 0
-25 72 166 0
-68 72 166 0
-76 72 166 0
-167 -73 0
-167 26 69 77 0
-26 73 167 0
-69 73 167 0
-77 73 167 0
-168 -74 0
-168 27 70 78 0
-27 74 168 0
-70 74 168 0
-78 74 168 0
-169 -75 0
-169 28 71 79 0
-28 75 169 0
-71 75 169 0
-79 75 169 0
-170 -76 0
-170 29 72 80 0
-29 76 170 0
-72 76 170 0
-80 76 170 0
-171 -77 0
-171 30 73 81 0
-30 77 171 0
-73 77 171 0
-81 77 171 0
-172 -78 0
-172 31 74 82 0
-31 78 172 0
-74 78 172 0
-82 78 172 0
-173 -79 0
-173 32 75 83 0
-32 79 173 0
-75 79 173 0
-83 79 173 0
-174 -80 0
-174 33 76 84 0
-33 80 174 0
-76 80 174 0
-84 80 174 0
-175 -81 0
-175 34 77 85 0
-34 81 175 0
-77 81 175 0
-85 81 175 0
-176 -82 0
-176 35 78 86 0
-35 82 176 0
-78 82 176 0
-86 82 176 0
-177 -83 0
-177 36 79 87 0
-36 83 177 0
-79 83 177 0
-87 83 177 0
-178 -84 0
-178 37 80 88 0
-37 84 178 0
-80 84 178 0
-88 84 178 0
-179 -85 0
-179 38 81 89 0
-38 85 179 0
-81 85 179 0
-89 85 179 0
-180 -86 0
-180 39 82 90 0
-39 86 180 0
-82 86 180 0
-90 86 180 0
-181 -87 0
-181 40 83 91 0
-40 87 181 0
-83 87 181 0
-91 87 181 0
-182 -88 0
-182 41 84 92 0
-41 88 182 0
-84 88 182 0
-92 88 182 0
-183 -89 0
-183 42 85 93 0
-42 89 183 0
-85 89 183 0
-93 89 183 0
-184 -90 0
-184 43 86 94 0
-43 90 184 0
-86 90 184 0
-94 90 184 0
-185 -91 0
-185 44 48 87 0
-44 91 185 0
-48 91 185 0
-87 91 185 0
-186 -92 0
-186 45 49 88 0
-45 92 186 0
-49 92 186 0
-88 92 186 0
-187 -93 0
-187 46 50 89 0
-46 93 187 0
-50 93 187 0
-89 93 187 0
-188 -94 0
-188 47 51 90 0
-47 94 188 0
-51 94 188 0
-90 94 188 0
1 189 0
-189 190 0
2 -189 191 0
-191 192 0
3 -191 193 0
-193 194 0
4 -193 195 0
-195 196 0
5 -195 197 0
-197 198 0
6 -197 199 0
-199 200 0
7 -199 201 0
-201 202 0
8 -201 203 0
-203 204 0
9 -203 205 0
-205 206 0
10 -205 207 0
-207 208 0
11 -207 209 0
-209 210 0
12 -209 211 0
-211 212 0
13 -211 213 0
-213 214 0
14 -213 215 0
-215 216 0
15 -215 217 0
-217 218 0
16 -217 219 0
-219 220 0
17 -219 221 0
-221 222 0
18 -221 223 0
-223 224 0
19 -223 225 0
-225 226 0
20 -225 227 0
-227 228 0
21 -227 229 0
-229 230 0
22 -229 231 0
-231 232 0
23 -231 233 0
-233 234 0
24 -233 235 0
-235 236 0
25 -235 237 0
-237 238 0
26 -237 239 0
-239 240 0
27 -239 241 0
-241 242 0
28 -241 243 0
-243 244 0
29 -243 245 0
-245 246 0
30 -245 247 0
-247 248 0
31 -247 249 0
-249 250 0
32 -249 251 0
-251 252 0
33 -251 253 0
-253 254 0
34 -253 255 0
-255 256 0
35 -255 257 0
-257 258 0
36 -257 259 0
-259 260 0
37 -259 261 0
-261 262 0
38 -261 263 0
-263 264 0
39 -263 265 0
-265 266 0
40 -265 267 0
-267 268 0
41 -267 269 0
-269 270 0
42 -269 271 0
-271 272 0
43 -271 273 0
-273 274 0
44 -273 275 0
-275 276 0
45 -275 277 0
-277 278 0
46 -277 279 0
-279 280 0
47 -279 281 0
-281 282 0
48 -281 283 0
-283 284 0
49 -283 285 0
-285 286 0
50 -285 287 0
-287 288 0
51 -287 289 0
-289 290 0
52 -289 291 0
-291 292 0
53 -291 293 0
-293 294 0
54 -293 295 0
-295 296 0
55 -295 297 0
-297 298 0
56 -297 299 0
-299 300 0
57 -299 301 0
-301 302 0
58 -301 303 0
-303 304 0
59 -303 305 0
-305 306 0
60 -305 307 0
-307 308 0
61 -307 309 0
-309 310 0
62 -309 311 0
-311 312 0
63 -311 313 0
-313 314 0
64 -313 315 0
-315 316 0
65 -315 317 0
-317 318 0
66 -317 319 0
-319 320 0
67 -319 321 0
-321 322 0
68 -321 323 0
-323 324 0
69 -323 325 0
-325 326 0
70 -325 327 0
-327 328 0
71 -327 329 0
-329 330 0
72 -329 331 0
-331 332 0
73 -331 333 0
-333 334 0
74 -333 335 0
-335 336 0
75 -335 337 0
-337 338 0
76 -337 339 0
-339 340 0
77 -339 341 0
-341 342 0
78 -341 343 0
-343 344 0
79 -343 0
2 190 0
-190 345 0
3 -190 192 0
-192 346 0
4 -192 194 0
-194 347 0
5 -194 196 0
-196 348 0
6 -196 198 0
-198 349 0
7 -198 200 0
-200 350 0
8 -200 202 0
-202 351 0
9 -202 204 0
-204 352 0
10 -204 206 0
-206 353 0
11 -206 208 0
-208 354 0
12 -208 210 0
-210 355 0
13 -210 212 0
-212 356 0
14 -212 214 0
-214 357 0
15 -214 216 0
-216 358 0
16 -216 218 0
-218 359 0
17 -218 220 0
-220 360 0
18 -220 222 0
-222 361 0
19 -222 224 0
-224 362 0
20 -224 226 0
-226 363 0
21 -226 228 0
-228 364 0
22 -228 230 0
-230 365 0
23 -230 232 0
-232 366 0
24 -232 234 0
-234 367 0
25 -234 236 0
-236 368 0
26 -236 238 0
-238 369 0
27 -238 240 0
-240 370 0
28 -240 242 0
-242 371 0
29 -242 244 0
-244 372 0
30 -244 246 0
-246 373 0
31 -246 248 0
-248 374 0
32 -248 250 0
-250 375 0
33 -250 252 0
-252 376 0
34 -252 254 0
-254 377 0
35 -254 256 0
-256 378 0
36 -256 258 0
-258 379 0
37 -258 260 0
-260 380 0
38 -260 262 0
-262 381 0
39 -262 264 0
-264 382 0
40 -264 266 0
-266 383 0
41 -266 268 0
-268 384 0
42 -268 270 0
-270 385 0
43 -270 272 0
-272 386 0
44 -272 274 0
-274 387 0
45 -274 276 0
-276 388 0
46 -276 278 0
-278 389 0
47 -278 280 0
-280 390 0
48 -280 282 0
-282 391 0
49 -282 284 0
-284 392 0
50 -284 286 0
-286 393 0
51 -286 288 0
-288 394 0
52 -288 290 0
-290 395 0
53 -290 292 0
-292 396 0
54 -292 294 0
-294 397 0
55 -294 296 0
-296 398 0
56 -296 298 0
-298 399 0
57 -298 300 0
-300 400 0
58 -300 302 0
-302 401 0
59 -302 304 0
-304 402 0
60 -304 306 0
-306 403 0
61 -306 308 0
-308 404 0
62 -308 310 0
-310 405 0
63 -310 312 0
-312 406 0
64 -312 314 0
-314 407 0
65 -314 316 0
-316 408 0
66 -316 318 0
-318 409 0
67 -318 320 0
-320 410 0
68 -320 322 0
-322 411 0
69 -322 324 0
-324 412 0
70 -324 326 0
-326 413 0
71 -326 328 0
-328 414 0
72 -328 330 0
-330 415 0
73 -330 332 0
-332 416 0
74 -332 334 0
-334 417 0
75 -334 336 0
-336 418 0
76 -336 338 0
-338 419 0
77 -338 340 0
-340 420 0
78 -340 342 0
-342 421 0
79 -342 344 0
-344 422 0
80 -344 0
3 345 0
-345 423 0
4 -345 346 0
-346 424 0
5 -346 347 0
-347 425 0
6 -347 348 0
-348 426 0
7 -348 349 0
-349 427 0
8 -349 350 0
-350 428 0
9 -350 351 0
-351 429 0
10 -351 352 0
-352 430 0
11 -352 353 0
-353 431 0
12 -353 354 0
-354 432 0
13 -354 355 0
-355 433 0
14 -355 356 0
-356 434 0
15 -356 357 0
-357 435 0
16 -357 358 0
-358 436 0
17 -358 359 0
-359 437 0
18 -359 360 0
-360 438 0
19 -360 361 0
-361 439 0
20 -361 362 0
-362 440 0
21 -362 363 0
-363 441 0
22 -363 364 0
-364 442 0
23 -364 365 0
-365 443 0
24 -365 366 0
-366 444 0
25 -366 367 0
-367 445 0
26 -367 368 0
-368 446 0
27 -368 369 0
-369 447 0
28 -369 370 0
-370 448 0
29 -370 371 0
-371 449 0
30 -371 372 0
-372 450 0
31 -372 373 0
-373 451 0
32 -373 374 0
-374 452 0
33 -374 375 0
-375 453 0
34 -375 376 0
-376 454 0
35 -376 377 0
-377 455 0
36 -377 378 0
-378 456 0
37 -378 379 0
-379 457 0
38 -379 380 0
-380 458 0
39 -380 381 0
-381 459 0
40 -381 382 0
-382 460 0
41 -382 383 0
-383 461 0
42 -383 384 0
-384 462 0
43 -384 385 0
-385 463 0
44 -385 386 0
-386 464 0
45 -386 387 0
-387 465 0
46 -387 388 0
-388 466 0
47 -388 389 0
-389 467 0
48 -389 390 0
-390 468 0
49 -390 391 0
-391 469 0
50 -391 392 0
-392 470 0
51 -392 393 0
-393 471 0
52 -393 394 0
-394 472 0
53 -394 395 0
-395 473 0
54 -395 396 0
-396 474 0
55 -396 397 0
-397 475 0
56 -397 398 0
-398 476 0
57 -398 399 0
-399 477 0
58 -399 400 0
-400 478 0
59 -400 401 0
-401 479 0
60 -401 402 0
-402 480 0
61 -402 403 0
-403 481 0
62 -403 404 0
-404 482 0
63 -404 405 0
-405 483 0
64 -405 406 0
-406 484 0
65 -406 407 0
-407 485 0
66 -407 408 0
-408 486 0
67 -408 409 0
-409 487 0
68 -409 410 0
-410 488 0
69 -410 411 0
-411 489 0
70 -411 412 0
-412 490 0
71 -412 413 0
-413 491 0
72 -413 414 0
-414 492 0
73 -414 415 0
-415 493 0
74 -415 416 0
-416 494 0
75 -416 417 0
-417 495 0
76 -417 418 0
-418 496 0
77 -418 419 0
-419 497 0
78 -419 420 0
-420 498 0
79 -420 421 0
-421 499 0
80 -421 422 0
-422 500 0
81 -422 0
4 423 0
-423 501 0
5 -423 424 0
-424 502 0
6 -424 425 0
-425 503 0
7 -425 426 0
-426 504 0
8 -426 427 0
-427 505 0
9 -427 428 0
-428 506 0
10 -428 429 0
-429 507 0
11 -429 430 0
-430 508 0
12 -430 431 0
-431 509 0
13 -431 432 0
-432 510 0
14 -432 433 0
-433 511 0
15 -433 434 0
-434 512 0
16 -434 435 0
-435 513 0
17 -435 436 0
-436 514 0
18 -436 437 0
-437 515 0
19 -437 438 0
-438 516 0
20 -438 439 0
-439 517 0
21 -439 440 0
-440 518 0
22 -440 441 0
-441 519 0
23 -441 442 0
-442 520 0
24 -442 443 0
-443 521 0
25 -443 444 0
-444 522 0
26 -444 445 0
-445 523 0
27 -445 446 0
-446 524 0
28 -446 447 0
-447 525 0
29 -447 448 0
-448 526 0
30 -448 449 0
-449 527 0
31 -449 450 0
-450 528 0
32 -450 451 0
-451 529 0
33 -451 452 0
-452 530 0
34 -452 453 0
-453 531 0
35 -453 454 0
-454 532 0
36 -454 455 0
-455 533 0
37 -455 456 0
-456 534 0
38 -456 457 0
-457 535 0
39 -457 458 0
-458 536 0
40 -458 459 0
-459 537 0
41 -459 460 0
-460 538 0
42 -460 461 0
-461 539 0
43 -461 462 0
-462 540 0
44 -462 463 0
-463 541 0
45 -463 464 0
-464 542 0
46 -464 465 0
-465 543 0
47 -465 466 0
-466 544 0
48 -466 467 0
-467 545 0
49 -467 468 0
-468 546 0
50 -468 469 0
-469 547 0
51 -469 470 0
-470 548 0
52 -470 471 0
-471 549 0
53 -471 472 0
-472 550 0
54 -472 473 0
-473 551 0
55 -473 474 0
-474 552 0
56 -474 475 0
-475 553 0
57 -475 476 0
-476 554 0
58 -476 477 0
-477 555 0
59 -477 478 0
-478 556 0
60 -478 479 0
-479 557 0
61 -479 480 0
-480 558 0
62 -480 481 0
-481 559 0
63 -481 482 0
-482 560 0
64 -482 483 0
-483 561 0
65 -483 484 0
-484 562 0
66 -484 485 0
-485 563 0
67 -485 486 0
-486 564 0
68 -486 487 0
-487 565 0
69 -487 488 0
-488 566 0
70 -488 489 0
-489 567 0
71 -489 490 0
-490 568 0
72 -490 491 0
-491 569 0
73 -491 492 0
-492 570 0
74 -492 493 0
-493 571 0
75 -493 494 0
-494 572 0
76 -494 495 0
-495 573 0
77 -495 496 0
-496 574 0
78 -496 497 0
-497 575 0
79 -497 498 0
-498 576 0
80 -498 499 0
-499 577 0
81 -499 500 0
-500 578 0
82 -500 0
5 501 0
-501 579 0
6 -501 502 0
-502 580 0
7 -502 503 0
-503 581 0
8 -503 504 0
-504 582 0
9 -504 505 0
-505 583 0
10 -505 506 0
-506 584 0
11 -506 507 0
-507 585 0
12 -507 508 0
-508 586 0
13 -508 509 0
-509 587 0
14 -509 510 0
-510 588 0
15 -510 511 0
-511 589 0
16 -511 512 0
-512 590 0
17 -512 513 0
-513 591 0
18 -513 514 0
-514 592 0
19 -514 515 0
-515 593 0
20 -515 516 0
-516 594 0
21 -516 517 0
-517 595 0
22 -517 518 0
-518 596 0
23 -518 519 0
-519 597 0
24 -519 520 0
-520 598 0
25 -520 521 0
-521 599 0
26 -521 522 0
-522 600 0
27 -522 523 0
-523 601 0
28 -523 524 0
-524 602 0
29 -524 525 0
-525 603 0
30 -525 526 0
-526 604 0
31 -526 527 0
-527 605 0
32 -527 528 0
-528 606 0
33 -528 529 0
-529 607 0
34 -529 530 0
-530 608 0
35 -530 531 0
-531 609 0
36 -531 532 0
-532 610 0
37 -532 533 0
-533 611 0
38 -533 534 0
-534 612 0
39 -534 535 0
-535 613 0
40 -535 536 0
-536 614 0
41 -536 537 0
-537 615 0
42 -537 538 0
-538 616 0
43 -538 539 0
-539 617 0
44 -539 540 0
-540 618 0
45 -540 541 0
-541 619 0
46 -541 542 0
-542 620 0
47 -542 543 0
-543 621 0
48 -543 544 0
-544 622 0
49 -544 545 0
-545 623 0
50 -545 546 0
-546 624 0
51 -546 547 0
-547 625 0
52 -547 548 0
-548 626 0
53 -548 549 0
-549 627 0
54 -549 550 0
-550 628 0
55 -550 551 0
-551 629 0
56 -551 552 0
-552 630 0
57 -552 553 0
-553 631 0
58 -553 554 0
-554 632 0
59 -554 555 0
-555 633 0
60 -555 556 0
-556 634 0
61 -556 557 0
-557 635 0
62 -557 558 0
-558 636 0
63 -558 559 0
-559 637 0
64 -559 560 0
-560 638 0
65 -560 561 0
-561 639 0
66 -561 562 0
-562 640 0
67 -562 563 0
-563 641 0
68 -563 564 0
-564 642 0
69 -564 565 0
-565 643 0
70 -565 566 0
-566 644 0
71 -566 567 0
-567 645 0
72 -567 568 0
-568 646 0
73 -568 569 0
-569 647 0
74 -569 570 0
-570 648 0
75 -570 571 0
-571 649 0
76 -571 572 0
-572 650 0
77 -572 573 0
-573 651 0
78 -573 574 0
-574 652 0
79 -574 575 0
-575 653 0
80 -575 576 0
-576 654 0
81 -576 577 0
-577 655 0
82 -577 578 0
-578 656 0
83 -578 0
6 579 0
-579 657 0
7 -579 580 0
-580 658 0
8 -580 581 0
-581 659 0
9 -581 582 0
-582 660 0
10 -582 583 0
-583 661 0
11 -583 584 0
-584 662 0
12 -584 585 0
-585 663 0
13 -585 586 0
-586 664 0
14 -586 587 0
-587 665 0
15 -587 588 0
-588 666 0
16 -588 589 0
-589 667 0
17 -589 590 0
-590 668 0
18 -590 591 0
-591 669 0
19 -591 592 0
-592 670 0
20 -592 593 0
-593 671 0
21 -593 594 0
-594 672 0
22 -594 595 0
-595 673 0
23 -595 596 0
-596 674 0
24 -596 597 0
-597 675 0
25 -597 598 0
-598 676 0
26 -598 599 0
-599 677 0
27 -599 600 0
-600 678 0
28 -600 601 0
-601 679 0
29 -601 602 0
-602 680 0
30 -602 603 0
-603 681 0
31 -603 604 0
-604 682 0
32 -604 605 0
-605 683 0
33 -605 606 0
-606 684 0
34 -606 607 0
-607 685 0
35 -607 608 0
-608 686 0
36 -608 609 0
-609 687 0
37 -609 610 0
-610 688 0
38 -610 611 0
-611 689 0
39 -611 612 0
-612 690 0
40 -612 613 0
-613 691 0
41 -613 614 0
-614 692 0
42 -614 615 0
-615 693 0
43 -615 616 0
-616 694 0
44 -616 617 0
-617 695 0
45 -617 618 0
-618 696 0
46 -618 619 0
-619 697 0
47 -619 620 0
-620 698 0
48 -620 621 0
-621 699 0
49 -621 622 0
-622 700 0
50 -622 623 0
-623 701 0
51 -623 624 0
-624 702 0
52 -624 625 0
-625 703 0
53 -625 626 0
-626 704 0
54 -626 627 0
-627 705 0
55 -627 628 0
-628 706 0
56 -628 629 0
-629 707 0
57 -629 630 0
-630 708 0
58 -630 631 0
-631 709 0
59 -631 632 0
-632 710 0
60 -632 633 0
-633 711 0
61 -633 634 0
-634 712 0
62 -634 635 0
-635 713 0
63 -635 636 0
-636 714 0
64 -636 637 0
-637 715 0
65 -637 638 0
-638 716 0
66 -638 639 0
-639 717 0
67 -639 640 0
-640 718 0
68 -640 641 0
-641 719 0
69 -641 642 0
-642 720 0
70 -642 643 0
-643 721 0
71 -643 644 0
-644 722 0
72 -644 645 0
-645 723 0
73 -645 646 0
-646 724 0
74 -646 647 0
-647 725 0
75 -647 648 0
-648 726 0
76 -648 649 0
-649 727 0
77 -649 650 0
-650 728 0
78 -650 651 0
-651 729 0
79 -651 652 0
-652 730 0
80 -652 653 0
-653 731 0
81 -653 654 0
-654 732 0
82 -654 655 0
-655 733 0
83 -655 656 0
-656 734 0
84 -656 0
7 657 0
-657 735 0
8 -657 658 0
-658 736 0
9 -658 659 0
-659 737 0
10 -659 660 0
-660 738 0
11 -660 661 0
-661 739 0
12 -661 662 0
-662 740 0
13 -662 663 0
-663 741 0
14 -663 664 0
-664 742 0
15 -664 665 0
-665 743 0
16 -665 666 0
-666 744 0
17 -666 667 0
-667 745 0
18 -667 668 0
-668 746 0
19 -668 669 0
-669 747 0
20 -669 670 0
-670 748 0
21 -670 671 0
-671 749 0
22 -671 672 0
-672 750 0
23 -672 673 0
-673 751 0
24 -673 674 0
-674 752 0
25 -674 675 0
-675 753 0
26 -675 676 0
-676 754 0
27 -676 677 0
-677 755 0
28 -677 678 0
-678 756 0
29 -678 679 0
-679 757 0
30 -679 680 0
-680 758 0
31 -680 681 0
-681 759 0
32 -681 682 0
-682 760 0
33 -682 683 0
-683 761 0
34 -683 684 0
-684 762 0
35 -684 685 0
-685 763 0
36 -685 686 0
-686 764 0
37 -686 687 0
-687 765 0
38 -687 688 0
-688 766 0
39 -688 689 0
-689 767 0
40 -689 690 0
-690 768 0
41 -690 691 0
-691 769 0
42 -691 692 0
-692 770 0
43 -692 693 0
-693 771 0
44 -693 694 0
-694 772 0
45 -694 695 0
-695 773 0
46 -695 696 0
-696 774 0
47 -696 697 0
-697 775 0
48 -697 698 0
-698 776 0
49 -698 699 0
-699 777 0
50 -699 700 0
-700 778 0
51 -700 701 0
-701 779 0
52 -701 702 0
-702 780 0
53 -702 703 0
-703 781 0
54 -703 704 0
-704 782 0
55 -704 705 0
-705 783 0
56 -705 706 0
-706 784 0
57 -706 707 0
-707 785 0
58 -707 708 0
-708 786 0
59 -708 709 0
-709 787 0
60 -709 710 0
-710 788 0
61 -710 711 0
-711 789 0
62 -711 712 0
-712 790 0
63 -712 713 0
-713 791 0
64 -713 714 0
-714 792 0
65 -714 715 0
-715 793 0
66 -715 716 0
-716 794 0
67 -716 717 0
-717 795 0
68 -717 718 0
-718 796 0
69 -718 719 0
-719 797 0
70 -719 720 0
-720 798 0
71 -720 721 0
-721 799 0
72 -721 722 0
-722 800 0
73 -722 723 0
-723 801 0
74 -723 724 0
-724 802 0
75 -724 725 0
-725 803 0
76 -725 726 0
-726 804 0
77 -726 727 0
-727 805 0
78 -727 728 0
-728 806 0
79 -728 729 0
-729 807 0
80 -729 730 0
-730 808 0
81 -730 731 0
-731 809 0
82 -731 732 0
-732 810 0
83 -732 733 0
-733 811 0
84 -733 734 0
-734 812 0
85 -734 0
8 735 0
-735 813 0
9 -735 736 0
-736 814 0
10 -736 737 0
-737 815 0
11 -737 738 0
-738 816 0
12 -738 739 0
-739 817 0
13 -739 740 0
-740 818 0
14 -740 741 0
-741 819 0
15 -741 742 0
-742 820 0
16 -742 743 0
-743 821 0
17 -743 744 0
-744 822 0
18 -744 745 0
-745 823 0
19 -745 746 0
-746 824 0
20 -746 747 0
-747 825 0
21 -747 748 0
-748 826 0
22 -748 749 0
-749 827 0
23 -749 750 0
-750 828 0
24 -750 751 0
-751 829 0
25 -751 752 0
-752 830 0
26 -752 753 0
-753 831 0
27 -753 754 0
-754 832 0
28 -754 755 0
-755 833 0
29 -755 756 0
-756 834 0
30 -756 757 0
-757 835 0
31 -757 758 0
-758 836 0
32 -758 759 0
-759 837 0
33 -759 760 0
-760 838 0
34 -760 761 0
-761 839 0
35 -761 762 0
-762 840 0
36 -762 763 0
-763 841 0
37 -763 764 0
-764 842 0
38 -764 765 0
-765 843 0
39 -765 766 0
-766 844 0
40 -766 767 0
-767 845 0
41 -767 768 0
-768 846 0
42 -768 769 0
-769 847 0
43 -769 770 0
-770 848 0
44 -770 771 0
-771 849 0
45 -771 772 0
-772 850 0
46 -772 773 0
-773 851 0
47 -773 774 0
-774 852 0
48 -774 775 0
-775 853 0
49 -775 776 0
-776 854 0
50 -776 777 0
-777 855 0
51 -777 778 0
-778 856 0
52 -778 779 0
-779 857 0
53 -779 780 0
-780 858 0
54 -780 781 0
-781 859 0
55 -781 782 0
-782 860 0
56 -782 783 0
-783 861 0
57 -783 784 0
-784 862 0
58 -784 785 0
-785 863 0
59 -785 786 0
-786 864 0
60 -786 787 0
-787 865 0
61 -787 788 0
-788 866 0
62 -788 789 0
-789 867 0
63 -789 790 0
-790 868 0
64 -790 791 0
-791 869 0
65 -791 792 0
-792 870 0
66 -792 793 0
-793 871 0
67 -793 794 0
-794 872 0
68 -794 795 0
-795 873 0
69 -795 796 0
-796 874 0
70 -796 797 0
-797 875 0
71 -797 798 0
-798 876 0
72 -798 799 0
-799 877 0
73 -799 800 0
-800 878 0
74 -800 801 0
-801 879 0
75 -801 802 0
-802 880 0
76 -802 803 0
-803 881 0
77 -803 804 0
-804 882 0
78 -804 805 0
-805 883 0
79 -805 806 0
-806 884 0
80 -806 807 0
-807 885 0
81 -807 808 0
-808 886 0
82 -808 809 0
-809 887 0
83 -809 810 0
-810 888 0
84 -810 811 0
-811 889 0
85 -811 812 0
-812 890 0
86 -812 0
9 813 0
-813 891 0
10 -813 814 0
-814 892 0
11 -814 815 0
-815 893 0
12 -815 816 0
-816 894 0
13 -816 817 0
-817 895 0
14 -817 818 0
-818 896 0
15 -818 819 0
-819 897 0
16 -819 820 0
-820 898 0
17 -820 821 0
-821 899 0
18 -821 822 0
-822 900 0
19 -822 823 0
-823 901 0
20 -823 824 0
-824 902 0
21 -824 825 0
-825 903 0
22 -825 826 0
-826 904 0
23 -826 827 0
-827 905 0
24 -827 828 0
-828 906 0
25 -828 829 0
-829 907 0
26 -829 830 0
-830 908 0
27 -830 831 0
-831 909 0
28 -831 832 0
-832 910 0
29 -832 833 0
-833 911 0
30 -833 834 0
-834 912 0
31 -834 835 0
-835 913 0
32 -835 836 0
-836 914 0
33 -836 837 0
-837 915 0
34 -837 838 0
-838 916 0
35 -838 839 0
-839 917 0
36 -839 840 0
-840 918 0
37 -840 841 0
-841 919 0
38 -841 842 0
-842 920 0
39 -842 843 0
-843 921 0
40 -843 844 0
-844 922 0
41 -844 845 0
-845 923 0
42 -845 846 0
-846 924 0
43 -846 847 0
-847 925 0
44 -847 848 0
-848 926 0
45 -848 849 0
-849 927 0
46 -849 850 0
-850 928 0
47 -850 851 0
-851 929 0
48 -851 852 0
-852 930 0
49 -852 853 0
-853 931 0
50 -853 854 0
-854 932 0
51 -854 855 0
-855 933 0
52 -855 856 0
-856 934 0
53 -856 857 0
-857 935 0
54 -857 858 0
-858 936 0
55 -858 859 0
-859 937 0
56 -859 860 0
-860 938 0
57 -860 861 0
-861 939 0
58 -861 862 0
-862 940 0
59 -862 863 0
-863 941 0
60 -863 864 0
-864 942 0
61 -864 865 0
-865 943 0
62 -865 866 0
-866 944 0
63 -866 867 0
-867 945 0
64 -867 868 0
-868 946 0
65 -868 869 0
-869 947 0
66 -869 870 0
-870 948 0
67 -870 871 0
-871 949 0
68 -871 872 0
-872 950 0
69 -872 873 0
-873 951 0
70 -873 874 0
-874 952 0
71 -874 875 0
-875 953 0
72 -875 876 0
-876 954 0
73 -876 877 0
-877 955 0
74 -877 878 0
-878 956 0
75 -878 879 0
-879 957 0
76 -879 880 0
-880 958 0
77 -880 881 0
-881 959 0
78 -881 882 0
-882 960 0
79 -882 883 0
-883 961 0
80 -883 884 0
-884 962 0
81 -884 885 0
-885 963 0
82 -885 886 0
-886 964 0
83 -886 887 0
-887 965 0
84 -887 888 0
-888 966 0
85 -888 889 0
-889 967 0
86 -889 890 0
-890 968 0
87 -890 0
10 891 0
-891 969 0
11 -891 892 0
-892 970 0
12 -892 893 0
-893 971 0
13 -893 894 0
-894 972 0
14 -894 895 0
-895 973 0
15 -895 896 0
-896 974 0
16 -896 897 0
-897 975 0
17 -897 898 0
-898 976 0
18 -898 899 0
-899 977 0
19 -899 900 0
-900 978 0
20 -900 901 0
-901 979 0
21 -901 902 0
-902 980 0
22 -902 903 0
-903 981 0
23 -903 904 0
-904 982 0
24 -904 905 0
-905 983 0
25 -905 906 0
-906 984 0
26 -906 907 0
-907 985 0
27 -907 908 0
-908 986 0
28 -908 909 0
-909 987 0
29 -909 910 0
-910 988 0
30 -910 911 0
-911 989 0
31 -911 912 0
-912 990 0
32 -912 913 0
-913 991 0
33 -913 914 0
-914 992 0
34 -914 915 0
-915 993 0
35 -915 916 0
-916 994 0
36 -916 917 0
-917 995 0
37 -917 918 0
-918 996 0
38 -918 919 0
-919 997 0
39 -919 920 0
-920 998 0
40 -920 921 0
-921 999 0
41 -921 922 0
-922 1000 0
42 -922 923 0
-923 1001 0
43 -923 924 0
-924 1002 0
44 -924 925 0
-925 1003 0
45 -925 926 0
-926 1004 0
46 -926 927 0
-927 1005 0
47 -927 928 0
-928 1006 0
48 -928 929 0
-929 1007 0
49 -929 930 0
-930 1008 0
50 -930 931 0
-931 1009 0
51 -931 932 0
-932 1010 0
52 -932 933 0
-933 1011 0
53 -933 934 0
-934 1012 0
54 -934 935 0
-935 1013 0
55 -935 936 0
-936 1014 0
56 -936 937 0
-937 1015 0
57 -937 938 0
-938 1016 0
58 -938 939 0
-939 1017 0
59 -939 940 0
-940 1018 0
60 -940 941 0
-941 1019 0
61 -941 942 0
-942 1020 0
62 -942 943 0
-943 1021 0
63 -943 944 0
-944 1022 0
64 -944 945 0
-945 1023 0
65 -945 946 0
-946 1024 0
66 -946 947 0
-947 1025 0
67 -947 948 0
-948 1026 0
68 -948 949 0
-949 1027 0
69 -949 950 0
-950 1028 0
70 -950 951 0
-951 1029 0
71 -951 952 0
-952 1030 0
72 -952 953 0
-953 1031 0
73 -953 954 0
-954 1032 0
74 -954 955 0
-955 1033 0
75 -955 956 0
-956 1034 0
76 -956 957 0
-957 1035 0
77 -957 958 0
-958 1036 0
78 -958 959 0
-959 1037 0
79 -959 960 0
-960 1038 0
80 -960 961 0
-961 1039 0
81 -961 962 0
-962 1040 0
82 -962 963 0
-963 1041 0
83 -963 964 0
-964 1042 0
84 -964 965 0
-965 1043 0
85 -965 966 0
-966 1044 0
86 -966 967 0
-967 1045 0
87 -967 968 0
-968 1046 0
88 -968 0
11 969 0
-969 1047 0
12 -969 970 0
-970 1048 0
13 -970 971 0
-971 1049 0
14 -971 972 0
-972 1050 0
15 -972 973 0
-973 1051 0
16 -973 974 0
-974 1052 0
17 -974 975 0
-975 1053 0
18 -975 976 0
-976 1054 0
19 -976 977 0
-977 1055 0
20 -977 978 0
-978 1056 0
21 -978 979 0
-979 1057 0
22 -979 980 0
-980 1058 0
23 -980 981 0
-981 1059 0
24 -981 982 0
-982 1060 0
25 -982 983 0
-983 1061 0
26 -983 984 0
-984 1062 0
27 -984 985 0
-985 1063 0
28 -985 986 0
-986 1064 0
29 -986 987 0
-987 1065 0
30 -987 988 0
-988 1066 0
31 -988 989 0
-989 1067 0
32 -989 990 0
-990 1068 0
33 -990 991 0
-991 1069 0
34 -991 992 0
-992 1070 0
35 -992 993 0
-993 1071 0
36 -993 994 0
-994 1072 0
37 -994 995 0
-995 1073 0
38 -995 996 0
-996 1074 0
39 -996 997 0
-997 1075 0
40 -997 998 0
-998 1076 0
41 -998 999 0
-999 1077 0
42 -999 1000 0
-1000 1078 0
43 -1000 1001 0
-1001 1079 0
44 -1001 1002 0
-1002 1080 0
45 -1002 1003 0
-1003 1081 0
46 -1003 1004 0
-1004 1082 0
47 -1004 1005 0
-1005 1083 0
48 -1005 1006 0
-1006 1084 0
49 -1006 1007 0
-1007 1085 0
50 -1007 1008 0
-1008 1086 0
51 -1008 1009 0
-1009 1087 0
52 -1009 1010 0
-1010 1088 0
53 -1010 1011 0
-1011 1089 0
54 -1011 1012 0
-1012 1090 0
55 -1012 1013 0
-1013 1091 0
56 -1013 1014 0
-1014 1092 0
57 -1014 1015 0
-1015 1093 0
58 -1015 1016 0
-1016 1094 0
59 -1016 1017 0
-1017 1095 0
60 -1017 1018 0
-1018 1096 0
61 -1018 1019 0
-1019 1097 0
62 -1019 1020 0
-1020 1098 0
63 -1020 1021 0
-1021 1099 0
64 -1021 1022 0
-1022 1100 0
65 -1022 1023 0
-1023 1101 0
66 -1023 1024 0
-1024 1102 0
67 -1024 1025 0
-1025 1103 0
68 -1025 1026 0
-1026 1104 0
69 -1026 1027 0
-1027 1105 0
70 -1027 1028 0
-1028 1106 0
71 -1028 1029 0
-1029 1107 0
72 -1029 1030 0
-1030 1108 0
73 -1030 1031 0
-1031 1109 0
74 -1031 1032 0
-1032 1110 0
75 -1032 1033 0
-1033 1111 0
76 -1033 1034 0
-1034 1112 0
77 -1034 1035 0
-1035 1113 0
78 -1035 1036 0
-1036 1114 0
79 -1036 1037 0
-1037 1115 0
80 -1037 1038 0
-1038 1116 0
81 -1038 1039 0
-1039 1117 0
82 -1039 1040 0
-1040 1118 0
83 -1040 1041 0
-1041 1119 0
84 -1041 1042 0
-1042 1120 0
85 -1042 1043 0
-1043 1121 0
86 -1043 1044 0
-1044 1122 0
87 -1044 1045 0
-1045 1123 0
88 -1045 1046 0
-1046 1124 0
89 -1046 0
12 1047 0
-1047 1125 0
13 -1047 1048 0
-1048 1126 0
14 -1048 1049 0
-1049 1127 0
15 -1049 1050 0
-1050 1128 0
16 -1050 1051 0
-1051 1129 0
17 -1051 1052 0
-1052 1130 0
18 -1052 1053 0
-1053 1131 0
19 -1053 1054 0
-1054 1132 0
20 -1054 1055 0
-1055 1133 0
21 -1055 1056 0
-1056 1134 0
22 -1056 1057 0
-1057 1135 0
23 -1057 1058 0
-1058 1136 0
24 -1058 1059 0
-1059 1137 0
25 -1059 1060 0
-1060 1138 0
26 -1060 1061 0
-1061 1139 0
27 -1061 1062 0
-1062 1140 0
28 -1062 1063 0
-1063 1141 0
29 -1063 1064 0
-1064 1142 0
30 -1064 1065 0
-1065 1143 0
31 -1065 1066 0
-1066 1144 0
32 -1066 1067 0
-1067 1145 0
33 -1067 1068 0
-1068 1146 0
34 -1068 1069 0
-1069 1147 0
35 -1069 1070 0
-1070 1148 0
36 -1070 1071 0
-1071 1149 0
37 -1071 1072 0
-1072 1150 0
38 -1072 1073 0
-1073 1151 0
39 -1073 1074 0
-1074 1152 0
40 -1074 1075 0
-1075 1153 0
41 -1075 1076 0
-1076 1154 0
42 -1076 1077 0
-1077 1155 0
43 -1077 1078 0
-1078 1156 0
44 -1078 1079 0
-1079 1157 0
45 -1079 1080 0
-1080 1158 0
46 -1080 1081 0
-1081 1159 0
47 -1081 1082 0
-1082 1160 0
48 -1082 1083 0
-1083 1161 0
49 -1083 1084 0
-1084 1162 0
50 -1084 1085 0
-1085 1163 0
51 -1085 1086 0
-1086 1164 0
52 -1086 1087 0
-1087 1165 0
53 -1087 1088 0
-1088 1166 0
54 -1088 1089 0
-1089 1167 0
55 -1089 1090 0
-1090 1168 0
56 -1090 1091 0
-1091 1169 0
57 -1091 1092 0
-1092 1170 0
58 -1092 1093 0
-1093 1171 0
59 -1093 1094 0
-1094 1172 0
60 -1094 1095 0
-1095 1173 0
61 -1095 1096 0
-1096 1174 0
62 -1096 1097 0
-1097 1175 0
63 -1097 1098 0
-1098 1176 0
64 -1098 1099 0
-1099 1177 0
65 -1099 1100 0
-1100 1178 0
66 -1100 1101 0
-1101 1179 0
67 -1101 1102 0
-1102 1180 0
68 -1102 1103 0
-1103 1181 0
69 -1103 1104 0
-1104 1182 0
70 -1104 1105 0
-1105 1183 0
71 -1105 1106 0
-1106 1184 0
72 -1106 1107 0
-1107 1185 0
73 -1107 1108 0
-1108 1186 0
74 -1108 1109 0
-1109 1187 0
75 -1109 1110 0
-1110 1188 0
76 -1110 1111 0
-1111 1189 0
77 -1111 1112 0
-1112 1190 0
78 -1112 1113 0
-1113 1191 0
79 -1113 1114 0
-1114 1192 0
80 -1114 1115 0
-1115 1193 0
81 -1115 1116 0
-1116 1194 0
82 -1116 1117 0
-1117 1195 0
83 -1117 1118 0
-1118 1196 0
84 -1118 1119 0
-1119 1197 0
85 -1119 1120 0
-1120 1198 0
86 -1120 1121 0
-1121 1199 0
87 -1121 1122 0
-1122 1200 0
88 -1122 1123 0
-1123 1201 0
89 -1123 1124 0
-1124 1202 0
90 -1124 0
13 1125 0
-1125 1203 0
14 -1125 1126 0
-1126 1204 0
15 -1126 1127 0
-1127 1205 0
16 -1127 1128 0
-1128 1206 0
17 -1128 1129 0
-1129 1207 0
18 -1129 1130 0
-1130 1208 0
19 -1130 1131 0
-1131 1209 0
20 -1131 1132 0
-1132 1210 0
21 -1132 1133 0
-1133 1211 0
22 -1133 1134 0
-1134 1212 0
23 -1134 1135 0
-1135 1213 0
24 -1135 1136 0
-1136 1214 0
25 -1136 1137 0
-1137 1215 0
26 -1137 1138 0
-1138 1216 0
27 -1138 1139 0
-1139 1217 0
28 -1139 1140 0
-1140 1218 0
29 -1140 1141 0
-1141 1219 0
30 -1141 1142 0
-1142 1220 0
31 -1142 1143 0
-1143 1221 0
32 -1143 1144 0
-1144 1222 0
33 -1144 1145 0
-1145 1223 0
34 -1145 1146 0
-1146 1224 0
35 -1146 1147 0
-1147 1225 0
36 -1147 1148 0
-1148 1226 0
37 -1148 1149 0
-1149 1227 0
38 -1149 1150 0
-1150 1228 0
39 -1150 1151 0
-1151 1229 0
40 -1151 1152 0
-1152 1230 0
41 -1152 1153 0
-1153 1231 0
42 -1153 1154 0
-1154 1232 0
43 -1154 1155 0
-1155 1233 0
44 -1155 1156 0
-1156 1234 0
45 -1156 1157 0
-1157 1235 0
46 -1157 1158 0
-1158 1236 0
47 -1158 1159 0
-1159 1237 0
48 -1159 1160 0
-1160 1238 0
49 -1160 1161 0
-1161 1239 0
50 -1161 1162 0
-1162 1240 0
51 -1162 1163 0
-1163 1241 0
52 -1163 1164 0
-1164 1242 0
53 -1164 1165 0
-1165 1243 0
54 -1165 1166 0
-1166 1244 0
55 -1166 1167 0
-1167 1245 0
56 -1167 1168 0
-1168 1246 0
57 -1168 1169 0
-1169 1247 0
58 -1169 1170 0
-1170 1248 0
59 -1170 1171 0
-1171 1249 0
60 -1171 1172 0
-1172 1250 0
61 -1172 1173 0
-1173 1251 0
62 -1173 1174 0
-1174 1252 0
63 -1174 1175 0
-1175 1253 0
64 -1175 1176 0
-1176 1254 0
65 -1176 1177 0
-1177 1255 0
66 -1177 1178 0
-1178 1256 0
67 -1178 1179 0
-1179 1257 0
68 -1179 1180 0
-1180 1258 0
69 -1180 1181 0
-1181 1259 0
70 -1181 1182 0
-1182 1260 0
71 -1182 1183 0
-1183 1261 0
72 -1183 1184 0
-1184 1262 0
73 -1184 1185 0
-1185 1263 0
74 -1185 1186 0
-1186 1264 0
75 -1186 1187 0
-1187 1265 0
76 -1187 1188 0
-1188 1266 0
77 -1188 1189 0
-1189 1267 0
78 -1189 1190 0
-1190 1268 0
79 -1190 1191 0
-1191 1269 0
80 -1191 1192 0
-1192 1270 0
81 -1192 1193 0
-1193 1271 0
82 -1193 1194 0
-1194 1272 0
83 -1194 1195 0
-1195 1273 0
84 -1195 1196 0
-1196 1274 0
85 -1196 1197 0
-1197 1275 0
86 -1197 1198 0
-1198 1276 0
87 -1198 1199 0
-1199 1277 0
88 -1199 1200 0
-1200 1278 0
89 -1200 1201 0
-1201 1279 0
90 -1201 1202 0
-1202 1280 0
91 -1202 0
14 1203 0
-1203 1281 0
15 -1203 1204 0
-1204 1282 0
16 -1204 1205 0
-1205 1283 0
17 -1205 1206 0
-1206 1284 0
18 -1206 1207 0
-1207 1285 0
19 -1207 1208 0
-1208 1286 0
20 -1208 1209 0
-1209 1287 0
21 -1209 1210 0
-1210 1288 0
22 -1210 1211 0
-1211 1289 0
23 -1211 1212 0
-1212 1290 0
24 -1212 1213 0
-1213 1291 0
25 -1213 1214 0
-1214 1292 0
26 -1214 1215 0
-1215 1293 0
27 -1215 1216 0
-1216 1294 0
28 -1216 1217 0
-1217 1295 0
29 -1217 1218 0
-1218 1296 0
30 -1218 1219 0
-1219 1297 0
31 -1219 1220 0
-1220 1298 0
32 -1220 1221 0
-1221 1299 0
33 -1221 1222 0
-1222 1300 0
34 -1222 1223 0
-1223 1301 0
35 -1223 1224 0
-1224 1302 0
36 -1224 1225 0
-1225 1303 0
37 -1225 1226 0
-1226 1304 0
38 -1226 1227 0
-1227 1305 0
39 -1227 1228 0
-1228 1306 0
40 -1228 1229 0
-1229 1307 0
41 -1229 1230 0
-1230 1308 0
42 -1230 1231 0
-1231 1309 0
43 -1231 1232 0
-1232 1310 0
44 -1232 1233 0
-1233 1311 0
45 -1233 1234 0
-1234 1312 0
46 -1234 1235 0
-1235 1313 0
47 -1235 1236 0
-1236 1314 0
48 -1236 1237 0
-1237 1315 0
49 -1237 1238 0
-1238 1316 0
50 -1238 1239 0
-1239 1317 0
51 -1239 1240 0
-1240 1318 0
52 -1240 1241 0
-1241 1319 0
53 -1241 1242 0
-1242 1320 0
54 -1242 1243 0
-1243 1321 0
55 -1243 1244 0
-1244 1322 0
56 -1244 1245 0
-1245 1323 0
57 -1245 1246 0
-1246 1324 0
58 -1246 1247 0
-1247 1325 0
59 -1247 1248 0
-1248 1326 0
60 -1248 1249 0
-1249 1327 0
61 -1249 1250 0
-1250 1328 0
62 -1250 1251 0
-1251 1329 0
63 -1251 1252 0
-1252 1330 0
64 -1252 1253 0
-1253 1331 0
65 -1253 1254 0
-1254 1332 0
66 -1254 1255 0
-1255 1333 0
67 -1255 1256 0
-1256 1334 0
68 -1256 1257 0
-1257 1335 0
69 -1257 1258 0
-1258 1336 0
70 -1258 1259 0
-1259 1337 0
71 -1259 1260 0
-1260 1338 0
72 -1260 1261 0
-1261 1339 0
73 -1261 1262 0
-1262 1340 0
74 -1262 1263 0
-1263 1341 0
75 -1263 1264 0
-1264 1342 0
76 -1264 1265 0
-1265 1343 0
77 -1265 1266 0
-1266 1344 0
78 -1266 1267 0
-1267 1345 0
79 -1267 1268 0
-1268 1346 0
80 -1268 1269 0
-1269 1347 0
81 -1269 1270 0
-1270 1348 0
82 -1270 1271 0
-1271 1349 0
83 -1271 1272 0
-1272 1350 0
84 -1272 1273 0
-1273 1351 0
85 -1273 1274 0
-1274 1352 0
86 -1274 1275 0
-1275 1353 0
87 -1275 1276 0
-1276 1354 0
88 -1276 1277 0
-1277 1355 0
89 -1277 1278 0
-1278 1356 0
90 -1278 1279 0
-1279 1357 0
91 -1279 1280 0
-1280 1358 0
92 -1280 0
15 1281 0
-1281 1359 0
16 -1281 1282 0
-1282 1360 0
17 -1282 1283 0
-1283 1361 0
18 -1283 1284 0
-1284 1362 0
19 -1284 1285 0
-1285 1363 0
20 -1285 1286 0
-1286 1364 0
21 -1286 1287 0
-1287 1365 0
22 -1287 1288 0
-1288 1366 0
23 -1288 1289 0
-1289 1367 0
24 -1289 1290 0
-1290 1368 0
25 -1290 1291 0
-1291 1369 0
26 -1291 1292 0
-1292 1370 0
27 -1292 1293 0
-1293 1371 0
28 -1293 1294 0
-1294 1372 0
29 -1294 1295 0
-1295 1373 0
30 -1295 1296 0
-1296 1374 0
31 -1296 1297 0
-1297 1375 0
32 -1297 1298 0
-1298 1376 0
33 -1298 1299 0
-1299 1377 0
34 -1299 1300 0
-1300 1378 0
35 -1300 1301 0
-1301 1379 0
36 -1301 1302 0
-1302 1380 0
37 -1302 1303 0
-1303 1381 0
38 -1303 1304 0
-1304 1382 0
39 -1304 1305 0
-1305 1383 0
40 -1305 1306 0
-1306 1384 0
41 -1306 1307 0
-1307 1385 0
42 -1307 1308 0
-1308 1386 0
43 -1308 1309 0
-1309 1387 0
44 -1309 1310 0
-1310 1388 0
45 -1310 1311 0
-1311 1389 0
46 -1311 1312 0
-1312 1390 0
47 -1312 1313 0
-1313 1391 0
48 -1313 1314 0
-1314 1392 0
49 -1314 1315 0
-1315 1393 0
50 -1315 1316 0
-1316 1394 0
51 -1316 1317 0
-1317 1395 0
52 -1317 1318 0
-1318 1396 0
53 -1318 1319 0
-1319 1397 0
54 -1319 1320 0
-1320 1398 0
55 -1320 1321 0
-1321 1399 0
56 -1321 1322 0
-1322 1400 0
57 -1322 1323 0
-1323 1401 0
58 -1323 1324 0
-1324 1402 0
59 -1324 1325 0
-1325 1403 0
60 -1325 1326 0
-1326 1404 0
61 -1326 1327 0
-1327 1405 0
62 -1327 1328 0
-1328 1406 0
63 -1328 1329 0
-1329 1407 0
64 -1329 1330 0
-1330 1408 0
65 -1330 1331 0
-1331 1409 0
66 -1331 1332 0
-1332 1410 0
67 -1332 1333 0
-1333 1411 0
68 -1333 1334 0
-1334 1412 0
69 -1334 1335 0
-1335 1413 0
70 -1335 1336 0
-1336 1414 0
71 -1336 1337 0
-1337 1415 0
72 -1337 1338 0
-1338 1416 0
73 -1338 1339 0
-1339 1417 0
74 -1339 1340 0
-1340 1418 0
75 -1340 1341 0
-1341 1419 0
76 -1341 1342 0
-1342 1420 0
77 -1342 1343 0
-1343 1421 0
78 -1343 1344 0
-1344 1422 0
79 -1344 1345 0
-1345 1423 0
80 -1345 1346 0
-1346 1424 0
81 -1346 1347 0
-1347 1425 0
82 -1347 1348 0
-1348 1426 0
83 -1348 1349 0
-1349 1427 0
84 -1349 1350 0
-1350 1428 0
85 -1350 1351 0
-1351 1429 0
86 -1351 1352 0
-1352 1430 0
87 -1352 1353 0
-1353 1431 0
88 -1353 1354 0
-1354 1432 0
89 -1354 1355 0
-1355 1433 0
90 -1355 1356 0
-1356 1434 0
91 -1356 1357 0
-1357 1435 0
92 -1357 1358 0
-1358 1436 0
93 -1358 0
16 1359 0
17 -1359 1360 0
18 -1360 1361 0
19 -1361 1362 0
20 -1362 1363 0
21 -1363 1364 0
22 -1364 1365 0
23 -1365 1366 0
24 -1366 1367 0
25 -1367 1368 0
26 -1368 1369 0
27 -1369 1370 0
28 -1370 1371 0
29 -1371 1372 0
30 -1372 1373 0
31 -1373 1374 0
32 -1374 1375 0
33 -1375 1376 0
34 -1376 1377 0
35 -1377 1378 0
36 -1378 1379 0
37 -1379 1380 0
38 -1380 1381 0
39 -1381 1382 0
40 -1382 1383 0
41 -1383 1384 0
42 -1384 1385 0
43 -1385 1386 0
44 -1386 1387 0
45 -1387 1388 0
46 -1388 1389 0
47 -1389 1390 0
48 -1390 1391 0
49 -1391 1392 0
50 -1392 1393 0
51 -1393 1394 0
52 -1394 1395 0
53 -1395 1396 0
54 -1396 1397 0
55 -1397 1398 0
56 -1398 1399 0
57 -1399 1400 0
58 -1400 1401 0
59 -1401 1402 0
60 -1402 1403 0
61 -1403 1404 0
62 -1404 1405 0
63 -1405 1406 0
64 -1406 1407 0
65 -1407 1408 0
66 -1408 1409 0
67 -1409 1410 0
68 -1410 1411 0
69 -1411 1412 0
70 -1412 1413 0
71 -1413 1414 0
72 -1414 1415 0
73 -1415 1416 0
74 -1416 1417 0
75 -1417 1418 0
76 -1418 1419 0
77 -1419 1420 0
78 -1420 1421 0
79 -1421 1422 0
80 -1422 1423 0
81 -1423 1424 0
82 -1424 1425 0
83 -1425 1426 0
84 -1426 1427 0
85 -1427 1428 0
86 -1428 1429 0
87 -1429 1430 0
88 -1430 1431 0
89 -1431 1432 0
90 -1432 1433 0
91 -1433 1434 0
92 -1434 1435 0
93 -1435 1436 0
94 -1436 0
-1 1437 0
-1437 1438 0
-2 -1437 1439 0
-1439 1440 0
-3 -1439 1441 0
-1441 1442 0
-4 -1441 1443 0
-1443 1444 0
-5 -1443 1445 0
-1445 1446 0
-6 -1445 1447 0
-1447 1448 0
-7 -1447 1449 0
-1449 1450 0
-8 -1449 1451 0
-1451 1452 0
-9 -1451 1453 0
-1453 1454 0
-10 -1453 1455 0
-1455 1456 0
-11 -1455 1457 0
-1457 1458 0
-12 -1457 1459 0
-1459 1460 0
-13 -1459 1461 0
-1461 1462 0
-14 -1461 1463 0
-1463 1464 0
-15 -1463 1465 0
-1465 1466 0
-16 -1465 1467 0
-1467 1468 0
-17 -1467 0
-2 1438 0
-1438 1469 0
-3 -1438 1440 0
-1440 1470 0
-4 -1440 1442 0
-1442 1471 0
-5 -1442 1444 0
-1444 1472 0
-6 -1444 1446 0
-1446 1473 0
-7 -1446 1448 0
-1448 1474 0
-8 -1448 1450 0
-1450 1475 0
-9 -1450 1452 0
-1452 1476 0
-10 -1452 1454 0
-1454 1477 0
-11 -1454 1456 0
-1456 1478 0
-12 -1456 1458 0
-1458 1479 0
-13 -1458 1460 0
-1460 1480 0
-14 -1460 1462 0
-1462 1481 0
-15 -1462 1464 0
-1464 1482 0
-16 -1464 1466 0
-1466 1483 0
-17 -1466 1468 0
-1468 1484 0
-18 -1468 0
-3 1469 0
-1469 1485 0
-4 -1469 1470 0
-1470 1486 0
-5 -1470 1471 0
-1471 1487 0
-6 -1471 1472 0
-1472 1488 0
-7 -1472 1473 0
-1473 1489 0
-8 -1473 1474 0
-1474 1490 0
-9 -1474 1475 0
-1475 1491 0
-10 -1475 1476 0
-1476 1492 0
-11 -1476 1477 0
-1477 1493 0
-12 -1477 1478 0
-1478 1494 0
-13 -1478 1479 0
-1479 1495 0
-14 -1479 1480 0
-1480 1496 0
-15 -1480 1481 0
-1481 1497 0
-16 -1481 1482 0
-1482 1498 0
-17 -1482 1483 0
-1483 1499 0
-18 -1483 1484 0
-1484 1500 0
-19 -1484 0
-4 1485 0
-1485 1501 0
-5 -1485 1486 0
-1486 1502 0
-6 -1486 1487 0
-1487 1503 0
-7 -1487 1488 0
-1488 1504 0
-8 -1488 1489 0
-1489 1505 0
-9 -1489 1490 0
-1490 1506 0
-10 -1490 1491 0
-1491 1507 0
-11 -1491 1492 0
-1492 1508 0
-12 -1492 1493 0
-1493 1509 0
-13 -1493 1494 0
-1494 1510 0
-14 -1494 1495 0
-1495 1511 0
-15 -1495 1496 0
-1496 1512 0
-16 -1496 1497 0
-1497 1513 0
-17 -1497 1498 0
-1498 1514 0
-18 -1498 1499 0
-1499 1515 0
-19 -1499 1500 0
-1500 1516 0
-20 -1500 0
-5 1501 0
-1501 1517 0
-6 -1501 1502 0
-1502 1518 0
-7 -1502 1503 0
-1503 1519 0
-8 -1503 1504 0
-1504 1520 0
-9 -1504 1505 0
-1505 1521 0
-10 -1505 1506 0
-1506 1522 0
-11 -1506 1507 0
-1507 1523 0
-12 -1507 1508 0
-1508 1524 0
-13 -1508 1509 0
-1509 1525 0
-14 -1509 1510 0
-1510 1526 0
-15 -1510 1511 0
-1511 1527 0
-16 -1511 1512 0
-1512 1528 0
-17 -1512 1513 0
-1513 1529 0
-18 -1513 1514 0
-1514 1530 0
-19 -1514 1515 0
-1515 1531 0
-20 -1515 1516 0
-1516 1532 0
-21 -1516 0
-6 1517 0
-1517 1533 0
-7 -1517 1518 0
-1518 1534 0
-8 -1518 1519 0
-1519 1535 0
-9 -1519 1520 0
-1520 1536 0
-10 -1520 1521 0
-1521 1537 0
-11 -1521 1522 0
-1522 1538 0
-12 -1522 1523 0
-1523 1539 0
-13 -1523 1524 0
-1524 1540 0
-14 -1524 1525 0
-1525 1541 0
-15 -1525 1526 0
-1526 1542 0
-16 -1526 1527 0
-1527 1543 0
-17 -1527 1528 0
-1528 1544 0
-18 -1528 1529 0
-1529 1545 0
-19 -1529 1530 0
-1530 1546 0
-20 -1530 1531 0
-1531 1547 0
-21 -1531 1532 0
-1532 1548 0
-22 -1532 0
-7 1533 0
-1533 1549 0
-8 -1533 1534 0
-1534 1550 0
-9 -1534 1535 0
-1535 1551 0
-10 -1535 1536 0
-1536 1552 0
-11 -1536 1537 0
-1537 1553 0
-12 -1537 1538 0
-1538 1554 0
-13 -1538 1539 0
-1539 1555 0
-14 -1539 1540 0
-1540 1556 0
-15 -1540 1541 0
-1541 1557 0
-16 -1541 1542 0
-1542 1558 0
-17 -1542 1543 0
-1543 1559 0
-18 -1543 1544 0
-1544 1560 0
-19 -1544 1545 0
-1545 1561 0
-20 -1545 1546 0
-1546 1562 0
-21 -1546 1547 0
-1547 1563 0
-22 -1547 1548 0
-1548 1564 0
-23 -1548 0
-8 1549 0
-1549 1565 0
-9 -1549 1550 0
-1550 1566 0
-10 -1550 1551 0
-1551 1567 0
-11 -1551 1552 0
-1552 1568 0
-12 -1552 1553 0
-1553 1569 0
-13 -1553 1554 0
-1554 1570 0
-14 -1554 1555 0
-1555 1571 0
-15 -1555 1556 0
-1556 1572 0
-16 -1556 1557 0
-1557 1573 0
-17 -1557 1558 0
-1558 1574 0
-18 -1558 1559 0
-1559 1575 0
-19 -1559 1560 0
-1560 1576 0
-20 -1560 1561 0
-1561 1577 0
-21 -1561 1562 0
-1562 1578 0
-22 -1562 1563 0
-1563 1579 0
-23 -1563 1564 0
-1564 1580 0
-24 -1564 0
-9 1565 0
-1565 1581 0
-10 -1565 1566 0
-1566 1582 0
-11 -1566 1567 0
-1567 1583 0
-12 -1567 1568 0
-1568 1584 0
-13 -1568 1569 0
-1569 1585 0
-14 -1569 1570 0
-1570 1586 0
-15 -1570 1571 0
-1571 1587 0
-16 -1571 1572 0
-1572 1588 0
-17 -1572 1573 0
-1573 1589 0
-18 -1573 1574 0
-1574 1590 0
-19 -1574 1575 0
-1575 1591 0
-20 -1575 1576 0
-1576 1592 0
-21 -1576 1577 0
-1577 1593 0
-22 -1577 1578 0
-1578 1594 0
-23 -1578 1579 0
-1579 1595 0
-24 -1579 1580 0
-1580 1596 0
-25 -1580 0
-10 1581 0
-1581 1597 0
-11 -1581 1582 0
-1582 1598 0
-12 -1582 1583 0
-1583 1599 0
-13 -1583 1584 0
-1584 1600 0
-14 -1584 1585 0
-1585 1601 0
-15 -1585 1586 0
-1586 1602 0
-16 -1586 1587 0
-1587 1603 0
-17 -1587 1588 0
-1588 1604 0
-18 -1588 1589 0
-1589 1605 0
-19 -1589 1590 0
-1590 1606 0
-20 -1590 1591 0
-1591 1607 0
-21 -1591 1592 0
-1592 1608 0
-22 -1592 1593 0
-1593 1609 0
-23 -1593 1594 0
-1594 1610 0
-24 -1594 1595 0
-1595 1611 0
-25 -1595 1596 0
-1596 1612 0
-26 -1596 0
-11 1597 0
-1597 1613 0
-12 -1597 1598 0
-1598 1614 0
-13 -1598 1599 0
-1599 1615 0
-14 -1599 1600 0
-1600 1616 0
-15 -1600 1601 0
-1601 1617 0
-16 -1601 1602 0
-1602 1618 0
-17 -1602 1603 0
-1603 1619 0
-18 -1603 1604 0
-1604 1620 0
-19 -1604 1605 0
-1605 1621 0
-20 -1605 1606 0
-1606 1622 0
-21 -1606 1607 0
-1607 1623 0
-22 -1607 1608 0
-1608 1624 0
-23 -1608 1609 0
-1609 1625 0
-24 -1609 1610 0
-1610 1626 0
-25 -1610 1611 0
-1611 1627 0
-26 -1611 1612 0
-1612 1628 0
-27 -1612 0
-12 1613 0
-1613 1629 0
-13 -1613 1614 0
-1614 1630 0
-14 -1614 1615 0
-1615 1631 0
-15 -1615 1616 0
-1616 1632 0
-16 -1616 1617 0
-1617 1633 0
-17 -1617 1618 0
-1618 1634 0
-18 -1618 1619 0
-1619 1635 0
-19 -1619 1620 0
-1620 1636 0
-20 -1620 1621 0
-1621 1637 0
-21 -1621 1622 0
-1622 1638 0
-22 -1622 1623 0
-1623 1639 0
-23 -1623 1624 0
-1624 1640 0
-24 -1624 1625 0
-1625 1641 0
-25 -1625 1626 0
-1626 1642 0
-26 -1626 1627 0
-1627 1643 0
-27 -1627 1628 0
-1628 1644 0
-28 -1628 0
-13 1629 0
-1629 1645 0
-14 -1629 1630 0
-1630 1646 0
-15 -1630 1631 0
-1631 1647 0
-16 -1631 1632 0
-1632 1648 0
-17 -1632 1633 0
-1633 1649 0
-18 -1633 1634 0
-1634 1650 0
-19 -1634 1635 0
-1635 1651 0
-20 -1635 1636 0
-1636 1652 0
-21 -1636 1637 0
-1637 1653 0
-22 -1637 1638 0
-1638 1654 0
-23 -1638 1639 0
-1639 1655 0
-24 -1639 1640 0
-1640 1656 0
-25 -1640 1641 0
-1641 1657 0
-26 -1641 1642 0
-1642 1658 0
-27 -1642 1643 0
-1643 1659 0
-28 -1643 1644 0
-1644 1660 0
-29 -1644 0
-14 1645 0
-1645 1661 0
-15 -1645 1646 0
-1646 1662 0
-16 -1646 1647 0
-1647 1663 0
-17 -1647 1648 0
-1648 1664 0
-18 -1648 1649 0
-1649 1665 0
-19 -1649 1650 0
-1650 1666 0
-20 -1650 1651 0
-1651 1667 0
-21 -1651 1652 0
-1652 1668 0
-22 -1652 1653 0
-1653 1669 0
-23 -1653 1654 0
-1654 1670 0
-24 -1654 1655 0
-1655 1671 0
-25 -1655 1656 0
-1656 1672 0
-26 -1656 1657 0
-1657 1673 0
-27 -1657 1658 0
-1658 1674 0
-28 -1658 1659 0
-1659 1675 0
-29 -1659 1660 0
-1660 1676 0
-30 -1660 0
-15 1661 0
-1661 1677 0
-16 -1661 1662 0
-1662 1678 0
-17 -1662 1663 0
-1663 1679 0
-18 -1663 1664 0
-1664 1680 0
-19 -1664 1665 0
-1665 1681 0
-20 -1665 1666 0
-1666 1682 0
-21 -1666 1667 0
-1667 1683 0
-22 -1667 1668 0
-1668 1684 0
-23 -1668 1669 0
-1669 1685 0
-24 -1669 1670 0
-1670 1686 0
-25 -1670 1671 0
-1671 1687 0
-26 -1671 1672 0
-1672 1688 0
-27 -1672 1673 0
-1673 1689 0
-28 -1673 1674 0
-1674 1690 0
-29 -1674 1675 0
-1675 1691 0
-30 -1675 1676 0
-1676 1692 0
-31 -1676 0
-16 1677 0
-1677 1693 0
-17 -1677 1678 0
-1678 1694 0
-18 -1678 1679 0
-1679 1695 0
-19 -1679 1680 0
-1680 1696 0
-20 -1680 1681 0
-1681 1697 0
-21 -1681 1682 0
-1682 1698 0
-22 -1682 1683 0
-1683 1699 0
-23 -1683 1684 0
-1684 1700 0
-24 -1684 1685 0
-1685 1701 0
-25 -1685 1686 0
-1686 1702 0
-26 -1686 1687 0
-1687 1703 0
-27 -1687 1688 0
-1688 1704 0
-28 -1688 1689 0
-1689 1705 0
-29 -1689 1690 0
-1690 1706 0
-30 -1690 1691 0
-1691 1707 0
-31 -1691 1692 0
-1692 1708 0
-32 -1692 0
-17 1693 0
-1693 1709 0
-18 -1693 1694 0
-1694 1710 0
-19 -1694 1695 0
-1695 1711 0
-20 -1695 1696 0
-1696 1712 0
-21 -1696 1697 0
-1697 1713 0
-22 -1697 1698 0
-1698 1714 0
-23 -1698 1699 0
-1699 1715 0
-24 -1699 1700 0
-1700 1716 0
-25 -1700 1701 0
-1701 1717 0
-26 -1701 1702 0
-1702 1718 0
-27 -1702 1703 0
-1703 1719 0
-28 -1703 1704 0
-1704 1720 0
-29 -1704 1705 0
-1705 1721 0
-30 -1705 1706 0
-1706 1722 0
-31 -1706 1707 0
-1707 1723 0
-32 -1707 1708 0
-1708 1724 0
-33 -1708 0
-18 1709 0
-1709 1725 0
-19 -1709 1710 0
-1710 1726 0
-20 -1710 1711 0
-1711 1727 0
-21 -1711 1712 0
-1712 1728 0
-22 -1712 1713 0
-1713 1729 0
-23 -1713 1714 0
-1714 1730 0
-24 -1714 1715 0
-1715 1731 0
-25 -1715 1716 0
-1716 1732 0
-26 -1716 1717 0
-1717 1733 0
-27 -1717 1718 0
-1718 1734 0
-28 -1718 1719 0
-1719 1735 0
-29 -1719 1720 0
-1720 1736 0
-30 -1720 1721 0
-1721 1737 0
-31 -1721 1722 0
-1722 1738 0
-32 -1722 1723 0
-1723 1739 0
-33 -1723 1724 0
-1724 1740 0
-34 -1724 0
-19 1725 0
-1725 1741 0
-20 -1725 1726 0
-1726 1742 0
-21 -1726 1727 0
-1727 1743 0
-22 -1727 1728 0
-1728 1744 0
-23 -1728 1729 0
-1729 1745 0
-24 -1729 1730 0
-1730 1746 0
-25 -1730 1731 0
-1731 1747 0
-26 -1731 1732 0
-1732 1748 0
-27 -1732 1733 0
-1733 1749 0
-28 -1733 1734 0
-1734 1750 0
-29 -1734 1735 0
-1735 1751 0
-30 -1735 1736 0
-1736 1752 0
-31 -1736 1737 0
-1737 1753 0
-32 -1737 1738 0
-1738 1754 0
-33 -1738 1739 0
-1739 1755 0
-34 -1739 1740 0
-1740 1756 0
-35 -1740 0
-20 1741 0
-1741 1757 0
-21 -1741 1742 0
-1742 1758 0
-22 -1742 1743 0
-1743 1759 0
-23 -1743 1744 0
-1744 1760 0
-24 -1744 1745 0
-1745 1761 0
-25 -1745 1746 0
-1746 1762 0
-26 -1746 1747 0
-1747 1763 0
-27 -1747 1748 0
-1748 1764 0
-28 -1748 1749 0
-1749 1765 0
-29 -1749 1750 0
-1750 1766 0
-30 -1750 1751 0
-1751 1767 0
-31 -1751 1752 0
-1752 1768 0
-32 -1752 1753 0
-1753 1769 0
-33 -1753 1754 0
-1754 1770 0
-34 -1754 1755 0
-1755 1771 0
-35 -1755 1756 0
-1756 1772 0
-36 -1756 0
-21 1757 0
-1757 1773 0
-22 -1757 1758 0
-1758 1774 0
-23 -1758 1759 0
-1759 1775 0
-24 -1759 1760 0
-1760 1776 0
-25 -1760 1761 0
-1761 1777 0
-26 -1761 1762 0
-1762 1778 0
-27 -1762 1763 0
-1763 1779 0
-28 -1763 1764 0
-1764 1780 0
-29 -1764 1765 0
-1765 1781 0
-30 -1765 1766 0
-1766 1782 0
-31 -1766 1767 0
-1767 1783 0
-32 -1767 1768 0
-1768 1784 0
-33 -1768 1769 0
-1769 1785 0
-34 -1769 1770 0
-1770 1786 0
-35 -1770 1771 0
-1771 1787 0
-36 -1771 1772 0
-1772 1788 0
-37 -1772 0
-22 1773 0
-1773 1789 0
-23 -1773 1774 0
-1774 1790 0
-24 -1774 1775 0
-1775 1791 0
-25 -1775 1776 0
-1776 1792 0
-26 -1776 1777 0
-1777 1793 0
-27 -1777 1778 0
-1778 1794 0
-28 -1778 1779 0
-1779 1795 0
-29 -1779 1780 0
-1780 1796 0
-30 -1780 1781 0
-1781 1797 0
-31 -1781 1782 0
-1782 1798 0
-32 -1782 1783 0
-1783 1799 0
-33 -1783 1784 0
-1784 1800 0
-34 -1784 1785 0
-1785 1801 0
-35 -1785 1786 0
-1786 1802 0
-36 -1786 1787 0
-1787 1803 0
-37 -1787 1788 0
-1788 1804 0
-38 -1788 0
-23 1789 0
-1789 1805 0
-24 -1789 1790 0
-1790 1806 0
-25 -1790 1791 0
-1791 1807 0
-26 -1791 1792 0
-1792 1808 0
-27 -1792 1793 0
-1793 1809 0
-28 -1793 1794 0
-1794 1810 0
-29 -1794 1795 0
-1795 1811 0
-30 -1795 1796 0
-1796 1812 0
-31 -1796 1797 0
-1797 1813 0
-32 -1797 1798 0
-1798 1814 0
-33 -1798 1799 0
-1799 1815 0
-34 -1799 1800 0
-1800 1816 0
-35 -1800 1801 0
-1801 1817 0
-36 -1801 1802 0
-1802 1818 0
-37 -1802 1803 0
-1803 1819 0
-38 -1803 1804 0
-1804 1820 0
-39 -1804 0
-24 1805 0
-1805 1821 0
-25 -1805 1806 0
-1806 1822 0
-26 -1806 1807 0
-1807 1823 0
-27 -1807 1808 0
-1808 1824 0
-28 -1808 1809 0
-1809 1825 0
-29 -1809 1810 0
-1810 1826 0
-30 -1810 1811 0
-1811 1827 0
-31 -1811 1812 0
-1812 1828 0
-32 -1812 1813 0
-1813 1829 0
-33 -1813 1814 0
-1814 1830 0
-34 -1814 1815 0
-1815 1831 0
-35 -1815 1816 0
-1816 1832 0
-36 -1816 1817 0
-1817 1833 0
-37 -1817 1818 0
-1818 1834 0
-38 -1818 1819 0
-1819 1835 0
-39 -1819 1820 0
-1820 1836 0
-40 -1820 0
-25 1821 0
-1821 1837 0
-26 -1821 1822 0
-1822 1838 0
-27 -1822 1823 0
-1823 1839 0
-28 -1823 1824 0
-1824 1840 0
-29 -1824 1825 0
-1825 1841 0
-30 -1825 1826 0
-1826 1842 0
-31 -1826 1827 0
-1827 1843 0
-32 -1827 1828 0
-1828 1844 0
-33 -1828 1829 0
-1829 1845 0
-34 -1829 1830 0
-1830 1846 0
-35 -1830 1831 0
-1831 1847 0
-36 -1831 1832 0
-1832 1848 0
-37 -1832 1833 0
-1833 1849 0
-38 -1833 1834 0
-1834 1850 0
-39 -1834 1835 0
-1835 1851 0
-40 -1835 1836 0
-1836 1852 0
-41 -1836 0
-26 1837 0
-1837 1853 0
-27 -1837 1838 0
-1838 1854 0
-28 -1838 1839 0
-1839 1855 0
-29 -1839 1840 0
-1840 1856 0
-30 -1840 1841 0
-1841 1857 0
-31 -1841 1842 0
-1842 1858 0
-32 -1842 1843 0
-1843 1859 0
-33 -1843 1844 0
-1844 1860 0
-34 -1844 1845 0
-1845 1861 0
-35 -1845 1846 0
-1846 1862 0
-36 -1846 1847 0
-1847 1863 0
-37 -1847 1848 0
-1848 1864 0
-38 -1848 1849 0
-1849 1865 0
-39 -1849 1850 0
-1850 1866 0
-40 -1850 1851 0
-1851 1867 0
-41 -1851 1852 0
-1852 1868 0
-42 -1852 0
-27 1853 0
-1853 1869 0
-28 -1853 1854 0
-1854 1870 0
-29 -1854 1855 0
-1855 1871 0
-30 -1855 1856 0
-1856 1872 0
-31 -1856 1857 0
-1857 1873 0
-32 -1857 1858 0
-1858 1874 0
-33 -1858 1859 0
-1859 1875 0
-34 -1859 1860 0
-1860 1876 0
-35 -1860 1861 0
-1861 1877 0
-36 -1861 1862 0
-1862 1878 0
-37 -1862 1863 0
-1863 1879 0
-38 -1863 1864 0
-1864 1880 0
-39 -1864 1865 0
-1865 1881 0
-40 -1865 1866 0
-1866 1882 0
-41 -1866 1867 0
-1867 1883 0
-42 -1867 1868 0
-1868 1884 0
-43 -1868 0
-28 1869 0
-1869 1885 0
-29 -1869 1870 0
-1870 1886 0
-30 -1870 1871 0
-1871 1887 0
-31 -1871 1872 0
-1872 1888 0
-32 -1872 1873 0
-1873 1889 0
-33 -1873 1874 0
-1874 1890 0
-34 -1874 1875 0
-1875 1891 0
-35 -1875 1876 0
-1876 1892 0
-36 -1876 1877 0
-1877 1893 0
-37 -1877 1878 0
-1878 1894 0
-38 -1878 1879 0
-1879 1895 0
-39 -1879 1880 0
-1880 1896 0
-40 -1880 1881 0
-1881 1897 0
-41 -1881 1882 0
-1882 1898 0
-42 -1882 1883 0
-1883 1899 0
-43 -1883 1884 0
-1884 1900 0
-44 -1884 0
-29 1885 0
-1885 1901 0
-30 -1885 1886 0
-1886 1902 0
-31 -1886 1887 0
-1887 1903 0
-32 -1887 1888 0
-1888 1904 0
-33 -1888 1889 0
-1889 1905 0
-34 -1889 1890 0
-1890 1906 0
-35 -1890 1891 0
-1891 1907 0
-36 -1891 1892 0
-1892 1908 0
-37 -1892 1893 0
-1893 1909 0
-38 -1893 1894 0
-1894 1910 0
-39 -1894 1895 0
-1895 1911 0
-40 -1895 1896 0
-1896 1912 0
-41 -1896 1897 0
-1897 1913 0
-42 -1897 1898 0
-1898 1914 0
-43 -1898 1899 0
-1899 1915 0
-44 -1899 1900 0
-1900 1916 0
-45 -1900 0
-30 1901 0
-1901 1917 0
-31 -1901 1902 0
-1902 1918 0
-32 -1902 1903 0
-1903 1919 0
-33 -1903 1904 0
-1904 1920 0
-34 -1904 1905 0
-1905 1921 0
-35 -1905 1906 0
-1906 1922 0
-36 -1906 1907 0
-1907 1923 0
-37 -1907 1908 0
-1908 1924 0
-38 -1908 1909 0
-1909 1925 0
-39 -1909 1910 0
-1910 1926 0
-40 -1910 1911 0
-1911 1927 0
-41 -1911 1912 0
-1912 1928 0
-42 -1912 1913 0
-1913 1929 0
-43 -1913 1914 0
-1914 1930 0
-44 -1914 1915 0
-1915 1931 0
-45 -1915 1916 0
-1916 1932 0
-46 -1916 0
-31 1917 0
-1917 1933 0
-32 -1917 1918 0
-1918 1934 0
-33 -1918 1919 0
-1919 1935 0
-34 -1919 1920 0
-1920 1936 0
-35 -1920 1921 0
-1921 1937 0
-36 -1921 1922 0
-1922 1938 0
-37 -1922 1923 0
-1923 1939 0
-38 -1923 1924 0
-1924 1940 0
-39 -1924 1925 0
-1925 1941 0
-40 -1925 1926 0
-1926 1942 0
-41 -1926 1927 0
-1927 1943 0
-42 -1927 1928 0
-1928 1944 0
-43 -1928 1929 0
-1929 1945 0
-44 -1929 1930 0
-1930 1946 0
-45 -1930 1931 0
-1931 1947 0
-46 -1931 1932 0
-1932 1948 0
-47 -1932 0
-32 1933 0
-1933 1949 0
-33 -1933 1934 0
-1934 1950 0
-34 -1934 1935 0
-1935 1951 0
-35 -1935 1936 0
-1936 1952 0
-36 -1936 1937 0
-1937 1953 0
-37 -1937 1938 0
-1938 1954 0
-38 -1938 1939 0
-1939 1955 0
-39 -1939 1940 0
-1940 1956 0
-40 -1940 1941 0
-1941 1957 0
-41 -1941 1942 0
-1942 1958 0
-42 -1942 1943 0
-1943 1959 0
-43 -1943 1944 0
-1944 1960 0
-44 -1944 1945 0
-1945 1961 0
-45 -1945 1946 0
-1946 1962 0
-46 -1946 1947 0
-1947 1963 0
-47 -1947 1948 0
-1948 1964 0
-48 -1948 0
-33 1949 0
-1949 1965 0
-34 -1949 1950 0
-1950 1966 0
-35 -1950 1951 0
-1951 1967 0
-36 -1951 1952 0
-1952 1968 0
-37 -1952 1953 0
-1953 1969 0
-38 -1953 1954 0
-1954 1970 0
-39 -1954 1955 0
-1955 1971 0
-40 -1955 1956 0
-1956 1972 0
-41 -1956 1957 0
-1957 1973 0
-42 -1957 1958 0
-1958 1974 0
-43 -1958 1959 0
-1959 1975 0
-44 -1959 1960 0
-1960 1976 0
-45 -1960 1961 0
-1961 1977 0
-46 -1961 1962 0
-1962 1978 0
-47 -1962 1963 0
-1963 1979 0
-48 -1963 1964 0
-1964 1980 0
-49 -1964 0
-34 1965 0
-1965 1981 0
-35 -1965 1966 0
-1966 1982 0
-36 -1966 1967 0
-1967 1983 0
-37 -1967 1968 0
-1968 1984 0
-38 -1968 1969 0
-1969 1985 0
-39 -1969 1970 0
-1970 1986 0
-40 -1970 1971 0
-1971 1987 0
-41 -1971 1972 0
-1972 1988 0
-42 -1972 1973 0
-1973 1989 0
-43 -1973 1974 0
-1974 1990 0
-44 -1974 1975 0
-1975 1991 0
-45 -1975 1976 0
-1976 1992 0
-46 -1976 1977 0
-1977 1993 0
-47 -1977 1978 0
-1978 1994 0
-48 -1978 1979 0
-1979 1995 0
-49 -1979 1980 0
-1980 1996 0
-50 -1980 0
-35 1981 0
-1981 1997 0
-36 -1981 1982 0
-1982 1998 0
-37 -1982 1983 0
-1983 1999 0
-38 -1983 1984 0
-1984 2000 0
-39 -1984 1985 0
-1985 2001 0
-40 -1985 1986 0
-1986 2002 0
-41 -1986 1987 0
-1987 2003 0
-42 -1987 1988 0
-1988 2004 0
-43 -1988 1989 0
-1989 2005 0
-44 -1989 1990 0
-1990 2006 0
-45 -1990 1991 0
-1991 2007 0
-46 -1991 1992 0
-1992 2008 0
-47 -1992 1993 0
-1993 2009 0
-48 -1993 1994 0
-1994 2010 0
-49 -1994 1995 0
-1995 2011 0
-50 -1995 1996 0
-1996 2012 0
-51 -1996 0
-36 1997 0
-1997 2013 0
-37 -1997 1998 0
-1998 2014 0
-38 -1998 1999 0
-1999 2015 0
-39 -1999 2000 0
-2000 2016 0
-40 -2000 2001 0
-2001 2017 0
-41 -2001 2002 0
-2002 2018 0
-42 -2002 2003 0
-2003 2019 0
-43 -2003 2004 0
-2004 2020 0
-44 -2004 2005 0
-2005 2021 0
-45 -2005 2006 0
-2006 2022 0
-46 -2006 2007 0
-2007 2023 0
-47 -2007 2008 0
-2008 2024 0
-48 -2008 2009 0
-2009 2025 0
-49 -2009 2010 0
-2010 2026 0
-50 -2010 2011 0
-2011 2027 0
-51 -2011 2012 0
-2012 2028 0
-52 -2012 0
-37 2013 0
-2013 2029 0
-38 -2013 2014 0
-2014 2030 0
-39 -2014 2015 0
-2015 2031 0
-40 -2015 2016 0
-2016 2032 0
-41 -2016 2017 0
-2017 2033 0
-42 -2017 2018 0
-2018 2034 0
-43 -2018 2019 0
-2019 2035 0
-44 -2019 2020 0
-2020 2036 0
-45 -2020 2021 0
-2021 2037 0
-46 -2021 2022 0
-2022 2038 0
-47 -2022 2023 0
-2023 2039 0
-48 -2023 2024 0
-2024 2040 0
-49 -2024 2025 0
-2025 2041 0
-50 -2025 2026 0
-2026 2042 0
-51 -2026 2027 0
-2027 2043 0
-52 -2027 2028 0
-2028 2044 0
-53 -2028 0
-38 2029 0
-2029 2045 0
-39 -2029 2030 0
-2030 2046 0
-40 -2030 2031 0
-2031 2047 0
-41 -2031 2032 0
-2032 2048 0
-42 -2032 2033 0
-2033 2049 0
-43 -2033 2034 0
-2034 2050 0
-44 -2034 2035 0
-2035 2051 0
-45 -2035 2036 0
-2036 2052 0
-46 -2036 2037 0
-2037 2053 0
-47 -2037 2038 0
-2038 2054 0
-48 -2038 2039 0
-2039 2055 0
-49 -2039 2040 0
-2040 2056 0
-50 -2040 2041 0
-2041 2057 0
-51 -2041 2042 0
-2042 2058 0
-52 -2042 2043 0
-2043 2059 0
-53 -2043 2044 0
-2044 2060 0
-54 -2044 0
-39 2045 0
-2045 2061 0
-40 -2045 2046 0
-2046 2062 0
-41 -2046 2047 0
-2047 2063 0
-42 -2047 2048 0
-2048 2064 0
-43 -2048 2049 0
-2049 2065 0
-44 -2049 2050 0
-2050 2066 0
-45 -2050 2051 0
-2051 2067 0
-46 -2051 2052 0
-2052 2068 0
-47 -2052 2053 0
-2053 2069 0
-48 -2053 2054 0
-2054 2070 0
-49 -2054 2055 0
-2055 2071 0
-50 -2055 2056 0
-2056 2072 0
-51 -2056 2057 0
-2057 2073 0
-52 -2057 2058 0
-2058 2074 0
-53 -2058 2059 0
-2059 2075 0
-54 -2059 2060 0
-2060 2076 0
-55 -2060 0
-40 2061 0
-2061 2077 0
-41 -2061 2062 0
-2062 2078 0
-42 -2062 2063 0
-2063 2079 0
-43 -2063 2064 0
-2064 2080 0
-44 -2064 2065 0
-2065 2081 0
-45 -2065 2066 0
-2066 2082 0
-46 -2066 2067 0
-2067 2083 0
-47 -2067 2068 0
-2068 2084 0
-48 -2068 2069 0
-2069 2085 0
-49 -2069 2070 0
-2070 2086 0
-50 -2070 2071 0
-2071 2087 0
-51 -2071 2072 0
-2072 2088 0
-52 -2072 2073 0
-2073 2089 0
-53 -2073 2074 0
-2074 2090 0
-54 -2074 2075 0
-2075 2091 0
-55 -2075 2076 0
-2076 2092 0
-56 -2076 0
-41 2077 0
-2077 2093 0
-42 -2077 2078 0
-2078 2094 0
-43 -2078 2079 0
-2079 2095 0
-44 -2079 2080 0
-2080 2096 0
-45 -2080 2081 0
-2081 2097 0
-46 -2081 2082 0
-2082 2098 0
-47 -2082 2083 0
-2083 2099 0
-48 -2083 2084 0
-2084 2100 0
-49 -2084 2085 0
-2085 2101 0
-50 -2085 2086 0
-2086 2102 0
-51 -2086 2087 0
-2087 2103 0
-52 -2087 2088 0
-2088 2104 0
-53 -2088 2089 0
-2089 2105 0
-54 -2089 2090 0
-2090 2106 0
-55 -2090 2091 0
-2091 2107 0
-56 -2091 2092 0
-2092 2108 0
-57 -2092 0
-42 2093 0
-2093 2109 0
-43 -2093 2094 0
-2094 2110 0
-44 -2094 2095 0
-2095 2111 0
-45 -2095 2096 0
-2096 2112 0
-46 -2096 2097 0
-2097 2113 0
-47 -2097 2098 0
-2098 2114 0
-48 -2098 2099 0
-2099 2115 0
-49 -2099 2100 0
-2100 2116 0
-50 -2100 2101 0
-2101 2117 0
-51 -2101 2102 0
-2102 2118 0
-52 -2102 2103 0
-2103 2119 0
-53 -2103 2104 0
-2104 2120 0
-54 -2104 2105 0
-2105 2121 0
-55 -2105 2106 0
-2106 2122 0
-56 -2106 2107 0
-2107 2123 0
-57 -2107 2108 0
-2108 2124 0
-58 -2108 0
-43 2109 0
-2109 2125 0
-44 -2109 2110 0
-2110 2126 0
-45 -2110 2111 0
-2111 2127 0
-46 -2111 2112 0
-2112 2128 0
-47 -2112 2113 0
-2113 2129 0
-48 -2113 2114 0
-2114 2130 0
-49 -2114 2115 0
-2115 2131 0
-50 -2115 2116 0
-2116 2132 0
-51 -2116 2117 0
-2117 2133 0
-52 -2117 2118 0
-2118 2134 0
-53 -2118 2119 0
-2119 2135 0
-54 -2119 2120 0
-2120 2136 0
-55 -2120 2121 0
-2121 2137 0
-56 -2121 2122 0
-2122 2138 0
-57 -2122 2123 0
-2123 2139 0
-58 -2123 2124 0
-2124 2140 0
-59 -2124 0
-44 2125 0
-2125 2141 0
-45 -2125 2126 0
-2126 2142 0
-46 -2126 2127 0
-2127 2143 0
-47 -2127 2128 0
-2128 2144 0
-48 -2128 2129 0
-2129 2145 0
-49 -2129 2130 0
-2130 2146 0
-50 -2130 2131 0
-2131 2147 0
-51 -2131 2132 0
-2132 2148 0
-52 -2132 2133 0
-2133 2149 0
-53 -2133 2134 0
-2134 2150 0
-54 -2134 2135 0
-2135 2151 0
-55 -2135 2136 0
-2136 2152 0
-56 -2136 2137 0
-2137 2153 0
-57 -2137 2138 0
-2138 2154 0
-58 -2138 2139 0
-2139 2155 0
-59 -2139 2140 0
-2140 2156 0
-60 -2140 0
-45 2141 0
-2141 2157 0
-46 -2141 2142 0
-2142 2158 0
-47 -2142 2143 0
-2143 2159 0
-48 -2143 2144 0
-2144 2160 0
-49 -2144 2145 0
-2145 2161 0
-50 -2145 2146 0
-2146 2162 0
-51 -2146 2147 0
-2147 2163 0
-52 -2147 2148 0
-2148 2164 0
-53 -2148 2149 0
-2149 2165 0
-54 -2149 2150 0
-2150 2166 0
-55 -2150 2151 0
-2151 2167 0
-56 -2151 2152 0
-2152 2168 0
-57 -2152 2153 0
-2153 2169 0
-58 -2153 2154 0
-2154 2170 0
-59 -2154 2155 0
-2155 2171 0
-60 -2155 2156 0
-2156 2172 0
-61 -2156 0
-46 2157 0
-2157 2173 0
-47 -2157 2158 0
-2158 2174 0
-48 -2158 2159 0
-2159 2175 0
-49 -2159 2160 0
-2160 2176 0
-50 -2160 2161 0
-2161 2177 0
-51 -2161 2162 0
-2162 2178 0
-52 -2162 2163 0
-2163 2179 0
-53 -2163 2164 0
-2164 2180 0
-54 -2164 2165 0
-2165 2181 0
-55 -2165 2166 0
-2166 2182 0
-56 -2166 2167 0
-2167 2183 0
-57 -2167 2168 0
-2168 2184 0
-58 -2168 2169 0
-2169 2185 0
-59 -2169 2170 0
-2170 2186 0
-60 -2170 2171 0
-2171 2187 0
-61 -2171 2172 0
-2172 2188 0
-62 -2172 0
-47 2173 0
-2173 2189 0
-48 -2173 2174 0
-2174 2190 0
-49 -2174 2175 0
-2175 2191 0
-50 -2175 2176 0
-2176 2192 0
-51 -2176 2177 0
-2177 2193 0
-52 -2177 2178 0
-2178 2194 0
-53 -2178 2179 0
-2179 2195 0
-54 -2179 2180 0
-2180 2196 0
-55 -2180 2181 0
-2181 2197 0
-56 -2181 2182 0
-2182 2198 0
-57 -2182 2183 0
-2183 2199 0
-58 -2183 2184 0
-2184 2200 0
-59 -2184 2185 0
-2185 2201 0
-60 -2185 2186 0
-2186 2202 0
-61 -2186 2187 0
-2187 2203 0
-62 -2187 2188 0
-2188 2204 0
-63 -2188 0
-48 2189 0
-2189 2205 0
-49 -2189 2190 0
-2190 2206 0
-50 -2190 2191 0
-2191 2207 0
-51 -2191 2192 0
-2192 2208 0
-52 -2192 2193 0
-2193 2209 0
-53 -2193 2194 0
-2194 2210 0
-54 -2194 2195 0
-2195 2211 0
-55 -2195 2196 0
-2196 2212 0
-56 -2196 2197 0
-2197 2213 0
-57 -2197 2198 0
-2198 2214 0
-58 -2198 2199 0
-2199 2215 0
-59 -2199 2200 0
-2200 2216 0
-60 -2200 2201 0
-2201 2217 0
-61 -2201 2202 0
-2202 2218 0
-62 -2202 2203 0
-2203 2219 0
-63 -2203 2204 0
-2204 2220 0
-64 -2204 0
-49 2205 0
-2205 2221 0
-50 -2205 2206 0
-2206 2222 0
-51 -2206 2207 0
-2207 2223 0
-52 -2207 2208 0
-2208 2224 0
-53 -2208 2209 0
-2209 2225 0
-54 -2209 2210 0
-2210 2226 0
-55 -2210 2211 0
-2211 2227 0
-56 -2211 2212 0
-2212 2228 0
-57 -2212 2213 0
-2213 2229 0
-58 -2213 2214 0
-2214 2230 0
-59 -2214 2215 0
-2215 2231 0
-60 -2215 2216 0
-2216 2232 0
-61 -2216 2217 0
-2217 2233 0
-62 -2217 2218 0
-2218 2234 0
-63 -2218 2219 0
-2219 2235 0
-64 -2219 2220 0
-2220 2236 0
-65 -2220 0
-50 2221 0
-2221 2237 0
-51 -2221 2222 0
-2222 2238 0
-52 -2222 2223 0
-2223 2239 0
-53 -2223 2224 0
-2224 2240 0
-54 -2224 2225 0
-2225 2241 0
-55 -2225 2226 0
-2226 2242 0
-56 -2226 2227 0
-2227 2243 0
-57 -2227 2228 0
-2228 2244 0
-58 -2228 2229 0
-2229 2245 0
-59 -2229 2230 0
-2230 2246 0
-60 -2230 2231 0
-2231 2247 0
-61 -2231 2232 0
-2232 2248 0
-62 -2232 2233 0
-2233 2249 0
-63 -2233 2234 0
-2234 2250 0
-64 -2234 2235 0
-2235 2251 0
-65 -2235 2236 0
-2236 2252 0
-66 -2236 0
-51 2237 0
-2237 2253 0
-52 -2237 2238 0
-2238 2254 0
-53 -2238 2239 0
-2239 2255 0
-54 -2239 2240 0
-2240 2256 0
-55 -2240 2241 0
-2241 2257 0
-56 -2241 2242 0
-2242 2258 0
-57 -2242 2243 0
-2243 2259 0
-58 -2243 2244 0
-2244 2260 0
-59 -2244 2245 0
-2245 2261 0
-60 -2245 2246 0
-2246 2262 0
-61 -2246 2247 0
-2247 2263 0
-62 -2247 2248 0
-2248 2264 0
-63 -2248 2249 0
-2249 2265 0
-64 -2249 2250 0
-2250 2266 0
-65 -2250 2251 0
-2251 2267 0
-66 -2251 2252 0
-2252 2268 0
-67 -2252 0
-52 2253 0
-2253 2269 0
-53 -2253 2254 0
-2254 2270 0
-54 -2254 2255 0
-2255 2271 0
-55 -2255 2256 0
-2256 2272 0
-56 -2256 2257 0
-2257 2273 0
-57 -2257 2258 0
-2258 2274 0
-58 -2258 2259 0
-2259 2275 0
-59 -2259 2260 0
-2260 2276 0
-60 -2260 2261 0
-2261 2277 0
-61 -2261 2262 0
-2262 2278 0
-62 -2262 2263 0
-2263 2279 0
-63 -2263 2264 0
-2264 2280 0
-64 -2264 2265 0
-2265 2281 0
-65 -2265 2266 0
-2266 2282 0
-66 -2266 2267 0
-2267 2283 0
-67 -2267 2268 0
-2268 2284 0
-68 -2268 0
-53 2269 0
-2269 2285 0
-54 -2269 2270 0
-2270 2286 0
-55 -2270 2271 0
-2271 2287 0
-56 -2271 2272 0
-2272 2288 0
-57 -2272 2273 0
-2273 2289 0
-58 -2273 2274 0
-2274 2290 0
-59 -2274 2275 0
-2275 2291 0
-60 -2275 2276 0
-2276 2292 0
-61 -2276 2277 0
-2277 2293 0
-62 -2277 2278 0
-2278 2294 0
-63 -2278 2279 0
-2279 2295 0
-64 -2279 2280 0
-2280 2296 0
-65 -2280 2281 0
-2281 2297 0
-66 -2281 2282 0
-2282 2298 0
-67 -2282 2283 0
-2283 2299 0
-68 -2283 2284 0
-2284 2300 0
-69 -2284 0
-54 2285 0
-2285 2301 0
-55 -2285 2286 0
-2286 2302 0
-56 -2286 2287 0
-2287 2303 0
-57 -2287 2288 0
-2288 2304 0
-58 -2288 2289 0
-2289 2305 0
-59 -2289 2290 0
-2290 2306 0
-60 -2290 2291 0
-2291 2307 0
-61 -2291 2292 0
-2292 2308 0
-62 -2292 2293 0
-2293 2309 0
-63 -2293 2294 0
-2294 2310 0
-64 -2294 2295 0
-2295 2311 0
-65 -2295 2296 0
-2296 2312 0
-66 -2296 2297 0
-2297 2313 0
-67 -2297 2298 0
-2298 2314 0
-68 -2298 2299 0
-2299 2315 0
-69 -2299 2300 0
-2300 2316 0
-70 -2300 0
-55 2301 0
-2301 2317 0
-56 -2301 2302 0
-2302 2318 0
-57 -2302 2303 0
-2303 2319 0
-58 -2303 2304 0
-2304 2320 0
-59 -2304 2305 0
-2305 2321 0
-60 -2305 2306 0
-2306 2322 0
-61 -2306 2307 0
-2307 2323 0
-62 -2307 2308 0
-2308 2324 0
-63 -2308 2309 0
-2309 2325 0
-64 -2309 2310 0
-2310 2326 0
-65 -2310 2311 0
-2311 2327 0
-66 -2311 2312 0
-2312 2328 0
-67 -2312 2313 0
-2313 2329 0
-68 -2313 2314 0
-2314 2330 0
-69 -2314 2315 0
-2315 2331 0
-70 -2315 2316 0
-2316 2332 0
-71 -2316 0
-56 2317 0
-2317 2333 0
-57 -2317 2318 0
-2318 2334 0
-58 -2318 2319 0
-2319 2335 0
-59 -2319 2320 0
-2320 2336 0
-60 -2320 2321 0
-2321 2337 0
-61 -2321 2322 0
-2322 2338 0
-62 -2322 2323 0
-2323 2339 0
-63 -2323 2324 0
-2324 2340 0
-64 -2324 2325 0
-2325 2341 0
-65 -2325 2326 0
-2326 2342 0
-66 -2326 2327 0
-2327 2343 0
-67 -2327 2328 0
-2328 2344 0
-68 -2328 2329 0
-2329 2345 0
-69 -2329 2330 0
-2330 2346 0
-70 -2330 2331 0
-2331 2347 0
-71 -2331 2332 0
-2332 2348 0
-72 -2332 0
-57 2333 0
-2333 2349 0
-58 -2333 2334 0
-2334 2350 0
-59 -2334 2335 0
-2335 2351 0
-60 -2335 2336 0
-2336 2352 0
-61 -2336 2337 0
-2337 2353 0
-62 -2337 2338 0
-2338 2354 0
-63 -2338 2339 0
-2339 2355 0
-64 -2339 2340 0
-2340 2356 0
-65 -2340 2341 0
-2341 2357 0
-66 -2341 2342 0
-2342 2358 0
-67 -2342 2343 0
-2343 2359 0
-68 -2343 2344 0
-2344 2360 0
-69 -2344 2345 0
-2345 2361 0
-70 -2345 2346 0
-2346 2362 0
-71 -2346 2347 0
-2347 2363 0
-72 -2347 2348 0
-2348 2364 0
-73 -2348 0
-58 2349 0
-2349 2365 0
-59 -2349 2350 0
-2350 2366 0
-60 -2350 2351 0
-2351 2367 0
-61 -2351 2352 0
-2352 2368 0
-62 -2352 2353 0
-2353 2369 0
-63 -2353 2354 0
-2354 2370 0
-64 -2354 2355 0
-2355 2371 0
-65 -2355 2356 0
-2356 2372 0
-66 -2356 2357 0
-2357 2373 0
-67 -2357 2358 0
-2358 2374 0
-68 -2358 2359 0
-2359 2375 0
-69 -2359 2360 0
-2360 2376 0
-70 -2360 2361 0
-2361 2377 0
-71 -2361 2362 0
-2362 2378 0
-72 -2362 2363 0
-2363 2379 0
-73 -2363 2364 0
-2364 2380 0
-74 -2364 0
-59 2365 0
-2365 2381 0
-60 -2365 2366 0
-2366 2382 0
-61 -2366 2367 0
-2367 2383 0
-62 -2367 2368 0
-2368 2384 0
-63 -2368 2369 0
-2369 2385 0
-64 -2369 2370 0
-2370 2386 0
-65 -2370 2371 0
-2371 2387 0
-66 -2371 2372 0
-2372 2388 0
-67 -2372 2373 0
-2373 2389 0
-68 -2373 2374 0
-2374 2390 0
-69 -2374 2375 0
-2375 2391 0
-70 -2375 2376 0
-2376 2392 0
-71 -2376 2377 0
-2377 2393 0
-72 -2377 2378 0
-2378 2394 0
-73 -2378 2379 0
-2379 2395 0
-74 -2379 2380 0
-2380 2396 0
-75 -2380 0
-60 2381 0
-2381 2397 0
-61 -2381 2382 0
-2382 2398 0
-62 -2382 2383 0
-2383 2399 0
-63 -2383 2384 0
-2384 2400 0
-64 -2384 2385 0
-2385 2401 0
-65 -2385 2386 0
-2386 2402 0
-66 -2386 2387 0
-2387 2403 0
-67 -2387 2388 0
-2388 2404 0
-68 -2388 2389 0
-2389 2405 0
-69 -2389 2390 0
-2390 2406 0
-70 -2390 2391 0
-2391 2407 0
-71 -2391 2392 0
-2392 2408 0
-72 -2392 2393 0
-2393 2409 0
-73 -2393 2394 0
-2394 2410 0
-74 -2394 2395 0
-2395 2411 0
-75 -2395 2396 0
-2396 2412 0
-76 -2396 0
-61 2397 0
-2397 2413 0
-62 -2397 2398 0
-2398 2414 0
-63 -2398 2399 0
-2399 2415 0
-64 -2399 2400 0
-2400 2416 0
-65 -2400 2401 0
-2401 2417 0
-66 -2401 2402 0
-2402 2418 0
-67 -2402 2403 0
-2403 2419 0
-68 -2403 2404 0
-2404 2420 0
-69 -2404 2405 0
-2405 2421 0
-70 -2405 2406 0
-2406 2422 0
-71 -2406 2407 0
-2407 2423 0
-72 -2407 2408 0
-2408 2424 0
-73 -2408 2409 0
-2409 2425 0
-74 -2409 2410 0
-2410 2426 0
-75 -2410 2411 0
-2411 2427 0
-76 -2411 2412 0
-2412 2428 0
-77 -2412 0
-62 2413 0
-2413 2429 0
-63 -2413 2414 0
-2414 2430 0
-64 -2414 2415 0
-2415 2431 0
-65 -2415 2416 0
-2416 2432 0
-66 -2416 2417 0
-2417 2433 0
-67 -2417 2418 0
-2418 2434 0
-68 -2418 2419 0
-2419 2435 0
-69 -2419 2420 0
-2420 2436 0
-70 -2420 2421 0
-2421 2437 0
-71 -2421 2422 0
-2422 2438 0
-72 -2422 2423 0
-2423 2439 0
-73 -2423 2424 0
-2424 2440 0
-74 -2424 2425 0
-2425 2441 0
-75 -2425 2426 0
-2426 2442 0
-76 -2426 2427 0
-2427 2443 0
-77 -2427 2428 0
-2428 2444 0
-78 -2428 0
-63 2429 0
-2429 2445 0
-64 -2429 2430 0
-2430 2446 0
-65 -2430 2431 0
-2431 2447 0
-66 -2431 2432 0
-2432 2448 0
-67 -2432 2433 0
-2433 2449 0
-68 -2433 2434 0
-2434 2450 0
-69 -2434 2435 0
-2435 2451 0
-70 -2435 2436 0
-2436 2452 0
-71 -2436 2437 0
-2437 2453 0
-72 -2437 2438 0
-2438 2454 0
-73 -2438 2439 0
-2439 2455 0
-74 -2439 2440 0
-2440 2456 0
-75 -2440 2441 0
-2441 2457 0
-76 -2441 2442 0
-2442 2458 0
-77 -2442 2443 0
-2443 2459 0
-78 -2443 2444 0
-2444 2460 0
-79 -2444 0
-64 2445 0
-2445 2461 0
-65 -2445 2446 0
-2446 2462 0
-66 -2446 2447 0
-2447 2463 0
-67 -2447 2448 0
-2448 2464 0
-68 -2448 2449 0
-2449 2465 0
-69 -2449 2450 0
-2450 2466 0
-70 -2450 2451 0
-2451 2467 0
-71 -2451 2452 0
-2452 2468 0
-72 -2452 2453 0
-2453 2469 0
-73 -2453 2454 0
-2454 2470 0
-74 -2454 2455 0
-2455 2471 0
-75 -2455 2456 0
-2456 2472 0
-76 -2456 2457 0
-2457 2473 0
-77 -2457 2458 0
-2458 2474 0
-78 -2458 2459 0
-2459 2475 0
-79 -2459 2460 0
-2460 2476 0
-80 -2460 0
-65 2461 0
-2461 2477 0
-66 -2461 2462 0
-2462 2478 0
-67 -2462 2463 0
-2463 2479 0
-68 -2463 2464 0
-2464 2480 0
-69 -2464 2465 0
-2465 2481 0
-70 -2465 2466 0
-2466 2482 0
-71 -2466 2467 0
-2467 2483 0
-72 -2467 2468 0
-2468 2484 0
-73 -2468 2469 0
-2469 2485 0
-74 -2469 2470 0
-2470 2486 0
-75 -2470 2471 0
-2471 2487 0
-76 -2471 2472 0
-2472 2488 0
-77 -2472 2473 0
-2473 2489 0
-78 -2473 2474 0
-2474 2490 0
-79 -2474 2475 0
-2475 2491 0
-80 -2475 2476 0
-2476 2492 0
-81 -2476 0
-66 2477 0
-2477 2493 0
-67 -2477 2478 0
-2478 2494 0
-68 -2478 2479 0
-2479 2495 0
-69 -2479 2480 0
-2480 2496 0
-70 -2480 2481 0
-2481 2497 0
-71 -2481 2482 0
-2482 2498 0
-72 -2482 2483 0
-2483 2499 0
-73 -2483 2484 0
-2484 2500 0
-74 -2484 2485 0
-2485 2501 0
-75 -2485 2486 0
-2486 2502 0
-76 -2486 2487 0
-2487 2503 0
-77 -2487 2488 0
-2488 2504 0
-78 -2488 2489 0
-2489 2505 0
-79 -2489 2490 0
-2490 2506 0
-80 -2490 2491 0
-2491 2507 0
-81 -2491 2492 0
-2492 2508 0
-82 -2492 0
-67 2493 0
-2493 2509 0
-68 -2493 2494 0
-2494 2510 0
-69 -2494 2495 0
-2495 2511 0
-70 -2495 2496 0
-2496 2512 0
-71 -2496 2497 0
-2497 2513 0
-72 -2497 2498 0
-2498 2514 0
-73 -2498 2499 0
-2499 2515 0
-74 -2499 2500 0
-2500 2516 0
-75 -2500 2501 0
-2501 2517 0
-76 -2501 2502 0
-2502 2518 0
-77 -2502 2503 0
-2503 2519 0
-78 -2503 2504 0
-2504 2520 0
-79 -2504 2505 0
-2505 2521 0
-80 -2505 2506 0
-2506 2522 0
-81 -2506 2507 0
-2507 2523 0
-82 -2507 2508 0
-2508 2524 0
-83 -2508 0
-68 2509 0
-2509 2525 0
-69 -2509 2510 0
-2510 2526 0
-70 -2510 2511 0
-2511 2527 0
-71 -2511 2512 0
-2512 2528 0
-72 -2512 2513 0
-2513 2529 0
-73 -2513 2514 0
-2514 2530 0
-74 -2514 2515 0
-2515 2531 0
-75 -2515 2516 0
-2516 2532 0
-76 -2516 2517 0
-2517 2533 0
-77 -2517 2518 0
-2518 2534 0
-78 -2518 2519 0
-2519 2535 0
-79 -2519 2520 0
-2520 2536 0
-80 -2520 2521 0
-2521 2537 0
-81 -2521 2522 0
-2522 2538 0
-82 -2522 2523 0
-2523 2539 0
-83 -2523 2524 0
-2524 2540 0
-84 -2524 0
-69 2525 0
-2525 2541 0
-70 -2525 2526 0
-2526 2542 0
-71 -2526 2527 0
-2527 2543 0
-72 -2527 2528 0
-2528 2544 0
-73 -2528 2529 0
-2529 2545 0
-74 -2529 2530 0
-2530 2546 0
-75 -2530 2531 0
-2531 2547 0
-76 -2531 2532 0
-2532 2548 0
-77 -2532 2533 0
-2533 2549 0
-78 -2533 2534 0
-2534 2550 0
-79 -2534 2535 0
-2535 2551 0
-80 -2535 2536 0
-2536 2552 0
-81 -2536 2537 0
-2537 2553 0
-82 -2537 2538 0
-2538 2554 0
-83 -2538 2539 0
-2539 2555 0
-84 -2539 2540 0
-2540 2556 0
-85 -2540 0
-70 2541 0
-2541 2557 0
-71 -2541 2542 0
-2542 2558 0
-72 -2542 2543 0
-2543 2559 0
-73 -2543 2544 0
-2544 2560 0
-74 -2544 2545 0
-2545 2561 0
-75 -2545 2546 0
-2546 2562 0
-76 -2546 2547 0
-2547 2563 0
-77 -2547 2548 0
-2548 2564 0
-78 -2548 2549 0
-2549 2565 0
-79 -2549 2550 0
-2550 2566 0
-80 -2550 2551 0
-2551 2567 0
-81 -2551 2552 0
-2552 2568 0
-82 -2552 2553 0
-2553 2569 0
-83 -2553 2554 0
-2554 2570 0
-84 -2554 2555 0
-2555 2571 0
-85 -2555 2556 0
-2556 2572 0
-86 -2556 0
-71 2557 0
-2557 2573 0
-72 -2557 2558 0
-2558 2574 0
-73 -2558 2559 0
-2559 2575 0
-74 -2559 2560 0
-2560 2576 0
-75 -2560 2561 0
-2561 2577 0
-76 -2561 2562 0
-2562 2578 0
-77 -2562 2563 0
-2563 2579 0
-78 -2563 2564 0
-2564 2580 0
-79 -2564 2565 0
-2565 2581 0
-80 -2565 2566 0
-2566 2582 0
-81 -2566 2567 0
-2567 2583 0
-82 -2567 2568 0
-2568 2584 0
-83 -2568 2569 0
-2569 2585 0
-84 -2569 2570 0
-2570 2586 0
-85 -2570 2571 0
-2571 2587 0
-86 -2571 2572 0
-2572 2588 0
-87 -2572 0
-72 2573 0
-2573 2589 0
-73 -2573 2574 0
-2574 2590 0
-74 -2574 2575 0
-2575 2591 0
-75 -2575 2576 0
-2576 2592 0
-76 -2576 2577 0
-2577 2593 0
-77 -2577 2578 0
-2578 2594 0
-78 -2578 2579 0
-2579 2595 0
-79 -2579 2580 0
-2580 2596 0
-80 -2580 2581 0
-2581 2597 0
-81 -2581 2582 0
-2582 2598 0
-82 -2582 2583 0
-2583 2599 0
-83 -2583 2584 0
-2584 2600 0
-84 -2584 2585 0
-2585 2601 0
-85 -2585 2586 0
-2586 2602 0
-86 -2586 2587 0
-2587 2603 0
-87 -2587 2588 0
-2588 2604 0
-88 -2588 0
-73 2589 0
-2589 2605 0
-74 -2589 2590 0
-2590 2606 0
-75 -2590 2591 0
-2591 2607 0
-76 -2591 2592 0
-2592 2608 0
-77 -2592 2593 0
-2593 2609 0
-78 -2593 2594 0
-2594 2610 0
-79 -2594 2595 0
-2595 2611 0
-80 -2595 2596 0
-2596 2612 0
-81 -2596 2597 0
-2597 2613 0
-82 -2597 2598 0
-2598 2614 0
-83 -2598 2599 0
-2599 2615 0
-84 -2599 2600 0
-2600 2616 0
-85 -2600 2601 0
-2601 2617 0
-86 -2601 2602 0
-2602 2618 0
-87 -2602 2603 0
-2603 2619 0
-88 -2603 2604 0
-2604 2620 0
-89 -2604 0
-74 2605 0
-2605 2621 0
-75 -2605 2606 0
-2606 2622 0
-76 -2606 2607 0
-2607 2623 0
-77 -2607 2608 0
-2608 2624 0
-78 -2608 2609 0
-2609 2625 0
-79 -2609 2610 0
-2610 2626 0
-80 -2610 2611 0
-2611 2627 0
-81 -2611 2612 0
-2612 2628 0
-82 -2612 2613 0
-2613 2629 0
-83 -2613 2614 0
-2614 2630 0
-84 -2614 2615 0
-2615 2631 0
-85 -2615 2616 0
-2616 2632 0
-86 -2616 2617 0
-2617 2633 0
-87 -2617 2618 0
-2618 2634 0
-88 -2618 2619 0
-2619 2635 0
-89 -2619 2620 0
-2620 2636 0
-90 -2620 0
-75 2621 0
-2621 2637 0
-76 -2621 2622 0
-2622 2638 0
-77 -2622 2623 0
-2623 2639 0
-78 -2623 2624 0
-2624 2640 0
-79 -2624 2625 0
-2625 2641 0
-80 -2625 2626 0
-2626 2642 0
-81 -2626 2627 0
-2627 2643 0
-82 -2627 2628 0
-2628 2644 0
-83 -2628 2629 0
-2629 2645 0
-84 -2629 2630 0
-2630 2646 0
-85 -2630 2631 0
-2631 2647 0
-86 -2631 2632 0
-2632 2648 0
-87 -2632 2633 0
-2633 2649 0
-88 -2633 2634 0
-2634 2650 0
-89 -2634 2635 0
-2635 2651 0
-90 -2635 2636 0
-2636 2652 0
-91 -2636 0
-76 2637 0
-2637 2653 0
-77 -2637 2638 0
-2638 2654 0
-78 -2638 2639 0
-2639 2655 0
-79 -2639 2640 0
-2640 2656 0
-80 -2640 2641 0
-2641 2657 0
-81 -2641 2642 0
-2642 2658 0
-82 -2642 2643 0
-2643 2659 0
-83 -2643 2644 0
-2644 2660 0
-84 -2644 2645 0
-2645 2661 0
-85 -2645 2646 0
-2646 2662 0
-86 -2646 2647 0
-2647 2663 0
-87 -2647 2648 0
-2648 2664 0
-88 -2648 2649 0
-2649 2665 0
-89 -2649 2650 0
-2650 2666 0
-90 -2650 2651 0
-2651 2667 0
-91 -2651 2652 0
-2652 2668 0
-92 -2652 0
-77 2653 0
-2653 2669 0
-78 -2653 2654 0
-2654 2670 0
-79 -2654 2655 0
-2655 2671 0
-80 -2655 2656 0
-2656 2672 0
-81 -2656 2657 0
-2657 2673 0
-82 -2657 2658 0
-2658 2674 0
-83 -2658 2659 0
-2659 2675 0
-84 -2659 2660 0
-2660 2676 0
-85 -2660 2661 0
-2661 2677 0
-86 -2661 2662 0
-2662 2678 0
-87 -2662 2663 0
-2663 2679 0
-88 -2663 2664 0
-2664 2680 0
-89 -2664 2665 0
-2665 2681 0
-90 -2665 2666 0
-2666 2682 0
-91 -2666 2667 0
-2667 2683 0
-92 -2667 2668 0
-2668 2684 0
-93 -2668 0
-78 2669 0
-79 -2669 2670 0
-80 -2670 2671 0
-81 -2671 2672 0
-82 -2672 2673 0
-83 -2673 2674 0
-84 -2674 2675 0
-85 -2675 2676 0
-86 -2676 2677 0
-87 -2677 2678 0
-88 -2678 2679 0
-89 -2679 2680 0
-90 -2680 2681 0
-91 -2681 2682 0
-92 -2682 2683 0
-93 -2683 2684 0
-94 -2684 0
-95 2685 0
-2685 2686 0
-96 -2685 2687 0
-2687 2688 0
-97 -2687 2689 0
-2689 2690 0
-98 -2689 2691 0
-2691 2692 0
-99 -2691 2693 0
-2693 2694 0
-100 -2693 2695 0
-2695 2696 0
-101 -2695 2697 0
-2697 2698 0
-102 -2697 2699 0
-2699 2700 0
-103 -2699 2701 0
-2701 2702 0
-104 -2701 0
-96 2686 0
-2686 2703 0
-97 -2686 2688 0
-2688 2704 0
-98 -2688 2690 0
-2690 2705 0
-99 -2690 2692 0
-2692 2706 0
-100 -2692 2694 0
-2694 2707 0
-101 -2694 2696 0
-2696 2708 0
-102 -2696 2698 0
-2698 2709 0
-103 -2698 2700 0
-2700 2710 0
-104 -2700 2702 0
-2702 2711 0
-105 -2702 0
-97 2703 0
-2703 2712 0
-98 -2703 2704 0
-2704 2713 0
-99 -2704 2705 0
-2705 2714 0
-100 -2705 2706 0
-2706 2715 0
-101 -2706 2707 0
-2707 2716 0
-102 -2707 2708 0
-2708 2717 0
-103 -2708 2709 0
-2709 2718 0
-104 -2709 2710 0
-2710 2719 0
-105 -2710 2711 0
-2711 2720 0
-106 -2711 0
-98 2712 0
-2712 2721 0
-99 -2712 2713 0
-2713 2722 0
-100 -2713 2714 0
-2714 2723 0
-101 -2714 2715 0
-2715 2724 0
-102 -2715 2716 0
-2716 2725 0
-103 -2716 2717 0
-2717 2726 0
-104 -2717 2718 0
-2718 2727 0
-105 -2718 2719 0
-2719 2728 0
-106 -2719 2720 0
-2720 2729 0
-107 -2720 0
-99 2721 0
-2721 2730 0
-100 -2721 2722 0
-2722 2731 0
-101 -2722 2723 0
-2723 2732 0
-102 -2723 2724 0
-2724 2733 0
-103 -2724 2725 0
-2725 2734 0
-104 -2725 2726 0
-2726 2735 0
-105 -2726 2727 0
-2727 2736 0
-106 -2727 2728 0
-2728 2737 0
-107 -2728 2729 0
-2729 2738 0
-108 -2729 0
-100 2730 0
-2730 2739 0
-101 -2730 2731 0
-2731 2740 0
-102 -2731 2732 0
-2732 2741 0
-103 -2732 2733 0
-2733 2742 0
-104 -2733 2734 0
-2734 2743 0
-105 -2734 2735 0
-2735 2744 0
-106 -2735 2736 0
-2736 2745 0
-107 -2736 2737 0
-2737 2746 0
-108 -2737 2738 0
-2738 2747 0
-109 -2738 0
-101 2739 0
-2739 2748 0
-102 -2739 2740 0
-2740 2749 0
-103 -2740 2741 0
-2741 2750 0
-104 -2741 2742 0
-2742 2751 0
-105 -2742 2743 0
-2743 2752 0
-106 -2743 2744 0
-2744 2753 0
-107 -2744 2745 0
-2745 2754 0
-108 -2745 2746 0
-2746 2755 0
-109 -2746 2747 0
-2747 2756 0
-110 -2747 0
-102 2748 0
-2748 2757 0
-103 -2748 2749 0
-2749 2758 0
-104 -2749 2750 0
-2750 2759 0
-105 -2750 2751 0
-2751 2760 0
-106 -2751 2752 0
-2752 2761 0
-107 -2752 2753 0
-2753 2762 0
-108 -2753 2754 0
-2754 2763 0
-109 -2754 2755 0
-2755 2764 0
-110 -2755 2756 0
-2756 2765 0
-111 -2756 0
-103 2757 0
-2757 2766 0
-104 -2757 2758 0
-2758 2767 0
-105 -2758 2759 0
-2759 2768 0
-106 -2759 2760 0
-2760 2769 0
-107 -2760 2761 0
-2761 2770 0
-108 -2761 2762 0
-2762 2771 0
-109 -2762 2763 0
-2763 2772 0
-110 -2763 2764 0
-2764 2773 0
-111 -2764 2765 0
-2765 2774 0
-112 -2765 0
-104 2766 0
-2766 2775 0
-105 -2766 2767 0
-2767 2776 0
-106 -2767 2768 0
-2768 2777 0
-107 -2768 2769 0
-2769 2778 0
-108 -2769 2770 0
-2770 2779 0
-109 -2770 2771 0
-2771 2780 0
-110 -2771 2772 0
-2772 2781 0
-111 -2772 2773 0
-2773 2782 0
-112 -2773 2774 0
-2774 2783 0
-113 -2774 0
-105 2775 0
-2775 2784 0
-106 -2775 2776 0
-2776 2785 0
-107 -2776 2777 0
-2777 2786 0
-108 -2777 2778 0
-2778 2787 0
-109 -2778 2779 0
-2779 2788 0
-110 -2779 2780 0
-2780 2789 0
-111 -2780 2781 0
-2781 2790 0
-112 -2781 2782 0
-2782 2791 0
-113 -2782 2783 0
-2783 2792 0
-114 -2783 0
-106 2784 0
-2784 2793 0
-107 -2784 2785 0
-2785 2794 0
-108 -2785 2786 0
-2786 2795 0
-109 -2786 2787 0
-2787 2796 0
-110 -2787 2788 0
-2788 2797 0
-111 -2788 2789 0
-2789 2798 0
-112 -2789 2790 0
-2790 2799 0
-113 -2790 2791 0
-2791 2800 0
-114 -2791 2792 0
-2792 2801 0
-115 -2792 0
-107 2793 0
-2793 2802 0
-108 -2793 2794 0
-2794 2803 0
-109 -2794 2795 0
-2795 2804 0
-110 -2795 2796 0
-2796 2805 0
-111 -2796 2797 0
-2797 2806 0
-112 -2797 2798 0
-2798 2807 0
-113 -2798 2799 0
-2799 2808 0
-114 -2799 2800 0
-2800 2809 0
-115 -2800 2801 0
-2801 2810 0
-116 -2801 0
-108 2802 0
-2802 2811 0
-109 -2802 2803 0
-2803 2812 0
-110 -2803 2804 0
-2804 2813 0
-111 -2804 2805 0
-2805 2814 0
-112 -2805 2806 0
-2806 2815 0
-113 -2806 2807 0
-2807 2816 0
-114 -2807 2808 0
-2808 2817 0
-115 -2808 2809 0
-2809 2818 0
-116 -2809 2810 0
-2810 2819 0
-117 -2810 0
-109 2811 0
-2811 2820 0
-110 -2811 2812 0
-2812 2821 0
-111 -2812 2813 0
-2813 2822 0
-112 -2813 2814 0
-2814 2823 0
-113 -2814 2815 0
-2815 2824 0
-114 -2815 2816 0
-2816 2825 0
-115 -2816 2817 0
-2817 2826 0
-116 -2817 2818 0
-2818 2827 0
-117 -2818 2819 0
-2819 2828 0
-118 -2819 0
-110 2820 0
-2820 2829 0
-111 -2820 2821 0
-2821 2830 0
-112 -2821 2822 0
-2822 2831 0
-113 -2822 2823 0
-2823 2832 0
-114 -2823 2824 0
-2824 2833 0
-115 -2824 2825 0
-2825 2834 0
-116 -2825 2826 0
-2826 2835 0
-117 -2826 2827 0
-2827 2836 0
-118 -2827 2828 0
-2828 2837 0
-119 -2828 0
-111 2829 0
-2829 2838 0
-112 -2829 2830 0
-2830 2839 0
-113 -2830 2831 0
-2831 2840 0
-114 -2831 2832 0
-2832 2841 0
-115 -2832 2833 0
-2833 2842 0
-116 -2833 2834 0
-2834 2843 0
-117 -2834 2835 0
-2835 2844 0
-118 -2835 2836 0
-2836 2845 0
-119 -2836 2837 0
-2837 2846 0
-120 -2837 0
-112 2838 0
-2838 2847 0
-113 -2838 2839 0
-2839 2848 0
-114 -2839 2840 0
-2840 2849 0
-115 -2840 2841 0
-2841 2850 0
-116 -2841 2842 0
-2842 2851 0
-117 -2842 2843 0
-2843 2852 0
-118 -2843 2844 0
-2844 2853 0
-119 -2844 2845 0
-2845 2854 0
-120 -2845 2846 0
-2846 2855 0
-121 -2846 0
-113 2847 0
-2847 2856 0
-114 -2847 2848 0
-2848 2857 0
-115 -2848 2849 0
-2849 2858 0
-116 -2849 2850 0
-2850 2859 0
-117 -2850 2851 0
-2851 2860 0
-118 -2851 2852 0
-2852 2861 0
-119 -2852 2853 0
-2853 2862 0
-120 -2853 2854 0
-2854 2863 0
-121 -2854 2855 0
-2855 2864 0
-122 -2855 0
-114 2856 0
-2856 2865 0
-115 -2856 2857 0
-2857 2866 0
-116 -2857 2858 0
-2858 2867 0
-117 -2858 2859 0
-2859 2868 0
-118 -2859 2860 0
-2860 2869 0
-119 -2860 2861 0
-2861 2870 0
-120 -2861 2862 0
-2862 2871 0
-121 -2862 2863 0
-2863 2872 0
-122 -2863 2864 0
-2864 2873 0
-123 -2864 0
-115 2865 0
-2865 2874 0
-116 -2865 2866 0
-2866 2875 0
-117 -2866 2867 0
-2867 2876 0
-118 -2867 2868 0
-2868 2877 0
-119 -2868 2869 0
-2869 2878 0
-120 -2869 2870 0
-2870 2879 0
-121 -2870 2871 0
-2871 2880 0
-122 -2871 2872 0
-2872 2881 0
-123 -2872 2873 0
-2873 2882 0
-124 -2873 0
-116 2874 0
-2874 2883 0
-117 -2874 2875 0
-2875 2884 0
-118 -2875 2876 0
-2876 2885 0
-119 -2876 2877 0
-2877 2886 0
-120 -2877 2878 0
-2878 2887 0
-121 -2878 2879 0
-2879 2888 0
-122 -2879 2880 0
-2880 2889 0
-123 -2880 2881 0
-2881 2890 0
-124 -2881 2882 0
-2882 2891 0
-125 -2882 0
-117 2883 0
-2883 2892 0
-118 -2883 2884 0
-2884 2893 0
-119 -2884 2885 0
-2885 2894 0
-120 -2885 2886 0
-2886 2895 0
-121 -2886 2887 0
-2887 2896 0
-122 -2887 2888 0
-2888 2897 0
-123 -2888 2889 0
-2889 2898 0
-124 -2889 2890 0
-2890 2899 0
-125 -2890 2891 0
-2891 2900 0
-126 -2891 0
-118 2892 0
-2892 2901 0
-119 -2892 2893 0
-2893 2902 0
-120 -2893 2894 0
-2894 2903 0
-121 -2894 2895 0
-2895 2904 0
-122 -2895 2896 0
-2896 2905 0
-123 -2896 2897 0
-2897 2906 0
-124 -2897 2898 0
-2898 2907 0
-125 -2898 2899 0
-2899 2908 0
-126 -2899 2900 0
-2900 2909 0
-127 -2900 0
-119 2901 0
-2901 2910 0
-120 -2901 2902 0
-2902 2911 0
-121 -2902 2903 0
-2903 2912 0
-122 -2903 2904 0
-2904 2913 0
-123 -2904 2905 0
-2905 2914 0
-124 -2905 2906 0
-2906 2915 0
-125 -2906 2907 0
-2907 2916 0
-126 -2907 2908 0
-2908 2917 0
-127 -2908 2909 0
-2909 2918 0
-128 -2909 0
-120 2910 0
-2910 2919 0
-121 -2910 2911 0
-2911 2920 0
-122 -2911 2912 0
-2912 2921 0
-123 -2912 2913 0
-2913 2922 0
-124 -2913 2914 0
-2914 2923 0
-125 -2914 2915 0
-2915 2924 0
-126 -2915 2916 0
-2916 2925 0
-127 -2916 2917 0
-2917 2926 0
-128 -2917 2918 0
-2918 2927 0
-129 -2918 0
-121 2919 0
-2919 2928 0
-122 -2919 2920 0
-2920 2929 0
-123 -2920 2921 0
-2921 2930 0
-124 -2921 2922 0
-2922 2931 0
-125 -2922 2923 0
-2923 2932 0
-126 -2923 2924 0
-2924 2933 0
-127 -2924 2925 0
-2925 2934 0
-128 -2925 2926 0
-2926 2935 0
-129 -2926 2927 0
-2927 2936 0
-130 -2927 0
-122 2928 0
-2928 2937 0
-123 -2928 2929 0
-2929 2938 0
-124 -2929 2930 0
-2930 2939 0
-125 -2930 2931 0
-2931 2940 0
-126 -2931 2932 0
-2932 2941 0
-127 -2932 2933 0
-2933 2942 0
-128 -2933 2934 0
-2934 2943 0
-129 -2934 2935 0
-2935 2944 0
-130 -2935 2936 0
-2936 2945 0
-131 -2936 0
-123 2937 0
-2937 2946 0
-124 -2937 2938 0
-2938 2947 0
-125 -2938 2939 0
-2939 2948 0
-126 -2939 2940 0
-2940 2949 0
-127 -2940 2941 0
-2941 2950 0
-128 -2941 2942 0
-2942 2951 0
-129 -2942 2943 0
-2943 2952 0
-130 -2943 2944 0
-2944 2953 0
-131 -2944 2945 0
-2945 2954 0
-132 -2945 0
-124 2946 0
-2946 2955 0
-125 -2946 2947 0
-2947 2956 0
-126 -2947 2948 0
-2948 2957 0
-127 -2948 2949 0
-2949 2958 0
-128 -2949 2950 0
-2950 2959 0
-129 -2950 2951 0
-2951 2960 0
-130 -2951 2952 0
-2952 2961 0
-131 -2952 2953 0
-2953 2962 0
-132 -2953 2954 0
-2954 2963 0
-133 -2954 0
-125 2955 0
-2955 2964 0
-126 -2955 2956 0
-2956 2965 0
-127 -2956 2957 0
-2957 2966 0
-128 -2957 2958 0
-2958 2967 0
-129 -2958 2959 0
-2959 2968 0
-130 -2959 2960 0
-2960 2969 0
-131 -2960 2961 0
-2961 2970 0
-132 -2961 2962 0
-2962 2971 0
-133 -2962 2963 0
-2963 2972 0
-134 -2963 0
-126 2964 0
-2964 2973 0
-127 -2964 2965 0
-2965 2974 0
-128 -2965 2966 0
-2966 2975 0
-129 -2966 2967 0
-2967 2976 0
-130 -2967 2968 0
-2968 2977 0
-131 -2968 2969 0
-2969 2978 0
-132 -2969 2970 0
-2970 2979 0
-133 -2970 2971 0
-2971 2980 0
-134 -2971 2972 0
-2972 2981 0
-135 -2972 0
-127 2973 0
-2973 2982 0
-128 -2973 2974 0
-2974 2983 0
-129 -2974 2975 0
-2975 2984 0
-130 -2975 2976 0
-2976 2985 0
-131 -2976 2977 0
-2977 2986 0
-132 -2977 2978 0
-2978 2987 0
-133 -2978 2979 0
-2979 2988 0
-134 -2979 2980 0
-2980 2989 0
-135 -2980 2981 0
-2981 2990 0
-136 -2981 0
-128 2982 0
-2982 2991 0
-129 -2982 2983 0
-2983 2992 0
-130 -2983 2984 0
-2984 2993 0
-131 -2984 2985 0
-2985 2994 0
-132 -2985 2986 0
-2986 2995 0
-133 -2986 2987 0
-2987 2996 0
-134 -2987 2988 0
-2988 2997 0
-135 -2988 2989 0
-2989 2998 0
-136 -2989 2990 0
-2990 2999 0
-137 -2990 0
-129 2991 0
-2991 3000 0
-130 -2991 2992 0
-2992 3001 0
-131 -2992 2993 0
-2993 3002 0
-132 -2993 2994 0
-2994 3003 0
-133 -2994 2995 0
-2995 3004 0
-134 -2995 2996 0
-2996 3005 0
-135 -2996 2997 0
-2997 3006 0
-136 -2997 2998 0
-2998 3007 0
-137 -2998 2999 0
-2999 3008 0
-138 -2999 0
-130 3000 0
-3000 3009 0
-131 -3000 3001 0
-3001 3010 0
-132 -3001 3002 0
-3002 3011 0
-133 -3002 3003 0
-3003 3012 0
-134 -3003 3004 0
-3004 3013 0
-135 -3004 3005 0
-3005 3014 0
-136 -3005 3006 0
-3006 3015 0
-137 -3006 3007 0
-3007 3016 0
-138 -3007 3008 0
-3008 3017 0
-139 -3008 0
-131 3009 0
-3009 3018 0
-132 -3009 3010 0
-3010 3019 0
-133 -3010 3011 0
-3011 3020 0
-134 -3011 3012 0
-3012 3021 0
-135 -3012 3013 0
-3013 3022 0
-136 -3013 3014 0
-3014 3023 0
-137 -3014 3015 0
-3015 3024 0
-138 -3015 3016 0
-3016 3025 0
-139 -3016 3017 0
-3017 3026 0
-140 -3017 0
-132 3018 0
-3018 3027 0
-133 -3018 3019 0
-3019 3028 0
-134 -3019 3020 0
-3020 3029 0
-135 -3020 3021 0
-3021 3030 0
-136 -3021 3022 0
-3022 3031 0
-137 -3022 3023 0
-3023 3032 0
-138 -3023 3024 0
-3024 3033 0
-139 -3024 3025 0
-3025 3034 0
-140 -3025 3026 0
-3026 3035 0
-141 -3026 0
-133 3027 0
-3027 3036 0
-134 -3027 3028 0
-3028 3037 0
-135 -3028 3029 0
-3029 3038 0
-136 -3029 3030 0
-3030 3039 0
-137 -3030 3031 0
-3031 3040 0
-138 -3031 3032 0
-3032 3041 0
-139 -3032 3033 0
-3033 3042 0
-140 -3033 3034 0
-3034 3043 0
-141 -3034 3035 0
-3035 3044 0
-142 -3035 0
-134 3036 0
-3036 3045 0
-135 -3036 3037 0
-3037 3046 0
-136 -3037 3038 0
-3038 3047 0
-137 -3038 3039 0
-3039 3048 0
-138 -3039 3040 0
-3040 3049 0
-139 -3040 3041 0
-3041 3050 0
-140 -3041 3042 0
-3042 3051 0
-141 -3042 3043 0
-3043 3052 0
-142 -3043 3044 0
-3044 3053 0
-143 -3044 0
-135 3045 0
-3045 3054 0
-136 -3045 3046 0
-3046 3055 0
-137 -3046 3047 0
-3047 3056 0
-138 -3047 3048 0
-3048 3057 0
-139 -3048 3049 0
-3049 3058 0
-140 -3049 3050 0
-3050 3059 0
-141 -3050 3051 0
-3051 3060 0
-142 -3051 3052 0
-3052 3061 0
-143 -3052 3053 0
-3053 3062 0
-144 -3053 0
-136 3054 0
-3054 3063 0
-137 -3054 3055 0
-3055 3064 0
-138 -3055 3056 0
-3056 3065 0
-139 -3056 3057 0
-3057 3066 0
-140 -3057 3058 0
-3058 3067 0
-141 -3058 3059 0
-3059 3068 0
-142 -3059 3060 0
-3060 3069 0
-143 -3060 3061 0
-3061 3070 0
-144 -3061 3062 0
-3062 3071 0
-145 -3062 0
-137 3063 0
-3063 3072 0
-138 -3063 3064 0
-3064 3073 0
-139 -3064 3065 0
-3065 3074 0
-140 -3065 3066 0
-3066 3075 0
-141 -3066 3067 0
-3067 3076 0
-142 -3067 3068 0
-3068 3077 0
-143 -3068 3069 0
-3069 3078 0
-144 -3069 3070 0
-3070 3079 0
-145 -3070 3071 0
-3071 3080 0
-146 -3071 0
-138 3072 0
-3072 3081 0
-139 -3072 3073 0
-3073 3082 0
-140 -3073 3074 0
-3074 3083 0
-141 -3074 3075 0
-3075 3084 0
-142 -3075 3076 0
-3076 3085 0
-143 -3076 3077 0
-3077 3086 0
-144 -3077 3078 0
-3078 3087 0
-145 -3078 3079 0
-3079 3088 0
-146 -3079 3080 0
-3080 3089 0
-147 -3080 0
-139 3081 0
-3081 3090 0
-140 -3081 3082 0
-3082 3091 0
-141 -3082 3083 0
-3083 3092 0
-142 -3083 3084 0
-3084 3093 0
-143 -3084 3085 0
-3085 3094 0
-144 -3085 3086 0
-3086 3095 0
-145 -3086 3087 0
-3087 3096 0
-146 -3087 3088 0
-3088 3097 0
-147 -3088 3089 0
-3089 3098 0
-148 -3089 0
-140 3090 0
-3090 3099 0
-141 -3090 3091 0
-3091 3100 0
-142 -3091 3092 0
-3092 3101 0
-143 -3092 3093 0
-3093 3102 0
-144 -3093 3094 0
-3094 3103 0
-145 -3094 3095 0
-3095 3104 0
-146 -3095 3096 0
-3096 3105 0
-147 -3096 3097 0
-3097 3106 0
-148 -3097 3098 0
-3098 3107 0
-149 -3098 0
-141 3099 0
-3099 3108 0
-142 -3099 3100 0
-3100 3109 0
-143 -3100 3101 0
-3101 3110 0
-144 -3101 3102 0
-3102 3111 0
-145 -3102 3103 0
-3103 3112 0
-146 -3103 3104 0
-3104 3113 0
-147 -3104 3105 0
-3105 3114 0
-148 -3105 3106 0
-3106 3115 0
-149 -3106 3107 0
-3107 3116 0
-150 -3107 0
-142 3108 0
-3108 3117 0
-143 -3108 3109 0
-3109 3118 0
-144 -3109 3110 0
-3110 3119 0
-145 -3110 3111 0
-3111 3120 0
-146 -3111 3112 0
-3112 3121 0
-147 -3112 3113 0
-3113 3122 0
-148 -3113 3114 0
-3114 3123 0
-149 -3114 3115 0
-3115 3124 0
-150 -3115 3116 0
-3116 3125 0
-151 -3116 0
-143 3117 0
-3117 3126 0
-144 -3117 3118 0
-3118 3127 0
-145 -3118 3119 0
-3119 3128 0
-146 -3119 3120 0
-3120 3129 0
-147 -3120 3121 0
-3121 3130 0
-148 -3121 3122 0
-3122 3131 0
-149 -3122 3123 0
-3123 3132 0
-150 -3123 3124 0
-3124 3133 0
-151 -3124 3125 0
-3125 3134 0
-152 -3125 0
-144 3126 0
-3126 3135 0
-145 -3126 3127 0
-3127 3136 0
-146 -3127 3128 0
-3128 3137 0
-147 -3128 3129 0
-3129 3138 0
-148 -3129 3130 0
-3130 3139 0
-149 -3130 3131 0
-3131 3140 0
-150 -3131 3132 0
-3132 3141 0
-151 -3132 3133 0
-3133 3142 0
-152 -3133 3134 0
-3134 3143 0
-153 -3134 0
-145 3135 0
-3135 3144 0
-146 -3135 3136 0
-3136 3145 0
-147 -3136 3137 0
-3137 3146 0
-148 -3137 3138 0
-3138 3147 0
-149 -3138 3139 0
-3139 3148 0
-150 -3139 3140 0
-3140 3149 0
-151 -3140 3141 0
-3141 3150 0
-152 -3141 3142 0
-3142 3151 0
-153 -3142 3143 0
-3143 3152 0
-154 -3143 0
-146 3144 0
-3144 3153 0
-147 -3144 3145 0
-3145 3154 0
-148 -3145 3146 0
-3146 3155 0
-149 -3146 3147 0
-3147 3156 0
-150 -3147 3148 0
-3148 3157 0
-151 -3148 3149 0
-3149 3158 0
-152 -3149 3150 0
-3150 3159 0
-153 -3150 3151 0
-3151 3160 0
-154 -3151 3152 0
-3152 3161 0
-155 -3152 0
-147 3153 0
-3153 3162 0
-148 -3153 3154 0
-3154 3163 0
-149 -3154 3155 0
-3155 3164 0
-150 -3155 3156 0
-3156 3165 0
-151 -3156 3157 0
-3157 3166 0
-152 -3157 3158 0
-3158 3167 0
-153 -3158 3159 0
-3159 3168 0
-154 -3159 3160 0
-3160 3169 0
-155 -3160 3161 0
-3161 3170 0
-156 -3161 0
-148 3162 0
-3162 3171 0
-149 -3162 3163 0
-3163 3172 0
-150 -3163 3164 0
-3164 3173 0
-151 -3164 3165 0
-3165 3174 0
-152 -3165 3166 0
-3166 3175 0
-153 -3166 3167 0
-3167 3176 0
-154 -3167 3168 0
-3168 3177 0
-155 -3168 3169 0
-3169 3178 0
-156 -3169 3170 0
-3170 3179 0
-157 -3170 0
-149 3171 0
-3171 3180 0
-150 -3171 3172 0
-3172 3181 0
-151 -3172 3173 0
-3173 3182 0
-152 -3173 3174 0
-3174 3183 0
-153 -3174 3175 0
-3175 3184 0
-154 -3175 3176 0
-3176 3185 0
-155 -3176 3177 0
-3177 3186 0
-156 -3177 3178 0
-3178 3187 0
-157 -3178 3179 0
-3179 3188 0
-158 -3179 0
-150 3180 0
-3180 3189 0
-151 -3180 3181 0
-3181 3190 0
-152 -3181 3182 0
-3182 3191 0
-153 -3182 3183 0
-3183 3192 0
-154 -3183 3184 0
-3184 3193 0
-155 -3184 3185 0
-3185 3194 0
-156 -3185 3186 0
-3186 3195 0
-157 -3186 3187 0
-3187 3196 0
-158 -3187 3188 0
-3188 3197 0
-159 -3188 0
-151 3189 0
-3189 3198 0
-152 -3189 3190 0
-3190 3199 0
-153 -3190 3191 0
-3191 3200 0
-154 -3191 3192 0
-3192 3201 0
-155 -3192 3193 0
-3193 3202 0
-156 -3193 3194 0
-3194 3203 0
-157 -3194 3195 0
-3195 3204 0
-158 -3195 3196 0
-3196 3205 0
-159 -3196 3197 0
-3197 3206 0
-160 -3197 0
-152 3198 0
-3198 3207 0
-153 -3198 3199 0
-3199 3208 0
-154 -3199 3200 0
-3200 3209 0
-155 -3200 3201 0
-3201 3210 0
-156 -3201 3202 0
-3202 3211 0
-157 -3202 3203 0
-3203 3212 0
-158 -3203 3204 0
-3204 3213 0
-159 -3204 3205 0
-3205 3214 0
-160 -3205 3206 0
-3206 3215 0
-161 -3206 0
-153 3207 0
-3207 3216 0
-154 -3207 3208 0
-3208 3217 0
-155 -3208 3209 0
-3209 3218 0
-156 -3209 3210 0
-3210 3219 0
-157 -3210 3211 0
-3211 3220 0
-158 -3211 3212 0
-3212 3221 0
-159 -3212 3213 0
-3213 3222 0
-160 -3213 3214 0
-3214 3223 0
-161 -3214 3215 0
-3215 3224 0
-162 -3215 0
-154 3216 0
-3216 3225 0
-155 -3216 3217 0
-3217 3226 0
-156 -3217 3218 0
-3218 3227 0
-157 -3218 3219 0
-3219 3228 0
-158 -3219 3220 0
-3220 3229 0
-159 -3220 3221 0
-3221 3230 0
-160 -3221 3222 0
-3222 3231 0
-161 -3222 3223 0
-3223 3232 0
-162 -3223 3224 0
-3224 3233 0
-163 -3224 0
-155 3225 0
-3225 3234 0
-156 -3225 3226 0
-3226 3235 0
-157 -3226 3227 0
-3227 3236 0
-158 -3227 3228 0
-3228 3237 0
-159 -3228 3229 0
-3229 3238 0
-160 -3229 3230 0
-3230 3239 0
-161 -3230 3231 0
-3231 3240 0
-162 -3231 3232 0
-3232 3241 0
-163 -3232 3233 0
-3233 3242 0
-164 -3233 0
-156 3234 0
-3234 3243 0
-157 -3234 3235 0
-3235 3244 0
-158 -3235 3236 0
-3236 3245 0
-159 -3236 3237 0
-3237 3246 0
-160 -3237 3238 0
-3238 3247 0
-161 -3238 3239 0
-3239 3248 0
-162 -3239 3240 0
-3240 3249 0
-163 -3240 3241 0
-3241 3250 0
-164 -3241 3242 0
-3242 3251 0
-165 -3242 0
-157 3243 0
-3243 3252 0
-158 -3243 3244 0
-3244 3253 0
-159 -3244 3245 0
-3245 3254 0
-160 -3245 3246 0
-3246 3255 0
-161 -3246 3247 0
-3247 3256 0
-162 -3247 3248 0
-3248 3257 0
-163 -3248 3249 0
-3249 3258 0
-164 -3249 3250 0
-3250 3259 0
-165 -3250 3251 0
-3251 3260 0
-166 -3251 0
-158 3252 0
-3252 3261 0
-159 -3252 3253 0
-3253 3262 0
-160 -3253 3254 0
-3254 3263 0
-161 -3254 3255 0
-3255 3264 0
-162 -3255 3256 0
-3256 3265 0
-163 -3256 3257 0
-3257 3266 0
-164 -3257 3258 0
-3258 3267 0
-165 -3258 3259 0
-3259 3268 0
-166 -3259 3260 0
-3260 3269 0
-167 -3260 0
-159 3261 0
-3261 3270 0
-160 -3261 3262 0
-3262 3271 0
-161 -3262 3263 0
-3263 3272 0
-162 -3263 3264 0
-3264 3273 0
-163 -3264 3265 0
-3265 3274 0
-164 -3265 3266 0
-3266 3275 0
-165 -3266 3267 0
-3267 3276 0
-166 -3267 3268 0
-3268 3277 0
-167 -3268 3269 0
-3269 3278 0
-168 -3269 0
-160 3270 0
-3270 3279 0
-161 -3270 3271 0
-3271 3280 0
-162 -3271 3272 0
-3272 3281 0
-163 -3272 3273 0
-3273 3282 0
-164 -3273 3274 0
-3274 3283 0
-165 -3274 3275 0
-3275 3284 0
-166 -3275 3276 0
-3276 3285 0
-167 -3276 3277 0
-3277 3286 0
-168 -3277 3278 0
-3278 3287 0
-169 -3278 0
-161 3279 0
-3279 3288 0
-162 -3279 3280 0
-3280 3289 0
-163 -3280 3281 0
-3281 3290 0
-164 -3281 3282 0
-3282 3291 0
-165 -3282 3283 0
-3283 3292 0
-166 -3283 3284 0
-3284 3293 0
-167 -3284 3285 0
-3285 3294 0
-168 -3285 3286 0
-3286 3295 0
-169 -3286 3287 0
-3287 3296 0
-170 -3287 0
-162 3288 0
-3288 3297 0
-163 -3288 3289 0
-3289 3298 0
-164 -3289 3290 0
-3290 3299 0
-165 -3290 3291 0
-3291 3300 0
-166 -3291 3292 0
-3292 3301 0
-167 -3292 3293 0
-3293 3302 0
-168 -3293 3294 0
-3294 3303 0
-169 -3294 3295 0
-3295 3304 0
-170 -3295 3296 0
-3296 3305 0
-171 -3296 0
-163 3297 0
-3297 3306 0
-164 -3297 3298 0
-3298 3307 0
-165 -3298 3299 0
-3299 3308 0
-166 -3299 3300 0
-3300 3309 0
-167 -3300 3301 0
-3301 3310 0
-168 -3301 3302 0
-3302 3311 0
-169 -3302 3303 0
-3303 3312 0
-170 -3303 3304 0
-3304 3313 0
-171 -3304 3305 0
-3305 3314 0
-172 -3305 0
-164 3306 0
-3306 3315 0
-165 -3306 3307 0
-3307 3316 0
-166 -3307 3308 0
-3308 3317 0
-167 -3308 3309 0
-3309 3318 0
-168 -3309 3310 0
-3310 3319 0
-169 -3310 3311 0
-3311 3320 0
-170 -3311 3312 0
-3312 3321 0
-171 -3312 3313 0
-3313 3322 0
-172 -3313 3314 0
-3314 3323 0
-173 -3314 0
-165 3315 0
-3315 3324 0
-166 -3315 3316 0
-3316 3325 0
-167 -3316 3317 0
-3317 3326 0
-168 -3317 3318 0
-3318 3327 0
-169 -3318 3319 0
-3319 3328 0
-170 -3319 3320 0
-3320 3329 0
-171 -3320 3321 0
-3321 3330 0
-172 -3321 3322 0
-3322 3331 0
-173 -3322 3323 0
-3323 3332 0
-174 -3323 0
-166 3324 0
-3324 3333 0
-167 -3324 3325 0
-3325 3334 0
-168 -3325 3326 0
-3326 3335 0
-169 -3326 3327 0
-3327 3336 0
-170 -3327 3328 0
-3328 3337 0
-171 -3328 3329 0
-3329 3338 0
-172 -3329 3330 0
-3330 3339 0
-173 -3330 3331 0
-3331 3340 0
-174 -3331 3332 0
-3332 3341 0
-175 -3332 0
-167 3333 0
-3333 3342 0
-168 -3333 3334 0
-3334 3343 0
-169 -3334 3335 0
-3335 3344 0
-170 -3335 3336 0
-3336 3345 0
-171 -3336 3337 0
-3337 3346 0
-172 -3337 3338 0
-3338 3347 0
-173 -3338 3339 0
-3339 3348 0
-174 -3339 3340 0
-3340 3349 0
-175 -3340 3341 0
-3341 3350 0
-176 -3341 0
-168 3342 0
-3342 3351 0
-169 -3342 3343 0
-3343 3352 0
-170 -3343 3344 0
-3344 3353 0
-171 -3344 3345 0
-3345 3354 0
-172 -3345 3346 0
-3346 3355 0
-173 -3346 3347 0
-3347 3356 0
-174 -3347 3348 0
-3348 3357 0
-175 -3348 3349 0
-3349 3358 0
-176 -3349 3350 0
-3350 3359 0
-177 -3350 0
-169 3351 0
-3351 3360 0
-170 -3351 3352 0
-3352 3361 0
-171 -3352 3353 0
-3353 3362 0
-172 -3353 3354 0
-3354 3363 0
-173 -3354 3355 0
-3355 3364 0
-174 -3355 3356 0
-3356 3365 0
-175 -3356 3357 0
-3357 3366 0
-176 -3357 3358 0
-3358 3367 0
-177 -3358 3359 0
-3359 3368 0
-178 -3359 0
-170 3360 0
-3360 3369 0
-171 -3360 3361 0
-3361 3370 0
-172 -3361 3362 0
-3362 3371 0
-173 -3362 3363 0
-3363 3372 0
-174 -3363 3364 0
-3364 3373 0
-175 -3364 3365 0
-3365 3374 0
-176 -3365 3366 0
-3366 3375 0
-177 -3366 3367 0
-3367 3376 0
-178 -3367 3368 0
-3368 3377 0
-179 -3368 0
-171 3369 0
-3369 3378 0
-172 -3369 3370 0
-3370 3379 0
-173 -3370 3371 0
-3371 3380 0
-174 -3371 3372 0
-3372 3381 0
-175 -3372 3373 0
-3373 3382 0
-176 -3373 3374 0
-3374 3383 0
-177 -3374 3375 0
-3375 3384 0
-178 -3375 3376 0
-3376 3385 0
-179 -3376 3377 0
-3377 3386 0
-180 -3377 0
-172 3378 0
-3378 3387 0
-173 -3378 3379 0
-3379 3388 0
-174 -3379 3380 0
-3380 3389 0
-175 -3380 3381 0
-3381 3390 0
-176 -3381 3382 0
-3382 3391 0
-177 -3382 3383 0
-3383 3392 0
-178 -3383 3384 0
-3384 3393 0
-179 -3384 3385 0
-3385 3394 0
-180 -3385 3386 0
-3386 3395 0
-181 -3386 0
-173 3387 0
-3387 3396 0
-174 -3387 3388 0
-3388 3397 0
-175 -3388 3389 0
-3389 3398 0
-176 -3389 3390 0
-3390 3399 0
-177 -3390 3391 0
-3391 3400 0
-178 -3391 3392 0
-3392 3401 0
-179 -3392 3393 0
-3393 3402 0
-180 -3393 3394 0
-3394 3403 0
-181 -3394 3395 0
-3395 3404 0
-182 -3395 0
-174 3396 0
-3396 3405 0
-175 -3396 3397 0
-3397 3406 0
-176 -3397 3398 0
-3398 3407 0
-177 -3398 3399 0
-3399 3408 0
-178 -3399 3400 0
-3400 3409 0
-179 -3400 3401 0
-3401 3410 0
-180 -3401 3402 0
-3402 3411 0
-181 -3402 3403 0
-3403 3412 0
-182 -3403 3404 0
-3404 3413 0
-183 -3404 0
-175 3405 0
-3405 3414 0
-176 -3405 3406 0
-3406 3415 0
-177 -3406 3407 0
-3407 3416 0
-178 -3407 3408 0
-3408 3417 0
-179 -3408 3409 0
-3409 3418 0
-180 -3409 3410 0
-3410 3419 0
-181 -3410 3411 0
-3411 3420 0
-182 -3411 3412 0
-3412 3421 0
-183 -3412 3413 0
-3413 3422 0
-184 -3413 0
-176 3414 0
-3414 3423 0
-177 -3414 3415 0
-3415 3424 0
-178 -3415 3416 0
-3416 3425 0
-179 -3416 3417 0
-3417 3426 0
-180 -3417 3418 0
-3418 3427 0
-181 -3418 3419 0
-3419 3428 0
-182 -3419 3420 0
-3420 3429 0
-183 -3420 3421 0
-3421 3430 0
-184 -3421 3422 0
-3422 3431 0
-185 -3422 0
-177 3423 0
-3423 3432 0
-178 -3423 3424 0
-3424 3433 0
-179 -3424 3425 0
-3425 3434 0
-180 -3425 3426 0
-3426 3435 0
-181 -3426 3427 0
-3427 3436 0
-182 -3427 3428 0
-3428 3437 0
-183 -3428 3429 0
-3429 3438 0
-184 -3429 3430 0
-3430 3439 0
-185 -3430 3431 0
-3431 3440 0
-186 -3431 0
-178 3432 0
-3432 3441 0
-179 -3432 3433 0
-3433 3442 0
-180 -3433 3434 0
-3434 3443 0
-181 -3434 3435 0
-3435 3444 0
-182 -3435 3436 0
-3436 3445 0
-183 -3436 3437 0
-3437 3446 0
-184 -3437 3438 0
-3438 3447 0
-185 -3438 3439 0
-3439 3448 0
-186 -3439 3440 0
-3440 3449 0
-187 -3440 0
-179 3441 0
-180 -3441 3442 0
-181 -3442 3443 0
-182 -3443 3444 0
-183 -3444 3445 0
-184 -3445 3446 0
-185 -3446 3447 0
-186 -3447 3448 0
-187 -3448 3449 0
-188 -3449 0
1 48 0
