p cnf 3105 6365
-87 -1 0
-87 2 43 44 0
-2 1 87 0
-43 1 87 0
-44 1 87 0
-88 -2 0
-88 1 3 45 0
-1 2 88 0
-3 2 88 0
-45 2 88 0
-89 -3 0
-89 2 4 46 0
-2 3 89 0
-4 3 89 0
-46 3 89 0
-90 -4 0
-90 3 5 47 0
-3 4 90 0
-5 4 90 0
-47 4 90 0
-91 -5 0
-91 4 6 48 0
-4 5 91 0
-6 5 91 0
-48 5 91 0
-92 -6 0
-92 5 7 49 0
-5 6 92 0
-7 6 92 0
-49 6 92 0
-93 -7 0
-93 6 8 50 0
-6 7 93 0
-8 7 93 0
-50 7 93 0
-94 -8 0
-94 7 9 51 0
-7 8 94 0
-9 8 94 0
-51 8 94 0
-95 -9 0
-95 8 10 52 0
-8 9 95 0
-10 9 95 0
-52 9 95 0
-96 -10 0
-96 9 11 53 0
-9 10 96 0
-11 10 96 0
-53 10 96 0
-97 -11 0
-97 10 12 54 0
-10 11 97 0
-12 11 97 0
-54 11 97 0
-98 -12 0
-98 11 13 55 0
-11 12 98 0
-13 12 98 0
-55 12 98 0
-99 -13 0
-99 12 14 56 0
-12 13 99 0
-14 13 99 0
-56 13 99 0
-100 -14 0
-100 13 15 57 0
-13 14 100 0
-15 14 100 0
-57 14 100 0
-101 -15 0
-101 14 16 58 0
-14 15 101 0
-16 15 101 0
-58 15 101 0
-102 -16 0
-102 15 17 59 0
-15 16 102 0
-17 16 102 0
-59 16 102 0
-103 -17 0
-103 16 18 60 0
-16 17 103 0
-18 17 103 0
-60 17 103 0
-104 -18 0
-104 17 19 61 0
-17 18 104 0
-19 18 104 0
-61 18 104 0
-105 -19 0
-105 18 20 62 0
-18 19 105 0
-20 19 105 0
-62 19 105 0
-106 -20 0
-106 19 21 63 0
-19 20 106 0
-21 20 106 0
-63 20 106 0
-107 -21 0
-107 20 22 64 0
-20 21 107 0
-22 21 107 0
-64 21 107 0
-108 -22 0
-108 21 23 65 0
-21 22 108 0
-23 22 108 0
-65 22 108 0
-109 -23 0
-109 22 24 66 0
-22 23 109 0
-24 23 109 0
-66 23 109 0
-110 -24 0
-110 23 25 67 0
-23 24 110 0
-25 24 110 0
-67 24 110 0
-111 -25 0
-111 24 26 68 0
-24 25 111 0
-26 25 111 0
-68 25 111 0
-112 -26 0
-112 25 27 69 0
-25 26 112 0
-27 26 112 0
-69 26 112 0
-113 -27 0
-113 26 28 70 0
-26 27 113 0
-28 27 113 0
-70 27 113 0
-114 -28 0
-114 27 29 71 0
-27 28 114 0
-29 28 114 0
-71 28 114 0
-115 -29 0
-115 28 30 72 0
-28 29 115 0
-30 29 115 0
-72 29 115 0
-116 -30 0
-116 29 31 73 0
-29 30 116 0
-31 30 116 0
-73 30 116 0
-117 -31 0
-117 30 32 74 0
-30 31 117 0
-32 31 117 0
-74 31 117 0
-118 -32 0
-118 31 33 75 0
-31 32 118 0
-33 32 118 0
-75 32 118 0
-119 -33 0
-119 32 34 76 0
-32 33 119 0
-34 33 119 0
-76 33 119 0
-120 -34 0
-120 33 35 77 0
-33 34 120 0
-35 34 120 0
-77 34 120 0
-121 -35 0
-121 34 36 78 0
-34 35 121 0
-36 35 121 0
-78 35 121 0
-122 -36 0
-122 35 37 79 0
-35 36 122 0
-37 36 122 0
-79 36 122 0
-123 -37 0
-123 36 38 80 0
-36 37 123 0
-38 37 123 0
-80 37 123 0
-124 -38 0
-124 37 39 81 0
-37 38 124 0
-39 38 124 0
-81 38 124 0
-125 -39 0
-125 38 40 82 0
-38 39 125 0
-40 39 125 0
-82 39 125 0
-126 -40 0
-126 39 41 83 0
-39 40 126 0
-41 40 126 0
-83 40 126 0
-127 -41 0
-127 40 42 84 0
-40 41 127 0
-42 41 127 0
-84 41 127 0
-128 -42 0
-128 41 43 85 0
-41 42 128 0
-43 42 128 0
-85 42 128 0
-129 -43 0
-129 1 42 86 0
-1 43 129 0
-42 43 129 0
-86 43 129 0
-130 -44 0
-130 1 48 83 0
-1 44 130 0
-48 44 130 0
-83 44 130 0
-131 -45 0
-131 2 49 84 0
-2 45 131 0
-49 45 131 0
-84 45 131 0
-132 -46 0
-132 3 50 85 0
-3 46 132 0
-50 46 132 0
-85 46 132 0
-133 -47 0
-133 4 51 86 0
-4 47 133 0
-51 47 133 0
-86 47 133 0
-134 -48 0
-134 5 44 52 0
-5 48 134 0
-44 48 134 0
-52 48 134 0
-135 -49 0
-135 6 45 53 0
-6 49 135 0
-45 49 135 0
-53 49 135 0
-136 -50 0
-136 7 46 54 0
-7 50 136 0
-46 50 136 0
-54 50 136 0
-137 -51 0
-137 8 47 55 0
-8 51 137 0
-47 51 137 0
-55 51 137 0
-138 -52 0
-138 9 48 56 0
-9 52 138 0
-48 52 138 0
-56 52 138 0
-139 -53 0
-139 10 49 57 0
-10 53 139 0
-49 53 139 0
-57 53 139 0
-140 -54 0
-140 11 50 58 0
-11 54 140 0
-50 54 140 0
-58 54 140 0
-141 -55 0
-141 12 51 59 0
-12 55 141 0
-51 55 141 0
-59 55 141 0
-142 -56 0
-142 13 52 60 0
-13 56 142 0
-52 56 142 0
-60 56 142 0
-143 -57 0
-143 14 53 61 0
-14 57 143 0
-53 57 143 0
-61 57 143 0
-144 -58 0
-144 15 54 62 0
-15 58 144 0
-54 58 144 0
-62 58 144 0
-145 -59 0
-145 16 55 63 0
-16 59 145 0
-55 59 145 0
-63 59 145 0
-146 -60 0
-146 17 56 64 0
-17 60 146 0
-56 60 146 0
-64 60 146 0
-147 -61 0
-147 18 57 65 0
-18 61 147 0
-57 61 147 0
-65 61 147 0
-148 -62 0
-148 19 58 66 0
-19 62 148 0
-58 62 148 0
-66 62 148 0
-149 -63 0
-149 20 59 67 0
-20 63 149 0
-59 63 149 0
-67 63 149 0
-150 -64 0
-150 21 60 68 0
-21 64 150 0
-60 64 150 0
-68 64 150 0
-151 -65 0
-151 22 61 69 0
-22 65 151 0
-61 65 151 0
-69 65 151 0
-152 -66 0
-152 23 62 70 0
-23 66 152 0
-62 66 152 0
-70 66 152 0
-153 -67 0
-153 24 63 71 0
-24 67 153 0
-63 67 153 0
-71 67 153 0
-154 -68 0
-154 25 64 72 0
-25 68 154 0
-64 68 154 0
-72 68 154 0
-155 -69 0
-155 26 65 73 0
-26 69 155 0
-65 69 155 0
-73 69 155 0
-156 -70 0
-156 27 66 74 0
-27 70 156 0
-66 70 156 0
-74 70 156 0
-157 -71 0
-157 28 67 75 0
-28 71 157 0
-67 71 157 0
-75 71 157 0
-158 -72 0
-158 29 68 76 0
-29 72 158 0
-68 72 158 0
-76 72 158 0
-159 -73 0
-159 30 69 77 0
-30 73 159 0
-69 73 159 0
-77 73 159 0
-160 -74 0
-160 31 70 78 0
-31 74 160 0
-70 74 160 0
-78 74 160 0
-161 -75 0
-161 32 71 79 0
-32 75 161 0
-71 75 161 0
-79 75 161 0
-162 -76 0
-162 33 72 80 0
-33 76 162 0
-72 76 162 0
-80 76 162 0
-163 -77 0
-163 34 73 81 0
-34 77 163 0
-73 77 163 0
-81 77 163 0
-164 -78 0
-164 35 74 82 0
-35 78 164 0
-74 78 164 0
-82 78 164 0
-165 -79 0
-165 36 75 83 0
-36 79 165 0
-75 79 165 0
-83 79 165 0
-166 -80 0
-166 37 76 84 0
-37 80 166 0
-76 80 166 0
-84 80 166 0
-167 -81 0
-167 38 77 85 0
-38 81 167 0
-77 81 167 0
-85 81 167 0
-168 -82 0
-168 39 78 86 0
-39 82 168 0
-78 82 168 0
-86 82 168 0
-169 -83 0
-169 40 44 79 0
-40 83 169 0
-44 83 169 0
-79 83 169 0
-170 -84 0
-170 41 45 80 0
-41 84 170 0
-45 84 170 0
-80 84 170 0
-171 -85 0
-171 42 46 81 0
-42 85 171 0
-46 85 171 0
-81 85 171 0
-172 -86 0
-172 43 47 82 0
-43 86 172 0
-47 86 172 0
-82 86 172 0
1 173 0
-173 174 0
2 -173 175 0
-175 176 0
3 -175 177 0
-177 178 0
4 -177 179 0
-179 180 0
5 -179 181 0
-181 182 0
6 -181 183 0
-183 184 0
7 -183 185 0
-185 186 0
8 -185 187 0
-187 188 0
9 -187 189 0
-189 190 0
10 -189 191 0
-191 192 0
11 -191 193 0
-193 194 0
12 -193 195 0
-195 196 0
13 -195 197 0
-197 198 0
14 -197 199 0
-199 200 0
15 -199 201 0
-201 202 0
16 -201 203 0
-203 204 0
17 -203 205 0
-205 206 0
18 -205 207 0
-207 208 0
19 -207 209 0
-209 210 0
20 -209 211 0
-211 212 0
21 -211 213 0
-213 214 0
22 -213 215 0
-215 216 0
23 -215 217 0
-217 218 0
24 -217 219 0
-219 220 0
25 -219 221 0
-221 222 0
26 -221 223 0
-223 224 0
27 -223 225 0
-225 226 0
28 -225 227 0
-227 228 0
29 -227 229 0
-229 230 0
30 -229 231 0
-231 232 0
31 -231 233 0
-233 234 0
32 -233 235 0
-235 236 0
33 -235 237 0
-237 238 0
34 -237 239 0
-239 240 0
35 -239 241 0
-241 242 0
36 -241 243 0
-243 244 0
37 -243 245 0
-245 246 0
38 -245 247 0
-247 248 0
39 -247 249 0
-249 250 0
40 -249 251 0
-251 252 0
41 -251 253 0
-253 254 0
42 -253 255 0
-255 256 0
43 -255 257 0
-257 258 0
44 -257 259 0
-259 260 0
45 -259 261 0
-261 262 0
46 -261 263 0
-263 264 0
47 -263 265 0
-265 266 0
48 -265 267 0
-267 268 0
49 -267 269 0
-269 270 0
50 -269 271 0
-271 272 0
51 -271 273 0
-273 274 0
52 -273 275 0
-275 276 0
53 -275 277 0
-277 278 0
54 -277 279 0
-279 280 0
55 -279 281 0
-281 282 0
56 -281 283 0
-283 284 0
57 -283 285 0
-285 286 0
58 -285 287 0
-287 288 0
59 -287 289 0
-289 290 0
60 -289 291 0
-291 292 0
61 -291 293 0
-293 294 0
62 -293 295 0
-295 296 0
63 -295 297 0
-297 298 0
64 -297 299 0
-299 300 0
65 -299 301 0
-301 302 0
66 -301 303 0
-303 304 0
67 -303 305 0
-305 306 0
68 -305 307 0
-307 308 0
69 -307 309 0
-309 310 0
70 -309 311 0
-311 312 0
71 -311 0
2 174 0
-174 313 0
3 -174 176 0
-176 314 0
4 -176 178 0
-178 315 0
5 -178 180 0
-180 316 0
6 -180 182 0
-182 317 0
7 -182 184 0
-184 318 0
8 -184 186 0
-186 319 0
9 -186 188 0
-188 320 0
10 -188 190 0
-190 321 0
11 -190 192 0
-192 322 0
12 -192 194 0
-194 323 0
13 -194 196 0
-196 324 0
14 -196 198 0
-198 325 0
15 -198 200 0
-200 326 0
16 -200 202 0
-202 327 0
17 -202 204 0
-204 328 0
18 -204 206 0
-206 329 0
19 -206 208 0
-208 330 0
20 -208 210 0
-210 331 0
21 -210 212 0
-212 332 0
22 -212 214 0
-214 333 0
23 -214 216 0
-216 334 0
24 -216 218 0
-218 335 0
25 -218 220 0
-220 336 0
26 -220 222 0
-222 337 0
27 -222 224 0
-224 338 0
28 -224 226 0
-226 339 0
29 -226 228 0
-228 340 0
30 -228 230 0
-230 341 0
31 -230 232 0
-232 342 0
32 -232 234 0
-234 343 0
33 -234 236 0
-236 344 0
34 -236 238 0
-238 345 0
35 -238 240 0
-240 346 0
36 -240 242 0
-242 347 0
37 -242 244 0
-244 348 0
38 -244 246 0
-246 349 0
39 -246 248 0
-248 350 0
40 -248 250 0
-250 351 0
41 -250 252 0
-252 352 0
42 -252 254 0
-254 353 0
43 -254 256 0
-256 354 0
44 -256 258 0
-258 355 0
45 -258 260 0
-260 356 0
46 -260 262 0
-262 357 0
47 -262 264 0
-264 358 0
48 -264 266 0
-266 359 0
49 -266 268 0
-268 360 0
50 -268 270 0
-270 361 0
51 -270 272 0
-272 362 0
52 -272 274 0
-274 363 0
53 -274 276 0
-276 364 0
54 -276 278 0
-278 365 0
55 -278 280 0
-280 366 0
56 -280 282 0
-282 367 0
57 -282 284 0
-284 368 0
58 -284 286 0
-286 369 0
59 -286 288 0
-288 370 0
60 -288 290 0
-290 371 0
61 -290 292 0
-292 372 0
62 -292 294 0
-294 373 0
63 -294 296 0
-296 374 0
64 -296 298 0
-298 375 0
65 -298 300 0
-300 376 0
66 -300 302 0
-302 377 0
67 -302 304 0
-304 378 0
68 -304 306 0
-306 379 0
69 -306 308 0
-308 380 0
70 -308 310 0
-310 381 0
71 -310 312 0
-312 382 0
72 -312 0
3 313 0
-313 383 0
4 -313 314 0
-314 384 0
5 -314 315 0
-315 385 0
6 -315 316 0
-316 386 0
7 -316 317 0
-317 387 0
8 -317 318 0
-318 388 0
9 -318 319 0
-319 389 0
10 -319 320 0
-320 390 0
11 -320 321 0
-321 391 0
12 -321 322 0
-322 392 0
13 -322 323 0
-323 393 0
14 -323 324 0
-324 394 0
15 -324 325 0
-325 395 0
16 -325 326 0
-326 396 0
17 -326 327 0
-327 397 0
18 -327 328 0
-328 398 0
19 -328 329 0
-329 399 0
20 -329 330 0
-330 400 0
21 -330 331 0
-331 401 0
22 -331 332 0
-332 402 0
23 -332 333 0
-333 403 0
24 -333 334 0
-334 404 0
25 -334 335 0
-335 405 0
26 -335 336 0
-336 406 0
27 -336 337 0
-337 407 0
28 -337 338 0
-338 408 0
29 -338 339 0
-339 409 0
30 -339 340 0
-340 410 0
31 -340 341 0
-341 411 0
32 -341 342 0
-342 412 0
33 -342 343 0
-343 413 0
34 -343 344 0
-344 414 0
35 -344 345 0
-345 415 0
36 -345 346 0
-346 416 0
37 -346 347 0
-347 417 0
38 -347 348 0
-348 418 0
39 -348 349 0
-349 419 0
40 -349 350 0
-350 420 0
41 -350 351 0
-351 421 0
42 -351 352 0
-352 422 0
43 -352 353 0
-353 423 0
44 -353 354 0
-354 424 0
45 -354 355 0
-355 425 0
46 -355 356 0
-356 426 0
47 -356 357 0
-357 427 0
48 -357 358 0
-358 428 0
49 -358 359 0
-359 429 0
50 -359 360 0
-360 430 0
51 -360 361 0
-361 431 0
52 -361 362 0
-362 432 0
53 -362 363 0
-363 433 0
54 -363 364 0
-364 434 0
55 -364 365 0
-365 435 0
56 -365 366 0
-366 436 0
57 -366 367 0
-367 437 0
58 -367 368 0
-368 438 0
59 -368 369 0
-369 439 0
60 -369 370 0
-370 440 0
61 -370 371 0
-371 441 0
62 -371 372 0
-372 442 0
63 -372 373 0
-373 443 0
64 -373 374 0
-374 444 0
65 -374 375 0
-375 445 0
66 -375 376 0
-376 446 0
67 -376 377 0
-377 447 0
68 -377 378 0
-378 448 0
69 -378 379 0
-379 449 0
70 -379 380 0
-380 450 0
71 -380 381 0
-381 451 0
72 -381 382 0
-382 452 0
73 -382 0
4 383 0
-383 453 0
5 -383 384 0
-384 454 0
6 -384 385 0
-385 455 0
7 -385 386 0
-386 456 0
8 -386 387 0
-387 457 0
9 -387 388 0
-388 458 0
10 -388 389 0
-389 459 0
11 -389 390 0
-390 460 0
12 -390 391 0
-391 461 0
13 -391 392 0
-392 462 0
14 -392 393 0
-393 463 0
15 -393 394 0
-394 464 0
16 -394 395 0
-395 465 0
17 -395 396 0
-396 466 0
18 -396 397 0
-397 467 0
19 -397 398 0
-398 468 0
20 -398 399 0
-399 469 0
21 -399 400 0
-400 470 0
22 -400 401 0
-401 471 0
23 -401 402 0
-402 472 0
24 -402 403 0
-403 473 0
25 -403 404 0
-404 474 0
26 -404 405 0
-405 475 0
27 -405 406 0
-406 476 0
28 -406 407 0
-407 477 0
29 -407 408 0
-408 478 0
30 -408 409 0
-409 479 0
31 -409 410 0
-410 480 0
32 -410 411 0
-411 481 0
33 -411 412 0
-412 482 0
34 -412 413 0
-413 483 0
35 -413 414 0
-414 484 0
36 -414 415 0
-415 485 0
37 -415 416 0
-416 486 0
38 -416 417 0
-417 487 0
39 -417 418 0
-418 488 0
40 -418 419 0
-419 489 0
41 -419 420 0
-420 490 0
42 -420 421 0
-421 491 0
43 -421 422 0
-422 492 0
44 -422 423 0
-423 493 0
45 -423 424 0
-424 494 0
46 -424 425 0
-425 495 0
47 -425 426 0
-426 496 0
48 -426 427 0
-427 497 0
49 -427 428 0
-428 498 0
50 -428 429 0
-429 499 0
51 -429 430 0
-430 500 0
52 -430 431 0
-431 501 0
53 -431 432 0
-432 502 0
54 -432 433 0
-433 503 0
55 -433 434 0
-434 504 0
56 -434 435 0
-435 505 0
57 -435 436 0
-436 506 0
58 -436 437 0
-437 507 0
59 -437 438 0
-438 508 0
60 -438 439 0
-439 509 0
61 -439 440 0
-440 510 0
62 -440 441 0
-441 511 0
63 -441 442 0
-442 512 0
64 -442 443 0
-443 513 0
65 -443 444 0
-444 514 0
66 -444 445 0
-445 515 0
67 -445 446 0
-446 516 0
68 -446 447 0
-447 517 0
69 -447 448 0
-448 518 0
70 -448 449 0
-449 519 0
71 -449 450 0
-450 520 0
72 -450 451 0
-451 521 0
73 -451 452 0
-452 522 0
74 -452 0
5 453 0
-453 523 0
6 -453 454 0
-454 524 0
7 -454 455 0
-455 525 0
8 -455 456 0
-456 526 0
9 -456 457 0
-457 527 0
10 -457 458 0
-458 528 0
11 -458 459 0
-459 529 0
12 -459 460 0
-460 530 0
13 -460 461 0
-461 531 0
14 -461 462 0
-462 532 0
15 -462 463 0
-463 533 0
16 -463 464 0
-464 534 0
17 -464 465 0
-465 535 0
18 -465 466 0
-466 536 0
19 -466 467 0
-467 537 0
20 -467 468 0
-468 538 0
21 -468 469 0
-469 539 0
22 -469 470 0
-470 540 0
23 -470 471 0
-471 541 0
24 -471 472 0
-472 542 0
25 -472 473 0
-473 543 0
26 -473 474 0
-474 544 0
27 -474 475 0
-475 545 0
28 -475 476 0
-476 546 0
29 -476 477 0
-477 547 0
30 -477 478 0
-478 548 0
31 -478 479 0
-479 549 0
32 -479 480 0
-480 550 0
33 -480 481 0
-481 551 0
34 -481 482 0
-482 552 0
35 -482 483 0
-483 553 0
36 -483 484 0
-484 554 0
37 -484 485 0
-485 555 0
38 -485 486 0
-486 556 0
39 -486 487 0
-487 557 0
40 -487 488 0
-488 558 0
41 -488 489 0
-489 559 0
42 -489 490 0
-490 560 0
43 -490 491 0
-491 561 0
44 -491 492 0
-492 562 0
45 -492 493 0
-493 563 0
46 -493 494 0
-494 564 0
47 -494 495 0
-495 565 0
48 -495 496 0
-496 566 0
49 -496 497 0
-497 567 0
50 -497 498 0
-498 568 0
51 -498 499 0
-499 569 0
52 -499 500 0
-500 570 0
53 -500 501 0
-501 571 0
54 -501 502 0
-502 572 0
55 -502 503 0
-503 573 0
56 -503 504 0
-504 574 0
57 -504 505 0
-505 575 0
58 -505 506 0
-506 576 0
59 -506 507 0
-507 577 0
60 -507 508 0
-508 578 0
61 -508 509 0
-509 579 0
62 -509 510 0
-510 580 0
63 -510 511 0
-511 581 0
64 -511 512 0
-512 582 0
65 -512 513 0
-513 583 0
66 -513 514 0
-514 584 0
67 -514 515 0
-515 585 0
68 -515 516 0
-516 586 0
69 -516 517 0
-517 587 0
70 -517 518 0
-518 588 0
71 -518 519 0
-519 589 0
72 -519 520 0
-520 590 0
73 -520 521 0
-521 591 0
74 -521 522 0
-522 592 0
75 -522 0
6 523 0
-523 593 0
7 -523 524 0
-524 594 0
8 -524 525 0
-525 595 0
9 -525 526 0
-526 596 0
10 -526 527 0
-527 597 0
11 -527 528 0
-528 598 0
12 -528 529 0
-529 599 0
13 -529 530 0
-530 600 0
14 -530 531 0
-531 601 0
15 -531 532 0
-532 602 0
16 -532 533 0
-533 603 0
17 -533 534 0
-534 604 0
18 -534 535 0
-535 605 0
19 -535 536 0
-536 606 0
20 -536 537 0
-537 607 0
21 -537 538 0
-538 608 0
22 -538 539 0
-539 609 0
23 -539 540 0
-540 610 0
24 -540 541 0
-541 611 0
25 -541 542 0
-542 612 0
26 -542 543 0
-543 613 0
27 -543 544 0
-544 614 0
28 -544 545 0
-545 615 0
29 -545 546 0
-546 616 0
30 -546 547 0
-547 617 0
31 -547 548 0
-548 618 0
32 -548 549 0
-549 619 0
33 -549 550 0
-550 620 0
34 -550 551 0
-551 621 0
35 -551 552 0
-552 622 0
36 -552 553 0
-553 623 0
37 -553 554 0
-554 624 0
38 -554 555 0
-555 625 0
39 -555 556 0
-556 626 0
40 -556 557 0
-557 627 0
41 -557 558 0
-558 628 0
42 -558 559 0
-559 629 0
43 -559 560 0
-560 630 0
44 -560 561 0
-561 631 0
45 -561 562 0
-562 632 0
46 -562 563 0
-563 633 0
47 -563 564 0
-564 634 0
48 -564 565 0
-565 635 0
49 -565 566 0
-566 636 0
50 -566 567 0
-567 637 0
51 -567 568 0
-568 638 0
52 -568 569 0
-569 639 0
53 -569 570 0
-570 640 0
54 -570 571 0
-571 641 0
55 -571 572 0
-572 642 0
56 -572 573 0
-573 643 0
57 -573 574 0
-574 644 0
58 -574 575 0
-575 645 0
59 -575 576 0
-576 646 0
60 -576 577 0
-577 647 0
61 -577 578 0
-578 648 0
62 -578 579 0
-579 649 0
63 -579 580 0
-580 650 0
64 -580 581 0
-581 651 0
65 -581 582 0
-582 652 0
66 -582 583 0
-583 653 0
67 -583 584 0
-584 654 0
68 -584 585 0
-585 655 0
69 -585 586 0
-586 656 0
70 -586 587 0
-587 657 0
71 -587 588 0
-588 658 0
72 -588 589 0
-589 659 0
73 -589 590 0
-590 660 0
74 -590 591 0
-591 661 0
75 -591 592 0
-592 662 0
76 -592 0
7 593 0
-593 663 0
8 -593 594 0
-594 664 0
9 -594 595 0
-595 665 0
10 -595 596 0
-596 666 0
11 -596 597 0
-597 667 0
12 -597 598 0
-598 668 0
13 -598 599 0
-599 669 0
14 -599 600 0
-600 670 0
15 -600 601 0
-601 671 0
16 -601 602 0
-602 672 0
17 -602 603 0
-603 673 0
18 -603 604 0
-604 674 0
19 -604 605 0
-605 675 0
20 -605 606 0
-606 676 0
21 -606 607 0
-607 677 0
22 -607 608 0
-608 678 0
23 -608 609 0
-609 679 0
24 -609 610 0
-610 680 0
25 -610 611 0
-611 681 0
26 -611 612 0
-612 682 0
27 -612 613 0
-613 683 0
28 -613 614 0
-614 684 0
29 -614 615 0
-615 685 0
30 -615 616 0
-616 686 0
31 -616 617 0
-617 687 0
32 -617 618 0
-618 688 0
33 -618 619 0
-619 689 0
34 -619 620 0
-620 690 0
35 -620 621 0
-621 691 0
36 -621 622 0
-622 692 0
37 -622 623 0
-623 693 0
38 -623 624 0
-624 694 0
39 -624 625 0
-625 695 0
40 -625 626 0
-626 696 0
41 -626 627 0
-627 697 0
42 -627 628 0
-628 698 0
43 -628 629 0
-629 699 0
44 -629 630 0
-630 700 0
45 -630 631 0
-631 701 0
46 -631 632 0
-632 702 0
47 -632 633 0
-633 703 0
48 -633 634 0
-634 704 0
49 -634 635 0
-635 705 0
50 -635 636 0
-636 706 0
51 -636 637 0
-637 707 0
52 -637 638 0
-638 708 0
53 -638 639 0
-639 709 0
54 -639 640 0
-640 710 0
55 -640 641 0
-641 711 0
56 -641 642 0
-642 712 0
57 -642 643 0
-643 713 0
58 -643 644 0
-644 714 0
59 -644 645 0
-645 715 0
60 -645 646 0
-646 716 0
61 -646 647 0
-647 717 0
62 -647 648 0
-648 718 0
63 -648 649 0
-649 719 0
64 -649 650 0
-650 720 0
65 -650 651 0
-651 721 0
66 -651 652 0
-652 722 0
67 -652 653 0
-653 723 0
68 -653 654 0
-654 724 0
69 -654 655 0
-655 725 0
70 -655 656 0
-656 726 0
71 -656 657 0
-657 727 0
72 -657 658 0
-658 728 0
73 -658 659 0
-659 729 0
74 -659 660 0
-660 730 0
75 -660 661 0
-661 731 0
76 -661 662 0
-662 732 0
77 -662 0
8 663 0
-663 733 0
9 -663 664 0
-664 734 0
10 -664 665 0
-665 735 0
11 -665 666 0
-666 736 0
12 -666 667 0
-667 737 0
13 -667 668 0
-668 738 0
14 -668 669 0
-669 739 0
15 -669 670 0
-670 740 0
16 -670 671 0
-671 741 0
17 -671 672 0
-672 742 0
18 -672 673 0
-673 743 0
19 -673 674 0
-674 744 0
20 -674 675 0
-675 745 0
21 -675 676 0
-676 746 0
22 -676 677 0
-677 747 0
23 -677 678 0
-678 748 0
24 -678 679 0
-679 749 0
25 -679 680 0
-680 750 0
26 -680 681 0
-681 751 0
27 -681 682 0
-682 752 0
28 -682 683 0
-683 753 0
29 -683 684 0
-684 754 0
30 -684 685 0
-685 755 0
31 -685 686 0
-686 756 0
32 -686 687 0
-687 757 0
33 -687 688 0
-688 758 0
34 -688 689 0
-689 759 0
35 -689 690 0
-690 760 0
36 -690 691 0
-691 761 0
37 -691 692 0
-692 762 0
38 -692 693 0
-693 763 0
39 -693 694 0
-694 764 0
40 -694 695 0
-695 765 0
41 -695 696 0
-696 766 0
42 -696 697 0
-697 767 0
43 -697 698 0
-698 768 0
44 -698 699 0
-699 769 0
45 -699 700 0
-700 770 0
46 -700 701 0
-701 771 0
47 -701 702 0
-702 772 0
48 -702 703 0
-703 773 0
49 -703 704 0
-704 774 0
50 -704 705 0
-705 775 0
51 -705 706 0
-706 776 0
52 -706 707 0
-707 777 0
53 -707 708 0
-708 778 0
54 -708 709 0
-709 779 0
55 -709 710 0
-710 780 0
56 -710 711 0
-711 781 0
57 -711 712 0
-712 782 0
58 -712 713 0
-713 783 0
59 -713 714 0
-714 784 0
60 -714 715 0
-715 785 0
61 -715 716 0
-716 786 0
62 -716 717 0
-717 787 0
63 -717 718 0
-718 788 0
64 -718 719 0
-719 789 0
65 -719 720 0
-720 790 0
66 -720 721 0
-721 791 0
67 -721 722 0
-722 792 0
68 -722 723 0
-723 793 0
69 -723 724 0
-724 794 0
70 -724 725 0
-725 795 0
71 -725 726 0
-726 796 0
72 -726 727 0
-727 797 0
73 -727 728 0
-728 798 0
74 -728 729 0
-729 799 0
75 -729 730 0
-730 800 0
76 -730 731 0
-731 801 0
77 -731 732 0
-732 802 0
78 -732 0
9 733 0
-733 803 0
10 -733 734 0
-734 804 0
11 -734 735 0
-735 805 0
12 -735 736 0
-736 806 0
13 -736 737 0
-737 807 0
14 -737 738 0
-738 808 0
15 -738 739 0
-739 809 0
16 -739 740 0
-740 810 0
17 -740 741 0
-741 811 0
18 -741 742 0
-742 812 0
19 -742 743 0
-743 813 0
20 -743 744 0
-744 814 0
21 -744 745 0
-745 815 0
22 -745 746 0
-746 816 0
23 -746 747 0
-747 817 0
24 -747 748 0
-748 818 0
25 -748 749 0
-749 819 0
26 -749 750 0
-750 820 0
27 -750 751 0
-751 821 0
28 -751 752 0
-752 822 0
29 -752 753 0
-753 823 0
30 -753 754 0
-754 824 0
31 -754 755 0
-755 825 0
32 -755 756 0
-756 826 0
33 -756 757 0
-757 827 0
34 -757 758 0
-758 828 0
35 -758 759 0
-759 829 0
36 -759 760 0
-760 830 0
37 -760 761 0
-761 831 0
38 -761 762 0
-762 832 0
39 -762 763 0
-763 833 0
40 -763 764 0
-764 834 0
41 -764 765 0
-765 835 0
42 -765 766 0
-766 836 0
43 -766 767 0
-767 837 0
44 -767 768 0
-768 838 0
45 -768 769 0
-769 839 0
46 -769 770 0
-770 840 0
47 -770 771 0
-771 841 0
48 -771 772 0
-772 842 0
49 -772 773 0
-773 843 0
50 -773 774 0
-774 844 0
51 -774 775 0
-775 845 0
52 -775 776 0
-776 846 0
53 -776 777 0
-777 847 0
54 -777 778 0
-778 848 0
55 -778 779 0
-779 849 0
56 -779 780 0
-780 850 0
57 -780 781 0
-781 851 0
58 -781 782 0
-782 852 0
59 -782 783 0
-783 853 0
60 -783 784 0
-784 854 0
61 -784 785 0
-785 855 0
62 -785 786 0
-786 856 0
63 -786 787 0
-787 857 0
64 -787 788 0
-788 858 0
65 -788 789 0
-789 859 0
66 -789 790 0
-790 860 0
67 -790 791 0
-791 861 0
68 -791 792 0
-792 862 0
69 -792 793 0
-793 863 0
70 -793 794 0
-794 864 0
71 -794 795 0
-795 865 0
72 -795 796 0
-796 866 0
73 -796 797 0
-797 867 0
74 -797 798 0
-798 868 0
75 -798 799 0
-799 869 0
76 -799 800 0
-800 870 0
77 -800 801 0
-801 871 0
78 -801 802 0
-802 872 0
79 -802 0
10 803 0
-803 873 0
11 -803 804 0
-804 874 0
12 -804 805 0
-805 875 0
13 -805 806 0
-806 876 0
14 -806 807 0
-807 877 0
15 -807 808 0
-808 878 0
16 -808 809 0
-809 879 0
17 -809 810 0
-810 880 0
18 -810 811 0
-811 881 0
19 -811 812 0
-812 882 0
20 -812 813 0
-813 883 0
21 -813 814 0
-814 884 0
22 -814 815 0
-815 885 0
23 -815 816 0
-816 886 0
24 -816 817 0
-817 887 0
25 -817 818 0
-818 888 0
26 -818 819 0
-819 889 0
27 -819 820 0
-820 890 0
28 -820 821 0
-821 891 0
29 -821 822 0
-822 892 0
30 -822 823 0
-823 893 0
31 -823 824 0
-824 894 0
32 -824 825 0
-825 895 0
33 -825 826 0
-826 896 0
34 -826 827 0
-827 897 0
35 -827 828 0
-828 898 0
36 -828 829 0
-829 899 0
37 -829 830 0
-830 900 0
38 -830 831 0
-831 901 0
39 -831 832 0
-832 902 0
40 -832 833 0
-833 903 0
41 -833 834 0
-834 904 0
42 -834 835 0
-835 905 0
43 -835 836 0
-836 906 0
44 -836 837 0
-837 907 0
45 -837 838 0
-838 908 0
46 -838 839 0
-839 909 0
47 -839 840 0
-840 910 0
48 -840 841 0
-841 911 0
49 -841 842 0
-842 912 0
50 -842 843 0
-843 913 0
51 -843 844 0
-844 914 0
52 -844 845 0
-845 915 0
53 -845 846 0
-846 916 0
54 -846 847 0
-847 917 0
55 -847 848 0
-848 918 0
56 -848 849 0
-849 919 0
57 -849 850 0
-850 920 0
58 -850 851 0
-851 921 0
59 -851 852 0
-852 922 0
60 -852 853 0
-853 923 0
61 -853 854 0
-854 924 0
62 -854 855 0
-855 925 0
63 -855 856 0
-856 926 0
64 -856 857 0
-857 927 0
65 -857 858 0
-858 928 0
66 -858 859 0
-859 929 0
67 -859 860 0
-860 930 0
68 -860 861 0
-861 931 0
69 -861 862 0
-862 932 0
70 -862 863 0
-863 933 0
71 -863 864 0
-864 934 0
72 -864 865 0
-865 935 0
73 -865 866 0
-866 936 0
74 -866 867 0
-867 937 0
75 -867 868 0
-868 938 0
76 -868 869 0
-869 939 0
77 -869 870 0
-870 940 0
78 -870 871 0
-871 941 0
79 -871 872 0
-872 942 0
80 -872 0
11 873 0
-873 943 0
12 -873 874 0
-874 944 0
13 -874 875 0
-875 945 0
14 -875 876 0
-876 946 0
15 -876 877 0
-877 947 0
16 -877 878 0
-878 948 0
17 -878 879 0
-879 949 0
18 -879 880 0
-880 950 0
19 -880 881 0
-881 951 0
20 -881 882 0
-882 952 0
21 -882 883 0
-883 953 0
22 -883 884 0
-884 954 0
23 -884 885 0
-885 955 0
24 -885 886 0
-886 956 0
25 -886 887 0
-887 957 0
26 -887 888 0
-888 958 0
27 -888 889 0
-889 959 0
28 -889 890 0
-890 960 0
29 -890 891 0
-891 961 0
30 -891 892 0
-892 962 0
31 -892 893 0
-893 963 0
32 -893 894 0
-894 964 0
33 -894 895 0
-895 965 0
34 -895 896 0
-896 966 0
35 -896 897 0
-897 967 0
36 -897 898 0
-898 968 0
37 -898 899 0
-899 969 0
38 -899 900 0
-900 970 0
39 -900 901 0
-901 971 0
40 -901 902 0
-902 972 0
41 -902 903 0
-903 973 0
42 -903 904 0
-904 974 0
43 -904 905 0
-905 975 0
44 -905 906 0
-906 976 0
45 -906 907 0
-907 977 0
46 -907 908 0
-908 978 0
47 -908 909 0
-909 979 0
48 -909 910 0
-910 980 0
49 -910 911 0
-911 981 0
50 -911 912 0
-912 982 0
51 -912 913 0
-913 983 0
52 -913 914 0
-914 984 0
53 -914 915 0
-915 985 0
54 -915 916 0
-916 986 0
55 -916 917 0
-917 987 0
56 -917 918 0
-918 988 0
57 -918 919 0
-919 989 0
58 -919 920 0
-920 990 0
59 -920 921 0
-921 991 0
60 -921 922 0
-922 992 0
61 -922 923 0
-923 993 0
62 -923 924 0
-924 994 0
63 -924 925 0
-925 995 0
64 -925 926 0
-926 996 0
65 -926 927 0
-927 997 0
66 -927 928 0
-928 998 0
67 -928 929 0
-929 999 0
68 -929 930 0
-930 1000 0
69 -930 931 0
-931 1001 0
70 -931 932 0
-932 1002 0
71 -932 933 0
-933 1003 0
72 -933 934 0
-934 1004 0
73 -934 935 0
-935 1005 0
74 -935 936 0
-936 1006 0
75 -936 937 0
-937 1007 0
76 -937 938 0
-938 1008 0
77 -938 939 0
-939 1009 0
78 -939 940 0
-940 1010 0
79 -940 941 0
-941 1011 0
80 -941 942 0
-942 1012 0
81 -942 0
12 943 0
-943 1013 0
13 -943 944 0
-944 1014 0
14 -944 945 0
-945 1015 0
15 -945 946 0
-946 1016 0
16 -946 947 0
-947 1017 0
17 -947 948 0
-948 1018 0
18 -948 949 0
-949 1019 0
19 -949 950 0
-950 1020 0
20 -950 951 0
-951 1021 0
21 -951 952 0
-952 1022 0
22 -952 953 0
-953 1023 0
23 -953 954 0
-954 1024 0
24 -954 955 0
-955 1025 0
25 -955 956 0
-956 1026 0
26 -956 957 0
-957 1027 0
27 -957 958 0
-958 1028 0
28 -958 959 0
-959 1029 0
29 -959 960 0
-960 1030 0
30 -960 961 0
-961 1031 0
31 -961 962 0
-962 1032 0
32 -962 963 0
-963 1033 0
33 -963 964 0
-964 1034 0
34 -964 965 0
-965 1035 0
35 -965 966 0
-966 1036 0
36 -966 967 0
-967 1037 0
37 -967 968 0
-968 1038 0
38 -968 969 0
-969 1039 0
39 -969 970 0
-970 1040 0
40 -970 971 0
-971 1041 0
41 -971 972 0
-972 1042 0
42 -972 973 0
-973 1043 0
43 -973 974 0
-974 1044 0
44 -974 975 0
-975 1045 0
45 -975 976 0
-976 1046 0
46 -976 977 0
-977 1047 0
47 -977 978 0
-978 1048 0
48 -978 979 0
-979 1049 0
49 -979 980 0
-980 1050 0
50 -980 981 0
-981 1051 0
51 -981 982 0
-982 1052 0
52 -982 983 0
-983 1053 0
53 -983 984 0
-984 1054 0
54 -984 985 0
-985 1055 0
55 -985 986 0
-986 1056 0
56 -986 987 0
-987 1057 0
57 -987 988 0
-988 1058 0
58 -988 989 0
-989 1059 0
59 -989 990 0
-990 1060 0
60 -990 991 0
-991 1061 0
61 -991 992 0
-992 1062 0
62 -992 993 0
-993 1063 0
63 -993 994 0
-994 1064 0
64 -994 995 0
-995 1065 0
65 -995 996 0
-996 1066 0
66 -996 997 0
-997 1067 0
67 -997 998 0
-998 1068 0
68 -998 999 0
-999 1069 0
69 -999 1000 0
-1000 1070 0
70 -1000 1001 0
-1001 1071 0
71 -1001 1002 0
-1002 1072 0
72 -1002 1003 0
-1003 1073 0
73 -1003 1004 0
-1004 1074 0
74 -1004 1005 0
-1005 1075 0
75 -1005 1006 0
-1006 1076 0
76 -1006 1007 0
-1007 1077 0
77 -1007 1008 0
-1008 1078 0
78 -1008 1009 0
-1009 1079 0
79 -1009 1010 0
-1010 1080 0
80 -1010 1011 0
-1011 1081 0
81 -1011 1012 0
-1012 1082 0
82 -1012 0
13 1013 0
-1013 1083 0
14 -1013 1014 0
-1014 1084 0
15 -1014 1015 0
-1015 1085 0
16 -1015 1016 0
-1016 1086 0
17 -1016 1017 0
-1017 1087 0
18 -1017 1018 0
-1018 1088 0
19 -1018 1019 0
-1019 1089 0
20 -1019 1020 0
-1020 1090 0
21 -1020 1021 0
-1021 1091 0
22 -1021 1022 0
-1022 1092 0
23 -1022 1023 0
-1023 1093 0
24 -1023 1024 0
-1024 1094 0
25 -1024 1025 0
-1025 1095 0
26 -1025 1026 0
-1026 1096 0
27 -1026 1027 0
-1027 1097 0
28 -1027 1028 0
-1028 1098 0
29 -1028 1029 0
-1029 1099 0
30 -1029 1030 0
-1030 1100 0
31 -1030 1031 0
-1031 1101 0
32 -1031 1032 0
-1032 1102 0
33 -1032 1033 0
-1033 1103 0
34 -1033 1034 0
-1034 1104 0
35 -1034 1035 0
-1035 1105 0
36 -1035 1036 0
-1036 1106 0
37 -1036 1037 0
-1037 1107 0
38 -1037 1038 0
-1038 1108 0
39 -1038 1039 0
-1039 1109 0
40 -1039 1040 0
-1040 1110 0
41 -1040 1041 0
-1041 1111 0
42 -1041 1042 0
-1042 1112 0
43 -1042 1043 0
-1043 1113 0
44 -1043 1044 0
-1044 1114 0
45 -1044 1045 0
-1045 1115 0
46 -1045 1046 0
-1046 1116 0
47 -1046 1047 0
-1047 1117 0
48 -1047 1048 0
-1048 1118 0
49 -1048 1049 0
-1049 1119 0
50 -1049 1050 0
-1050 1120 0
51 -1050 1051 0
-1051 1121 0
52 -1051 1052 0
-1052 1122 0
53 -1052 1053 0
-1053 1123 0
54 -1053 1054 0
-1054 1124 0
55 -1054 1055 0
-1055 1125 0
56 -1055 1056 0
-1056 1126 0
57 -1056 1057 0
-1057 1127 0
58 -1057 1058 0
-1058 1128 0
59 -1058 1059 0
-1059 1129 0
60 -1059 1060 0
-1060 1130 0
61 -1060 1061 0
-1061 1131 0
62 -1061 1062 0
-1062 1132 0
63 -1062 1063 0
-1063 1133 0
64 -1063 1064 0
-1064 1134 0
65 -1064 1065 0
-1065 1135 0
66 -1065 1066 0
-1066 1136 0
67 -1066 1067 0
-1067 1137 0
68 -1067 1068 0
-1068 1138 0
69 -1068 1069 0
-1069 1139 0
70 -1069 1070 0
-1070 1140 0
71 -1070 1071 0
-1071 1141 0
72 -1071 1072 0
-1072 1142 0
73 -1072 1073 0
-1073 1143 0
74 -1073 1074 0
-1074 1144 0
75 -1074 1075 0
-1075 1145 0
76 -1075 1076 0
-1076 1146 0
77 -1076 1077 0
-1077 1147 0
78 -1077 1078 0
-1078 1148 0
79 -1078 1079 0
-1079 1149 0
80 -1079 1080 0
-1080 1150 0
81 -1080 1081 0
-1081 1151 0
82 -1081 1082 0
-1082 1152 0
83 -1082 0
14 1083 0
-1083 1153 0
15 -1083 1084 0
-1084 1154 0
16 -1084 1085 0
-1085 1155 0
17 -1085 1086 0
-1086 1156 0
18 -1086 1087 0
-1087 1157 0
19 -1087 1088 0
-1088 1158 0
20 -1088 1089 0
-1089 1159 0
21 -1089 1090 0
-1090 1160 0
22 -1090 1091 0
-1091 1161 0
23 -1091 1092 0
-1092 1162 0
24 -1092 1093 0
-1093 1163 0
25 -1093 1094 0
-1094 1164 0
26 -1094 1095 0
-1095 1165 0
27 -1095 1096 0
-1096 1166 0
28 -1096 1097 0
-1097 1167 0
29 -1097 1098 0
-1098 1168 0
30 -1098 1099 0
-1099 1169 0
31 -1099 1100 0
-1100 1170 0
32 -1100 1101 0
-1101 1171 0
33 -1101 1102 0
-1102 1172 0
34 -1102 1103 0
-1103 1173 0
35 -1103 1104 0
-1104 1174 0
36 -1104 1105 0
-1105 1175 0
37 -1105 1106 0
-1106 1176 0
38 -1106 1107 0
-1107 1177 0
39 -1107 1108 0
-1108 1178 0
40 -1108 1109 0
-1109 1179 0
41 -1109 1110 0
-1110 1180 0
42 -1110 1111 0
-1111 1181 0
43 -1111 1112 0
-1112 1182 0
44 -1112 1113 0
-1113 1183 0
45 -1113 1114 0
-1114 1184 0
46 -1114 1115 0
-1115 1185 0
47 -1115 1116 0
-1116 1186 0
48 -1116 1117 0
-1117 1187 0
49 -1117 1118 0
-1118 1188 0
50 -1118 1119 0
-1119 1189 0
51 -1119 1120 0
-1120 1190 0
52 -1120 1121 0
-1121 1191 0
53 -1121 1122 0
-1122 1192 0
54 -1122 1123 0
-1123 1193 0
55 -1123 1124 0
-1124 1194 0
56 -1124 1125 0
-1125 1195 0
57 -1125 1126 0
-1126 1196 0
58 -1126 1127 0
-1127 1197 0
59 -1127 1128 0
-1128 1198 0
60 -1128 1129 0
-1129 1199 0
61 -1129 1130 0
-1130 1200 0
62 -1130 1131 0
-1131 1201 0
63 -1131 1132 0
-1132 1202 0
64 -1132 1133 0
-1133 1203 0
65 -1133 1134 0
-1134 1204 0
66 -1134 1135 0
-1135 1205 0
67 -1135 1136 0
-1136 1206 0
68 -1136 1137 0
-1137 1207 0
69 -1137 1138 0
-1138 1208 0
70 -1138 1139 0
-1139 1209 0
71 -1139 1140 0
-1140 1210 0
72 -1140 1141 0
-1141 1211 0
73 -1141 1142 0
-1142 1212 0
74 -1142 1143 0
-1143 1213 0
75 -1143 1144 0
-1144 1214 0
76 -1144 1145 0
-1145 1215 0
77 -1145 1146 0
-1146 1216 0
78 -1146 1147 0
-1147 1217 0
79 -1147 1148 0
-1148 1218 0
80 -1148 1149 0
-1149 1219 0
81 -1149 1150 0
-1150 1220 0
82 -1150 1151 0
-1151 1221 0
83 -1151 1152 0
-1152 1222 0
84 -1152 0
15 1153 0
-1153 1223 0
16 -1153 1154 0
-1154 1224 0
17 -1154 1155 0
-1155 1225 0
18 -1155 1156 0
-1156 1226 0
19 -1156 1157 0
-1157 1227 0
20 -1157 1158 0
-1158 1228 0
21 -1158 1159 0
-1159 1229 0
22 -1159 1160 0
-1160 1230 0
23 -1160 1161 0
-1161 1231 0
24 -1161 1162 0
-1162 1232 0
25 -1162 1163 0
-1163 1233 0
26 -1163 1164 0
-1164 1234 0
27 -1164 1165 0
-1165 1235 0
28 -1165 1166 0
-1166 1236 0
29 -1166 1167 0
-1167 1237 0
30 -1167 1168 0
-1168 1238 0
31 -1168 1169 0
-1169 1239 0
32 -1169 1170 0
-1170 1240 0
33 -1170 1171 0
-1171 1241 0
34 -1171 1172 0
-1172 1242 0
35 -1172 1173 0
-1173 1243 0
36 -1173 1174 0
-1174 1244 0
37 -1174 1175 0
-1175 1245 0
38 -1175 1176 0
-1176 1246 0
39 -1176 1177 0
-1177 1247 0
40 -1177 1178 0
-1178 1248 0
41 -1178 1179 0
-1179 1249 0
42 -1179 1180 0
-1180 1250 0
43 -1180 1181 0
-1181 1251 0
44 -1181 1182 0
-1182 1252 0
45 -1182 1183 0
-1183 1253 0
46 -1183 1184 0
-1184 1254 0
47 -1184 1185 0
-1185 1255 0
48 -1185 1186 0
-1186 1256 0
49 -1186 1187 0
-1187 1257 0
50 -1187 1188 0
-1188 1258 0
51 -1188 1189 0
-1189 1259 0
52 -1189 1190 0
-1190 1260 0
53 -1190 1191 0
-1191 1261 0
54 -1191 1192 0
-1192 1262 0
55 -1192 1193 0
-1193 1263 0
56 -1193 1194 0
-1194 1264 0
57 -1194 1195 0
-1195 1265 0
58 -1195 1196 0
-1196 1266 0
59 -1196 1197 0
-1197 1267 0
60 -1197 1198 0
-1198 1268 0
61 -1198 1199 0
-1199 1269 0
62 -1199 1200 0
-1200 1270 0
63 -1200 1201 0
-1201 1271 0
64 -1201 1202 0
-1202 1272 0
65 -1202 1203 0
-1203 1273 0
66 -1203 1204 0
-1204 1274 0
67 -1204 1205 0
-1205 1275 0
68 -1205 1206 0
-1206 1276 0
69 -1206 1207 0
-1207 1277 0
70 -1207 1208 0
-1208 1278 0
71 -1208 1209 0
-1209 1279 0
72 -1209 1210 0
-1210 1280 0
73 -1210 1211 0
-1211 1281 0
74 -1211 1212 0
-1212 1282 0
75 -1212 1213 0
-1213 1283 0
76 -1213 1214 0
-1214 1284 0
77 -1214 1215 0
-1215 1285 0
78 -1215 1216 0
-1216 1286 0
79 -1216 1217 0
-1217 1287 0
80 -1217 1218 0
-1218 1288 0
81 -1218 1219 0
-1219 1289 0
82 -1219 1220 0
-1220 1290 0
83 -1220 1221 0
-1221 1291 0
84 -1221 1222 0
-1222 1292 0
85 -1222 0
16 1223 0
17 -1223 1224 0
18 -1224 1225 0
19 -1225 1226 0
20 -1226 1227 0
21 -1227 1228 0
22 -1228 1229 0
23 -1229 1230 0
24 -1230 1231 0
25 -1231 1232 0
26 -1232 1233 0
27 -1233 1234 0
28 -1234 1235 0
29 -1235 1236 0
30 -1236 1237 0
31 -1237 1238 0
32 -1238 1239 0
33 -1239 1240 0
34 -1240 1241 0
35 -1241 1242 0
36 -1242 1243 0
37 -1243 1244 0
38 -1244 1245 0
39 -1245 1246 0
40 -1246 1247 0
41 -1247 1248 0
42 -1248 1249 0
43 -1249 1250 0
44 -1250 1251 0
45 -1251 1252 0
46 -1252 1253 0
47 -1253 1254 0
48 -1254 1255 0
49 -1255 1256 0
50 -1256 1257 0
51 -1257 1258 0
52 -1258 1259 0
53 -1259 1260 0
54 -1260 1261 0
55 -1261 1262 0
56 -1262 1263 0
57 -1263 1264 0
58 -1264 1265 0
59 -1265 1266 0
60 -1266 1267 0
61 -1267 1268 0
62 -1268 1269 0
63 -1269 1270 0
64 -1270 1271 0
65 -1271 1272 0
66 -1272 1273 0
67 -1273 1274 0
68 -1274 1275 0
69 -1275 1276 0
70 -1276 1277 0
71 -1277 1278 0
72 -1278 1279 0
73 -1279 1280 0
74 -1280 1281 0
75 -1281 1282 0
76 -1282 1283 0
77 -1283 1284 0
78 -1284 1285 0
79 -1285 1286 0
80 -1286 1287 0
81 -1287 1288 0
82 -1288 1289 0
83 -1289 1290 0
84 -1290 1291 0
85 -1291 1292 0
86 -1292 0
-1 1293 0
-1293 1294 0
-2 -1293 1295 0
-1295 1296 0
-3 -1295 1297 0
-1297 1298 0
-4 -1297 1299 0
-1299 1300 0
-5 -1299 1301 0
-1301 1302 0
-6 -1301 1303 0
-1303 1304 0
-7 -1303 1305 0
-1305 1306 0
-8 -1305 1307 0
-1307 1308 0
-9 -1307 1309 0
-1309 1310 0
-10 -1309 1311 0
-1311 1312 0
-11 -1311 1313 0
-1313 1314 0
-12 -1313 1315 0
-1315 1316 0
-13 -1315 1317 0
-1317 1318 0
-14 -1317 1319 0
-1319 1320 0
-15 -1319 1321 0
-1321 1322 0
-16 -1321 1323 0
-1323 1324 0
-17 -1323 0
-2 1294 0
-1294 1325 0
-3 -1294 1296 0
-1296 1326 0
-4 -1296 1298 0
-1298 1327 0
-5 -1298 1300 0
-1300 1328 0
-6 -1300 1302 0
-1302 1329 0
-7 -1302 1304 0
-1304 1330 0
-8 -1304 1306 0
-1306 1331 0
-9 -1306 1308 0
-1308 1332 0
-10 -1308 1310 0
-1310 1333 0
-11 -1310 1312 0
-1312 1334 0
-12 -1312 1314 0
-1314 1335 0
-13 -1314 1316 0
-1316 1336 0
-14 -1316 1318 0
-1318 1337 0
-15 -1318 1320 0
-1320 1338 0
-16 -1320 1322 0
-1322 1339 0
-17 -1322 1324 0
-1324 1340 0
-18 -1324 0
-3 1325 0
-1325 1341 0
-4 -1325 1326 0
-1326 1342 0
-5 -1326 1327 0
-1327 1343 0
-6 -1327 1328 0
-1328 1344 0
-7 -1328 1329 0
-1329 1345 0
-8 -1329 1330 0
-1330 1346 0
-9 -1330 1331 0
-1331 1347 0
-10 -1331 1332 0
-1332 1348 0
-11 -1332 1333 0
-1333 1349 0
-12 -1333 1334 0
-1334 1350 0
-13 -1334 1335 0
-1335 1351 0
-14 -1335 1336 0
-1336 1352 0
-15 -1336 1337 0
-1337 1353 0
-16 -1337 1338 0
-1338 1354 0
-17 -1338 1339 0
-1339 1355 0
-18 -1339 1340 0
-1340 1356 0
-19 -1340 0
-4 1341 0
-1341 1357 0
-5 -1341 1342 0
-1342 1358 0
-6 -1342 1343 0
-1343 1359 0
-7 -1343 1344 0
-1344 1360 0
-8 -1344 1345 0
-1345 1361 0
-9 -1345 1346 0
-1346 1362 0
-10 -1346 1347 0
-1347 1363 0
-11 -1347 1348 0
-1348 1364 0
-12 -1348 1349 0
-1349 1365 0
-13 -1349 1350 0
-1350 1366 0
-14 -1350 1351 0
-1351 1367 0
-15 -1351 1352 0
-1352 1368 0
-16 -1352 1353 0
-1353 1369 0
-17 -1353 1354 0
-1354 1370 0
-18 -1354 1355 0
-1355 1371 0
-19 -1355 1356 0
-1356 1372 0
-20 -1356 0
-5 1357 0
-1357 1373 0
-6 -1357 1358 0
-1358 1374 0
-7 -1358 1359 0
-1359 1375 0
-8 -1359 1360 0
-1360 1376 0
-9 -1360 1361 0
-1361 1377 0
-10 -1361 1362 0
-1362 1378 0
-11 -1362 1363 0
-1363 1379 0
-12 -1363 1364 0
-1364 1380 0
-13 -1364 1365 0
-1365 1381 0
-14 -1365 1366 0
-1366 1382 0
-15 -1366 1367 0
-1367 1383 0
-16 -1367 1368 0
-1368 1384 0
-17 -1368 1369 0
-1369 1385 0
-18 -1369 1370 0
-1370 1386 0
-19 -1370 1371 0
-1371 1387 0
-20 -1371 1372 0
-1372 1388 0
-21 -1372 0
-6 1373 0
-1373 1389 0
-7 -1373 1374 0
-1374 1390 0
-8 -1374 1375 0
-1375 1391 0
-9 -1375 1376 0
-1376 1392 0
-10 -1376 1377 0
-1377 1393 0
-11 -1377 1378 0
-1378 1394 0
-12 -1378 1379 0
-1379 1395 0
-13 -1379 1380 0
-1380 1396 0
-14 -1380 1381 0
-1381 1397 0
-15 -1381 1382 0
-1382 1398 0
-16 -1382 1383 0
-1383 1399 0
-17 -1383 1384 0
-1384 1400 0
-18 -1384 1385 0
-1385 1401 0
-19 -1385 1386 0
-1386 1402 0
-20 -1386 1387 0
-1387 1403 0
-21 -1387 1388 0
-1388 1404 0
-22 -1388 0
-7 1389 0
-1389 1405 0
-8 -1389 1390 0
-1390 1406 0
-9 -1390 1391 0
-1391 1407 0
-10 -1391 1392 0
-1392 1408 0
-11 -1392 1393 0
-1393 1409 0
-12 -1393 1394 0
-1394 1410 0
-13 -1394 1395 0
-1395 1411 0
-14 -1395 1396 0
-1396 1412 0
-15 -1396 1397 0
-1397 1413 0
-16 -1397 1398 0
-1398 1414 0
-17 -1398 1399 0
-1399 1415 0
-18 -1399 1400 0
-1400 1416 0
-19 -1400 1401 0
-1401 1417 0
-20 -1401 1402 0
-1402 1418 0
-21 -1402 1403 0
-1403 1419 0
-22 -1403 1404 0
-1404 1420 0
-23 -1404 0
-8 1405 0
-1405 1421 0
-9 -1405 1406 0
-1406 1422 0
-10 -1406 1407 0
-1407 1423 0
-11 -1407 1408 0
-1408 1424 0
-12 -1408 1409 0
-1409 1425 0
-13 -1409 1410 0
-1410 1426 0
-14 -1410 1411 0
-1411 1427 0
-15 -1411 1412 0
-1412 1428 0
-16 -1412 1413 0
-1413 1429 0
-17 -1413 1414 0
-1414 1430 0
-18 -1414 1415 0
-1415 1431 0
-19 -1415 1416 0
-1416 1432 0
-20 -1416 1417 0
-1417 1433 0
-21 -1417 1418 0
-1418 1434 0
-22 -1418 1419 0
-1419 1435 0
-23 -1419 1420 0
-1420 1436 0
-24 -1420 0
-9 1421 0
-1421 1437 0
-10 -1421 1422 0
-1422 1438 0
-11 -1422 1423 0
-1423 1439 0
-12 -1423 1424 0
-1424 1440 0
-13 -1424 1425 0
-1425 1441 0
-14 -1425 1426 0
-1426 1442 0
-15 -1426 1427 0
-1427 1443 0
-16 -1427 1428 0
-1428 1444 0
-17 -1428 1429 0
-1429 1445 0
-18 -1429 1430 0
-1430 1446 0
-19 -1430 1431 0
-1431 1447 0
-20 -1431 1432 0
-1432 1448 0
-21 -1432 1433 0
-1433 1449 0
-22 -1433 1434 0
-1434 1450 0
-23 -1434 1435 0
-1435 1451 0
-24 -1435 1436 0
-1436 1452 0
-25 -1436 0
-10 1437 0
-1437 1453 0
-11 -1437 1438 0
-1438 1454 0
-12 -1438 1439 0
-1439 1455 0
-13 -1439 1440 0
-1440 1456 0
-14 -1440 1441 0
-1441 1457 0
-15 -1441 1442 0
-1442 1458 0
-16 -1442 1443 0
-1443 1459 0
-17 -1443 1444 0
-1444 1460 0
-18 -1444 1445 0
-1445 1461 0
-19 -1445 1446 0
-1446 1462 0
-20 -1446 1447 0
-1447 1463 0
-21 -1447 1448 0
-1448 1464 0
-22 -1448 1449 0
-1449 1465 0
-23 -1449 1450 0
-1450 1466 0
-24 -1450 1451 0
-1451 1467 0
-25 -1451 1452 0
-1452 1468 0
-26 -1452 0
-11 1453 0
-1453 1469 0
-12 -1453 1454 0
-1454 1470 0
-13 -1454 1455 0
-1455 1471 0
-14 -1455 1456 0
-1456 1472 0
-15 -1456 1457 0
-1457 1473 0
-16 -1457 1458 0
-1458 1474 0
-17 -1458 1459 0
-1459 1475 0
-18 -1459 1460 0
-1460 1476 0
-19 -1460 1461 0
-1461 1477 0
-20 -1461 1462 0
-1462 1478 0
-21 -1462 1463 0
-1463 1479 0
-22 -1463 1464 0
-1464 1480 0
-23 -1464 1465 0
-1465 1481 0
-24 -1465 1466 0
-1466 1482 0
-25 -1466 1467 0
-1467 1483 0
-26 -1467 1468 0
-1468 1484 0
-27 -1468 0
-12 1469 0
-1469 1485 0
-13 -1469 1470 0
-1470 1486 0
-14 -1470 1471 0
-1471 1487 0
-15 -1471 1472 0
-1472 1488 0
-16 -1472 1473 0
-1473 1489 0
-17 -1473 1474 0
-1474 1490 0
-18 -1474 1475 0
-1475 1491 0
-19 -1475 1476 0
-1476 1492 0
-20 -1476 1477 0
-1477 1493 0
-21 -1477 1478 0
-1478 1494 0
-22 -1478 1479 0
-1479 1495 0
-23 -1479 1480 0
-1480 1496 0
-24 -1480 1481 0
-1481 1497 0
-25 -1481 1482 0
-1482 1498 0
-26 -1482 1483 0
-1483 1499 0
-27 -1483 1484 0
-1484 1500 0
-28 -1484 0
-13 1485 0
-1485 1501 0
-14 -1485 1486 0
-1486 1502 0
-15 -1486 1487 0
-1487 1503 0
-16 -1487 1488 0
-1488 1504 0
-17 -1488 1489 0
-1489 1505 0
-18 -1489 1490 0
-1490 1506 0
-19 -1490 1491 0
-1491 1507 0
-20 -1491 1492 0
-1492 1508 0
-21 -1492 1493 0
-1493 1509 0
-22 -1493 1494 0
-1494 1510 0
-23 -1494 1495 0
-1495 1511 0
-24 -1495 1496 0
-1496 1512 0
-25 -1496 1497 0
-1497 1513 0
-26 -1497 1498 0
-1498 1514 0
-27 -1498 1499 0
-1499 1515 0
-28 -1499 1500 0
-1500 1516 0
-29 -1500 0
-14 1501 0
-1501 1517 0
-15 -1501 1502 0
-1502 1518 0
-16 -1502 1503 0
-1503 1519 0
-17 -1503 1504 0
-1504 1520 0
-18 -1504 1505 0
-1505 1521 0
-19 -1505 1506 0
-1506 1522 0
-20 -1506 1507 0
-1507 1523 0
-21 -1507 1508 0
-1508 1524 0
-22 -1508 1509 0
-1509 1525 0
-23 -1509 1510 0
-1510 1526 0
-24 -1510 1511 0
-1511 1527 0
-25 -1511 1512 0
-1512 1528 0
-26 -1512 1513 0
-1513 1529 0
-27 -1513 1514 0
-1514 1530 0
-28 -1514 1515 0
-1515 1531 0
-29 -1515 1516 0
-1516 1532 0
-30 -1516 0
-15 1517 0
-1517 1533 0
-16 -1517 1518 0
-1518 1534 0
-17 -1518 1519 0
-1519 1535 0
-18 -1519 1520 0
-1520 1536 0
-19 -1520 1521 0
-1521 1537 0
-20 -1521 1522 0
-1522 1538 0
-21 -1522 1523 0
-1523 1539 0
-22 -1523 1524 0
-1524 1540 0
-23 -1524 1525 0
-1525 1541 0
-24 -1525 1526 0
-1526 1542 0
-25 -1526 1527 0
-1527 1543 0
-26 -1527 1528 0
-1528 1544 0
-27 -1528 1529 0
-1529 1545 0
-28 -1529 1530 0
-1530 1546 0
-29 -1530 1531 0
-1531 1547 0
-30 -1531 1532 0
-1532 1548 0
-31 -1532 0
-16 1533 0
-1533 1549 0
-17 -1533 1534 0
-1534 1550 0
-18 -1534 1535 0
-1535 1551 0
-19 -1535 1536 0
-1536 1552 0
-20 -1536 1537 0
-1537 1553 0
-21 -1537 1538 0
-1538 1554 0
-22 -1538 1539 0
-1539 1555 0
-23 -1539 1540 0
-1540 1556 0
-24 -1540 1541 0
-1541 1557 0
-25 -1541 1542 0
-1542 1558 0
-26 -1542 1543 0
-1543 1559 0
-27 -1543 1544 0
-1544 1560 0
-28 -1544 1545 0
-1545 1561 0
-29 -1545 1546 0
-1546 1562 0
-30 -1546 1547 0
-1547 1563 0
-31 -1547 1548 0
-1548 1564 0
-32 -1548 0
-17 1549 0
-1549 1565 0
-18 -1549 1550 0
-1550 1566 0
-19 -1550 1551 0
-1551 1567 0
-20 -1551 1552 0
-1552 1568 0
-21 -1552 1553 0
-1553 1569 0
-22 -1553 1554 0
-1554 1570 0
-23 -1554 1555 0
-1555 1571 0
-24 -1555 1556 0
-1556 1572 0
-25 -1556 1557 0
-1557 1573 0
-26 -1557 1558 0
-1558 1574 0
-27 -1558 1559 0
-1559 1575 0
-28 -1559 1560 0
-1560 1576 0
-29 -1560 1561 0
-1561 1577 0
-30 -1561 1562 0
-1562 1578 0
-31 -1562 1563 0
-1563 1579 0
-32 -1563 1564 0
-1564 1580 0
-33 -1564 0
-18 1565 0
-1565 1581 0
-19 -1565 1566 0
-1566 1582 0
-20 -1566 1567 0
-1567 1583 0
-21 -1567 1568 0
-1568 1584 0
-22 -1568 1569 0
-1569 1585 0
-23 -1569 1570 0
-1570 1586 0
-24 -1570 1571 0
-1571 1587 0
-25 -1571 1572 0
-1572 1588 0
-26 -1572 1573 0
-1573 1589 0
-27 -1573 1574 0
-1574 1590 0
-28 -1574 1575 0
-1575 1591 0
-29 -1575 1576 0
-1576 1592 0
-30 -1576 1577 0
-1577 1593 0
-31 -1577 1578 0
-1578 1594 0
-32 -1578 1579 0
-1579 1595 0
-33 -1579 1580 0
-1580 1596 0
-34 -1580 0
-19 1581 0
-1581 1597 0
-20 -1581 1582 0
-1582 1598 0
-21 -1582 1583 0
-1583 1599 0
-22 -1583 1584 0
-1584 1600 0
-23 -1584 1585 0
-1585 1601 0
-24 -1585 1586 0
-1586 1602 0
-25 -1586 1587 0
-1587 1603 0
-26 -1587 1588 0
-1588 1604 0
-27 -1588 1589 0
-1589 1605 0
-28 -1589 1590 0
-1590 1606 0
-29 -1590 1591 0
-1591 1607 0
-30 -1591 1592 0
-1592 1608 0
-31 -1592 1593 0
-1593 1609 0
-32 -1593 1594 0
-1594 1610 0
-33 -1594 1595 0
-1595 1611 0
-34 -1595 1596 0
-1596 1612 0
-35 -1596 0
-20 1597 0
-1597 1613 0
-21 -1597 1598 0
-1598 1614 0
-22 -1598 1599 0
-1599 1615 0
-23 -1599 1600 0
-1600 1616 0
-24 -1600 1601 0
-1601 1617 0
-25 -1601 1602 0
-1602 1618 0
-26 -1602 1603 0
-1603 1619 0
-27 -1603 1604 0
-1604 1620 0
-28 -1604 1605 0
-1605 1621 0
-29 -1605 1606 0
-1606 1622 0
-30 -1606 1607 0
-1607 1623 0
-31 -1607 1608 0
-1608 1624 0
-32 -1608 1609 0
-1609 1625 0
-33 -1609 1610 0
-1610 1626 0
-34 -1610 1611 0
-1611 1627 0
-35 -1611 1612 0
-1612 1628 0
-36 -1612 0
-21 1613 0
-1613 1629 0
-22 -1613 1614 0
-1614 1630 0
-23 -1614 1615 0
-1615 1631 0
-24 -1615 1616 0
-1616 1632 0
-25 -1616 1617 0
-1617 1633 0
-26 -1617 1618 0
-1618 1634 0
-27 -1618 1619 0
-1619 1635 0
-28 -1619 1620 0
-1620 1636 0
-29 -1620 1621 0
-1621 1637 0
-30 -1621 1622 0
-1622 1638 0
-31 -1622 1623 0
-1623 1639 0
-32 -1623 1624 0
-1624 1640 0
-33 -1624 1625 0
-1625 1641 0
-34 -1625 1626 0
-1626 1642 0
-35 -1626 1627 0
-1627 1643 0
-36 -1627 1628 0
-1628 1644 0
-37 -1628 0
-22 1629 0
-1629 1645 0
-23 -1629 1630 0
-1630 1646 0
-24 -1630 1631 0
-1631 1647 0
-25 -1631 1632 0
-1632 1648 0
-26 -1632 1633 0
-1633 1649 0
-27 -1633 1634 0
-1634 1650 0
-28 -1634 1635 0
-1635 1651 0
-29 -1635 1636 0
-1636 1652 0
-30 -1636 1637 0
-1637 1653 0
-31 -1637 1638 0
-1638 1654 0
-32 -1638 1639 0
-1639 1655 0
-33 -1639 1640 0
-1640 1656 0
-34 -1640 1641 0
-1641 1657 0
-35 -1641 1642 0
-1642 1658 0
-36 -1642 1643 0
-1643 1659 0
-37 -1643 1644 0
-1644 1660 0
-38 -1644 0
-23 1645 0
-1645 1661 0
-24 -1645 1646 0
-1646 1662 0
-25 -1646 1647 0
-1647 1663 0
-26 -1647 1648 0
-1648 1664 0
-27 -1648 1649 0
-1649 1665 0
-28 -1649 1650 0
-1650 1666 0
-29 -1650 1651 0
-1651 1667 0
-30 -1651 1652 0
-1652 1668 0
-31 -1652 1653 0
-1653 1669 0
-32 -1653 1654 0
-1654 1670 0
-33 -1654 1655 0
-1655 1671 0
-34 -1655 1656 0
-1656 1672 0
-35 -1656 1657 0
-1657 1673 0
-36 -1657 1658 0
-1658 1674 0
-37 -1658 1659 0
-1659 1675 0
-38 -1659 1660 0
-1660 1676 0
-39 -1660 0
-24 1661 0
-1661 1677 0
-25 -1661 1662 0
-1662 1678 0
-26 -1662 1663 0
-1663 1679 0
-27 -1663 1664 0
-1664 1680 0
-28 -1664 1665 0
-1665 1681 0
-29 -1665 1666 0
-1666 1682 0
-30 -1666 1667 0
-1667 1683 0
-31 -1667 1668 0
-1668 1684 0
-32 -1668 1669 0
-1669 1685 0
-33 -1669 1670 0
-1670 1686 0
-34 -1670 1671 0
-1671 1687 0
-35 -1671 1672 0
-1672 1688 0
-36 -1672 1673 0
-1673 1689 0
-37 -1673 1674 0
-1674 1690 0
-38 -1674 1675 0
-1675 1691 0
-39 -1675 1676 0
-1676 1692 0
-40 -1676 0
-25 1677 0
-1677 1693 0
-26 -1677 1678 0
-1678 1694 0
-27 -1678 1679 0
-1679 1695 0
-28 -1679 1680 0
-1680 1696 0
-29 -1680 1681 0
-1681 1697 0
-30 -1681 1682 0
-1682 1698 0
-31 -1682 1683 0
-1683 1699 0
-32 -1683 1684 0
-1684 1700 0
-33 -1684 1685 0
-1685 1701 0
-34 -1685 1686 0
-1686 1702 0
-35 -1686 1687 0
-1687 1703 0
-36 -1687 1688 0
-1688 1704 0
-37 -1688 1689 0
-1689 1705 0
-38 -1689 1690 0
-1690 1706 0
-39 -1690 1691 0
-1691 1707 0
-40 -1691 1692 0
-1692 1708 0
-41 -1692 0
-26 1693 0
-1693 1709 0
-27 -1693 1694 0
-1694 1710 0
-28 -1694 1695 0
-1695 1711 0
-29 -1695 1696 0
-1696 1712 0
-30 -1696 1697 0
-1697 1713 0
-31 -1697 1698 0
-1698 1714 0
-32 -1698 1699 0
-1699 1715 0
-33 -1699 1700 0
-1700 1716 0
-34 -1700 1701 0
-1701 1717 0
-35 -1701 1702 0
-1702 1718 0
-36 -1702 1703 0
-1703 1719 0
-37 -1703 1704 0
-1704 1720 0
-38 -1704 1705 0
-1705 1721 0
-39 -1705 1706 0
-1706 1722 0
-40 -1706 1707 0
-1707 1723 0
-41 -1707 1708 0
-1708 1724 0
-42 -1708 0
-27 1709 0
-1709 1725 0
-28 -1709 1710 0
-1710 1726 0
-29 -1710 1711 0
-1711 1727 0
-30 -1711 1712 0
-1712 1728 0
-31 -1712 1713 0
-1713 1729 0
-32 -1713 1714 0
-1714 1730 0
-33 -1714 1715 0
-1715 1731 0
-34 -1715 1716 0
-1716 1732 0
-35 -1716 1717 0
-1717 1733 0
-36 -1717 1718 0
-1718 1734 0
-37 -1718 1719 0
-1719 1735 0
-38 -1719 1720 0
-1720 1736 0
-39 -1720 1721 0
-1721 1737 0
-40 -1721 1722 0
-1722 1738 0
-41 -1722 1723 0
-1723 1739 0
-42 -1723 1724 0
-1724 1740 0
-43 -1724 0
-28 1725 0
-1725 1741 0
-29 -1725 1726 0
-1726 1742 0
-30 -1726 1727 0
-1727 1743 0
-31 -1727 1728 0
-1728 1744 0
-32 -1728 1729 0
-1729 1745 0
-33 -1729 1730 0
-1730 1746 0
-34 -1730 1731 0
-1731 1747 0
-35 -1731 1732 0
-1732 1748 0
-36 -1732 1733 0
-1733 1749 0
-37 -1733 1734 0
-1734 1750 0
-38 -1734 1735 0
-1735 1751 0
-39 -1735 1736 0
-1736 1752 0
-40 -1736 1737 0
-1737 1753 0
-41 -1737 1738 0
-1738 1754 0
-42 -1738 1739 0
-1739 1755 0
-43 -1739 1740 0
-1740 1756 0
-44 -1740 0
-29 1741 0
-1741 1757 0
-30 -1741 1742 0
-1742 1758 0
-31 -1742 1743 0
-1743 1759 0
-32 -1743 1744 0
-1744 1760 0
-33 -1744 1745 0
-1745 1761 0
-34 -1745 1746 0
-1746 1762 0
-35 -1746 1747 0
-1747 1763 0
-36 -1747 1748 0
-1748 1764 0
-37 -1748 1749 0
-1749 1765 0
-38 -1749 1750 0
-1750 1766 0
-39 -1750 1751 0
-1751 1767 0
-40 -1751 1752 0
-1752 1768 0
-41 -1752 1753 0
-1753 1769 0
-42 -1753 1754 0
-1754 1770 0
-43 -1754 1755 0
-1755 1771 0
-44 -1755 1756 0
-1756 1772 0
-45 -1756 0
-30 1757 0
-1757 1773 0
-31 -1757 1758 0
-1758 1774 0
-32 -1758 1759 0
-1759 1775 0
-33 -1759 1760 0
-1760 1776 0
-34 -1760 1761 0
-1761 1777 0
-35 -1761 1762 0
-1762 1778 0
-36 -1762 1763 0
-1763 1779 0
-37 -1763 1764 0
-1764 1780 0
-38 -1764 1765 0
-1765 1781 0
-39 -1765 1766 0
-1766 1782 0
-40 -1766 1767 0
-1767 1783 0
-41 -1767 1768 0
-1768 1784 0
-42 -1768 1769 0
-1769 1785 0
-43 -1769 1770 0
-1770 1786 0
-44 -1770 1771 0
-1771 1787 0
-45 -1771 1772 0
-1772 1788 0
-46 -1772 0
-31 1773 0
-1773 1789 0
-32 -1773 1774 0
-1774 1790 0
-33 -1774 1775 0
-1775 1791 0
-34 -1775 1776 0
-1776 1792 0
-35 -1776 1777 0
-1777 1793 0
-36 -1777 1778 0
-1778 1794 0
-37 -1778 1779 0
-1779 1795 0
-38 -1779 1780 0
-1780 1796 0
-39 -1780 1781 0
-1781 1797 0
-40 -1781 1782 0
-1782 1798 0
-41 -1782 1783 0
-1783 1799 0
-42 -1783 1784 0
-1784 1800 0
-43 -1784 1785 0
-1785 1801 0
-44 -1785 1786 0
-1786 1802 0
-45 -1786 1787 0
-1787 1803 0
-46 -1787 1788 0
-1788 1804 0
-47 -1788 0
-32 1789 0
-1789 1805 0
-33 -1789 1790 0
-1790 1806 0
-34 -1790 1791 0
-1791 1807 0
-35 -1791 1792 0
-1792 1808 0
-36 -1792 1793 0
-1793 1809 0
-37 -1793 1794 0
-1794 1810 0
-38 -1794 1795 0
-1795 1811 0
-39 -1795 1796 0
-1796 1812 0
-40 -1796 1797 0
-1797 1813 0
-41 -1797 1798 0
-1798 1814 0
-42 -1798 1799 0
-1799 1815 0
-43 -1799 1800 0
-1800 1816 0
-44 -1800 1801 0
-1801 1817 0
-45 -1801 1802 0
-1802 1818 0
-46 -1802 1803 0
-1803 1819 0
-47 -1803 1804 0
-1804 1820 0
-48 -1804 0
-33 1805 0
-1805 1821 0
-34 -1805 1806 0
-1806 1822 0
-35 -1806 1807 0
-1807 1823 0
-36 -1807 1808 0
-1808 1824 0
-37 -1808 1809 0
-1809 1825 0
-38 -1809 1810 0
-1810 1826 0
-39 -1810 1811 0
-1811 1827 0
-40 -1811 1812 0
-1812 1828 0
-41 -1812 1813 0
-1813 1829 0
-42 -1813 1814 0
-1814 1830 0
-43 -1814 1815 0
-1815 1831 0
-44 -1815 1816 0
-1816 1832 0
-45 -1816 1817 0
-1817 1833 0
-46 -1817 1818 0
-1818 1834 0
-47 -1818 1819 0
-1819 1835 0
-48 -1819 1820 0
-1820 1836 0
-49 -1820 0
-34 1821 0
-1821 1837 0
-35 -1821 1822 0
-1822 1838 0
-36 -1822 1823 0
-1823 1839 0
-37 -1823 1824 0
-1824 1840 0
-38 -1824 1825 0
-1825 1841 0
-39 -1825 1826 0
-1826 1842 0
-40 -1826 1827 0
-1827 1843 0
-41 -1827 1828 0
-1828 1844 0
-42 -1828 1829 0
-1829 1845 0
-43 -1829 1830 0
-1830 1846 0
-44 -1830 1831 0
-1831 1847 0
-45 -1831 1832 0
-1832 1848 0
-46 -1832 1833 0
-1833 1849 0
-47 -1833 1834 0
-1834 1850 0
-48 -1834 1835 0
-1835 1851 0
-49 -1835 1836 0
-1836 1852 0
-50 -1836 0
-35 1837 0
-1837 1853 0
-36 -1837 1838 0
-1838 1854 0
-37 -1838 1839 0
-1839 1855 0
-38 -1839 1840 0
-1840 1856 0
-39 -1840 1841 0
-1841 1857 0
-40 -1841 1842 0
-1842 1858 0
-41 -1842 1843 0
-1843 1859 0
-42 -1843 1844 0
-1844 1860 0
-43 -1844 1845 0
-1845 1861 0
-44 -1845 1846 0
-1846 1862 0
-45 -1846 1847 0
-1847 1863 0
-46 -1847 1848 0
-1848 1864 0
-47 -1848 1849 0
-1849 1865 0
-48 -1849 1850 0
-1850 1866 0
-49 -1850 1851 0
-1851 1867 0
-50 -1851 1852 0
-1852 1868 0
-51 -1852 0
-36 1853 0
-1853 1869 0
-37 -1853 1854 0
-1854 1870 0
-38 -1854 1855 0
-1855 1871 0
-39 -1855 1856 0
-1856 1872 0
-40 -1856 1857 0
-1857 1873 0
-41 -1857 1858 0
-1858 1874 0
-42 -1858 1859 0
-1859 1875 0
-43 -1859 1860 0
-1860 1876 0
-44 -1860 1861 0
-1861 1877 0
-45 -1861 1862 0
-1862 1878 0
-46 -1862 1863 0
-1863 1879 0
-47 -1863 1864 0
-1864 1880 0
-48 -1864 1865 0
-1865 1881 0
-49 -1865 1866 0
-1866 1882 0
-50 -1866 1867 0
-1867 1883 0
-51 -1867 1868 0
-1868 1884 0
-52 -1868 0
-37 1869 0
-1869 1885 0
-38 -1869 1870 0
-1870 1886 0
-39 -1870 1871 0
-1871 1887 0
-40 -1871 1872 0
-1872 1888 0
-41 -1872 1873 0
-1873 1889 0
-42 -1873 1874 0
-1874 1890 0
-43 -1874 1875 0
-1875 1891 0
-44 -1875 1876 0
-1876 1892 0
-45 -1876 1877 0
-1877 1893 0
-46 -1877 1878 0
-1878 1894 0
-47 -1878 1879 0
-1879 1895 0
-48 -1879 1880 0
-1880 1896 0
-49 -1880 1881 0
-1881 1897 0
-50 -1881 1882 0
-1882 1898 0
-51 -1882 1883 0
-1883 1899 0
-52 -1883 1884 0
-1884 1900 0
-53 -1884 0
-38 1885 0
-1885 1901 0
-39 -1885 1886 0
-1886 1902 0
-40 -1886 1887 0
-1887 1903 0
-41 -1887 1888 0
-1888 1904 0
-42 -1888 1889 0
-1889 1905 0
-43 -1889 1890 0
-1890 1906 0
-44 -1890 1891 0
-1891 1907 0
-45 -1891 1892 0
-1892 1908 0
-46 -1892 1893 0
-1893 1909 0
-47 -1893 1894 0
-1894 1910 0
-48 -1894 1895 0
-1895 1911 0
-49 -1895 1896 0
-1896 1912 0
-50 -1896 1897 0
-1897 1913 0
-51 -1897 1898 0
-1898 1914 0
-52 -1898 1899 0
-1899 1915 0
-53 -1899 1900 0
-1900 1916 0
-54 -1900 0
-39 1901 0
-1901 1917 0
-40 -1901 1902 0
-1902 1918 0
-41 -1902 1903 0
-1903 1919 0
-42 -1903 1904 0
-1904 1920 0
-43 -1904 1905 0
-1905 1921 0
-44 -1905 1906 0
-1906 1922 0
-45 -1906 1907 0
-1907 1923 0
-46 -1907 1908 0
-1908 1924 0
-47 -1908 1909 0
-1909 1925 0
-48 -1909 1910 0
-1910 1926 0
-49 -1910 1911 0
-1911 1927 0
-50 -1911 1912 0
-1912 1928 0
-51 -1912 1913 0
-1913 1929 0
-52 -1913 1914 0
-1914 1930 0
-53 -1914 1915 0
-1915 1931 0
-54 -1915 1916 0
-1916 1932 0
-55 -1916 0
-40 1917 0
-1917 1933 0
-41 -1917 1918 0
-1918 1934 0
-42 -1918 1919 0
-1919 1935 0
-43 -1919 1920 0
-1920 1936 0
-44 -1920 1921 0
-1921 1937 0
-45 -1921 1922 0
-1922 1938 0
-46 -1922 1923 0
-1923 1939 0
-47 -1923 1924 0
-1924 1940 0
-48 -1924 1925 0
-1925 1941 0
-49 -1925 1926 0
-1926 1942 0
-50 -1926 1927 0
-1927 1943 0
-51 -1927 1928 0
-1928 1944 0
-52 -1928 1929 0
-1929 1945 0
-53 -1929 1930 0
-1930 1946 0
-54 -1930 1931 0
-1931 1947 0
-55 -1931 1932 0
-1932 1948 0
-56 -1932 0
-41 1933 0
-1933 1949 0
-42 -1933 1934 0
-1934 1950 0
-43 -1934 1935 0
-1935 1951 0
-44 -1935 1936 0
-1936 1952 0
-45 -1936 1937 0
-1937 1953 0
-46 -1937 1938 0
-1938 1954 0
-47 -1938 1939 0
-1939 1955 0
-48 -1939 1940 0
-1940 1956 0
-49 -1940 1941 0
-1941 1957 0
-50 -1941 1942 0
-1942 1958 0
-51 -1942 1943 0
-1943 1959 0
-52 -1943 1944 0
-1944 1960 0
-53 -1944 1945 0
-1945 1961 0
-54 -1945 1946 0
-1946 1962 0
-55 -1946 1947 0
-1947 1963 0
-56 -1947 1948 0
-1948 1964 0
-57 -1948 0
-42 1949 0
-1949 1965 0
-43 -1949 1950 0
-1950 1966 0
-44 -1950 1951 0
-1951 1967 0
-45 -1951 1952 0
-1952 1968 0
-46 -1952 1953 0
-1953 1969 0
-47 -1953 1954 0
-1954 1970 0
-48 -1954 1955 0
-1955 1971 0
-49 -1955 1956 0
-1956 1972 0
-50 -1956 1957 0
-1957 1973 0
-51 -1957 1958 0
-1958 1974 0
-52 -1958 1959 0
-1959 1975 0
-53 -1959 1960 0
-1960 1976 0
-54 -1960 1961 0
-1961 1977 0
-55 -1961 1962 0
-1962 1978 0
-56 -1962 1963 0
-1963 1979 0
-57 -1963 1964 0
-1964 1980 0
-58 -1964 0
-43 1965 0
-1965 1981 0
-44 -1965 1966 0
-1966 1982 0
-45 -1966 1967 0
-1967 1983 0
-46 -1967 1968 0
-1968 1984 0
-47 -1968 1969 0
-1969 1985 0
-48 -1969 1970 0
-1970 1986 0
-49 -1970 1971 0
-1971 1987 0
-50 -1971 1972 0
-1972 1988 0
-51 -1972 1973 0
-1973 1989 0
-52 -1973 1974 0
-1974 1990 0
-53 -1974 1975 0
-1975 1991 0
-54 -1975 1976 0
-1976 1992 0
-55 -1976 1977 0
-1977 1993 0
-56 -1977 1978 0
-1978 1994 0
-57 -1978 1979 0
-1979 1995 0
-58 -1979 1980 0
-1980 1996 0
-59 -1980 0
-44 1981 0
-1981 1997 0
-45 -1981 1982 0
-1982 1998 0
-46 -1982 1983 0
-1983 1999 0
-47 -1983 1984 0
-1984 2000 0
-48 -1984 1985 0
-1985 2001 0
-49 -1985 1986 0
-1986 2002 0
-50 -1986 1987 0
-1987 2003 0
-51 -1987 1988 0
-1988 2004 0
-52 -1988 1989 0
-1989 2005 0
-53 -1989 1990 0
-1990 2006 0
-54 -1990 1991 0
-1991 2007 0
-55 -1991 1992 0
-1992 2008 0
-56 -1992 1993 0
-1993 2009 0
-57 -1993 1994 0
-1994 2010 0
-58 -1994 1995 0
-1995 2011 0
-59 -1995 1996 0
-1996 2012 0
-60 -1996 0
-45 1997 0
-1997 2013 0
-46 -1997 1998 0
-1998 2014 0
-47 -1998 1999 0
-1999 2015 0
-48 -1999 2000 0
-2000 2016 0
-49 -2000 2001 0
-2001 2017 0
-50 -2001 2002 0
-2002 2018 0
-51 -2002 2003 0
-2003 2019 0
-52 -2003 2004 0
-2004 2020 0
-53 -2004 2005 0
-2005 2021 0
-54 -2005 2006 0
-2006 2022 0
-55 -2006 2007 0
-2007 2023 0
-56 -2007 2008 0
-2008 2024 0
-57 -2008 2009 0
-2009 2025 0
-58 -2009 2010 0
-2010 2026 0
-59 -2010 2011 0
-2011 2027 0
-60 -2011 2012 0
-2012 2028 0
-61 -2012 0
-46 2013 0
-2013 2029 0
-47 -2013 2014 0
-2014 2030 0
-48 -2014 2015 0
-2015 2031 0
-49 -2015 2016 0
-2016 2032 0
-50 -2016 2017 0
-2017 2033 0
-51 -2017 2018 0
-2018 2034 0
-52 -2018 2019 0
-2019 2035 0
-53 -2019 2020 0
-2020 2036 0
-54 -2020 2021 0
-2021 2037 0
-55 -2021 2022 0
-2022 2038 0
-56 -2022 2023 0
-2023 2039 0
-57 -2023 2024 0
-2024 2040 0
-58 -2024 2025 0
-2025 2041 0
-59 -2025 2026 0
-2026 2042 0
-60 -2026 2027 0
-2027 2043 0
-61 -2027 2028 0
-2028 2044 0
-62 -2028 0
-47 2029 0
-2029 2045 0
-48 -2029 2030 0
-2030 2046 0
-49 -2030 2031 0
-2031 2047 0
-50 -2031 2032 0
-2032 2048 0
-51 -2032 2033 0
-2033 2049 0
-52 -2033 2034 0
-2034 2050 0
-53 -2034 2035 0
-2035 2051 0
-54 -2035 2036 0
-2036 2052 0
-55 -2036 2037 0
-2037 2053 0
-56 -2037 2038 0
-2038 2054 0
-57 -2038 2039 0
-2039 2055 0
-58 -2039 2040 0
-2040 2056 0
-59 -2040 2041 0
-2041 2057 0
-60 -2041 2042 0
-2042 2058 0
-61 -2042 2043 0
-2043 2059 0
-62 -2043 2044 0
-2044 2060 0
-63 -2044 0
-48 2045 0
-2045 2061 0
-49 -2045 2046 0
-2046 2062 0
-50 -2046 2047 0
-2047 2063 0
-51 -2047 2048 0
-2048 2064 0
-52 -2048 2049 0
-2049 2065 0
-53 -2049 2050 0
-2050 2066 0
-54 -2050 2051 0
-2051 2067 0
-55 -2051 2052 0
-2052 2068 0
-56 -2052 2053 0
-2053 2069 0
-57 -2053 2054 0
-2054 2070 0
-58 -2054 2055 0
-2055 2071 0
-59 -2055 2056 0
-2056 2072 0
-60 -2056 2057 0
-2057 2073 0
-61 -2057 2058 0
-2058 2074 0
-62 -2058 2059 0
-2059 2075 0
-63 -2059 2060 0
-2060 2076 0
-64 -2060 0
-49 2061 0
-2061 2077 0
-50 -2061 2062 0
-2062 2078 0
-51 -2062 2063 0
-2063 2079 0
-52 -2063 2064 0
-2064 2080 0
-53 -2064 2065 0
-2065 2081 0
-54 -2065 2066 0
-2066 2082 0
-55 -2066 2067 0
-2067 2083 0
-56 -2067 2068 0
-2068 2084 0
-57 -2068 2069 0
-2069 2085 0
-58 -2069 2070 0
-2070 2086 0
-59 -2070 2071 0
-2071 2087 0
-60 -2071 2072 0
-2072 2088 0
-61 -2072 2073 0
-2073 2089 0
-62 -2073 2074 0
-2074 2090 0
-63 -2074 2075 0
-2075 2091 0
-64 -2075 2076 0
-2076 2092 0
-65 -2076 0
-50 2077 0
-2077 2093 0
-51 -2077 2078 0
-2078 2094 0
-52 -2078 2079 0
-2079 2095 0
-53 -2079 2080 0
-2080 2096 0
-54 -2080 2081 0
-2081 2097 0
-55 -2081 2082 0
-2082 2098 0
-56 -2082 2083 0
-2083 2099 0
-57 -2083 2084 0
-2084 2100 0
-58 -2084 2085 0
-2085 2101 0
-59 -2085 2086 0
-2086 2102 0
-60 -2086 2087 0
-2087 2103 0
-61 -2087 2088 0
-2088 2104 0
-62 -2088 2089 0
-2089 2105 0
-63 -2089 2090 0
-2090 2106 0
-64 -2090 2091 0
-2091 2107 0
-65 -2091 2092 0
-2092 2108 0
-66 -2092 0
-51 2093 0
-2093 2109 0
-52 -2093 2094 0
-2094 2110 0
-53 -2094 2095 0
-2095 2111 0
-54 -2095 2096 0
-2096 2112 0
-55 -2096 2097 0
-2097 2113 0
-56 -2097 2098 0
-2098 2114 0
-57 -2098 2099 0
-2099 2115 0
-58 -2099 2100 0
-2100 2116 0
-59 -2100 2101 0
-2101 2117 0
-60 -2101 2102 0
-2102 2118 0
-61 -2102 2103 0
-2103 2119 0
-62 -2103 2104 0
-2104 2120 0
-63 -2104 2105 0
-2105 2121 0
-64 -2105 2106 0
-2106 2122 0
-65 -2106 2107 0
-2107 2123 0
-66 -2107 2108 0
-2108 2124 0
-67 -2108 0
-52 2109 0
-2109 2125 0
-53 -2109 2110 0
-2110 2126 0
-54 -2110 2111 0
-2111 2127 0
-55 -2111 2112 0
-2112 2128 0
-56 -2112 2113 0
-2113 2129 0
-57 -2113 2114 0
-2114 2130 0
-58 -2114 2115 0
-2115 2131 0
-59 -2115 2116 0
-2116 2132 0
-60 -2116 2117 0
-2117 2133 0
-61 -2117 2118 0
-2118 2134 0
-62 -2118 2119 0
-2119 2135 0
-63 -2119 2120 0
-2120 2136 0
-64 -2120 2121 0
-2121 2137 0
-65 -2121 2122 0
-2122 2138 0
-66 -2122 2123 0
-2123 2139 0
-67 -2123 2124 0
-2124 2140 0
-68 -2124 0
-53 2125 0
-2125 2141 0
-54 -2125 2126 0
-2126 2142 0
-55 -2126 2127 0
-2127 2143 0
-56 -2127 2128 0
-2128 2144 0
-57 -2128 2129 0
-2129 2145 0
-58 -2129 2130 0
-2130 2146 0
-59 -2130 2131 0
-2131 2147 0
-60 -2131 2132 0
-2132 2148 0
-61 -2132 2133 0
-2133 2149 0
-62 -2133 2134 0
-2134 2150 0
-63 -2134 2135 0
-2135 2151 0
-64 -2135 2136 0
-2136 2152 0
-65 -2136 2137 0
-2137 2153 0
-66 -2137 2138 0
-2138 2154 0
-67 -2138 2139 0
-2139 2155 0
-68 -2139 2140 0
-2140 2156 0
-69 -2140 0
-54 2141 0
-2141 2157 0
-55 -2141 2142 0
-2142 2158 0
-56 -2142 2143 0
-2143 2159 0
-57 -2143 2144 0
-2144 2160 0
-58 -2144 2145 0
-2145 2161 0
-59 -2145 2146 0
-2146 2162 0
-60 -2146 2147 0
-2147 2163 0
-61 -2147 2148 0
-2148 2164 0
-62 -2148 2149 0
-2149 2165 0
-63 -2149 2150 0
-2150 2166 0
-64 -2150 2151 0
-2151 2167 0
-65 -2151 2152 0
-2152 2168 0
-66 -2152 2153 0
-2153 2169 0
-67 -2153 2154 0
-2154 2170 0
-68 -2154 2155 0
-2155 2171 0
-69 -2155 2156 0
-2156 2172 0
-70 -2156 0
-55 2157 0
-2157 2173 0
-56 -2157 2158 0
-2158 2174 0
-57 -2158 2159 0
-2159 2175 0
-58 -2159 2160 0
-2160 2176 0
-59 -2160 2161 0
-2161 2177 0
-60 -2161 2162 0
-2162 2178 0
-61 -2162 2163 0
-2163 2179 0
-62 -2163 2164 0
-2164 2180 0
-63 -2164 2165 0
-2165 2181 0
-64 -2165 2166 0
-2166 2182 0
-65 -2166 2167 0
-2167 2183 0
-66 -2167 2168 0
-2168 2184 0
-67 -2168 2169 0
-2169 2185 0
-68 -2169 2170 0
-2170 2186 0
-69 -2170 2171 0
-2171 2187 0
-70 -2171 2172 0
-2172 2188 0
-71 -2172 0
-56 2173 0
-2173 2189 0
-57 -2173 2174 0
-2174 2190 0
-58 -2174 2175 0
-2175 2191 0
-59 -2175 2176 0
-2176 2192 0
-60 -2176 2177 0
-2177 2193 0
-61 -2177 2178 0
-2178 2194 0
-62 -2178 2179 0
-2179 2195 0
-63 -2179 2180 0
-2180 2196 0
-64 -2180 2181 0
-2181 2197 0
-65 -2181 2182 0
-2182 2198 0
-66 -2182 2183 0
-2183 2199 0
-67 -2183 2184 0
-2184 2200 0
-68 -2184 2185 0
-2185 2201 0
-69 -2185 2186 0
-2186 2202 0
-70 -2186 2187 0
-2187 2203 0
-71 -2187 2188 0
-2188 2204 0
-72 -2188 0
-57 2189 0
-2189 2205 0
-58 -2189 2190 0
-2190 2206 0
-59 -2190 2191 0
-2191 2207 0
-60 -2191 2192 0
-2192 2208 0
-61 -2192 2193 0
-2193 2209 0
-62 -2193 2194 0
-2194 2210 0
-63 -2194 2195 0
-2195 2211 0
-64 -2195 2196 0
-2196 2212 0
-65 -2196 2197 0
-2197 2213 0
-66 -2197 2198 0
-2198 2214 0
-67 -2198 2199 0
-2199 2215 0
-68 -2199 2200 0
-2200 2216 0
-69 -2200 2201 0
-2201 2217 0
-70 -2201 2202 0
-2202 2218 0
-71 -2202 2203 0
-2203 2219 0
-72 -2203 2204 0
-2204 2220 0
-73 -2204 0
-58 2205 0
-2205 2221 0
-59 -2205 2206 0
-2206 2222 0
-60 -2206 2207 0
-2207 2223 0
-61 -2207 2208 0
-2208 2224 0
-62 -2208 2209 0
-2209 2225 0
-63 -2209 2210 0
-2210 2226 0
-64 -2210 2211 0
-2211 2227 0
-65 -2211 2212 0
-2212 2228 0
-66 -2212 2213 0
-2213 2229 0
-67 -2213 2214 0
-2214 2230 0
-68 -2214 2215 0
-2215 2231 0
-69 -2215 2216 0
-2216 2232 0
-70 -2216 2217 0
-2217 2233 0
-71 -2217 2218 0
-2218 2234 0
-72 -2218 2219 0
-2219 2235 0
-73 -2219 2220 0
-2220 2236 0
-74 -2220 0
-59 2221 0
-2221 2237 0
-60 -2221 2222 0
-2222 2238 0
-61 -2222 2223 0
-2223 2239 0
-62 -2223 2224 0
-2224 2240 0
-63 -2224 2225 0
-2225 2241 0
-64 -2225 2226 0
-2226 2242 0
-65 -2226 2227 0
-2227 2243 0
-66 -2227 2228 0
-2228 2244 0
-67 -2228 2229 0
-2229 2245 0
-68 -2229 2230 0
-2230 2246 0
-69 -2230 2231 0
-2231 2247 0
-70 -2231 2232 0
-2232 2248 0
-71 -2232 2233 0
-2233 2249 0
-72 -2233 2234 0
-2234 2250 0
-73 -2234 2235 0
-2235 2251 0
-74 -2235 2236 0
-2236 2252 0
-75 -2236 0
-60 2237 0
-2237 2253 0
-61 -2237 2238 0
-2238 2254 0
-62 -2238 2239 0
-2239 2255 0
-63 -2239 2240 0
-2240 2256 0
-64 -2240 2241 0
-2241 2257 0
-65 -2241 2242 0
-2242 2258 0
-66 -2242 2243 0
-2243 2259 0
-67 -2243 2244 0
-2244 2260 0
-68 -2244 2245 0
-2245 2261 0
-69 -2245 2246 0
-2246 2262 0
-70 -2246 2247 0
-2247 2263 0
-71 -2247 2248 0
-2248 2264 0
-72 -2248 2249 0
-2249 2265 0
-73 -2249 2250 0
-2250 2266 0
-74 -2250 2251 0
-2251 2267 0
-75 -2251 2252 0
-2252 2268 0
-76 -2252 0
-61 2253 0
-2253 2269 0
-62 -2253 2254 0
-2254 2270 0
-63 -2254 2255 0
-2255 2271 0
-64 -2255 2256 0
-2256 2272 0
-65 -2256 2257 0
-2257 2273 0
-66 -2257 2258 0
-2258 2274 0
-67 -2258 2259 0
-2259 2275 0
-68 -2259 2260 0
-2260 2276 0
-69 -2260 2261 0
-2261 2277 0
-70 -2261 2262 0
-2262 2278 0
-71 -2262 2263 0
-2263 2279 0
-72 -2263 2264 0
-2264 2280 0
-73 -2264 2265 0
-2265 2281 0
-74 -2265 2266 0
-2266 2282 0
-75 -2266 2267 0
-2267 2283 0
-76 -2267 2268 0
-2268 2284 0
-77 -2268 0
-62 2269 0
-2269 2285 0
-63 -2269 2270 0
-2270 2286 0
-64 -2270 2271 0
-2271 2287 0
-65 -2271 2272 0
-2272 2288 0
-66 -2272 2273 0
-2273 2289 0
-67 -2273 2274 0
-2274 2290 0
-68 -2274 2275 0
-2275 2291 0
-69 -2275 2276 0
-2276 2292 0
-70 -2276 2277 0
-2277 2293 0
-71 -2277 2278 0
-2278 2294 0
-72 -2278 2279 0
-2279 2295 0
-73 -2279 2280 0
-2280 2296 0
-74 -2280 2281 0
-2281 2297 0
-75 -2281 2282 0
-2282 2298 0
-76 -2282 2283 0
-2283 2299 0
-77 -2283 2284 0
-2284 2300 0
-78 -2284 0
-63 2285 0
-2285 2301 0
-64 -2285 2286 0
-2286 2302 0
-65 -2286 2287 0
-2287 2303 0
-66 -2287 2288 0
-2288 2304 0
-67 -2288 2289 0
-2289 2305 0
-68 -2289 2290 0
-2290 2306 0
-69 -2290 2291 0
-2291 2307 0
-70 -2291 2292 0
-2292 2308 0
-71 -2292 2293 0
-2293 2309 0
-72 -2293 2294 0
-2294 2310 0
-73 -2294 2295 0
-2295 2311 0
-74 -2295 2296 0
-2296 2312 0
-75 -2296 2297 0
-2297 2313 0
-76 -2297 2298 0
-2298 2314 0
-77 -2298 2299 0
-2299 2315 0
-78 -2299 2300 0
-2300 2316 0
-79 -2300 0
-64 2301 0
-2301 2317 0
-65 -2301 2302 0
-2302 2318 0
-66 -2302 2303 0
-2303 2319 0
-67 -2303 2304 0
-2304 2320 0
-68 -2304 2305 0
-2305 2321 0
-69 -2305 2306 0
-2306 2322 0
-70 -2306 2307 0
-2307 2323 0
-71 -2307 2308 0
-2308 2324 0
-72 -2308 2309 0
-2309 2325 0
-73 -2309 2310 0
-2310 2326 0
-74 -2310 2311 0
-2311 2327 0
-75 -2311 2312 0
-2312 2328 0
-76 -2312 2313 0
-2313 2329 0
-77 -2313 2314 0
-2314 2330 0
-78 -2314 2315 0
-2315 2331 0
-79 -2315 2316 0
-2316 2332 0
-80 -2316 0
-65 2317 0
-2317 2333 0
-66 -2317 2318 0
-2318 2334 0
-67 -2318 2319 0
-2319 2335 0
-68 -2319 2320 0
-2320 2336 0
-69 -2320 2321 0
-2321 2337 0
-70 -2321 2322 0
-2322 2338 0
-71 -2322 2323 0
-2323 2339 0
-72 -2323 2324 0
-2324 2340 0
-73 -2324 2325 0
-2325 2341 0
-74 -2325 2326 0
-2326 2342 0
-75 -2326 2327 0
-2327 2343 0
-76 -2327 2328 0
-2328 2344 0
-77 -2328 2329 0
-2329 2345 0
-78 -2329 2330 0
-2330 2346 0
-79 -2330 2331 0
-2331 2347 0
-80 -2331 2332 0
-2332 2348 0
-81 -2332 0
-66 2333 0
-2333 2349 0
-67 -2333 2334 0
-2334 2350 0
-68 -2334 2335 0
-2335 2351 0
-69 -2335 2336 0
-2336 2352 0
-70 -2336 2337 0
-2337 2353 0
-71 -2337 2338 0
-2338 2354 0
-72 -2338 2339 0
-2339 2355 0
-73 -2339 2340 0
-2340 2356 0
-74 -2340 2341 0
-2341 2357 0
-75 -2341 2342 0
-2342 2358 0
-76 -2342 2343 0
-2343 2359 0
-77 -2343 2344 0
-2344 2360 0
-78 -2344 2345 0
-2345 2361 0
-79 -2345 2346 0
-2346 2362 0
-80 -2346 2347 0
-2347 2363 0
-81 -2347 2348 0
-2348 2364 0
-82 -2348 0
-67 2349 0
-2349 2365 0
-68 -2349 2350 0
-2350 2366 0
-69 -2350 2351 0
-2351 2367 0
-70 -2351 2352 0
-2352 2368 0
-71 -2352 2353 0
-2353 2369 0
-72 -2353 2354 0
-2354 2370 0
-73 -2354 2355 0
-2355 2371 0
-74 -2355 2356 0
-2356 2372 0
-75 -2356 2357 0
-2357 2373 0
-76 -2357 2358 0
-2358 2374 0
-77 -2358 2359 0
-2359 2375 0
-78 -2359 2360 0
-2360 2376 0
-79 -2360 2361 0
-2361 2377 0
-80 -2361 2362 0
-2362 2378 0
-81 -2362 2363 0
-2363 2379 0
-82 -2363 2364 0
-2364 2380 0
-83 -2364 0
-68 2365 0
-2365 2381 0
-69 -2365 2366 0
-2366 2382 0
-70 -2366 2367 0
-2367 2383 0
-71 -2367 2368 0
-2368 2384 0
-72 -2368 2369 0
-2369 2385 0
-73 -2369 2370 0
-2370 2386 0
-74 -2370 2371 0
-2371 2387 0
-75 -2371 2372 0
-2372 2388 0
-76 -2372 2373 0
-2373 2389 0
-77 -2373 2374 0
-2374 2390 0
-78 -2374 2375 0
-2375 2391 0
-79 -2375 2376 0
-2376 2392 0
-80 -2376 2377 0
-2377 2393 0
-81 -2377 2378 0
-2378 2394 0
-82 -2378 2379 0
-2379 2395 0
-83 -2379 2380 0
-2380 2396 0
-84 -2380 0
-69 2381 0
-2381 2397 0
-70 -2381 2382 0
-2382 2398 0
-71 -2382 2383 0
-2383 2399 0
-72 -2383 2384 0
-2384 2400 0
-73 -2384 2385 0
-2385 2401 0
-74 -2385 2386 0
-2386 2402 0
-75 -2386 2387 0
-2387 2403 0
-76 -2387 2388 0
-2388 2404 0
-77 -2388 2389 0
-2389 2405 0
-78 -2389 2390 0
-2390 2406 0
-79 -2390 2391 0
-2391 2407 0
-80 -2391 2392 0
-2392 2408 0
-81 -2392 2393 0
-2393 2409 0
-82 -2393 2394 0
-2394 2410 0
-83 -2394 2395 0
-2395 2411 0
-84 -2395 2396 0
-2396 2412 0
-85 -2396 0
-70 2397 0
-71 -2397 2398 0
-72 -2398 2399 0
-73 -2399 2400 0
-74 -2400 2401 0
-75 -2401 2402 0
-76 -2402 2403 0
-77 -2403 2404 0
-78 -2404 2405 0
-79 -2405 2406 0
-80 -2406 2407 0
-81 -2407 2408 0
-82 -2408 2409 0
-83 -2409 2410 0
-84 -2410 2411 0
-85 -2411 2412 0
-86 -2412 0
-87 2413 0
-2413 2414 0
-88 -2413 2415 0
-2415 2416 0
-89 -2415 2417 0
-2417 2418 0
-90 -2417 2419 0
-2419 2420 0
-91 -2419 2421 0
-2421 2422 0
-92 -2421 2423 0
-2423 2424 0
-93 -2423 2425 0
-2425 2426 0
-94 -2425 2427 0
-2427 2428 0
-95 -2427 2429 0
-2429 2430 0
-96 -2429 0
-88 2414 0
-2414 2431 0
-89 -2414 2416 0
-2416 2432 0
-90 -2416 2418 0
-2418 2433 0
-91 -2418 2420 0
-2420 2434 0
-92 -2420 2422 0
-2422 2435 0
-93 -2422 2424 0
-2424 2436 0
-94 -2424 2426 0
-2426 2437 0
-95 -2426 2428 0
-2428 2438 0
-96 -2428 2430 0
-2430 2439 0
-97 -2430 0
-89 2431 0
-2431 2440 0
-90 -2431 2432 0
-2432 2441 0
-91 -2432 2433 0
-2433 2442 0
-92 -2433 2434 0
-2434 2443 0
-93 -2434 2435 0
-2435 2444 0
-94 -2435 2436 0
-2436 2445 0
-95 -2436 2437 0
-2437 2446 0
-96 -2437 2438 0
-2438 2447 0
-97 -2438 2439 0
-2439 2448 0
-98 -2439 0
-90 2440 0
-2440 2449 0
-91 -2440 2441 0
-2441 2450 0
-92 -2441 2442 0
-2442 2451 0
-93 -2442 2443 0
-2443 2452 0
-94 -2443 2444 0
-2444 2453 0
-95 -2444 2445 0
-2445 2454 0
-96 -2445 2446 0
-2446 2455 0
-97 -2446 2447 0
-2447 2456 0
-98 -2447 2448 0
-2448 2457 0
-99 -2448 0
-91 2449 0
-2449 2458 0
-92 -2449 2450 0
-2450 2459 0
-93 -2450 2451 0
-2451 2460 0
-94 -2451 2452 0
-2452 2461 0
-95 -2452 2453 0
-2453 2462 0
-96 -2453 2454 0
-2454 2463 0
-97 -2454 2455 0
-2455 2464 0
-98 -2455 2456 0
-2456 2465 0
-99 -2456 2457 0
-2457 2466 0
-100 -2457 0
-92 2458 0
-2458 2467 0
-93 -2458 2459 0
-2459 2468 0
-94 -2459 2460 0
-2460 2469 0
-95 -2460 2461 0
-2461 2470 0
-96 -2461 2462 0
-2462 2471 0
-97 -2462 2463 0
-2463 2472 0
-98 -2463 2464 0
-2464 2473 0
-99 -2464 2465 0
-2465 2474 0
-100 -2465 2466 0
-2466 2475 0
-101 -2466 0
-93 2467 0
-2467 2476 0
-94 -2467 2468 0
-2468 2477 0
-95 -2468 2469 0
-2469 2478 0
-96 -2469 2470 0
-2470 2479 0
-97 -2470 2471 0
-2471 2480 0
-98 -2471 2472 0
-2472 2481 0
-99 -2472 2473 0
-2473 2482 0
-100 -2473 2474 0
-2474 2483 0
-101 -2474 2475 0
-2475 2484 0
-102 -2475 0
-94 2476 0
-2476 2485 0
-95 -2476 2477 0
-2477 2486 0
-96 -2477 2478 0
-2478 2487 0
-97 -2478 2479 0
-2479 2488 0
-98 -2479 2480 0
-2480 2489 0
-99 -2480 2481 0
-2481 2490 0
-100 -2481 2482 0
-2482 2491 0
-101 -2482 2483 0
-2483 2492 0
-102 -2483 2484 0
-2484 2493 0
-103 -2484 0
-95 2485 0
-2485 2494 0
-96 -2485 2486 0
-2486 2495 0
-97 -2486 2487 0
-2487 2496 0
-98 -2487 2488 0
-2488 2497 0
-99 -2488 2489 0
-2489 2498 0
-100 -2489 2490 0
-2490 2499 0
-101 -2490 2491 0
-2491 2500 0
-102 -2491 2492 0
-2492 2501 0
-103 -2492 2493 0
-2493 2502 0
-104 -2493 0
-96 2494 0
-2494 2503 0
-97 -2494 2495 0
-2495 2504 0
-98 -2495 2496 0
-2496 2505 0
-99 -2496 2497 0
-2497 2506 0
-100 -2497 2498 0
-2498 2507 0
-101 -2498 2499 0
-2499 2508 0
-102 -2499 2500 0
-2500 2509 0
-103 -2500 2501 0
-2501 2510 0
-104 -2501 2502 0
-2502 2511 0
-105 -2502 0
-97 2503 0
-2503 2512 0
-98 -2503 2504 0
-2504 2513 0
-99 -2504 2505 0
-2505 2514 0
-100 -2505 2506 0
-2506 2515 0
-101 -2506 2507 0
-2507 2516 0
-102 -2507 2508 0
-2508 2517 0
-103 -2508 2509 0
-2509 2518 0
-104 -2509 2510 0
-2510 2519 0
-105 -2510 2511 0
-2511 2520 0
-106 -2511 0
-98 2512 0
-2512 2521 0
-99 -2512 2513 0
-2513 2522 0
-100 -2513 2514 0
-2514 2523 0
-101 -2514 2515 0
-2515 2524 0
-102 -2515 2516 0
-2516 2525 0
-103 -2516 2517 0
-2517 2526 0
-104 -2517 2518 0
-2518 2527 0
-105 -2518 2519 0
-2519 2528 0
-106 -2519 2520 0
-2520 2529 0
-107 -2520 0
-99 2521 0
-2521 2530 0
-100 -2521 2522 0
-2522 2531 0
-101 -2522 2523 0
-2523 2532 0
-102 -2523 2524 0
-2524 2533 0
-103 -2524 2525 0
-2525 2534 0
-104 -2525 2526 0
-2526 2535 0
-105 -2526 2527 0
-2527 2536 0
-106 -2527 2528 0
-2528 2537 0
-107 -2528 2529 0
-2529 2538 0
-108 -2529 0
-100 2530 0
-2530 2539 0
-101 -2530 2531 0
-2531 2540 0
-102 -2531 2532 0
-2532 2541 0
-103 -2532 2533 0
-2533 2542 0
-104 -2533 2534 0
-2534 2543 0
-105 -2534 2535 0
-2535 2544 0
-106 -2535 2536 0
-2536 2545 0
-107 -2536 2537 0
-2537 2546 0
-108 -2537 2538 0
-2538 2547 0
-109 -2538 0
-101 2539 0
-2539 2548 0
-102 -2539 2540 0
-2540 2549 0
-103 -2540 2541 0
-2541 2550 0
-104 -2541 2542 0
-2542 2551 0
-105 -2542 2543 0
-2543 2552 0
-106 -2543 2544 0
-2544 2553 0
-107 -2544 2545 0
-2545 2554 0
-108 -2545 2546 0
-2546 2555 0
-109 -2546 2547 0
-2547 2556 0
-110 -2547 0
-102 2548 0
-2548 2557 0
-103 -2548 2549 0
-2549 2558 0
-104 -2549 2550 0
-2550 2559 0
-105 -2550 2551 0
-2551 2560 0
-106 -2551 2552 0
-2552 2561 0
-107 -2552 2553 0
-2553 2562 0
-108 -2553 2554 0
-2554 2563 0
-109 -2554 2555 0
-2555 2564 0
-110 -2555 2556 0
-2556 2565 0
-111 -2556 0
-103 2557 0
-2557 2566 0
-104 -2557 2558 0
-2558 2567 0
-105 -2558 2559 0
-2559 2568 0
-106 -2559 2560 0
-2560 2569 0
-107 -2560 2561 0
-2561 2570 0
-108 -2561 2562 0
-2562 2571 0
-109 -2562 2563 0
-2563 2572 0
-110 -2563 2564 0
-2564 2573 0
-111 -2564 2565 0
-2565 2574 0
-112 -2565 0
-104 2566 0
-2566 2575 0
-105 -2566 2567 0
-2567 2576 0
-106 -2567 2568 0
-2568 2577 0
-107 -2568 2569 0
-2569 2578 0
-108 -2569 2570 0
-2570 2579 0
-109 -2570 2571 0
-2571 2580 0
-110 -2571 2572 0
-2572 2581 0
-111 -2572 2573 0
-2573 2582 0
-112 -2573 2574 0
-2574 2583 0
-113 -2574 0
-105 2575 0
-2575 2584 0
-106 -2575 2576 0
-2576 2585 0
-107 -2576 2577 0
-2577 2586 0
-108 -2577 2578 0
-2578 2587 0
-109 -2578 2579 0
-2579 2588 0
-110 -2579 2580 0
-2580 2589 0
-111 -2580 2581 0
-2581 2590 0
-112 -2581 2582 0
-2582 2591 0
-113 -2582 2583 0
-2583 2592 0
-114 -2583 0
-106 2584 0
-2584 2593 0
-107 -2584 2585 0
-2585 2594 0
-108 -2585 2586 0
-2586 2595 0
-109 -2586 2587 0
-2587 2596 0
-110 -2587 2588 0
-2588 2597 0
-111 -2588 2589 0
-2589 2598 0
-112 -2589 2590 0
-2590 2599 0
-113 -2590 2591 0
-2591 2600 0
-114 -2591 2592 0
-2592 2601 0
-115 -2592 0
-107 2593 0
-2593 2602 0
-108 -2593 2594 0
-2594 2603 0
-109 -2594 2595 0
-2595 2604 0
-110 -2595 2596 0
-2596 2605 0
-111 -2596 2597 0
-2597 2606 0
-112 -2597 2598 0
-2598 2607 0
-113 -2598 2599 0
-2599 2608 0
-114 -2599 2600 0
-2600 2609 0
-115 -2600 2601 0
-2601 2610 0
-116 -2601 0
-108 2602 0
-2602 2611 0
-109 -2602 2603 0
-2603 2612 0
-110 -2603 2604 0
-2604 2613 0
-111 -2604 2605 0
-2605 2614 0
-112 -2605 2606 0
-2606 2615 0
-113 -2606 2607 0
-2607 2616 0
-114 -2607 2608 0
-2608 2617 0
-115 -2608 2609 0
-2609 2618 0
-116 -2609 2610 0
-2610 2619 0
-117 -2610 0
-109 2611 0
-2611 2620 0
-110 -2611 2612 0
-2612 2621 0
-111 -2612 2613 0
-2613 2622 0
-112 -2613 2614 0
-2614 2623 0
-113 -2614 2615 0
-2615 2624 0
-114 -2615 2616 0
-2616 2625 0
-115 -2616 2617 0
-2617 2626 0
-116 -2617 2618 0
-2618 2627 0
-117 -2618 2619 0
-2619 2628 0
-118 -2619 0
-110 2620 0
-2620 2629 0
-111 -2620 2621 0
-2621 2630 0
-112 -2621 2622 0
-2622 2631 0
-113 -2622 2623 0
-2623 2632 0
-114 -2623 2624 0
-2624 2633 0
-115 -2624 2625 0
-2625 2634 0
-116 -2625 2626 0
-2626 2635 0
-117 -2626 2627 0
-2627 2636 0
-118 -2627 2628 0
-2628 2637 0
-119 -2628 0
-111 2629 0
-2629 2638 0
-112 -2629 2630 0
-2630 2639 0
-113 -2630 2631 0
-2631 2640 0
-114 -2631 2632 0
-2632 2641 0
-115 -2632 2633 0
-2633 2642 0
-116 -2633 2634 0
-2634 2643 0
-117 -2634 2635 0
-2635 2644 0
-118 -2635 2636 0
-2636 2645 0
-119 -2636 2637 0
-2637 2646 0
-120 -2637 0
-112 2638 0
-2638 2647 0
-113 -2638 2639 0
-2639 2648 0
-114 -2639 2640 0
-2640 2649 0
-115 -2640 2641 0
-2641 2650 0
-116 -2641 2642 0
-2642 2651 0
-117 -2642 2643 0
-2643 2652 0
-118 -2643 2644 0
-2644 2653 0
-119 -2644 2645 0
-2645 2654 0
-120 -2645 2646 0
-2646 2655 0
-121 -2646 0
-113 2647 0
-2647 2656 0
-114 -2647 2648 0
-2648 2657 0
-115 -2648 2649 0
-2649 2658 0
-116 -2649 2650 0
-2650 2659 0
-117 -2650 2651 0
-2651 2660 0
-118 -2651 2652 0
-2652 2661 0
-119 -2652 2653 0
-2653 2662 0
-120 -2653 2654 0
-2654 2663 0
-121 -2654 2655 0
-2655 2664 0
-122 -2655 0
-114 2656 0
-2656 2665 0
-115 -2656 2657 0
-2657 2666 0
-116 -2657 2658 0
-2658 2667 0
-117 -2658 2659 0
-2659 2668 0
-118 -2659 2660 0
-2660 2669 0
-119 -2660 2661 0
-2661 2670 0
-120 -2661 2662 0
-2662 2671 0
-121 -2662 2663 0
-2663 2672 0
-122 -2663 2664 0
-2664 2673 0
-123 -2664 0
-115 2665 0
-2665 2674 0
-116 -2665 2666 0
-2666 2675 0
-117 -2666 2667 0
-2667 2676 0
-118 -2667 2668 0
-2668 2677 0
-119 -2668 2669 0
-2669 2678 0
-120 -2669 2670 0
-2670 2679 0
-121 -2670 2671 0
-2671 2680 0
-122 -2671 2672 0
-2672 2681 0
-123 -2672 2673 0
-2673 2682 0
-124 -2673 0
-116 2674 0
-2674 2683 0
-117 -2674 2675 0
-2675 2684 0
-118 -2675 2676 0
-2676 2685 0
-119 -2676 2677 0
-2677 2686 0
-120 -2677 2678 0
-2678 2687 0
-121 -2678 2679 0
-2679 2688 0
-122 -2679 2680 0
-2680 2689 0
-123 -2680 2681 0
-2681 2690 0
-124 -2681 2682 0
-2682 2691 0
-125 -2682 0
-117 2683 0
-2683 2692 0
-118 -2683 2684 0
-2684 2693 0
-119 -2684 2685 0
-2685 2694 0
-120 -2685 2686 0
-2686 2695 0
-121 -2686 2687 0
-2687 2696 0
-122 -2687 2688 0
-2688 2697 0
-123 -2688 2689 0
-2689 2698 0
-124 -2689 2690 0
-2690 2699 0
-125 -2690 2691 0
-2691 2700 0
-126 -2691 0
-118 2692 0
-2692 2701 0
-119 -2692 2693 0
-2693 2702 0
-120 -2693 2694 0
-2694 2703 0
-121 -2694 2695 0
-2695 2704 0
-122 -2695 2696 0
-2696 2705 0
-123 -2696 2697 0
-2697 2706 0
-124 -2697 2698 0
-2698 2707 0
-125 -2698 2699 0
-2699 2708 0
-126 -2699 2700 0
-2700 2709 0
-127 -2700 0
-119 2701 0
-2701 2710 0
-120 -2701 2702 0
-2702 2711 0
-121 -2702 2703 0
-2703 2712 0
-122 -2703 2704 0
-2704 2713 0
-123 -2704 2705 0
-2705 2714 0
-124 -2705 2706 0
-2706 2715 0
-125 -2706 2707 0
-2707 2716 0
-126 -2707 2708 0
-2708 2717 0
-127 -2708 2709 0
-2709 2718 0
-128 -2709 0
-120 2710 0
-2710 2719 0
-121 -2710 2711 0
-2711 2720 0
-122 -2711 2712 0
-2712 2721 0
-123 -2712 2713 0
-2713 2722 0
-124 -2713 2714 0
-2714 2723 0
-125 -2714 2715 0
-2715 2724 0
-126 -2715 2716 0
-2716 2725 0
-127 -2716 2717 0
-2717 2726 0
-128 -2717 2718 0
-2718 2727 0
-129 -2718 0
-121 2719 0
-2719 2728 0
-122 -2719 2720 0
-2720 2729 0
-123 -2720 2721 0
-2721 2730 0
-124 -2721 2722 0
-2722 2731 0
-125 -2722 2723 0
-2723 2732 0
-126 -2723 2724 0
-2724 2733 0
-127 -2724 2725 0
-2725 2734 0
-128 -2725 2726 0
-2726 2735 0
-129 -2726 2727 0
-2727 2736 0
-130 -2727 0
-122 2728 0
-2728 2737 0
-123 -2728 2729 0
-2729 2738 0
-124 -2729 2730 0
-2730 2739 0
-125 -2730 2731 0
-2731 2740 0
-126 -2731 2732 0
-2732 2741 0
-127 -2732 2733 0
-2733 2742 0
-128 -2733 2734 0
-2734 2743 0
-129 -2734 2735 0
-2735 2744 0
-130 -2735 2736 0
-2736 2745 0
-131 -2736 0
-123 2737 0
-2737 2746 0
-124 -2737 2738 0
-2738 2747 0
-125 -2738 2739 0
-2739 2748 0
-126 -2739 2740 0
-2740 2749 0
-127 -2740 2741 0
-2741 2750 0
-128 -2741 2742 0
-2742 2751 0
-129 -2742 2743 0
-2743 2752 0
-130 -2743 2744 0
-2744 2753 0
-131 -2744 2745 0
-2745 2754 0
-132 -2745 0
-124 2746 0
-2746 2755 0
-125 -2746 2747 0
-2747 2756 0
-126 -2747 2748 0
-2748 2757 0
-127 -2748 2749 0
-2749 2758 0
-128 -2749 2750 0
-2750 2759 0
-129 -2750 2751 0
-2751 2760 0
-130 -2751 2752 0
-2752 2761 0
-131 -2752 2753 0
-2753 2762 0
-132 -2753 2754 0
-2754 2763 0
-133 -2754 0
-125 2755 0
-2755 2764 0
-126 -2755 2756 0
-2756 2765 0
-127 -2756 2757 0
-2757 2766 0
-128 -2757 2758 0
-2758 2767 0
-129 -2758 2759 0
-2759 2768 0
-130 -2759 2760 0
-2760 2769 0
-131 -2760 2761 0
-2761 2770 0
-132 -2761 2762 0
-2762 2771 0
-133 -2762 2763 0
-2763 2772 0
-134 -2763 0
-126 2764 0
-2764 2773 0
-127 -2764 2765 0
-2765 2774 0
-128 -2765 2766 0
-2766 2775 0
-129 -2766 2767 0
-2767 2776 0
-130 -2767 2768 0
-2768 2777 0
-131 -2768 2769 0
-2769 2778 0
-132 -2769 2770 0
-2770 2779 0
-133 -2770 2771 0
-2771 2780 0
-134 -2771 2772 0
-2772 2781 0
-135 -2772 0
-127 2773 0
-2773 2782 0
-128 -2773 2774 0
-2774 2783 0
-129 -2774 2775 0
-2775 2784 0
-130 -2775 2776 0
-2776 2785 0
-131 -2776 2777 0
-2777 2786 0
-132 -2777 2778 0
-2778 2787 0
-133 -2778 2779 0
-2779 2788 0
-134 -2779 2780 0
-2780 2789 0
-135 -2780 2781 0
-2781 2790 0
-136 -2781 0
-128 2782 0
-2782 2791 0
-129 -2782 2783 0
-2783 2792 0
-130 -2783 2784 0
-2784 2793 0
-131 -2784 2785 0
-2785 2794 0
-132 -2785 2786 0
-2786 2795 0
-133 -2786 2787 0
-2787 2796 0
-134 -2787 2788 0
-2788 2797 0
-135 -2788 2789 0
-2789 2798 0
-136 -2789 2790 0
-2790 2799 0
-137 -2790 0
-129 2791 0
-2791 2800 0
-130 -2791 2792 0
-2792 2801 0
-131 -2792 2793 0
-2793 2802 0
-132 -2793 2794 0
-2794 2803 0
-133 -2794 2795 0
-2795 2804 0
-134 -2795 2796 0
-2796 2805 0
-135 -2796 2797 0
-2797 2806 0
-136 -2797 2798 0
-2798 2807 0
-137 -2798 2799 0
-2799 2808 0
-138 -2799 0
-130 2800 0
-2800 2809 0
-131 -2800 2801 0
-2801 2810 0
-132 -2801 2802 0
-2802 2811 0
-133 -2802 2803 0
-2803 2812 0
-134 -2803 2804 0
-2804 2813 0
-135 -2804 2805 0
-2805 2814 0
-136 -2805 2806 0
-2806 2815 0
-137 -2806 2807 0
-2807 2816 0
-138 -2807 2808 0
-2808 2817 0
-139 -2808 0
-131 2809 0
-2809 2818 0
-132 -2809 2810 0
-2810 2819 0
-133 -2810 2811 0
-2811 2820 0
-134 -2811 2812 0
-2812 2821 0
-135 -2812 2813 0
-2813 2822 0
-136 -2813 2814 0
-2814 2823 0
-137 -2814 2815 0
-2815 2824 0
-138 -2815 2816 0
-2816 2825 0
-139 -2816 2817 0
-2817 2826 0
-140 -2817 0
-132 2818 0
-2818 2827 0
-133 -2818 2819 0
-2819 2828 0
-134 -2819 2820 0
-2820 2829 0
-135 -2820 2821 0
-2821 2830 0
-136 -2821 2822 0
-2822 2831 0
-137 -2822 2823 0
-2823 2832 0
-138 -2823 2824 0
-2824 2833 0
-139 -2824 2825 0
-2825 2834 0
-140 -2825 2826 0
-2826 2835 0
-141 -2826 0
-133 2827 0
-2827 2836 0
-134 -2827 2828 0
-2828 2837 0
-135 -2828 2829 0
-2829 2838 0
-136 -2829 2830 0
-2830 2839 0
-137 -2830 2831 0
-2831 2840 0
-138 -2831 2832 0
-2832 2841 0
-139 -2832 2833 0
-2833 2842 0
-140 -2833 2834 0
-2834 2843 0
-141 -2834 2835 0
-2835 2844 0
-142 -2835 0
-134 2836 0
-2836 2845 0
-135 -2836 2837 0
-2837 2846 0
-136 -2837 2838 0
-2838 2847 0
-137 -2838 2839 0
-2839 2848 0
-138 -2839 2840 0
-2840 2849 0
-139 -2840 2841 0
-2841 2850 0
-140 -2841 2842 0
-2842 2851 0
-141 -2842 2843 0
-2843 2852 0
-142 -2843 2844 0
-2844 2853 0
-143 -2844 0
-135 2845 0
-2845 2854 0
-136 -2845 2846 0
-2846 2855 0
-137 -2846 2847 0
-2847 2856 0
-138 -2847 2848 0
-2848 2857 0
-139 -2848 2849 0
-2849 2858 0
-140 -2849 2850 0
-2850 2859 0
-141 -2850 2851 0
-2851 2860 0
-142 -2851 2852 0
-2852 2861 0
-143 -2852 2853 0
-2853 2862 0
-144 -2853 0
-136 2854 0
-2854 2863 0
-137 -2854 2855 0
-2855 2864 0
-138 -2855 2856 0
-2856 2865 0
-139 -2856 2857 0
-2857 2866 0
-140 -2857 2858 0
-2858 2867 0
-141 -2858 2859 0
-2859 2868 0
-142 -2859 2860 0
-2860 2869 0
-143 -2860 2861 0
-2861 2870 0
-144 -2861 2862 0
-2862 2871 0
-145 -2862 0
-137 2863 0
-2863 2872 0
-138 -2863 2864 0
-2864 2873 0
-139 -2864 2865 0
-2865 2874 0
-140 -2865 2866 0
-2866 2875 0
-141 -2866 2867 0
-2867 2876 0
-142 -2867 2868 0
-2868 2877 0
-143 -2868 2869 0
-2869 2878 0
-144 -2869 2870 0
-2870 2879 0
-145 -2870 2871 0
-2871 2880 0
-146 -2871 0
-138 2872 0
-2872 2881 0
-139 -2872 2873 0
-2873 2882 0
-140 -2873 2874 0
-2874 2883 0
-141 -2874 2875 0
-2875 2884 0
-142 -2875 2876 0
-2876 2885 0
-143 -2876 2877 0
-2877 2886 0
-144 -2877 2878 0
-2878 2887 0
-145 -2878 2879 0
-2879 2888 0
-146 -2879 2880 0
-2880 2889 0
-147 -2880 0
-139 2881 0
-2881 2890 0
-140 -2881 2882 0
-2882 2891 0
-141 -2882 2883 0
-2883 2892 0
-142 -2883 2884 0
-2884 2893 0
-143 -2884 2885 0
-2885 2894 0
-144 -2885 2886 0
-2886 2895 0
-145 -2886 2887 0
-2887 2896 0
-146 -2887 2888 0
-2888 2897 0
-147 -2888 2889 0
-2889 2898 0
-148 -2889 0
-140 2890 0
-2890 2899 0
-141 -2890 2891 0
-2891 2900 0
-142 -2891 2892 0
-2892 2901 0
-143 -2892 2893 0
-2893 2902 0
-144 -2893 2894 0
-2894 2903 0
-145 -2894 2895 0
-2895 2904 0
-146 -2895 2896 0
-2896 2905 0
-147 -2896 2897 0
-2897 2906 0
-148 -2897 2898 0
-2898 2907 0
-149 -2898 0
-141 2899 0
-2899 2908 0
-142 -2899 2900 0
-2900 2909 0
-143 -2900 2901 0
-2901 2910 0
-144 -2901 2902 0
-2902 2911 0
-145 -2902 2903 0
-2903 2912 0
-146 -2903 2904 0
-2904 2913 0
-147 -2904 2905 0
-2905 2914 0
-148 -2905 2906 0
-2906 2915 0
-149 -2906 2907 0
-2907 2916 0
-150 -2907 0
-142 2908 0
-2908 2917 0
-143 -2908 2909 0
-2909 2918 0
-144 -2909 2910 0
-2910 2919 0
-145 -2910 2911 0
-2911 2920 0
-146 -2911 2912 0
-2912 2921 0
-147 -2912 2913 0
-2913 2922 0
-148 -2913 2914 0
-2914 2923 0
-149 -2914 2915 0
-2915 2924 0
-150 -2915 2916 0
-2916 2925 0
-151 -2916 0
-143 2917 0
-2917 2926 0
-144 -2917 2918 0
-2918 2927 0
-145 -2918 2919 0
-2919 2928 0
-146 -2919 2920 0
-2920 2929 0
-147 -2920 2921 0
-2921 2930 0
-148 -2921 2922 0
-2922 2931 0
-149 -2922 2923 0
-2923 2932 0
-150 -2923 2924 0
-2924 2933 0
-151 -2924 2925 0
-2925 2934 0
-152 -2925 0
-144 2926 0
-2926 2935 0
-145 -2926 2927 0
-2927 2936 0
-146 -2927 2928 0
-2928 2937 0
-147 -2928 2929 0
-2929 2938 0
-148 -2929 2930 0
-2930 2939 0
-149 -2930 2931 0
-2931 2940 0
-150 -2931 2932 0
-2932 2941 0
-151 -2932 2933 0
-2933 2942 0
-152 -2933 2934 0
-2934 2943 0
-153 -2934 0
-145 2935 0
-2935 2944 0
-146 -2935 2936 0
-2936 2945 0
-147 -2936 2937 0
-2937 2946 0
-148 -2937 2938 0
-2938 2947 0
-149 -2938 2939 0
-2939 2948 0
-150 -2939 2940 0
-2940 2949 0
-151 -2940 2941 0
-2941 2950 0
-152 -2941 2942 0
-2942 2951 0
-153 -2942 2943 0
-2943 2952 0
-154 -2943 0
-146 2944 0
-2944 2953 0
-147 -2944 2945 0
-2945 2954 0
-148 -2945 2946 0
-2946 2955 0
-149 -2946 2947 0
-2947 2956 0
-150 -2947 2948 0
-2948 2957 0
-151 -2948 2949 0
-2949 2958 0
-152 -2949 2950 0
-2950 2959 0
-153 -2950 2951 0
-2951 2960 0
-154 -2951 2952 0
-2952 2961 0
-155 -2952 0
-147 2953 0
-2953 2962 0
-148 -2953 2954 0
-2954 2963 0
-149 -2954 2955 0
-2955 2964 0
-150 -2955 2956 0
-2956 2965 0
-151 -2956 2957 0
-2957 2966 0
-152 -2957 2958 0
-2958 2967 0
-153 -2958 2959 0
-2959 2968 0
-154 -2959 2960 0
-2960 2969 0
-155 -2960 2961 0
-2961 2970 0
-156 -2961 0
-148 2962 0
-2962 2971 0
-149 -2962 2963 0
-2963 2972 0
-150 -2963 2964 0
-2964 2973 0
-151 -2964 2965 0
-2965 2974 0
-152 -2965 2966 0
-2966 2975 0
-153 -2966 2967 0
-2967 2976 0
-154 -2967 2968 0
-2968 2977 0
-155 -2968 2969 0
-2969 2978 0
-156 -2969 2970 0
-2970 2979 0
-157 -2970 0
-149 2971 0
-2971 2980 0
-150 -2971 2972 0
-2972 2981 0
-151 -2972 2973 0
-2973 2982 0
-152 -2973 2974 0
-2974 2983 0
-153 -2974 2975 0
-2975 2984 0
-154 -2975 2976 0
-2976 2985 0
-155 -2976 2977 0
-2977 2986 0
-156 -2977 2978 0
-2978 2987 0
-157 -2978 2979 0
-2979 2988 0
-158 -2979 0
-150 2980 0
-2980 2989 0
-151 -2980 2981 0
-2981 2990 0
-152 -2981 2982 0
-2982 2991 0
-153 -2982 2983 0
-2983 2992 0
-154 -2983 2984 0
-2984 2993 0
-155 -2984 2985 0
-2985 2994 0
-156 -2985 2986 0
-2986 2995 0
-157 -2986 2987 0
-2987 2996 0
-158 -2987 2988 0
-2988 2997 0
-159 -2988 0
-151 2989 0
-2989 2998 0
-152 -2989 2990 0
-2990 2999 0
-153 -2990 2991 0
-2991 3000 0
-154 -2991 2992 0
-2992 3001 0
-155 -2992 2993 0
-2993 3002 0
-156 -2993 2994 0
-2994 3003 0
-157 -2994 2995 0
-2995 3004 0
-158 -2995 2996 0
-2996 3005 0
-159 -2996 2997 0
-2997 3006 0
-160 -2997 0
-152 2998 0
-2998 3007 0
-153 -2998 2999 0
-2999 3008 0
-154 -2999 3000 0
-3000 3009 0
-155 -3000 3001 0
-3001 3010 0
-156 -3001 3002 0
-3002 3011 0
-157 -3002 3003 0
-3003 3012 0
-158 -3003 3004 0
-3004 3013 0
-159 -3004 3005 0
-3005 3014 0
-160 -3005 3006 0
-3006 3015 0
-161 -3006 0
-153 3007 0
-3007 3016 0
-154 -3007 3008 0
-3008 3017 0
-155 -3008 3009 0
-3009 3018 0
-156 -3009 3010 0
-3010 3019 0
-157 -3010 3011 0
-3011 3020 0
-158 -3011 3012 0
-3012 3021 0
-159 -3012 3013 0
-3013 3022 0
-160 -3013 3014 0
-3014 3023 0
-161 -3014 3015 0
-3015 3024 0
-162 -3015 0
-154 3016 0
-3016 3025 0
-155 -3016 3017 0
-3017 3026 0
-156 -3017 3018 0
-3018 3027 0
-157 -3018 3019 0
-3019 3028 0
-158 -3019 3020 0
-3020 3029 0
-159 -3020 3021 0
-3021 3030 0
-160 -3021 3022 0
-3022 3031 0
-161 -3022 3023 0
-3023 3032 0
-162 -3023 3024 0
-3024 3033 0
-163 -3024 0
-155 3025 0
-3025 3034 0
-156 -3025 3026 0
-3026 3035 0
-157 -3026 3027 0
-3027 3036 0
-158 -3027 3028 0
-3028 3037 0
-159 -3028 3029 0
-3029 3038 0
-160 -3029 3030 0
-3030 3039 0
-161 -3030 3031 0
-3031 3040 0
-162 -3031 3032 0
-3032 3041 0
-163 -3032 3033 0
-3033 3042 0
-164 -3033 0
-156 3034 0
-3034 3043 0
-157 -3034 3035 0
-3035 3044 0
-158 -3035 3036 0
-3036 3045 0
-159 -3036 3037 0
-3037 3046 0
-160 -3037 3038 0
-3038 3047 0
-161 -3038 3039 0
-3039 3048 0
-162 -3039 3040 0
-3040 3049 0
-163 -3040 3041 0
-3041 3050 0
-164 -3041 3042 0
-3042 3051 0
-165 -3042 0
-157 3043 0
-3043 3052 0
-158 -3043 3044 0
-3044 3053 0
-159 -3044 3045 0
-3045 3054 0
-160 -3045 3046 0
-3046 3055 0
-161 -3046 3047 0
-3047 3056 0
-162 -3047 3048 0
-3048 3057 0
-163 -3048 3049 0
-3049 3058 0
-164 -3049 3050 0
-3050 3059 0
-165 -3050 3051 0
-3051 3060 0
-166 -3051 0
-158 3052 0
-3052 3061 0
-159 -3052 3053 0
-3053 3062 0
-160 -3053 3054 0
-3054 3063 0
-161 -3054 3055 0
-3055 3064 0
-162 -3055 3056 0
-3056 3065 0
-163 -3056 3057 0
-3057 3066 0
-164 -3057 3058 0
-3058 3067 0
-165 -3058 3059 0
-3059 3068 0
-166 -3059 3060 0
-3060 3069 0
-167 -3060 0
-159 3061 0
-3061 3070 0
-160 -3061 3062 0
-3062 3071 0
-161 -3062 3063 0
-3063 3072 0
-162 -3063 3064 0
-3064 3073 0
-163 -3064 3065 0
-3065 3074 0
-164 -3065 3066 0
-3066 3075 0
-165 -3066 3067 0
-3067 3076 0
-166 -3067 3068 0
-3068 3077 0
-167 -3068 3069 0
-3069 3078 0
-168 -3069 0
-160 3070 0
-3070 3079 0
-161 -3070 3071 0
-3071 3080 0
-162 -3071 3072 0
-3072 3081 0
-163 -3072 3073 0
-3073 3082 0
-164 -3073 3074 0
-3074 3083 0
-165 -3074 3075 0
-3075 3084 0
-166 -3075 3076 0
-3076 3085 0
-167 -3076 3077 0
-3077 3086 0
-168 -3077 3078 0
-3078 3087 0
-169 -3078 0
-161 3079 0
-3079 3088 0
-162 -3079 3080 0
-3080 3089 0
-163 -3080 3081 0
-3081 3090 0
-164 -3081 3082 0
-3082 3091 0
-165 -3082 3083 0
-3083 3092 0
-166 -3083 3084 0
-3084 3093 0
-167 -3084 3085 0
-3085 3094 0
-168 -3085 3086 0
-3086 3095 0
-169 -3086 3087 0
-3087 3096 0
-170 -3087 0
-162 3088 0
-3088 3097 0
-163 -3088 3089 0
-3089 3098 0
-164 -3089 3090 0
-3090 3099 0
-165 -3090 3091 0
-3091 3100 0
-166 -3091 3092 0
-3092 3101 0
-167 -3092 3093 0
-3093 3102 0
-168 -3093 3094 0
-3094 3103 0
-169 -3094 3095 0
-3095 3104 0
-170 -3095 3096 0
-3096 3105 0
-171 -3096 0
-163 3097 0
-164 -3097 3098 0
-165 -3098 3099 0
-166 -3099 3100 0
-167 -3100 3101 0
-168 -3101 3102 0
-169 -3102 3103 0
-170 -3103 3104 0
-171 -3104 3105 0
-172 -3105 0
1 44 0
