p cnf 5771 11821
-149 -1 0
-149 2 74 75 0
-2 1 149 0
-74 1 149 0
-75 1 149 0
-150 -2 0
-150 1 3 76 0
-1 2 150 0
-3 2 150 0
-76 2 150 0
-151 -3 0
-151 2 4 77 0
-2 3 151 0
-4 3 151 0
-77 3 151 0
-152 -4 0
-152 3 5 78 0
-3 4 152 0
-5 4 152 0
-78 4 152 0
-153 -5 0
-153 4 6 79 0
-4 5 153 0
-6 5 153 0
-79 5 153 0
-154 -6 0
-154 5 7 80 0
-5 6 154 0
-7 6 154 0
-80 6 154 0
-155 -7 0
-155 6 8 81 0
-6 7 155 0
-8 7 155 0
-81 7 155 0
-156 -8 0
-156 7 9 82 0
-7 8 156 0
-9 8 156 0
-82 8 156 0
-157 -9 0
-157 8 10 83 0
-8 9 157 0
-10 9 157 0
-83 9 157 0
-158 -10 0
-158 9 11 84 0
-9 10 158 0
-11 10 158 0
-84 10 158 0
-159 -11 0
-159 10 12 85 0
-10 11 159 0
-12 11 159 0
-85 11 159 0
-160 -12 0
-160 11 13 86 0
-11 12 160 0
-13 12 160 0
-86 12 160 0
-161 -13 0
-161 12 14 87 0
-12 13 161 0
-14 13 161 0
-87 13 161 0
-162 -14 0
-162 13 15 88 0
-13 14 162 0
-15 14 162 0
-88 14 162 0
-163 -15 0
-163 14 16 89 0
-14 15 163 0
-16 15 163 0
-89 15 163 0
-164 -16 0
-164 15 17 90 0
-15 16 164 0
-17 16 164 0
-90 16 164 0
-165 -17 0
-165 16 18 91 0
-16 17 165 0
-18 17 165 0
-91 17 165 0
-166 -18 0
-166 17 19 92 0
-17 18 166 0
-19 18 166 0
-92 18 166 0
-167 -19 0
-167 18 20 93 0
-18 19 167 0
-20 19 167 0
-93 19 167 0
-168 -20 0
-168 19 21 94 0
-19 20 168 0
-21 20 168 0
-94 20 168 0
-169 -21 0
-169 20 22 95 0
-20 21 169 0
-22 21 169 0
-95 21 169 0
-170 -22 0
-170 21 23 96 0
-21 22 170 0
-23 22 170 0
-96 22 170 0
-171 -23 0
-171 22 24 97 0
-22 23 171 0
-24 23 171 0
-97 23 171 0
-172 -24 0
-172 23 25 98 0
-23 24 172 0
-25 24 172 0
-98 24 172 0
-173 -25 0
-173 24 26 99 0
-24 25 173 0
-26 25 173 0
-99 25 173 0
-174 -26 0
-174 25 27 100 0
-25 26 174 0
-27 26 174 0
-100 26 174 0
-175 -27 0
-175 26 28 101 0
-26 27 175 0
-28 27 175 0
-101 27 175 0
-176 -28 0
-176 27 29 102 0
-27 28 176 0
-29 28 176 0
-102 28 176 0
-177 -29 0
-177 28 30 103 0
-28 29 177 0
-30 29 177 0
-103 29 177 0
-178 -30 0
-178 29 31 104 0
-29 30 178 0
-31 30 178 0
-104 30 178 0
-179 -31 0
-179 30 32 105 0
-30 31 179 0
-32 31 179 0
-105 31 179 0
-180 -32 0
-180 31 33 106 0
-31 32 180 0
-33 32 180 0
-106 32 180 0
-181 -33 0
-181 32 34 107 0
-32 33 181 0
-34 33 181 0
-107 33 181 0
-182 -34 0
-182 33 35 108 0
-33 34 182 0
-35 34 182 0
-108 34 182 0
-183 -35 0
-183 34 36 109 0
-34 35 183 0
-36 35 183 0
-109 35 183 0
-184 -36 0
-184 35 37 110 0
-35 36 184 0
-37 36 184 0
-110 36 184 0
-185 -37 0
-185 36 38 111 0
-36 37 185 0
-38 37 185 0
-111 37 185 0
-186 -38 0
-186 37 39 112 0
-37 38 186 0
-39 38 186 0
-112 38 186 0
-187 -39 0
-187 38 40 113 0
-38 39 187 0
-40 39 187 0
-113 39 187 0
-188 -40 0
-188 39 41 114 0
-39 40 188 0
-41 40 188 0
-114 40 188 0
-189 -41 0
-189 40 42 115 0
-40 41 189 0
-42 41 189 0
-115 41 189 0
-190 -42 0
-190 41 43 116 0
-41 42 190 0
-43 42 190 0
-116 42 190 0
-191 -43 0
-191 42 44 117 0
-42 43 191 0
-44 43 191 0
-117 43 191 0
-192 -44 0
-192 43 45 118 0
-43 44 192 0
-45 44 192 0
-118 44 192 0
-193 -45 0
-193 44 46 119 0
-44 45 193 0
-46 45 193 0
-119 45 193 0
-194 -46 0
-194 45 47 120 0
-45 46 194 0
-47 46 194 0
-120 46 194 0
-195 -47 0
-195 46 48 121 0
-46 47 195 0
-48 47 195 0
-121 47 195 0
-196 -48 0
-196 47 49 122 0
-47 48 196 0
-49 48 196 0
-122 48 196 0
-197 -49 0
-197 48 50 123 0
-48 49 197 0
-50 49 197 0
-123 49 197 0
-198 -50 0
-198 49 51 124 0
-49 50 198 0
-51 50 198 0
-124 50 198 0
-199 -51 0
-199 50 52 125 0
-50 51 199 0
-52 51 199 0
-125 51 199 0
-200 -52 0
-200 51 53 126 0
-51 52 200 0
-53 52 200 0
-126 52 200 0
-201 -53 0
-201 52 54 127 0
-52 53 201 0
-54 53 201 0
-127 53 201 0
-202 -54 0
-202 53 55 128 0
-53 54 202 0
-55 54 202 0
-128 54 202 0
-203 -55 0
-203 54 56 129 0
-54 55 203 0
-56 55 203 0
-129 55 203 0
-204 -56 0
-204 55 57 130 0
-55 56 204 0
-57 56 204 0
-130 56 204 0
-205 -57 0
-205 56 58 131 0
-56 57 205 0
-58 57 205 0
-131 57 205 0
-206 -58 0
-206 57 59 132 0
-57 58 206 0
-59 58 206 0
-132 58 206 0
-207 -59 0
-207 58 60 133 0
-58 59 207 0
-60 59 207 0
-133 59 207 0
-208 -60 0
-208 59 61 134 0
-59 60 208 0
-61 60 208 0
-134 60 208 0
-209 -61 0
-209 60 62 135 0
-60 61 209 0
-62 61 209 0
-135 61 209 0
-210 -62 0
-210 61 63 136 0
-61 62 210 0
-63 62 210 0
-136 62 210 0
-211 -63 0
-211 62 64 137 0
-62 63 211 0
-64 63 211 0
-137 63 211 0
-212 -64 0
-212 63 65 138 0
-63 64 212 0
-65 64 212 0
-138 64 212 0
-213 -65 0
-213 64 66 139 0
-64 65 213 0
-66 65 213 0
-139 65 213 0
-214 -66 0
-214 65 67 140 0
-65 66 214 0
-67 66 214 0
-140 66 214 0
-215 -67 0
-215 66 68 141 0
-66 67 215 0
-68 67 215 0
-141 67 215 0
-216 -68 0
-216 67 69 142 0
-67 68 216 0
-69 68 216 0
-142 68 216 0
-217 -69 0
-217 68 70 143 0
-68 69 217 0
-70 69 217 0
-143 69 217 0
-218 -70 0
-218 69 71 144 0
-69 70 218 0
-71 70 218 0
-144 70 218 0
-219 -71 0
-219 70 72 145 0
-70 71 219 0
-72 71 219 0
-145 71 219 0
-220 -72 0
-220 71 73 146 0
-71 72 220 0
-73 72 220 0
-146 72 220 0
-221 -73 0
-221 72 74 147 0
-72 73 221 0
-74 73 221 0
-147 73 221 0
-222 -74 0
-222 1 73 148 0
-1 74 222 0
-73 74 222 0
-148 74 222 0
-223 -75 0
-223 1 79 145 0
-1 75 223 0
-79 75 223 0
-145 75 223 0
-224 -76 0
-224 2 80 146 0
-2 76 224 0
-80 76 224 0
-146 76 224 0
-225 -77 0
-225 3 81 147 0
-3 77 225 0
-81 77 225 0
-147 77 225 0
-226 -78 0
-226 4 82 148 0
-4 78 226 0
-82 78 226 0
-148 78 226 0
-227 -79 0
-227 5 75 83 0
-5 79 227 0
-75 79 227 0
-83 79 227 0
-228 -80 0
-228 6 76 84 0
-6 80 228 0
-76 80 228 0
-84 80 228 0
-229 -81 0
-229 7 77 85 0
-7 81 229 0
-77 81 229 0
-85 81 229 0
-230 -82 0
-230 8 78 86 0
-8 82 230 0
-78 82 230 0
-86 82 230 0
-231 -83 0
-231 9 79 87 0
-9 83 231 0
-79 83 231 0
-87 83 231 0
-232 -84 0
-232 10 80 88 0
-10 84 232 0
-80 84 232 0
-88 84 232 0
-233 -85 0
-233 11 81 89 0
-11 85 233 0
-81 85 233 0
-89 85 233 0
-234 -86 0
-234 12 82 90 0
-12 86 234 0
-82 86 234 0
-90 86 234 0
-235 -87 0
-235 13 83 91 0
-13 87 235 0
-83 87 235 0
-91 87 235 0
-236 -88 0
-236 14 84 92 0
-14 88 236 0
-84 88 236 0
-92 88 236 0
-237 -89 0
-237 15 85 93 0
-15 89 237 0
-85 89 237 0
-93 89 237 0
-238 -90 0
-238 16 86 94 0
-16 90 238 0
-86 90 238 0
-94 90 238 0
-239 -91 0
-239 17 87 95 0
-17 91 239 0
-87 91 239 0
-95 91 239 0
-240 -92 0
-240 18 88 96 0
-18 92 240 0
-88 92 240 0
-96 92 240 0
-241 -93 0
-241 19 89 97 0
-19 93 241 0
-89 93 241 0
-97 93 241 0
-242 -94 0
-242 20 90 98 0
-20 94 242 0
-90 94 242 0
-98 94 242 0
-243 -95 0
-243 21 91 99 0
-21 95 243 0
-91 95 243 0
-99 95 243 0
-244 -96 0
-244 22 92 100 0
-22 96 244 0
-92 96 244 0
-100 96 244 0
-245 -97 0
-245 23 93 101 0
-23 97 245 0
-93 97 245 0
-101 97 245 0
-246 -98 0
-246 24 94 102 0
-24 98 246 0
-94 98 246 0
-102 98 246 0
-247 -99 0
-247 25 95 103 0
-25 99 247 0
-95 99 247 0
-103 99 247 0
-248 -100 0
-248 26 96 104 0
-26 100 248 0
-96 100 248 0
-104 100 248 0
-249 -101 0
-249 27 97 105 0
-27 101 249 0
-97 101 249 0
-105 101 249 0
-250 -102 0
-250 28 98 106 0
-28 102 250 0
-98 102 250 0
-106 102 250 0
-251 -103 0
-251 29 99 107 0
-29 103 251 0
-99 103 251 0
-107 103 251 0
-252 -104 0
-252 30 100 108 0
-30 104 252 0
-100 104 252 0
-108 104 252 0
-253 -105 0
-253 31 101 109 0
-31 105 253 0
-101 105 253 0
-109 105 253 0
-254 -106 0
-254 32 102 110 0
-32 106 254 0
-102 106 254 0
-110 106 254 0
-255 -107 0
-255 33 103 111 0
-33 107 255 0
-103 107 255 0
-111 107 255 0
-256 -108 0
-256 34 104 112 0
-34 108 256 0
-104 108 256 0
-112 108 256 0
-257 -109 0
-257 35 105 113 0
-35 109 257 0
-105 109 257 0
-113 109 257 0
-258 -110 0
-258 36 106 114 0
-36 110 258 0
-106 110 258 0
-114 110 258 0
-259 -111 0
-259 37 107 115 0
-37 111 259 0
-107 111 259 0
-115 111 259 0
-260 -112 0
-260 38 108 116 0
-38 112 260 0
-108 112 260 0
-116 112 260 0
-261 -113 0
-261 39 109 117 0
-39 113 261 0
-109 113 261 0
-117 113 261 0
-262 -114 0
-262 40 110 118 0
-40 114 262 0
-110 114 262 0
-118 114 262 0
-263 -115 0
-263 41 111 119 0
-41 115 263 0
-111 115 263 0
-119 115 263 0
-264 -116 0
-264 42 112 120 0
-42 116 264 0
-112 116 264 0
-120 116 264 0
-265 -117 0
-265 43 113 121 0
-43 117 265 0
-113 117 265 0
-121 117 265 0
-266 -118 0
-266 44 114 122 0
-44 118 266 0
-114 118 266 0
-122 118 266 0
-267 -119 0
-267 45 115 123 0
-45 119 267 0
-115 119 267 0
-123 119 267 0
-268 -120 0
-268 46 116 124 0
-46 120 268 0
-116 120 268 0
-124 120 268 0
-269 -121 0
-269 47 117 125 0
-47 121 269 0
-117 121 269 0
-125 121 269 0
-270 -122 0
-270 48 118 126 0
-48 122 270 0
-118 122 270 0
-126 122 270 0
-271 -123 0
-271 49 119 127 0
-49 123 271 0
-119 123 271 0
-127 123 271 0
-272 -124 0
-272 50 120 128 0
-50 124 272 0
-120 124 272 0
-128 124 272 0
-273 -125 0
-273 51 121 129 0
-51 125 273 0
-121 125 273 0
-129 125 273 0
-274 -126 0
-274 52 122 130 0
-52 126 274 0
-122 126 274 0
-130 126 274 0
-275 -127 0
-275 53 123 131 0
-53 127 275 0
-123 127 275 0
-131 127 275 0
-276 -128 0
-276 54 124 132 0
-54 128 276 0
-124 128 276 0
-132 128 276 0
-277 -129 0
-277 55 125 133 0
-55 129 277 0
-125 129 277 0
-133 129 277 0
-278 -130 0
-278 56 126 134 0
-56 130 278 0
-126 130 278 0
-134 130 278 0
-279 -131 0
-279 57 127 135 0
-57 131 279 0
-127 131 279 0
-135 131 279 0
-280 -132 0
-280 58 128 136 0
-58 132 280 0
-128 132 280 0
-136 132 280 0
-281 -133 0
-281 59 129 137 0
-59 133 281 0
-129 133 281 0
-137 133 281 0
-282 -134 0
-282 60 130 138 0
-60 134 282 0
-130 134 282 0
-138 134 282 0
-283 -135 0
-283 61 131 139 0
-61 135 283 0
-131 135 283 0
-139 135 283 0
-284 -136 0
-284 62 132 140 0
-62 136 284 0
-132 136 284 0
-140 136 284 0
-285 -137 0
-285 63 133 141 0
-63 137 285 0
-133 137 285 0
-141 137 285 0
-286 -138 0
-286 64 134 142 0
-64 138 286 0
-134 138 286 0
-142 138 286 0
-287 -139 0
-287 65 135 143 0
-65 139 287 0
-135 139 287 0
-143 139 287 0
-288 -140 0
-288 66 136 144 0
-66 140 288 0
-136 140 288 0
-144 140 288 0
-289 -141 0
-289 67 137 145 0
-67 141 289 0
-137 141 289 0
-145 141 289 0
-290 -142 0
-290 68 138 146 0
-68 142 290 0
-138 142 290 0
-146 142 290 0
-291 -143 0
-291 69 139 147 0
-69 143 291 0
-139 143 291 0
-147 143 291 0
-292 -144 0
-292 70 140 148 0
-70 144 292 0
-140 144 292 0
-148 144 292 0
-293 -145 0
-293 71 75 141 0
-71 145 293 0
-75 145 293 0
-141 145 293 0
-294 -146 0
-294 72 76 142 0
-72 146 294 0
-76 146 294 0
-142 146 294 0
-295 -147 0
-295 73 77 143 0
-73 147 295 0
-77 147 295 0
-143 147 295 0
-296 -148 0
-296 74 78 144 0
-74 148 296 0
-78 148 296 0
-144 148 296 0
1 297 0
-297 298 0
2 -297 299 0
-299 300 0
3 -299 301 0
-301 302 0
4 -301 303 0
-303 304 0
5 -303 305 0
-305 306 0
6 -305 307 0
-307 308 0
7 -307 309 0
-309 310 0
8 -309 311 0
-311 312 0
9 -311 313 0
-313 314 0
10 -313 315 0
-315 316 0
11 -315 317 0
-317 318 0
12 -317 319 0
-319 320 0
13 -319 321 0
-321 322 0
14 -321 323 0
-323 324 0
15 -323 325 0
-325 326 0
16 -325 327 0
-327 328 0
17 -327 329 0
-329 330 0
18 -329 331 0
-331 332 0
19 -331 333 0
-333 334 0
20 -333 335 0
-335 336 0
21 -335 337 0
-337 338 0
22 -337 339 0
-339 340 0
23 -339 341 0
-341 342 0
24 -341 343 0
-343 344 0
25 -343 345 0
-345 346 0
26 -345 347 0
-347 348 0
27 -347 349 0
-349 350 0
28 -349 351 0
-351 352 0
29 -351 353 0
-353 354 0
30 -353 355 0
-355 356 0
31 -355 357 0
-357 358 0
32 -357 359 0
-359 360 0
33 -359 361 0
-361 362 0
34 -361 363 0
-363 364 0
35 -363 365 0
-365 366 0
36 -365 367 0
-367 368 0
37 -367 369 0
-369 370 0
38 -369 371 0
-371 372 0
39 -371 373 0
-373 374 0
40 -373 375 0
-375 376 0
41 -375 377 0
-377 378 0
42 -377 379 0
-379 380 0
43 -379 381 0
-381 382 0
44 -381 383 0
-383 384 0
45 -383 385 0
-385 386 0
46 -385 387 0
-387 388 0
47 -387 389 0
-389 390 0
48 -389 391 0
-391 392 0
49 -391 393 0
-393 394 0
50 -393 395 0
-395 396 0
51 -395 397 0
-397 398 0
52 -397 399 0
-399 400 0
53 -399 401 0
-401 402 0
54 -401 403 0
-403 404 0
55 -403 405 0
-405 406 0
56 -405 407 0
-407 408 0
57 -407 409 0
-409 410 0
58 -409 411 0
-411 412 0
59 -411 413 0
-413 414 0
60 -413 415 0
-415 416 0
61 -415 417 0
-417 418 0
62 -417 419 0
-419 420 0
63 -419 421 0
-421 422 0
64 -421 423 0
-423 424 0
65 -423 425 0
-425 426 0
66 -425 427 0
-427 428 0
67 -427 429 0
-429 430 0
68 -429 431 0
-431 432 0
69 -431 433 0
-433 434 0
70 -433 435 0
-435 436 0
71 -435 437 0
-437 438 0
72 -437 439 0
-439 440 0
73 -439 441 0
-441 442 0
74 -441 443 0
-443 444 0
75 -443 445 0
-445 446 0
76 -445 447 0
-447 448 0
77 -447 449 0
-449 450 0
78 -449 451 0
-451 452 0
79 -451 453 0
-453 454 0
80 -453 455 0
-455 456 0
81 -455 457 0
-457 458 0
82 -457 459 0
-459 460 0
83 -459 461 0
-461 462 0
84 -461 463 0
-463 464 0
85 -463 465 0
-465 466 0
86 -465 467 0
-467 468 0
87 -467 469 0
-469 470 0
88 -469 471 0
-471 472 0
89 -471 473 0
-473 474 0
90 -473 475 0
-475 476 0
91 -475 477 0
-477 478 0
92 -477 479 0
-479 480 0
93 -479 481 0
-481 482 0
94 -481 483 0
-483 484 0
95 -483 485 0
-485 486 0
96 -485 487 0
-487 488 0
97 -487 489 0
-489 490 0
98 -489 491 0
-491 492 0
99 -491 493 0
-493 494 0
100 -493 495 0
-495 496 0
101 -495 497 0
-497 498 0
102 -497 499 0
-499 500 0
103 -499 501 0
-501 502 0
104 -501 503 0
-503 504 0
105 -503 505 0
-505 506 0
106 -505 507 0
-507 508 0
107 -507 509 0
-509 510 0
108 -509 511 0
-511 512 0
109 -511 513 0
-513 514 0
110 -513 515 0
-515 516 0
111 -515 517 0
-517 518 0
112 -517 519 0
-519 520 0
113 -519 521 0
-521 522 0
114 -521 523 0
-523 524 0
115 -523 525 0
-525 526 0
116 -525 527 0
-527 528 0
117 -527 529 0
-529 530 0
118 -529 531 0
-531 532 0
119 -531 533 0
-533 534 0
120 -533 535 0
-535 536 0
121 -535 537 0
-537 538 0
122 -537 539 0
-539 540 0
123 -539 541 0
-541 542 0
124 -541 543 0
-543 544 0
125 -543 545 0
-545 546 0
126 -545 547 0
-547 548 0
127 -547 549 0
-549 550 0
128 -549 551 0
-551 552 0
129 -551 553 0
-553 554 0
130 -553 555 0
-555 556 0
131 -555 557 0
-557 558 0
132 -557 559 0
-559 560 0
133 -559 0
2 298 0
-298 561 0
3 -298 300 0
-300 562 0
4 -300 302 0
-302 563 0
5 -302 304 0
-304 564 0
6 -304 306 0
-306 565 0
7 -306 308 0
-308 566 0
8 -308 310 0
-310 567 0
9 -310 312 0
-312 568 0
10 -312 314 0
-314 569 0
11 -314 316 0
-316 570 0
12 -316 318 0
-318 571 0
13 -318 320 0
-320 572 0
14 -320 322 0
-322 573 0
15 -322 324 0
-324 574 0
16 -324 326 0
-326 575 0
17 -326 328 0
-328 576 0
18 -328 330 0
-330 577 0
19 -330 332 0
-332 578 0
20 -332 334 0
-334 579 0
21 -334 336 0
-336 580 0
22 -336 338 0
-338 581 0
23 -338 340 0
-340 582 0
24 -340 342 0
-342 583 0
25 -342 344 0
-344 584 0
26 -344 346 0
-346 585 0
27 -346 348 0
-348 586 0
28 -348 350 0
-350 587 0
29 -350 352 0
-352 588 0
30 -352 354 0
-354 589 0
31 -354 356 0
-356 590 0
32 -356 358 0
-358 591 0
33 -358 360 0
-360 592 0
34 -360 362 0
-362 593 0
35 -362 364 0
-364 594 0
36 -364 366 0
-366 595 0
37 -366 368 0
-368 596 0
38 -368 370 0
-370 597 0
39 -370 372 0
-372 598 0
40 -372 374 0
-374 599 0
41 -374 376 0
-376 600 0
42 -376 378 0
-378 601 0
43 -378 380 0
-380 602 0
44 -380 382 0
-382 603 0
45 -382 384 0
-384 604 0
46 -384 386 0
-386 605 0
47 -386 388 0
-388 606 0
48 -388 390 0
-390 607 0
49 -390 392 0
-392 608 0
50 -392 394 0
-394 609 0
51 -394 396 0
-396 610 0
52 -396 398 0
-398 611 0
53 -398 400 0
-400 612 0
54 -400 402 0
-402 613 0
55 -402 404 0
-404 614 0
56 -404 406 0
-406 615 0
57 -406 408 0
-408 616 0
58 -408 410 0
-410 617 0
59 -410 412 0
-412 618 0
60 -412 414 0
-414 619 0
61 -414 416 0
-416 620 0
62 -416 418 0
-418 621 0
63 -418 420 0
-420 622 0
64 -420 422 0
-422 623 0
65 -422 424 0
-424 624 0
66 -424 426 0
-426 625 0
67 -426 428 0
-428 626 0
68 -428 430 0
-430 627 0
69 -430 432 0
-432 628 0
70 -432 434 0
-434 629 0
71 -434 436 0
-436 630 0
72 -436 438 0
-438 631 0
73 -438 440 0
-440 632 0
74 -440 442 0
-442 633 0
75 -442 444 0
-444 634 0
76 -444 446 0
-446 635 0
77 -446 448 0
-448 636 0
78 -448 450 0
-450 637 0
79 -450 452 0
-452 638 0
80 -452 454 0
-454 639 0
81 -454 456 0
-456 640 0
82 -456 458 0
-458 641 0
83 -458 460 0
-460 642 0
84 -460 462 0
-462 643 0
85 -462 464 0
-464 644 0
86 -464 466 0
-466 645 0
87 -466 468 0
-468 646 0
88 -468 470 0
-470 647 0
89 -470 472 0
-472 648 0
90 -472 474 0
-474 649 0
91 -474 476 0
-476 650 0
92 -476 478 0
-478 651 0
93 -478 480 0
-480 652 0
94 -480 482 0
-482 653 0
95 -482 484 0
-484 654 0
96 -484 486 0
-486 655 0
97 -486 488 0
-488 656 0
98 -488 490 0
-490 657 0
99 -490 492 0
-492 658 0
100 -492 494 0
-494 659 0
101 -494 496 0
-496 660 0
102 -496 498 0
-498 661 0
103 -498 500 0
-500 662 0
104 -500 502 0
-502 663 0
105 -502 504 0
-504 664 0
106 -504 506 0
-506 665 0
107 -506 508 0
-508 666 0
108 -508 510 0
-510 667 0
109 -510 512 0
-512 668 0
110 -512 514 0
-514 669 0
111 -514 516 0
-516 670 0
112 -516 518 0
-518 671 0
113 -518 520 0
-520 672 0
114 -520 522 0
-522 673 0
115 -522 524 0
-524 674 0
116 -524 526 0
-526 675 0
117 -526 528 0
-528 676 0
118 -528 530 0
-530 677 0
119 -530 532 0
-532 678 0
120 -532 534 0
-534 679 0
121 -534 536 0
-536 680 0
122 -536 538 0
-538 681 0
123 -538 540 0
-540 682 0
124 -540 542 0
-542 683 0
125 -542 544 0
-544 684 0
126 -544 546 0
-546 685 0
127 -546 548 0
-548 686 0
128 -548 550 0
-550 687 0
129 -550 552 0
-552 688 0
130 -552 554 0
-554 689 0
131 -554 556 0
-556 690 0
132 -556 558 0
-558 691 0
133 -558 560 0
-560 692 0
134 -560 0
3 561 0
-561 693 0
4 -561 562 0
-562 694 0
5 -562 563 0
-563 695 0
6 -563 564 0
-564 696 0
7 -564 565 0
-565 697 0
8 -565 566 0
-566 698 0
9 -566 567 0
-567 699 0
10 -567 568 0
-568 700 0
11 -568 569 0
-569 701 0
12 -569 570 0
-570 702 0
13 -570 571 0
-571 703 0
14 -571 572 0
-572 704 0
15 -572 573 0
-573 705 0
16 -573 574 0
-574 706 0
17 -574 575 0
-575 707 0
18 -575 576 0
-576 708 0
19 -576 577 0
-577 709 0
20 -577 578 0
-578 710 0
21 -578 579 0
-579 711 0
22 -579 580 0
-580 712 0
23 -580 581 0
-581 713 0
24 -581 582 0
-582 714 0
25 -582 583 0
-583 715 0
26 -583 584 0
-584 716 0
27 -584 585 0
-585 717 0
28 -585 586 0
-586 718 0
29 -586 587 0
-587 719 0
30 -587 588 0
-588 720 0
31 -588 589 0
-589 721 0
32 -589 590 0
-590 722 0
33 -590 591 0
-591 723 0
34 -591 592 0
-592 724 0
35 -592 593 0
-593 725 0
36 -593 594 0
-594 726 0
37 -594 595 0
-595 727 0
38 -595 596 0
-596 728 0
39 -596 597 0
-597 729 0
40 -597 598 0
-598 730 0
41 -598 599 0
-599 731 0
42 -599 600 0
-600 732 0
43 -600 601 0
-601 733 0
44 -601 602 0
-602 734 0
45 -602 603 0
-603 735 0
46 -603 604 0
-604 736 0
47 -604 605 0
-605 737 0
48 -605 606 0
-606 738 0
49 -606 607 0
-607 739 0
50 -607 608 0
-608 740 0
51 -608 609 0
-609 741 0
52 -609 610 0
-610 742 0
53 -610 611 0
-611 743 0
54 -611 612 0
-612 744 0
55 -612 613 0
-613 745 0
56 -613 614 0
-614 746 0
57 -614 615 0
-615 747 0
58 -615 616 0
-616 748 0
59 -616 617 0
-617 749 0
60 -617 618 0
-618 750 0
61 -618 619 0
-619 751 0
62 -619 620 0
-620 752 0
63 -620 621 0
-621 753 0
64 -621 622 0
-622 754 0
65 -622 623 0
-623 755 0
66 -623 624 0
-624 756 0
67 -624 625 0
-625 757 0
68 -625 626 0
-626 758 0
69 -626 627 0
-627 759 0
70 -627 628 0
-628 760 0
71 -628 629 0
-629 761 0
72 -629 630 0
-630 762 0
73 -630 631 0
-631 763 0
74 -631 632 0
-632 764 0
75 -632 633 0
-633 765 0
76 -633 634 0
-634 766 0
77 -634 635 0
-635 767 0
78 -635 636 0
-636 768 0
79 -636 637 0
-637 769 0
80 -637 638 0
-638 770 0
81 -638 639 0
-639 771 0
82 -639 640 0
-640 772 0
83 -640 641 0
-641 773 0
84 -641 642 0
-642 774 0
85 -642 643 0
-643 775 0
86 -643 644 0
-644 776 0
87 -644 645 0
-645 777 0
88 -645 646 0
-646 778 0
89 -646 647 0
-647 779 0
90 -647 648 0
-648 780 0
91 -648 649 0
-649 781 0
92 -649 650 0
-650 782 0
93 -650 651 0
-651 783 0
94 -651 652 0
-652 784 0
95 -652 653 0
-653 785 0
96 -653 654 0
-654 786 0
97 -654 655 0
-655 787 0
98 -655 656 0
-656 788 0
99 -656 657 0
-657 789 0
100 -657 658 0
-658 790 0
101 -658 659 0
-659 791 0
102 -659 660 0
-660 792 0
103 -660 661 0
-661 793 0
104 -661 662 0
-662 794 0
105 -662 663 0
-663 795 0
106 -663 664 0
-664 796 0
107 -664 665 0
-665 797 0
108 -665 666 0
-666 798 0
109 -666 667 0
-667 799 0
110 -667 668 0
-668 800 0
111 -668 669 0
-669 801 0
112 -669 670 0
-670 802 0
113 -670 671 0
-671 803 0
114 -671 672 0
-672 804 0
115 -672 673 0
-673 805 0
116 -673 674 0
-674 806 0
117 -674 675 0
-675 807 0
118 -675 676 0
-676 808 0
119 -676 677 0
-677 809 0
120 -677 678 0
-678 810 0
121 -678 679 0
-679 811 0
122 -679 680 0
-680 812 0
123 -680 681 0
-681 813 0
124 -681 682 0
-682 814 0
125 -682 683 0
-683 815 0
126 -683 684 0
-684 816 0
127 -684 685 0
-685 817 0
128 -685 686 0
-686 818 0
129 -686 687 0
-687 819 0
130 -687 688 0
-688 820 0
131 -688 689 0
-689 821 0
132 -689 690 0
-690 822 0
133 -690 691 0
-691 823 0
134 -691 692 0
-692 824 0
135 -692 0
4 693 0
-693 825 0
5 -693 694 0
-694 826 0
6 -694 695 0
-695 827 0
7 -695 696 0
-696 828 0
8 -696 697 0
-697 829 0
9 -697 698 0
-698 830 0
10 -698 699 0
-699 831 0
11 -699 700 0
-700 832 0
12 -700 701 0
-701 833 0
13 -701 702 0
-702 834 0
14 -702 703 0
-703 835 0
15 -703 704 0
-704 836 0
16 -704 705 0
-705 837 0
17 -705 706 0
-706 838 0
18 -706 707 0
-707 839 0
19 -707 708 0
-708 840 0
20 -708 709 0
-709 841 0
21 -709 710 0
-710 842 0
22 -710 711 0
-711 843 0
23 -711 712 0
-712 844 0
24 -712 713 0
-713 845 0
25 -713 714 0
-714 846 0
26 -714 715 0
-715 847 0
27 -715 716 0
-716 848 0
28 -716 717 0
-717 849 0
29 -717 718 0
-718 850 0
30 -718 719 0
-719 851 0
31 -719 720 0
-720 852 0
32 -720 721 0
-721 853 0
33 -721 722 0
-722 854 0
34 -722 723 0
-723 855 0
35 -723 724 0
-724 856 0
36 -724 725 0
-725 857 0
37 -725 726 0
-726 858 0
38 -726 727 0
-727 859 0
39 -727 728 0
-728 860 0
40 -728 729 0
-729 861 0
41 -729 730 0
-730 862 0
42 -730 731 0
-731 863 0
43 -731 732 0
-732 864 0
44 -732 733 0
-733 865 0
45 -733 734 0
-734 866 0
46 -734 735 0
-735 867 0
47 -735 736 0
-736 868 0
48 -736 737 0
-737 869 0
49 -737 738 0
-738 870 0
50 -738 739 0
-739 871 0
51 -739 740 0
-740 872 0
52 -740 741 0
-741 873 0
53 -741 742 0
-742 874 0
54 -742 743 0
-743 875 0
55 -743 744 0
-744 876 0
56 -744 745 0
-745 877 0
57 -745 746 0
-746 878 0
58 -746 747 0
-747 879 0
59 -747 748 0
-748 880 0
60 -748 749 0
-749 881 0
61 -749 750 0
-750 882 0
62 -750 751 0
-751 883 0
63 -751 752 0
-752 884 0
64 -752 753 0
-753 885 0
65 -753 754 0
-754 886 0
66 -754 755 0
-755 887 0
67 -755 756 0
-756 888 0
68 -756 757 0
-757 889 0
69 -757 758 0
-758 890 0
70 -758 759 0
-759 891 0
71 -759 760 0
-760 892 0
72 -760 761 0
-761 893 0
73 -761 762 0
-762 894 0
74 -762 763 0
-763 895 0
75 -763 764 0
-764 896 0
76 -764 765 0
-765 897 0
77 -765 766 0
-766 898 0
78 -766 767 0
-767 899 0
79 -767 768 0
-768 900 0
80 -768 769 0
-769 901 0
81 -769 770 0
-770 902 0
82 -770 771 0
-771 903 0
83 -771 772 0
-772 904 0
84 -772 773 0
-773 905 0
85 -773 774 0
-774 906 0
86 -774 775 0
-775 907 0
87 -775 776 0
-776 908 0
88 -776 777 0
-777 909 0
89 -777 778 0
-778 910 0
90 -778 779 0
-779 911 0
91 -779 780 0
-780 912 0
92 -780 781 0
-781 913 0
93 -781 782 0
-782 914 0
94 -782 783 0
-783 915 0
95 -783 784 0
-784 916 0
96 -784 785 0
-785 917 0
97 -785 786 0
-786 918 0
98 -786 787 0
-787 919 0
99 -787 788 0
-788 920 0
100 -788 789 0
-789 921 0
101 -789 790 0
-790 922 0
102 -790 791 0
-791 923 0
103 -791 792 0
-792 924 0
104 -792 793 0
-793 925 0
105 -793 794 0
-794 926 0
106 -794 795 0
-795 927 0
107 -795 796 0
-796 928 0
108 -796 797 0
-797 929 0
109 -797 798 0
-798 930 0
110 -798 799 0
-799 931 0
111 -799 800 0
-800 932 0
112 -800 801 0
-801 933 0
113 -801 802 0
-802 934 0
114 -802 803 0
-803 935 0
115 -803 804 0
-804 936 0
116 -804 805 0
-805 937 0
117 -805 806 0
-806 938 0
118 -806 807 0
-807 939 0
119 -807 808 0
-808 940 0
120 -808 809 0
-809 941 0
121 -809 810 0
-810 942 0
122 -810 811 0
-811 943 0
123 -811 812 0
-812 944 0
124 -812 813 0
-813 945 0
125 -813 814 0
-814 946 0
126 -814 815 0
-815 947 0
127 -815 816 0
-816 948 0
128 -816 817 0
-817 949 0
129 -817 818 0
-818 950 0
130 -818 819 0
-819 951 0
131 -819 820 0
-820 952 0
132 -820 821 0
-821 953 0
133 -821 822 0
-822 954 0
134 -822 823 0
-823 955 0
135 -823 824 0
-824 956 0
136 -824 0
5 825 0
-825 957 0
6 -825 826 0
-826 958 0
7 -826 827 0
-827 959 0
8 -827 828 0
-828 960 0
9 -828 829 0
-829 961 0
10 -829 830 0
-830 962 0
11 -830 831 0
-831 963 0
12 -831 832 0
-832 964 0
13 -832 833 0
-833 965 0
14 -833 834 0
-834 966 0
15 -834 835 0
-835 967 0
16 -835 836 0
-836 968 0
17 -836 837 0
-837 969 0
18 -837 838 0
-838 970 0
19 -838 839 0
-839 971 0
20 -839 840 0
-840 972 0
21 -840 841 0
-841 973 0
22 -841 842 0
-842 974 0
23 -842 843 0
-843 975 0
24 -843 844 0
-844 976 0
25 -844 845 0
-845 977 0
26 -845 846 0
-846 978 0
27 -846 847 0
-847 979 0
28 -847 848 0
-848 980 0
29 -848 849 0
-849 981 0
30 -849 850 0
-850 982 0
31 -850 851 0
-851 983 0
32 -851 852 0
-852 984 0
33 -852 853 0
-853 985 0
34 -853 854 0
-854 986 0
35 -854 855 0
-855 987 0
36 -855 856 0
-856 988 0
37 -856 857 0
-857 989 0
38 -857 858 0
-858 990 0
39 -858 859 0
-859 991 0
40 -859 860 0
-860 992 0
41 -860 861 0
-861 993 0
42 -861 862 0
-862 994 0
43 -862 863 0
-863 995 0
44 -863 864 0
-864 996 0
45 -864 865 0
-865 997 0
46 -865 866 0
-866 998 0
47 -866 867 0
-867 999 0
48 -867 868 0
-868 1000 0
49 -868 869 0
-869 1001 0
50 -869 870 0
-870 1002 0
51 -870 871 0
-871 1003 0
52 -871 872 0
-872 1004 0
53 -872 873 0
-873 1005 0
54 -873 874 0
-874 1006 0
55 -874 875 0
-875 1007 0
56 -875 876 0
-876 1008 0
57 -876 877 0
-877 1009 0
58 -877 878 0
-878 1010 0
59 -878 879 0
-879 1011 0
60 -879 880 0
-880 1012 0
61 -880 881 0
-881 1013 0
62 -881 882 0
-882 1014 0
63 -882 883 0
-883 1015 0
64 -883 884 0
-884 1016 0
65 -884 885 0
-885 1017 0
66 -885 886 0
-886 1018 0
67 -886 887 0
-887 1019 0
68 -887 888 0
-888 1020 0
69 -888 889 0
-889 1021 0
70 -889 890 0
-890 1022 0
71 -890 891 0
-891 1023 0
72 -891 892 0
-892 1024 0
73 -892 893 0
-893 1025 0
74 -893 894 0
-894 1026 0
75 -894 895 0
-895 1027 0
76 -895 896 0
-896 1028 0
77 -896 897 0
-897 1029 0
78 -897 898 0
-898 1030 0
79 -898 899 0
-899 1031 0
80 -899 900 0
-900 1032 0
81 -900 901 0
-901 1033 0
82 -901 902 0
-902 1034 0
83 -902 903 0
-903 1035 0
84 -903 904 0
-904 1036 0
85 -904 905 0
-905 1037 0
86 -905 906 0
-906 1038 0
87 -906 907 0
-907 1039 0
88 -907 908 0
-908 1040 0
89 -908 909 0
-909 1041 0
90 -909 910 0
-910 1042 0
91 -910 911 0
-911 1043 0
92 -911 912 0
-912 1044 0
93 -912 913 0
-913 1045 0
94 -913 914 0
-914 1046 0
95 -914 915 0
-915 1047 0
96 -915 916 0
-916 1048 0
97 -916 917 0
-917 1049 0
98 -917 918 0
-918 1050 0
99 -918 919 0
-919 1051 0
100 -919 920 0
-920 1052 0
101 -920 921 0
-921 1053 0
102 -921 922 0
-922 1054 0
103 -922 923 0
-923 1055 0
104 -923 924 0
-924 1056 0
105 -924 925 0
-925 1057 0
106 -925 926 0
-926 1058 0
107 -926 927 0
-927 1059 0
108 -927 928 0
-928 1060 0
109 -928 929 0
-929 1061 0
110 -929 930 0
-930 1062 0
111 -930 931 0
-931 1063 0
112 -931 932 0
-932 1064 0
113 -932 933 0
-933 1065 0
114 -933 934 0
-934 1066 0
115 -934 935 0
-935 1067 0
116 -935 936 0
-936 1068 0
117 -936 937 0
-937 1069 0
118 -937 938 0
-938 1070 0
119 -938 939 0
-939 1071 0
120 -939 940 0
-940 1072 0
121 -940 941 0
-941 1073 0
122 -941 942 0
-942 1074 0
123 -942 943 0
-943 1075 0
124 -943 944 0
-944 1076 0
125 -944 945 0
-945 1077 0
126 -945 946 0
-946 1078 0
127 -946 947 0
-947 1079 0
128 -947 948 0
-948 1080 0
129 -948 949 0
-949 1081 0
130 -949 950 0
-950 1082 0
131 -950 951 0
-951 1083 0
132 -951 952 0
-952 1084 0
133 -952 953 0
-953 1085 0
134 -953 954 0
-954 1086 0
135 -954 955 0
-955 1087 0
136 -955 956 0
-956 1088 0
137 -956 0
6 957 0
-957 1089 0
7 -957 958 0
-958 1090 0
8 -958 959 0
-959 1091 0
9 -959 960 0
-960 1092 0
10 -960 961 0
-961 1093 0
11 -961 962 0
-962 1094 0
12 -962 963 0
-963 1095 0
13 -963 964 0
-964 1096 0
14 -964 965 0
-965 1097 0
15 -965 966 0
-966 1098 0
16 -966 967 0
-967 1099 0
17 -967 968 0
-968 1100 0
18 -968 969 0
-969 1101 0
19 -969 970 0
-970 1102 0
20 -970 971 0
-971 1103 0
21 -971 972 0
-972 1104 0
22 -972 973 0
-973 1105 0
23 -973 974 0
-974 1106 0
24 -974 975 0
-975 1107 0
25 -975 976 0
-976 1108 0
26 -976 977 0
-977 1109 0
27 -977 978 0
-978 1110 0
28 -978 979 0
-979 1111 0
29 -979 980 0
-980 1112 0
30 -980 981 0
-981 1113 0
31 -981 982 0
-982 1114 0
32 -982 983 0
-983 1115 0
33 -983 984 0
-984 1116 0
34 -984 985 0
-985 1117 0
35 -985 986 0
-986 1118 0
36 -986 987 0
-987 1119 0
37 -987 988 0
-988 1120 0
38 -988 989 0
-989 1121 0
39 -989 990 0
-990 1122 0
40 -990 991 0
-991 1123 0
41 -991 992 0
-992 1124 0
42 -992 993 0
-993 1125 0
43 -993 994 0
-994 1126 0
44 -994 995 0
-995 1127 0
45 -995 996 0
-996 1128 0
46 -996 997 0
-997 1129 0
47 -997 998 0
-998 1130 0
48 -998 999 0
-999 1131 0
49 -999 1000 0
-1000 1132 0
50 -1000 1001 0
-1001 1133 0
51 -1001 1002 0
-1002 1134 0
52 -1002 1003 0
-1003 1135 0
53 -1003 1004 0
-1004 1136 0
54 -1004 1005 0
-1005 1137 0
55 -1005 1006 0
-1006 1138 0
56 -1006 1007 0
-1007 1139 0
57 -1007 1008 0
-1008 1140 0
58 -1008 1009 0
-1009 1141 0
59 -1009 1010 0
-1010 1142 0
60 -1010 1011 0
-1011 1143 0
61 -1011 1012 0
-1012 1144 0
62 -1012 1013 0
-1013 1145 0
63 -1013 1014 0
-1014 1146 0
64 -1014 1015 0
-1015 1147 0
65 -1015 1016 0
-1016 1148 0
66 -1016 1017 0
-1017 1149 0
67 -1017 1018 0
-1018 1150 0
68 -1018 1019 0
-1019 1151 0
69 -1019 1020 0
-1020 1152 0
70 -1020 1021 0
-1021 1153 0
71 -1021 1022 0
-1022 1154 0
72 -1022 1023 0
-1023 1155 0
73 -1023 1024 0
-1024 1156 0
74 -1024 1025 0
-1025 1157 0
75 -1025 1026 0
-1026 1158 0
76 -1026 1027 0
-1027 1159 0
77 -1027 1028 0
-1028 1160 0
78 -1028 1029 0
-1029 1161 0
79 -1029 1030 0
-1030 1162 0
80 -1030 1031 0
-1031 1163 0
81 -1031 1032 0
-1032 1164 0
82 -1032 1033 0
-1033 1165 0
83 -1033 1034 0
-1034 1166 0
84 -1034 1035 0
-1035 1167 0
85 -1035 1036 0
-1036 1168 0
86 -1036 1037 0
-1037 1169 0
87 -1037 1038 0
-1038 1170 0
88 -1038 1039 0
-1039 1171 0
89 -1039 1040 0
-1040 1172 0
90 -1040 1041 0
-1041 1173 0
91 -1041 1042 0
-1042 1174 0
92 -1042 1043 0
-1043 1175 0
93 -1043 1044 0
-1044 1176 0
94 -1044 1045 0
-1045 1177 0
95 -1045 1046 0
-1046 1178 0
96 -1046 1047 0
-1047 1179 0
97 -1047 1048 0
-1048 1180 0
98 -1048 1049 0
-1049 1181 0
99 -1049 1050 0
-1050 1182 0
100 -1050 1051 0
-1051 1183 0
101 -1051 1052 0
-1052 1184 0
102 -1052 1053 0
-1053 1185 0
103 -1053 1054 0
-1054 1186 0
104 -1054 1055 0
-1055 1187 0
105 -1055 1056 0
-1056 1188 0
106 -1056 1057 0
-1057 1189 0
107 -1057 1058 0
-1058 1190 0
108 -1058 1059 0
-1059 1191 0
109 -1059 1060 0
-1060 1192 0
110 -1060 1061 0
-1061 1193 0
111 -1061 1062 0
-1062 1194 0
112 -1062 1063 0
-1063 1195 0
113 -1063 1064 0
-1064 1196 0
114 -1064 1065 0
-1065 1197 0
115 -1065 1066 0
-1066 1198 0
116 -1066 1067 0
-1067 1199 0
117 -1067 1068 0
-1068 1200 0
118 -1068 1069 0
-1069 1201 0
119 -1069 1070 0
-1070 1202 0
120 -1070 1071 0
-1071 1203 0
121 -1071 1072 0
-1072 1204 0
122 -1072 1073 0
-1073 1205 0
123 -1073 1074 0
-1074 1206 0
124 -1074 1075 0
-1075 1207 0
125 -1075 1076 0
-1076 1208 0
126 -1076 1077 0
-1077 1209 0
127 -1077 1078 0
-1078 1210 0
128 -1078 1079 0
-1079 1211 0
129 -1079 1080 0
-1080 1212 0
130 -1080 1081 0
-1081 1213 0
131 -1081 1082 0
-1082 1214 0
132 -1082 1083 0
-1083 1215 0
133 -1083 1084 0
-1084 1216 0
134 -1084 1085 0
-1085 1217 0
135 -1085 1086 0
-1086 1218 0
136 -1086 1087 0
-1087 1219 0
137 -1087 1088 0
-1088 1220 0
138 -1088 0
7 1089 0
-1089 1221 0
8 -1089 1090 0
-1090 1222 0
9 -1090 1091 0
-1091 1223 0
10 -1091 1092 0
-1092 1224 0
11 -1092 1093 0
-1093 1225 0
12 -1093 1094 0
-1094 1226 0
13 -1094 1095 0
-1095 1227 0
14 -1095 1096 0
-1096 1228 0
15 -1096 1097 0
-1097 1229 0
16 -1097 1098 0
-1098 1230 0
17 -1098 1099 0
-1099 1231 0
18 -1099 1100 0
-1100 1232 0
19 -1100 1101 0
-1101 1233 0
20 -1101 1102 0
-1102 1234 0
21 -1102 1103 0
-1103 1235 0
22 -1103 1104 0
-1104 1236 0
23 -1104 1105 0
-1105 1237 0
24 -1105 1106 0
-1106 1238 0
25 -1106 1107 0
-1107 1239 0
26 -1107 1108 0
-1108 1240 0
27 -1108 1109 0
-1109 1241 0
28 -1109 1110 0
-1110 1242 0
29 -1110 1111 0
-1111 1243 0
30 -1111 1112 0
-1112 1244 0
31 -1112 1113 0
-1113 1245 0
32 -1113 1114 0
-1114 1246 0
33 -1114 1115 0
-1115 1247 0
34 -1115 1116 0
-1116 1248 0
35 -1116 1117 0
-1117 1249 0
36 -1117 1118 0
-1118 1250 0
37 -1118 1119 0
-1119 1251 0
38 -1119 1120 0
-1120 1252 0
39 -1120 1121 0
-1121 1253 0
40 -1121 1122 0
-1122 1254 0
41 -1122 1123 0
-1123 1255 0
42 -1123 1124 0
-1124 1256 0
43 -1124 1125 0
-1125 1257 0
44 -1125 1126 0
-1126 1258 0
45 -1126 1127 0
-1127 1259 0
46 -1127 1128 0
-1128 1260 0
47 -1128 1129 0
-1129 1261 0
48 -1129 1130 0
-1130 1262 0
49 -1130 1131 0
-1131 1263 0
50 -1131 1132 0
-1132 1264 0
51 -1132 1133 0
-1133 1265 0
52 -1133 1134 0
-1134 1266 0
53 -1134 1135 0
-1135 1267 0
54 -1135 1136 0
-1136 1268 0
55 -1136 1137 0
-1137 1269 0
56 -1137 1138 0
-1138 1270 0
57 -1138 1139 0
-1139 1271 0
58 -1139 1140 0
-1140 1272 0
59 -1140 1141 0
-1141 1273 0
60 -1141 1142 0
-1142 1274 0
61 -1142 1143 0
-1143 1275 0
62 -1143 1144 0
-1144 1276 0
63 -1144 1145 0
-1145 1277 0
64 -1145 1146 0
-1146 1278 0
65 -1146 1147 0
-1147 1279 0
66 -1147 1148 0
-1148 1280 0
67 -1148 1149 0
-1149 1281 0
68 -1149 1150 0
-1150 1282 0
69 -1150 1151 0
-1151 1283 0
70 -1151 1152 0
-1152 1284 0
71 -1152 1153 0
-1153 1285 0
72 -1153 1154 0
-1154 1286 0
73 -1154 1155 0
-1155 1287 0
74 -1155 1156 0
-1156 1288 0
75 -1156 1157 0
-1157 1289 0
76 -1157 1158 0
-1158 1290 0
77 -1158 1159 0
-1159 1291 0
78 -1159 1160 0
-1160 1292 0
79 -1160 1161 0
-1161 1293 0
80 -1161 1162 0
-1162 1294 0
81 -1162 1163 0
-1163 1295 0
82 -1163 1164 0
-1164 1296 0
83 -1164 1165 0
-1165 1297 0
84 -1165 1166 0
-1166 1298 0
85 -1166 1167 0
-1167 1299 0
86 -1167 1168 0
-1168 1300 0
87 -1168 1169 0
-1169 1301 0
88 -1169 1170 0
-1170 1302 0
89 -1170 1171 0
-1171 1303 0
90 -1171 1172 0
-1172 1304 0
91 -1172 1173 0
-1173 1305 0
92 -1173 1174 0
-1174 1306 0
93 -1174 1175 0
-1175 1307 0
94 -1175 1176 0
-1176 1308 0
95 -1176 1177 0
-1177 1309 0
96 -1177 1178 0
-1178 1310 0
97 -1178 1179 0
-1179 1311 0
98 -1179 1180 0
-1180 1312 0
99 -1180 1181 0
-1181 1313 0
100 -1181 1182 0
-1182 1314 0
101 -1182 1183 0
-1183 1315 0
102 -1183 1184 0
-1184 1316 0
103 -1184 1185 0
-1185 1317 0
104 -1185 1186 0
-1186 1318 0
105 -1186 1187 0
-1187 1319 0
106 -1187 1188 0
-1188 1320 0
107 -1188 1189 0
-1189 1321 0
108 -1189 1190 0
-1190 1322 0
109 -1190 1191 0
-1191 1323 0
110 -1191 1192 0
-1192 1324 0
111 -1192 1193 0
-1193 1325 0
112 -1193 1194 0
-1194 1326 0
113 -1194 1195 0
-1195 1327 0
114 -1195 1196 0
-1196 1328 0
115 -1196 1197 0
-1197 1329 0
116 -1197 1198 0
-1198 1330 0
117 -1198 1199 0
-1199 1331 0
118 -1199 1200 0
-1200 1332 0
119 -1200 1201 0
-1201 1333 0
120 -1201 1202 0
-1202 1334 0
121 -1202 1203 0
-1203 1335 0
122 -1203 1204 0
-1204 1336 0
123 -1204 1205 0
-1205 1337 0
124 -1205 1206 0
-1206 1338 0
125 -1206 1207 0
-1207 1339 0
126 -1207 1208 0
-1208 1340 0
127 -1208 1209 0
-1209 1341 0
128 -1209 1210 0
-1210 1342 0
129 -1210 1211 0
-1211 1343 0
130 -1211 1212 0
-1212 1344 0
131 -1212 1213 0
-1213 1345 0
132 -1213 1214 0
-1214 1346 0
133 -1214 1215 0
-1215 1347 0
134 -1215 1216 0
-1216 1348 0
135 -1216 1217 0
-1217 1349 0
136 -1217 1218 0
-1218 1350 0
137 -1218 1219 0
-1219 1351 0
138 -1219 1220 0
-1220 1352 0
139 -1220 0
8 1221 0
-1221 1353 0
9 -1221 1222 0
-1222 1354 0
10 -1222 1223 0
-1223 1355 0
11 -1223 1224 0
-1224 1356 0
12 -1224 1225 0
-1225 1357 0
13 -1225 1226 0
-1226 1358 0
14 -1226 1227 0
-1227 1359 0
15 -1227 1228 0
-1228 1360 0
16 -1228 1229 0
-1229 1361 0
17 -1229 1230 0
-1230 1362 0
18 -1230 1231 0
-1231 1363 0
19 -1231 1232 0
-1232 1364 0
20 -1232 1233 0
-1233 1365 0
21 -1233 1234 0
-1234 1366 0
22 -1234 1235 0
-1235 1367 0
23 -1235 1236 0
-1236 1368 0
24 -1236 1237 0
-1237 1369 0
25 -1237 1238 0
-1238 1370 0
26 -1238 1239 0
-1239 1371 0
27 -1239 1240 0
-1240 1372 0
28 -1240 1241 0
-1241 1373 0
29 -1241 1242 0
-1242 1374 0
30 -1242 1243 0
-1243 1375 0
31 -1243 1244 0
-1244 1376 0
32 -1244 1245 0
-1245 1377 0
33 -1245 1246 0
-1246 1378 0
34 -1246 1247 0
-1247 1379 0
35 -1247 1248 0
-1248 1380 0
36 -1248 1249 0
-1249 1381 0
37 -1249 1250 0
-1250 1382 0
38 -1250 1251 0
-1251 1383 0
39 -1251 1252 0
-1252 1384 0
40 -1252 1253 0
-1253 1385 0
41 -1253 1254 0
-1254 1386 0
42 -1254 1255 0
-1255 1387 0
43 -1255 1256 0
-1256 1388 0
44 -1256 1257 0
-1257 1389 0
45 -1257 1258 0
-1258 1390 0
46 -1258 1259 0
-1259 1391 0
47 -1259 1260 0
-1260 1392 0
48 -1260 1261 0
-1261 1393 0
49 -1261 1262 0
-1262 1394 0
50 -1262 1263 0
-1263 1395 0
51 -1263 1264 0
-1264 1396 0
52 -1264 1265 0
-1265 1397 0
53 -1265 1266 0
-1266 1398 0
54 -1266 1267 0
-1267 1399 0
55 -1267 1268 0
-1268 1400 0
56 -1268 1269 0
-1269 1401 0
57 -1269 1270 0
-1270 1402 0
58 -1270 1271 0
-1271 1403 0
59 -1271 1272 0
-1272 1404 0
60 -1272 1273 0
-1273 1405 0
61 -1273 1274 0
-1274 1406 0
62 -1274 1275 0
-1275 1407 0
63 -1275 1276 0
-1276 1408 0
64 -1276 1277 0
-1277 1409 0
65 -1277 1278 0
-1278 1410 0
66 -1278 1279 0
-1279 1411 0
67 -1279 1280 0
-1280 1412 0
68 -1280 1281 0
-1281 1413 0
69 -1281 1282 0
-1282 1414 0
70 -1282 1283 0
-1283 1415 0
71 -1283 1284 0
-1284 1416 0
72 -1284 1285 0
-1285 1417 0
73 -1285 1286 0
-1286 1418 0
74 -1286 1287 0
-1287 1419 0
75 -1287 1288 0
-1288 1420 0
76 -1288 1289 0
-1289 1421 0
77 -1289 1290 0
-1290 1422 0
78 -1290 1291 0
-1291 1423 0
79 -1291 1292 0
-1292 1424 0
80 -1292 1293 0
-1293 1425 0
81 -1293 1294 0
-1294 1426 0
82 -1294 1295 0
-1295 1427 0
83 -1295 1296 0
-1296 1428 0
84 -1296 1297 0
-1297 1429 0
85 -1297 1298 0
-1298 1430 0
86 -1298 1299 0
-1299 1431 0
87 -1299 1300 0
-1300 1432 0
88 -1300 1301 0
-1301 1433 0
89 -1301 1302 0
-1302 1434 0
90 -1302 1303 0
-1303 1435 0
91 -1303 1304 0
-1304 1436 0
92 -1304 1305 0
-1305 1437 0
93 -1305 1306 0
-1306 1438 0
94 -1306 1307 0
-1307 1439 0
95 -1307 1308 0
-1308 1440 0
96 -1308 1309 0
-1309 1441 0
97 -1309 1310 0
-1310 1442 0
98 -1310 1311 0
-1311 1443 0
99 -1311 1312 0
-1312 1444 0
100 -1312 1313 0
-1313 1445 0
101 -1313 1314 0
-1314 1446 0
102 -1314 1315 0
-1315 1447 0
103 -1315 1316 0
-1316 1448 0
104 -1316 1317 0
-1317 1449 0
105 -1317 1318 0
-1318 1450 0
106 -1318 1319 0
-1319 1451 0
107 -1319 1320 0
-1320 1452 0
108 -1320 1321 0
-1321 1453 0
109 -1321 1322 0
-1322 1454 0
110 -1322 1323 0
-1323 1455 0
111 -1323 1324 0
-1324 1456 0
112 -1324 1325 0
-1325 1457 0
113 -1325 1326 0
-1326 1458 0
114 -1326 1327 0
-1327 1459 0
115 -1327 1328 0
-1328 1460 0
116 -1328 1329 0
-1329 1461 0
117 -1329 1330 0
-1330 1462 0
118 -1330 1331 0
-1331 1463 0
119 -1331 1332 0
-1332 1464 0
120 -1332 1333 0
-1333 1465 0
121 -1333 1334 0
-1334 1466 0
122 -1334 1335 0
-1335 1467 0
123 -1335 1336 0
-1336 1468 0
124 -1336 1337 0
-1337 1469 0
125 -1337 1338 0
-1338 1470 0
126 -1338 1339 0
-1339 1471 0
127 -1339 1340 0
-1340 1472 0
128 -1340 1341 0
-1341 1473 0
129 -1341 1342 0
-1342 1474 0
130 -1342 1343 0
-1343 1475 0
131 -1343 1344 0
-1344 1476 0
132 -1344 1345 0
-1345 1477 0
133 -1345 1346 0
-1346 1478 0
134 -1346 1347 0
-1347 1479 0
135 -1347 1348 0
-1348 1480 0
136 -1348 1349 0
-1349 1481 0
137 -1349 1350 0
-1350 1482 0
138 -1350 1351 0
-1351 1483 0
139 -1351 1352 0
-1352 1484 0
140 -1352 0
9 1353 0
-1353 1485 0
10 -1353 1354 0
-1354 1486 0
11 -1354 1355 0
-1355 1487 0
12 -1355 1356 0
-1356 1488 0
13 -1356 1357 0
-1357 1489 0
14 -1357 1358 0
-1358 1490 0
15 -1358 1359 0
-1359 1491 0
16 -1359 1360 0
-1360 1492 0
17 -1360 1361 0
-1361 1493 0
18 -1361 1362 0
-1362 1494 0
19 -1362 1363 0
-1363 1495 0
20 -1363 1364 0
-1364 1496 0
21 -1364 1365 0
-1365 1497 0
22 -1365 1366 0
-1366 1498 0
23 -1366 1367 0
-1367 1499 0
24 -1367 1368 0
-1368 1500 0
25 -1368 1369 0
-1369 1501 0
26 -1369 1370 0
-1370 1502 0
27 -1370 1371 0
-1371 1503 0
28 -1371 1372 0
-1372 1504 0
29 -1372 1373 0
-1373 1505 0
30 -1373 1374 0
-1374 1506 0
31 -1374 1375 0
-1375 1507 0
32 -1375 1376 0
-1376 1508 0
33 -1376 1377 0
-1377 1509 0
34 -1377 1378 0
-1378 1510 0
35 -1378 1379 0
-1379 1511 0
36 -1379 1380 0
-1380 1512 0
37 -1380 1381 0
-1381 1513 0
38 -1381 1382 0
-1382 1514 0
39 -1382 1383 0
-1383 1515 0
40 -1383 1384 0
-1384 1516 0
41 -1384 1385 0
-1385 1517 0
42 -1385 1386 0
-1386 1518 0
43 -1386 1387 0
-1387 1519 0
44 -1387 1388 0
-1388 1520 0
45 -1388 1389 0
-1389 1521 0
46 -1389 1390 0
-1390 1522 0
47 -1390 1391 0
-1391 1523 0
48 -1391 1392 0
-1392 1524 0
49 -1392 1393 0
-1393 1525 0
50 -1393 1394 0
-1394 1526 0
51 -1394 1395 0
-1395 1527 0
52 -1395 1396 0
-1396 1528 0
53 -1396 1397 0
-1397 1529 0
54 -1397 1398 0
-1398 1530 0
55 -1398 1399 0
-1399 1531 0
56 -1399 1400 0
-1400 1532 0
57 -1400 1401 0
-1401 1533 0
58 -1401 1402 0
-1402 1534 0
59 -1402 1403 0
-1403 1535 0
60 -1403 1404 0
-1404 1536 0
61 -1404 1405 0
-1405 1537 0
62 -1405 1406 0
-1406 1538 0
63 -1406 1407 0
-1407 1539 0
64 -1407 1408 0
-1408 1540 0
65 -1408 1409 0
-1409 1541 0
66 -1409 1410 0
-1410 1542 0
67 -1410 1411 0
-1411 1543 0
68 -1411 1412 0
-1412 1544 0
69 -1412 1413 0
-1413 1545 0
70 -1413 1414 0
-1414 1546 0
71 -1414 1415 0
-1415 1547 0
72 -1415 1416 0
-1416 1548 0
73 -1416 1417 0
-1417 1549 0
74 -1417 1418 0
-1418 1550 0
75 -1418 1419 0
-1419 1551 0
76 -1419 1420 0
-1420 1552 0
77 -1420 1421 0
-1421 1553 0
78 -1421 1422 0
-1422 1554 0
79 -1422 1423 0
-1423 1555 0
80 -1423 1424 0
-1424 1556 0
81 -1424 1425 0
-1425 1557 0
82 -1425 1426 0
-1426 1558 0
83 -1426 1427 0
-1427 1559 0
84 -1427 1428 0
-1428 1560 0
85 -1428 1429 0
-1429 1561 0
86 -1429 1430 0
-1430 1562 0
87 -1430 1431 0
-1431 1563 0
88 -1431 1432 0
-1432 1564 0
89 -1432 1433 0
-1433 1565 0
90 -1433 1434 0
-1434 1566 0
91 -1434 1435 0
-1435 1567 0
92 -1435 1436 0
-1436 1568 0
93 -1436 1437 0
-1437 1569 0
94 -1437 1438 0
-1438 1570 0
95 -1438 1439 0
-1439 1571 0
96 -1439 1440 0
-1440 1572 0
97 -1440 1441 0
-1441 1573 0
98 -1441 1442 0
-1442 1574 0
99 -1442 1443 0
-1443 1575 0
100 -1443 1444 0
-1444 1576 0
101 -1444 1445 0
-1445 1577 0
102 -1445 1446 0
-1446 1578 0
103 -1446 1447 0
-1447 1579 0
104 -1447 1448 0
-1448 1580 0
105 -1448 1449 0
-1449 1581 0
106 -1449 1450 0
-1450 1582 0
107 -1450 1451 0
-1451 1583 0
108 -1451 1452 0
-1452 1584 0
109 -1452 1453 0
-1453 1585 0
110 -1453 1454 0
-1454 1586 0
111 -1454 1455 0
-1455 1587 0
112 -1455 1456 0
-1456 1588 0
113 -1456 1457 0
-1457 1589 0
114 -1457 1458 0
-1458 1590 0
115 -1458 1459 0
-1459 1591 0
116 -1459 1460 0
-1460 1592 0
117 -1460 1461 0
-1461 1593 0
118 -1461 1462 0
-1462 1594 0
119 -1462 1463 0
-1463 1595 0
120 -1463 1464 0
-1464 1596 0
121 -1464 1465 0
-1465 1597 0
122 -1465 1466 0
-1466 1598 0
123 -1466 1467 0
-1467 1599 0
124 -1467 1468 0
-1468 1600 0
125 -1468 1469 0
-1469 1601 0
126 -1469 1470 0
-1470 1602 0
127 -1470 1471 0
-1471 1603 0
128 -1471 1472 0
-1472 1604 0
129 -1472 1473 0
-1473 1605 0
130 -1473 1474 0
-1474 1606 0
131 -1474 1475 0
-1475 1607 0
132 -1475 1476 0
-1476 1608 0
133 -1476 1477 0
-1477 1609 0
134 -1477 1478 0
-1478 1610 0
135 -1478 1479 0
-1479 1611 0
136 -1479 1480 0
-1480 1612 0
137 -1480 1481 0
-1481 1613 0
138 -1481 1482 0
-1482 1614 0
139 -1482 1483 0
-1483 1615 0
140 -1483 1484 0
-1484 1616 0
141 -1484 0
10 1485 0
-1485 1617 0
11 -1485 1486 0
-1486 1618 0
12 -1486 1487 0
-1487 1619 0
13 -1487 1488 0
-1488 1620 0
14 -1488 1489 0
-1489 1621 0
15 -1489 1490 0
-1490 1622 0
16 -1490 1491 0
-1491 1623 0
17 -1491 1492 0
-1492 1624 0
18 -1492 1493 0
-1493 1625 0
19 -1493 1494 0
-1494 1626 0
20 -1494 1495 0
-1495 1627 0
21 -1495 1496 0
-1496 1628 0
22 -1496 1497 0
-1497 1629 0
23 -1497 1498 0
-1498 1630 0
24 -1498 1499 0
-1499 1631 0
25 -1499 1500 0
-1500 1632 0
26 -1500 1501 0
-1501 1633 0
27 -1501 1502 0
-1502 1634 0
28 -1502 1503 0
-1503 1635 0
29 -1503 1504 0
-1504 1636 0
30 -1504 1505 0
-1505 1637 0
31 -1505 1506 0
-1506 1638 0
32 -1506 1507 0
-1507 1639 0
33 -1507 1508 0
-1508 1640 0
34 -1508 1509 0
-1509 1641 0
35 -1509 1510 0
-1510 1642 0
36 -1510 1511 0
-1511 1643 0
37 -1511 1512 0
-1512 1644 0
38 -1512 1513 0
-1513 1645 0
39 -1513 1514 0
-1514 1646 0
40 -1514 1515 0
-1515 1647 0
41 -1515 1516 0
-1516 1648 0
42 -1516 1517 0
-1517 1649 0
43 -1517 1518 0
-1518 1650 0
44 -1518 1519 0
-1519 1651 0
45 -1519 1520 0
-1520 1652 0
46 -1520 1521 0
-1521 1653 0
47 -1521 1522 0
-1522 1654 0
48 -1522 1523 0
-1523 1655 0
49 -1523 1524 0
-1524 1656 0
50 -1524 1525 0
-1525 1657 0
51 -1525 1526 0
-1526 1658 0
52 -1526 1527 0
-1527 1659 0
53 -1527 1528 0
-1528 1660 0
54 -1528 1529 0
-1529 1661 0
55 -1529 1530 0
-1530 1662 0
56 -1530 1531 0
-1531 1663 0
57 -1531 1532 0
-1532 1664 0
58 -1532 1533 0
-1533 1665 0
59 -1533 1534 0
-1534 1666 0
60 -1534 1535 0
-1535 1667 0
61 -1535 1536 0
-1536 1668 0
62 -1536 1537 0
-1537 1669 0
63 -1537 1538 0
-1538 1670 0
64 -1538 1539 0
-1539 1671 0
65 -1539 1540 0
-1540 1672 0
66 -1540 1541 0
-1541 1673 0
67 -1541 1542 0
-1542 1674 0
68 -1542 1543 0
-1543 1675 0
69 -1543 1544 0
-1544 1676 0
70 -1544 1545 0
-1545 1677 0
71 -1545 1546 0
-1546 1678 0
72 -1546 1547 0
-1547 1679 0
73 -1547 1548 0
-1548 1680 0
74 -1548 1549 0
-1549 1681 0
75 -1549 1550 0
-1550 1682 0
76 -1550 1551 0
-1551 1683 0
77 -1551 1552 0
-1552 1684 0
78 -1552 1553 0
-1553 1685 0
79 -1553 1554 0
-1554 1686 0
80 -1554 1555 0
-1555 1687 0
81 -1555 1556 0
-1556 1688 0
82 -1556 1557 0
-1557 1689 0
83 -1557 1558 0
-1558 1690 0
84 -1558 1559 0
-1559 1691 0
85 -1559 1560 0
-1560 1692 0
86 -1560 1561 0
-1561 1693 0
87 -1561 1562 0
-1562 1694 0
88 -1562 1563 0
-1563 1695 0
89 -1563 1564 0
-1564 1696 0
90 -1564 1565 0
-1565 1697 0
91 -1565 1566 0
-1566 1698 0
92 -1566 1567 0
-1567 1699 0
93 -1567 1568 0
-1568 1700 0
94 -1568 1569 0
-1569 1701 0
95 -1569 1570 0
-1570 1702 0
96 -1570 1571 0
-1571 1703 0
97 -1571 1572 0
-1572 1704 0
98 -1572 1573 0
-1573 1705 0
99 -1573 1574 0
-1574 1706 0
100 -1574 1575 0
-1575 1707 0
101 -1575 1576 0
-1576 1708 0
102 -1576 1577 0
-1577 1709 0
103 -1577 1578 0
-1578 1710 0
104 -1578 1579 0
-1579 1711 0
105 -1579 1580 0
-1580 1712 0
106 -1580 1581 0
-1581 1713 0
107 -1581 1582 0
-1582 1714 0
108 -1582 1583 0
-1583 1715 0
109 -1583 1584 0
-1584 1716 0
110 -1584 1585 0
-1585 1717 0
111 -1585 1586 0
-1586 1718 0
112 -1586 1587 0
-1587 1719 0
113 -1587 1588 0
-1588 1720 0
114 -1588 1589 0
-1589 1721 0
115 -1589 1590 0
-1590 1722 0
116 -1590 1591 0
-1591 1723 0
117 -1591 1592 0
-1592 1724 0
118 -1592 1593 0
-1593 1725 0
119 -1593 1594 0
-1594 1726 0
120 -1594 1595 0
-1595 1727 0
121 -1595 1596 0
-1596 1728 0
122 -1596 1597 0
-1597 1729 0
123 -1597 1598 0
-1598 1730 0
124 -1598 1599 0
-1599 1731 0
125 -1599 1600 0
-1600 1732 0
126 -1600 1601 0
-1601 1733 0
127 -1601 1602 0
-1602 1734 0
128 -1602 1603 0
-1603 1735 0
129 -1603 1604 0
-1604 1736 0
130 -1604 1605 0
-1605 1737 0
131 -1605 1606 0
-1606 1738 0
132 -1606 1607 0
-1607 1739 0
133 -1607 1608 0
-1608 1740 0
134 -1608 1609 0
-1609 1741 0
135 -1609 1610 0
-1610 1742 0
136 -1610 1611 0
-1611 1743 0
137 -1611 1612 0
-1612 1744 0
138 -1612 1613 0
-1613 1745 0
139 -1613 1614 0
-1614 1746 0
140 -1614 1615 0
-1615 1747 0
141 -1615 1616 0
-1616 1748 0
142 -1616 0
11 1617 0
-1617 1749 0
12 -1617 1618 0
-1618 1750 0
13 -1618 1619 0
-1619 1751 0
14 -1619 1620 0
-1620 1752 0
15 -1620 1621 0
-1621 1753 0
16 -1621 1622 0
-1622 1754 0
17 -1622 1623 0
-1623 1755 0
18 -1623 1624 0
-1624 1756 0
19 -1624 1625 0
-1625 1757 0
20 -1625 1626 0
-1626 1758 0
21 -1626 1627 0
-1627 1759 0
22 -1627 1628 0
-1628 1760 0
23 -1628 1629 0
-1629 1761 0
24 -1629 1630 0
-1630 1762 0
25 -1630 1631 0
-1631 1763 0
26 -1631 1632 0
-1632 1764 0
27 -1632 1633 0
-1633 1765 0
28 -1633 1634 0
-1634 1766 0
29 -1634 1635 0
-1635 1767 0
30 -1635 1636 0
-1636 1768 0
31 -1636 1637 0
-1637 1769 0
32 -1637 1638 0
-1638 1770 0
33 -1638 1639 0
-1639 1771 0
34 -1639 1640 0
-1640 1772 0
35 -1640 1641 0
-1641 1773 0
36 -1641 1642 0
-1642 1774 0
37 -1642 1643 0
-1643 1775 0
38 -1643 1644 0
-1644 1776 0
39 -1644 1645 0
-1645 1777 0
40 -1645 1646 0
-1646 1778 0
41 -1646 1647 0
-1647 1779 0
42 -1647 1648 0
-1648 1780 0
43 -1648 1649 0
-1649 1781 0
44 -1649 1650 0
-1650 1782 0
45 -1650 1651 0
-1651 1783 0
46 -1651 1652 0
-1652 1784 0
47 -1652 1653 0
-1653 1785 0
48 -1653 1654 0
-1654 1786 0
49 -1654 1655 0
-1655 1787 0
50 -1655 1656 0
-1656 1788 0
51 -1656 1657 0
-1657 1789 0
52 -1657 1658 0
-1658 1790 0
53 -1658 1659 0
-1659 1791 0
54 -1659 1660 0
-1660 1792 0
55 -1660 1661 0
-1661 1793 0
56 -1661 1662 0
-1662 1794 0
57 -1662 1663 0
-1663 1795 0
58 -1663 1664 0
-1664 1796 0
59 -1664 1665 0
-1665 1797 0
60 -1665 1666 0
-1666 1798 0
61 -1666 1667 0
-1667 1799 0
62 -1667 1668 0
-1668 1800 0
63 -1668 1669 0
-1669 1801 0
64 -1669 1670 0
-1670 1802 0
65 -1670 1671 0
-1671 1803 0
66 -1671 1672 0
-1672 1804 0
67 -1672 1673 0
-1673 1805 0
68 -1673 1674 0
-1674 1806 0
69 -1674 1675 0
-1675 1807 0
70 -1675 1676 0
-1676 1808 0
71 -1676 1677 0
-1677 1809 0
72 -1677 1678 0
-1678 1810 0
73 -1678 1679 0
-1679 1811 0
74 -1679 1680 0
-1680 1812 0
75 -1680 1681 0
-1681 1813 0
76 -1681 1682 0
-1682 1814 0
77 -1682 1683 0
-1683 1815 0
78 -1683 1684 0
-1684 1816 0
79 -1684 1685 0
-1685 1817 0
80 -1685 1686 0
-1686 1818 0
81 -1686 1687 0
-1687 1819 0
82 -1687 1688 0
-1688 1820 0
83 -1688 1689 0
-1689 1821 0
84 -1689 1690 0
-1690 1822 0
85 -1690 1691 0
-1691 1823 0
86 -1691 1692 0
-1692 1824 0
87 -1692 1693 0
-1693 1825 0
88 -1693 1694 0
-1694 1826 0
89 -1694 1695 0
-1695 1827 0
90 -1695 1696 0
-1696 1828 0
91 -1696 1697 0
-1697 1829 0
92 -1697 1698 0
-1698 1830 0
93 -1698 1699 0
-1699 1831 0
94 -1699 1700 0
-1700 1832 0
95 -1700 1701 0
-1701 1833 0
96 -1701 1702 0
-1702 1834 0
97 -1702 1703 0
-1703 1835 0
98 -1703 1704 0
-1704 1836 0
99 -1704 1705 0
-1705 1837 0
100 -1705 1706 0
-1706 1838 0
101 -1706 1707 0
-1707 1839 0
102 -1707 1708 0
-1708 1840 0
103 -1708 1709 0
-1709 1841 0
104 -1709 1710 0
-1710 1842 0
105 -1710 1711 0
-1711 1843 0
106 -1711 1712 0
-1712 1844 0
107 -1712 1713 0
-1713 1845 0
108 -1713 1714 0
-1714 1846 0
109 -1714 1715 0
-1715 1847 0
110 -1715 1716 0
-1716 1848 0
111 -1716 1717 0
-1717 1849 0
112 -1717 1718 0
-1718 1850 0
113 -1718 1719 0
-1719 1851 0
114 -1719 1720 0
-1720 1852 0
115 -1720 1721 0
-1721 1853 0
116 -1721 1722 0
-1722 1854 0
117 -1722 1723 0
-1723 1855 0
118 -1723 1724 0
-1724 1856 0
119 -1724 1725 0
-1725 1857 0
120 -1725 1726 0
-1726 1858 0
121 -1726 1727 0
-1727 1859 0
122 -1727 1728 0
-1728 1860 0
123 -1728 1729 0
-1729 1861 0
124 -1729 1730 0
-1730 1862 0
125 -1730 1731 0
-1731 1863 0
126 -1731 1732 0
-1732 1864 0
127 -1732 1733 0
-1733 1865 0
128 -1733 1734 0
-1734 1866 0
129 -1734 1735 0
-1735 1867 0
130 -1735 1736 0
-1736 1868 0
131 -1736 1737 0
-1737 1869 0
132 -1737 1738 0
-1738 1870 0
133 -1738 1739 0
-1739 1871 0
134 -1739 1740 0
-1740 1872 0
135 -1740 1741 0
-1741 1873 0
136 -1741 1742 0
-1742 1874 0
137 -1742 1743 0
-1743 1875 0
138 -1743 1744 0
-1744 1876 0
139 -1744 1745 0
-1745 1877 0
140 -1745 1746 0
-1746 1878 0
141 -1746 1747 0
-1747 1879 0
142 -1747 1748 0
-1748 1880 0
143 -1748 0
12 1749 0
-1749 1881 0
13 -1749 1750 0
-1750 1882 0
14 -1750 1751 0
-1751 1883 0
15 -1751 1752 0
-1752 1884 0
16 -1752 1753 0
-1753 1885 0
17 -1753 1754 0
-1754 1886 0
18 -1754 1755 0
-1755 1887 0
19 -1755 1756 0
-1756 1888 0
20 -1756 1757 0
-1757 1889 0
21 -1757 1758 0
-1758 1890 0
22 -1758 1759 0
-1759 1891 0
23 -1759 1760 0
-1760 1892 0
24 -1760 1761 0
-1761 1893 0
25 -1761 1762 0
-1762 1894 0
26 -1762 1763 0
-1763 1895 0
27 -1763 1764 0
-1764 1896 0
28 -1764 1765 0
-1765 1897 0
29 -1765 1766 0
-1766 1898 0
30 -1766 1767 0
-1767 1899 0
31 -1767 1768 0
-1768 1900 0
32 -1768 1769 0
-1769 1901 0
33 -1769 1770 0
-1770 1902 0
34 -1770 1771 0
-1771 1903 0
35 -1771 1772 0
-1772 1904 0
36 -1772 1773 0
-1773 1905 0
37 -1773 1774 0
-1774 1906 0
38 -1774 1775 0
-1775 1907 0
39 -1775 1776 0
-1776 1908 0
40 -1776 1777 0
-1777 1909 0
41 -1777 1778 0
-1778 1910 0
42 -1778 1779 0
-1779 1911 0
43 -1779 1780 0
-1780 1912 0
44 -1780 1781 0
-1781 1913 0
45 -1781 1782 0
-1782 1914 0
46 -1782 1783 0
-1783 1915 0
47 -1783 1784 0
-1784 1916 0
48 -1784 1785 0
-1785 1917 0
49 -1785 1786 0
-1786 1918 0
50 -1786 1787 0
-1787 1919 0
51 -1787 1788 0
-1788 1920 0
52 -1788 1789 0
-1789 1921 0
53 -1789 1790 0
-1790 1922 0
54 -1790 1791 0
-1791 1923 0
55 -1791 1792 0
-1792 1924 0
56 -1792 1793 0
-1793 1925 0
57 -1793 1794 0
-1794 1926 0
58 -1794 1795 0
-1795 1927 0
59 -1795 1796 0
-1796 1928 0
60 -1796 1797 0
-1797 1929 0
61 -1797 1798 0
-1798 1930 0
62 -1798 1799 0
-1799 1931 0
63 -1799 1800 0
-1800 1932 0
64 -1800 1801 0
-1801 1933 0
65 -1801 1802 0
-1802 1934 0
66 -1802 1803 0
-1803 1935 0
67 -1803 1804 0
-1804 1936 0
68 -1804 1805 0
-1805 1937 0
69 -1805 1806 0
-1806 1938 0
70 -1806 1807 0
-1807 1939 0
71 -1807 1808 0
-1808 1940 0
72 -1808 1809 0
-1809 1941 0
73 -1809 1810 0
-1810 1942 0
74 -1810 1811 0
-1811 1943 0
75 -1811 1812 0
-1812 1944 0
76 -1812 1813 0
-1813 1945 0
77 -1813 1814 0
-1814 1946 0
78 -1814 1815 0
-1815 1947 0
79 -1815 1816 0
-1816 1948 0
80 -1816 1817 0
-1817 1949 0
81 -1817 1818 0
-1818 1950 0
82 -1818 1819 0
-1819 1951 0
83 -1819 1820 0
-1820 1952 0
84 -1820 1821 0
-1821 1953 0
85 -1821 1822 0
-1822 1954 0
86 -1822 1823 0
-1823 1955 0
87 -1823 1824 0
-1824 1956 0
88 -1824 1825 0
-1825 1957 0
89 -1825 1826 0
-1826 1958 0
90 -1826 1827 0
-1827 1959 0
91 -1827 1828 0
-1828 1960 0
92 -1828 1829 0
-1829 1961 0
93 -1829 1830 0
-1830 1962 0
94 -1830 1831 0
-1831 1963 0
95 -1831 1832 0
-1832 1964 0
96 -1832 1833 0
-1833 1965 0
97 -1833 1834 0
-1834 1966 0
98 -1834 1835 0
-1835 1967 0
99 -1835 1836 0
-1836 1968 0
100 -1836 1837 0
-1837 1969 0
101 -1837 1838 0
-1838 1970 0
102 -1838 1839 0
-1839 1971 0
103 -1839 1840 0
-1840 1972 0
104 -1840 1841 0
-1841 1973 0
105 -1841 1842 0
-1842 1974 0
106 -1842 1843 0
-1843 1975 0
107 -1843 1844 0
-1844 1976 0
108 -1844 1845 0
-1845 1977 0
109 -1845 1846 0
-1846 1978 0
110 -1846 1847 0
-1847 1979 0
111 -1847 1848 0
-1848 1980 0
112 -1848 1849 0
-1849 1981 0
113 -1849 1850 0
-1850 1982 0
114 -1850 1851 0
-1851 1983 0
115 -1851 1852 0
-1852 1984 0
116 -1852 1853 0
-1853 1985 0
117 -1853 1854 0
-1854 1986 0
118 -1854 1855 0
-1855 1987 0
119 -1855 1856 0
-1856 1988 0
120 -1856 1857 0
-1857 1989 0
121 -1857 1858 0
-1858 1990 0
122 -1858 1859 0
-1859 1991 0
123 -1859 1860 0
-1860 1992 0
124 -1860 1861 0
-1861 1993 0
125 -1861 1862 0
-1862 1994 0
126 -1862 1863 0
-1863 1995 0
127 -1863 1864 0
-1864 1996 0
128 -1864 1865 0
-1865 1997 0
129 -1865 1866 0
-1866 1998 0
130 -1866 1867 0
-1867 1999 0
131 -1867 1868 0
-1868 2000 0
132 -1868 1869 0
-1869 2001 0
133 -1869 1870 0
-1870 2002 0
134 -1870 1871 0
-1871 2003 0
135 -1871 1872 0
-1872 2004 0
136 -1872 1873 0
-1873 2005 0
137 -1873 1874 0
-1874 2006 0
138 -1874 1875 0
-1875 2007 0
139 -1875 1876 0
-1876 2008 0
140 -1876 1877 0
-1877 2009 0
141 -1877 1878 0
-1878 2010 0
142 -1878 1879 0
-1879 2011 0
143 -1879 1880 0
-1880 2012 0
144 -1880 0
13 1881 0
-1881 2013 0
14 -1881 1882 0
-1882 2014 0
15 -1882 1883 0
-1883 2015 0
16 -1883 1884 0
-1884 2016 0
17 -1884 1885 0
-1885 2017 0
18 -1885 1886 0
-1886 2018 0
19 -1886 1887 0
-1887 2019 0
20 -1887 1888 0
-1888 2020 0
21 -1888 1889 0
-1889 2021 0
22 -1889 1890 0
-1890 2022 0
23 -1890 1891 0
-1891 2023 0
24 -1891 1892 0
-1892 2024 0
25 -1892 1893 0
-1893 2025 0
26 -1893 1894 0
-1894 2026 0
27 -1894 1895 0
-1895 2027 0
28 -1895 1896 0
-1896 2028 0
29 -1896 1897 0
-1897 2029 0
30 -1897 1898 0
-1898 2030 0
31 -1898 1899 0
-1899 2031 0
32 -1899 1900 0
-1900 2032 0
33 -1900 1901 0
-1901 2033 0
34 -1901 1902 0
-1902 2034 0
35 -1902 1903 0
-1903 2035 0
36 -1903 1904 0
-1904 2036 0
37 -1904 1905 0
-1905 2037 0
38 -1905 1906 0
-1906 2038 0
39 -1906 1907 0
-1907 2039 0
40 -1907 1908 0
-1908 2040 0
41 -1908 1909 0
-1909 2041 0
42 -1909 1910 0
-1910 2042 0
43 -1910 1911 0
-1911 2043 0
44 -1911 1912 0
-1912 2044 0
45 -1912 1913 0
-1913 2045 0
46 -1913 1914 0
-1914 2046 0
47 -1914 1915 0
-1915 2047 0
48 -1915 1916 0
-1916 2048 0
49 -1916 1917 0
-1917 2049 0
50 -1917 1918 0
-1918 2050 0
51 -1918 1919 0
-1919 2051 0
52 -1919 1920 0
-1920 2052 0
53 -1920 1921 0
-1921 2053 0
54 -1921 1922 0
-1922 2054 0
55 -1922 1923 0
-1923 2055 0
56 -1923 1924 0
-1924 2056 0
57 -1924 1925 0
-1925 2057 0
58 -1925 1926 0
-1926 2058 0
59 -1926 1927 0
-1927 2059 0
60 -1927 1928 0
-1928 2060 0
61 -1928 1929 0
-1929 2061 0
62 -1929 1930 0
-1930 2062 0
63 -1930 1931 0
-1931 2063 0
64 -1931 1932 0
-1932 2064 0
65 -1932 1933 0
-1933 2065 0
66 -1933 1934 0
-1934 2066 0
67 -1934 1935 0
-1935 2067 0
68 -1935 1936 0
-1936 2068 0
69 -1936 1937 0
-1937 2069 0
70 -1937 1938 0
-1938 2070 0
71 -1938 1939 0
-1939 2071 0
72 -1939 1940 0
-1940 2072 0
73 -1940 1941 0
-1941 2073 0
74 -1941 1942 0
-1942 2074 0
75 -1942 1943 0
-1943 2075 0
76 -1943 1944 0
-1944 2076 0
77 -1944 1945 0
-1945 2077 0
78 -1945 1946 0
-1946 2078 0
79 -1946 1947 0
-1947 2079 0
80 -1947 1948 0
-1948 2080 0
81 -1948 1949 0
-1949 2081 0
82 -1949 1950 0
-1950 2082 0
83 -1950 1951 0
-1951 2083 0
84 -1951 1952 0
-1952 2084 0
85 -1952 1953 0
-1953 2085 0
86 -1953 1954 0
-1954 2086 0
87 -1954 1955 0
-1955 2087 0
88 -1955 1956 0
-1956 2088 0
89 -1956 1957 0
-1957 2089 0
90 -1957 1958 0
-1958 2090 0
91 -1958 1959 0
-1959 2091 0
92 -1959 1960 0
-1960 2092 0
93 -1960 1961 0
-1961 2093 0
94 -1961 1962 0
-1962 2094 0
95 -1962 1963 0
-1963 2095 0
96 -1963 1964 0
-1964 2096 0
97 -1964 1965 0
-1965 2097 0
98 -1965 1966 0
-1966 2098 0
99 -1966 1967 0
-1967 2099 0
100 -1967 1968 0
-1968 2100 0
101 -1968 1969 0
-1969 2101 0
102 -1969 1970 0
-1970 2102 0
103 -1970 1971 0
-1971 2103 0
104 -1971 1972 0
-1972 2104 0
105 -1972 1973 0
-1973 2105 0
106 -1973 1974 0
-1974 2106 0
107 -1974 1975 0
-1975 2107 0
108 -1975 1976 0
-1976 2108 0
109 -1976 1977 0
-1977 2109 0
110 -1977 1978 0
-1978 2110 0
111 -1978 1979 0
-1979 2111 0
112 -1979 1980 0
-1980 2112 0
113 -1980 1981 0
-1981 2113 0
114 -1981 1982 0
-1982 2114 0
115 -1982 1983 0
-1983 2115 0
116 -1983 1984 0
-1984 2116 0
117 -1984 1985 0
-1985 2117 0
118 -1985 1986 0
-1986 2118 0
119 -1986 1987 0
-1987 2119 0
120 -1987 1988 0
-1988 2120 0
121 -1988 1989 0
-1989 2121 0
122 -1989 1990 0
-1990 2122 0
123 -1990 1991 0
-1991 2123 0
124 -1991 1992 0
-1992 2124 0
125 -1992 1993 0
-1993 2125 0
126 -1993 1994 0
-1994 2126 0
127 -1994 1995 0
-1995 2127 0
128 -1995 1996 0
-1996 2128 0
129 -1996 1997 0
-1997 2129 0
130 -1997 1998 0
-1998 2130 0
131 -1998 1999 0
-1999 2131 0
132 -1999 2000 0
-2000 2132 0
133 -2000 2001 0
-2001 2133 0
134 -2001 2002 0
-2002 2134 0
135 -2002 2003 0
-2003 2135 0
136 -2003 2004 0
-2004 2136 0
137 -2004 2005 0
-2005 2137 0
138 -2005 2006 0
-2006 2138 0
139 -2006 2007 0
-2007 2139 0
140 -2007 2008 0
-2008 2140 0
141 -2008 2009 0
-2009 2141 0
142 -2009 2010 0
-2010 2142 0
143 -2010 2011 0
-2011 2143 0
144 -2011 2012 0
-2012 2144 0
145 -2012 0
14 2013 0
-2013 2145 0
15 -2013 2014 0
-2014 2146 0
16 -2014 2015 0
-2015 2147 0
17 -2015 2016 0
-2016 2148 0
18 -2016 2017 0
-2017 2149 0
19 -2017 2018 0
-2018 2150 0
20 -2018 2019 0
-2019 2151 0
21 -2019 2020 0
-2020 2152 0
22 -2020 2021 0
-2021 2153 0
23 -2021 2022 0
-2022 2154 0
24 -2022 2023 0
-2023 2155 0
25 -2023 2024 0
-2024 2156 0
26 -2024 2025 0
-2025 2157 0
27 -2025 2026 0
-2026 2158 0
28 -2026 2027 0
-2027 2159 0
29 -2027 2028 0
-2028 2160 0
30 -2028 2029 0
-2029 2161 0
31 -2029 2030 0
-2030 2162 0
32 -2030 2031 0
-2031 2163 0
33 -2031 2032 0
-2032 2164 0
34 -2032 2033 0
-2033 2165 0
35 -2033 2034 0
-2034 2166 0
36 -2034 2035 0
-2035 2167 0
37 -2035 2036 0
-2036 2168 0
38 -2036 2037 0
-2037 2169 0
39 -2037 2038 0
-2038 2170 0
40 -2038 2039 0
-2039 2171 0
41 -2039 2040 0
-2040 2172 0
42 -2040 2041 0
-2041 2173 0
43 -2041 2042 0
-2042 2174 0
44 -2042 2043 0
-2043 2175 0
45 -2043 2044 0
-2044 2176 0
46 -2044 2045 0
-2045 2177 0
47 -2045 2046 0
-2046 2178 0
48 -2046 2047 0
-2047 2179 0
49 -2047 2048 0
-2048 2180 0
50 -2048 2049 0
-2049 2181 0
51 -2049 2050 0
-2050 2182 0
52 -2050 2051 0
-2051 2183 0
53 -2051 2052 0
-2052 2184 0
54 -2052 2053 0
-2053 2185 0
55 -2053 2054 0
-2054 2186 0
56 -2054 2055 0
-2055 2187 0
57 -2055 2056 0
-2056 2188 0
58 -2056 2057 0
-2057 2189 0
59 -2057 2058 0
-2058 2190 0
60 -2058 2059 0
-2059 2191 0
61 -2059 2060 0
-2060 2192 0
62 -2060 2061 0
-2061 2193 0
63 -2061 2062 0
-2062 2194 0
64 -2062 2063 0
-2063 2195 0
65 -2063 2064 0
-2064 2196 0
66 -2064 2065 0
-2065 2197 0
67 -2065 2066 0
-2066 2198 0
68 -2066 2067 0
-2067 2199 0
69 -2067 2068 0
-2068 2200 0
70 -2068 2069 0
-2069 2201 0
71 -2069 2070 0
-2070 2202 0
72 -2070 2071 0
-2071 2203 0
73 -2071 2072 0
-2072 2204 0
74 -2072 2073 0
-2073 2205 0
75 -2073 2074 0
-2074 2206 0
76 -2074 2075 0
-2075 2207 0
77 -2075 2076 0
-2076 2208 0
78 -2076 2077 0
-2077 2209 0
79 -2077 2078 0
-2078 2210 0
80 -2078 2079 0
-2079 2211 0
81 -2079 2080 0
-2080 2212 0
82 -2080 2081 0
-2081 2213 0
83 -2081 2082 0
-2082 2214 0
84 -2082 2083 0
-2083 2215 0
85 -2083 2084 0
-2084 2216 0
86 -2084 2085 0
-2085 2217 0
87 -2085 2086 0
-2086 2218 0
88 -2086 2087 0
-2087 2219 0
89 -2087 2088 0
-2088 2220 0
90 -2088 2089 0
-2089 2221 0
91 -2089 2090 0
-2090 2222 0
92 -2090 2091 0
-2091 2223 0
93 -2091 2092 0
-2092 2224 0
94 -2092 2093 0
-2093 2225 0
95 -2093 2094 0
-2094 2226 0
96 -2094 2095 0
-2095 2227 0
97 -2095 2096 0
-2096 2228 0
98 -2096 2097 0
-2097 2229 0
99 -2097 2098 0
-2098 2230 0
100 -2098 2099 0
-2099 2231 0
101 -2099 2100 0
-2100 2232 0
102 -2100 2101 0
-2101 2233 0
103 -2101 2102 0
-2102 2234 0
104 -2102 2103 0
-2103 2235 0
105 -2103 2104 0
-2104 2236 0
106 -2104 2105 0
-2105 2237 0
107 -2105 2106 0
-2106 2238 0
108 -2106 2107 0
-2107 2239 0
109 -2107 2108 0
-2108 2240 0
110 -2108 2109 0
-2109 2241 0
111 -2109 2110 0
-2110 2242 0
112 -2110 2111 0
-2111 2243 0
113 -2111 2112 0
-2112 2244 0
114 -2112 2113 0
-2113 2245 0
115 -2113 2114 0
-2114 2246 0
116 -2114 2115 0
-2115 2247 0
117 -2115 2116 0
-2116 2248 0
118 -2116 2117 0
-2117 2249 0
119 -2117 2118 0
-2118 2250 0
120 -2118 2119 0
-2119 2251 0
121 -2119 2120 0
-2120 2252 0
122 -2120 2121 0
-2121 2253 0
123 -2121 2122 0
-2122 2254 0
124 -2122 2123 0
-2123 2255 0
125 -2123 2124 0
-2124 2256 0
126 -2124 2125 0
-2125 2257 0
127 -2125 2126 0
-2126 2258 0
128 -2126 2127 0
-2127 2259 0
129 -2127 2128 0
-2128 2260 0
130 -2128 2129 0
-2129 2261 0
131 -2129 2130 0
-2130 2262 0
132 -2130 2131 0
-2131 2263 0
133 -2131 2132 0
-2132 2264 0
134 -2132 2133 0
-2133 2265 0
135 -2133 2134 0
-2134 2266 0
136 -2134 2135 0
-2135 2267 0
137 -2135 2136 0
-2136 2268 0
138 -2136 2137 0
-2137 2269 0
139 -2137 2138 0
-2138 2270 0
140 -2138 2139 0
-2139 2271 0
141 -2139 2140 0
-2140 2272 0
142 -2140 2141 0
-2141 2273 0
143 -2141 2142 0
-2142 2274 0
144 -2142 2143 0
-2143 2275 0
145 -2143 2144 0
-2144 2276 0
146 -2144 0
15 2145 0
-2145 2277 0
16 -2145 2146 0
-2146 2278 0
17 -2146 2147 0
-2147 2279 0
18 -2147 2148 0
-2148 2280 0
19 -2148 2149 0
-2149 2281 0
20 -2149 2150 0
-2150 2282 0
21 -2150 2151 0
-2151 2283 0
22 -2151 2152 0
-2152 2284 0
23 -2152 2153 0
-2153 2285 0
24 -2153 2154 0
-2154 2286 0
25 -2154 2155 0
-2155 2287 0
26 -2155 2156 0
-2156 2288 0
27 -2156 2157 0
-2157 2289 0
28 -2157 2158 0
-2158 2290 0
29 -2158 2159 0
-2159 2291 0
30 -2159 2160 0
-2160 2292 0
31 -2160 2161 0
-2161 2293 0
32 -2161 2162 0
-2162 2294 0
33 -2162 2163 0
-2163 2295 0
34 -2163 2164 0
-2164 2296 0
35 -2164 2165 0
-2165 2297 0
36 -2165 2166 0
-2166 2298 0
37 -2166 2167 0
-2167 2299 0
38 -2167 2168 0
-2168 2300 0
39 -2168 2169 0
-2169 2301 0
40 -2169 2170 0
-2170 2302 0
41 -2170 2171 0
-2171 2303 0
42 -2171 2172 0
-2172 2304 0
43 -2172 2173 0
-2173 2305 0
44 -2173 2174 0
-2174 2306 0
45 -2174 2175 0
-2175 2307 0
46 -2175 2176 0
-2176 2308 0
47 -2176 2177 0
-2177 2309 0
48 -2177 2178 0
-2178 2310 0
49 -2178 2179 0
-2179 2311 0
50 -2179 2180 0
-2180 2312 0
51 -2180 2181 0
-2181 2313 0
52 -2181 2182 0
-2182 2314 0
53 -2182 2183 0
-2183 2315 0
54 -2183 2184 0
-2184 2316 0
55 -2184 2185 0
-2185 2317 0
56 -2185 2186 0
-2186 2318 0
57 -2186 2187 0
-2187 2319 0
58 -2187 2188 0
-2188 2320 0
59 -2188 2189 0
-2189 2321 0
60 -2189 2190 0
-2190 2322 0
61 -2190 2191 0
-2191 2323 0
62 -2191 2192 0
-2192 2324 0
63 -2192 2193 0
-2193 2325 0
64 -2193 2194 0
-2194 2326 0
65 -2194 2195 0
-2195 2327 0
66 -2195 2196 0
-2196 2328 0
67 -2196 2197 0
-2197 2329 0
68 -2197 2198 0
-2198 2330 0
69 -2198 2199 0
-2199 2331 0
70 -2199 2200 0
-2200 2332 0
71 -2200 2201 0
-2201 2333 0
72 -2201 2202 0
-2202 2334 0
73 -2202 2203 0
-2203 2335 0
74 -2203 2204 0
-2204 2336 0
75 -2204 2205 0
-2205 2337 0
76 -2205 2206 0
-2206 2338 0
77 -2206 2207 0
-2207 2339 0
78 -2207 2208 0
-2208 2340 0
79 -2208 2209 0
-2209 2341 0
80 -2209 2210 0
-2210 2342 0
81 -2210 2211 0
-2211 2343 0
82 -2211 2212 0
-2212 2344 0
83 -2212 2213 0
-2213 2345 0
84 -2213 2214 0
-2214 2346 0
85 -2214 2215 0
-2215 2347 0
86 -2215 2216 0
-2216 2348 0
87 -2216 2217 0
-2217 2349 0
88 -2217 2218 0
-2218 2350 0
89 -2218 2219 0
-2219 2351 0
90 -2219 2220 0
-2220 2352 0
91 -2220 2221 0
-2221 2353 0
92 -2221 2222 0
-2222 2354 0
93 -2222 2223 0
-2223 2355 0
94 -2223 2224 0
-2224 2356 0
95 -2224 2225 0
-2225 2357 0
96 -2225 2226 0
-2226 2358 0
97 -2226 2227 0
-2227 2359 0
98 -2227 2228 0
-2228 2360 0
99 -2228 2229 0
-2229 2361 0
100 -2229 2230 0
-2230 2362 0
101 -2230 2231 0
-2231 2363 0
102 -2231 2232 0
-2232 2364 0
103 -2232 2233 0
-2233 2365 0
104 -2233 2234 0
-2234 2366 0
105 -2234 2235 0
-2235 2367 0
106 -2235 2236 0
-2236 2368 0
107 -2236 2237 0
-2237 2369 0
108 -2237 2238 0
-2238 2370 0
109 -2238 2239 0
-2239 2371 0
110 -2239 2240 0
-2240 2372 0
111 -2240 2241 0
-2241 2373 0
112 -2241 2242 0
-2242 2374 0
113 -2242 2243 0
-2243 2375 0
114 -2243 2244 0
-2244 2376 0
115 -2244 2245 0
-2245 2377 0
116 -2245 2246 0
-2246 2378 0
117 -2246 2247 0
-2247 2379 0
118 -2247 2248 0
-2248 2380 0
119 -2248 2249 0
-2249 2381 0
120 -2249 2250 0
-2250 2382 0
121 -2250 2251 0
-2251 2383 0
122 -2251 2252 0
-2252 2384 0
123 -2252 2253 0
-2253 2385 0
124 -2253 2254 0
-2254 2386 0
125 -2254 2255 0
-2255 2387 0
126 -2255 2256 0
-2256 2388 0
127 -2256 2257 0
-2257 2389 0
128 -2257 2258 0
-2258 2390 0
129 -2258 2259 0
-2259 2391 0
130 -2259 2260 0
-2260 2392 0
131 -2260 2261 0
-2261 2393 0
132 -2261 2262 0
-2262 2394 0
133 -2262 2263 0
-2263 2395 0
134 -2263 2264 0
-2264 2396 0
135 -2264 2265 0
-2265 2397 0
136 -2265 2266 0
-2266 2398 0
137 -2266 2267 0
-2267 2399 0
138 -2267 2268 0
-2268 2400 0
139 -2268 2269 0
-2269 2401 0
140 -2269 2270 0
-2270 2402 0
141 -2270 2271 0
-2271 2403 0
142 -2271 2272 0
-2272 2404 0
143 -2272 2273 0
-2273 2405 0
144 -2273 2274 0
-2274 2406 0
145 -2274 2275 0
-2275 2407 0
146 -2275 2276 0
-2276 2408 0
147 -2276 0
16 2277 0
17 -2277 2278 0
18 -2278 2279 0
19 -2279 2280 0
20 -2280 2281 0
21 -2281 2282 0
22 -2282 2283 0
23 -2283 2284 0
24 -2284 2285 0
25 -2285 2286 0
26 -2286 2287 0
27 -2287 2288 0
28 -2288 2289 0
29 -2289 2290 0
30 -2290 2291 0
31 -2291 2292 0
32 -2292 2293 0
33 -2293 2294 0
34 -2294 2295 0
35 -2295 2296 0
36 -2296 2297 0
37 -2297 2298 0
38 -2298 2299 0
39 -2299 2300 0
40 -2300 2301 0
41 -2301 2302 0
42 -2302 2303 0
43 -2303 2304 0
44 -2304 2305 0
45 -2305 2306 0
46 -2306 2307 0
47 -2307 2308 0
48 -2308 2309 0
49 -2309 2310 0
50 -2310 2311 0
51 -2311 2312 0
52 -2312 2313 0
53 -2313 2314 0
54 -2314 2315 0
55 -2315 2316 0
56 -2316 2317 0
57 -2317 2318 0
58 -2318 2319 0
59 -2319 2320 0
60 -2320 2321 0
61 -2321 2322 0
62 -2322 2323 0
63 -2323 2324 0
64 -2324 2325 0
65 -2325 2326 0
66 -2326 2327 0
67 -2327 2328 0
68 -2328 2329 0
69 -2329 2330 0
70 -2330 2331 0
71 -2331 2332 0
72 -2332 2333 0
73 -2333 2334 0
74 -2334 2335 0
75 -2335 2336 0
76 -2336 2337 0
77 -2337 2338 0
78 -2338 2339 0
79 -2339 2340 0
80 -2340 2341 0
81 -2341 2342 0
82 -2342 2343 0
83 -2343 2344 0
84 -2344 2345 0
85 -2345 2346 0
86 -2346 2347 0
87 -2347 2348 0
88 -2348 2349 0
89 -2349 2350 0
90 -2350 2351 0
91 -2351 2352 0
92 -2352 2353 0
93 -2353 2354 0
94 -2354 2355 0
95 -2355 2356 0
96 -2356 2357 0
97 -2357 2358 0
98 -2358 2359 0
99 -2359 2360 0
100 -2360 2361 0
101 -2361 2362 0
102 -2362 2363 0
103 -2363 2364 0
104 -2364 2365 0
105 -2365 2366 0
106 -2366 2367 0
107 -2367 2368 0
108 -2368 2369 0
109 -2369 2370 0
110 -2370 2371 0
111 -2371 2372 0
112 -2372 2373 0
113 -2373 2374 0
114 -2374 2375 0
115 -2375 2376 0
116 -2376 2377 0
117 -2377 2378 0
118 -2378 2379 0
119 -2379 2380 0
120 -2380 2381 0
121 -2381 2382 0
122 -2382 2383 0
123 -2383 2384 0
124 -2384 2385 0
125 -2385 2386 0
126 -2386 2387 0
127 -2387 2388 0
128 -2388 2389 0
129 -2389 2390 0
130 -2390 2391 0
131 -2391 2392 0
132 -2392 2393 0
133 -2393 2394 0
134 -2394 2395 0
135 -2395 2396 0
136 -2396 2397 0
137 -2397 2398 0
138 -2398 2399 0
139 -2399 2400 0
140 -2400 2401 0
141 -2401 2402 0
142 -2402 2403 0
143 -2403 2404 0
144 -2404 2405 0
145 -2405 2406 0
146 -2406 2407 0
147 -2407 2408 0
148 -2408 0
-1 2409 0
-2409 2410 0
-2 -2409 2411 0
-2411 2412 0
-3 -2411 2413 0
-2413 2414 0
-4 -2413 2415 0
-2415 2416 0
-5 -2415 2417 0
-2417 2418 0
-6 -2417 2419 0
-2419 2420 0
-7 -2419 2421 0
-2421 2422 0
-8 -2421 2423 0
-2423 2424 0
-9 -2423 2425 0
-2425 2426 0
-10 -2425 2427 0
-2427 2428 0
-11 -2427 2429 0
-2429 2430 0
-12 -2429 2431 0
-2431 2432 0
-13 -2431 2433 0
-2433 2434 0
-14 -2433 2435 0
-2435 2436 0
-15 -2435 2437 0
-2437 2438 0
-16 -2437 2439 0
-2439 2440 0
-17 -2439 0
-2 2410 0
-2410 2441 0
-3 -2410 2412 0
-2412 2442 0
-4 -2412 2414 0
-2414 2443 0
-5 -2414 2416 0
-2416 2444 0
-6 -2416 2418 0
-2418 2445 0
-7 -2418 2420 0
-2420 2446 0
-8 -2420 2422 0
-2422 2447 0
-9 -2422 2424 0
-2424 2448 0
-10 -2424 2426 0
-2426 2449 0
-11 -2426 2428 0
-2428 2450 0
-12 -2428 2430 0
-2430 2451 0
-13 -2430 2432 0
-2432 2452 0
-14 -2432 2434 0
-2434 2453 0
-15 -2434 2436 0
-2436 2454 0
-16 -2436 2438 0
-2438 2455 0
-17 -2438 2440 0
-2440 2456 0
-18 -2440 0
-3 2441 0
-2441 2457 0
-4 -2441 2442 0
-2442 2458 0
-5 -2442 2443 0
-2443 2459 0
-6 -2443 2444 0
-2444 2460 0
-7 -2444 2445 0
-2445 2461 0
-8 -2445 2446 0
-2446 2462 0
-9 -2446 2447 0
-2447 2463 0
-10 -2447 2448 0
-2448 2464 0
-11 -2448 2449 0
-2449 2465 0
-12 -2449 2450 0
-2450 2466 0
-13 -2450 2451 0
-2451 2467 0
-14 -2451 2452 0
-2452 2468 0
-15 -2452 2453 0
-2453 2469 0
-16 -2453 2454 0
-2454 2470 0
-17 -2454 2455 0
-2455 2471 0
-18 -2455 2456 0
-2456 2472 0
-19 -2456 0
-4 2457 0
-2457 2473 0
-5 -2457 2458 0
-2458 2474 0
-6 -2458 2459 0
-2459 2475 0
-7 -2459 2460 0
-2460 2476 0
-8 -2460 2461 0
-2461 2477 0
-9 -2461 2462 0
-2462 2478 0
-10 -2462 2463 0
-2463 2479 0
-11 -2463 2464 0
-2464 2480 0
-12 -2464 2465 0
-2465 2481 0
-13 -2465 2466 0
-2466 2482 0
-14 -2466 2467 0
-2467 2483 0
-15 -2467 2468 0
-2468 2484 0
-16 -2468 2469 0
-2469 2485 0
-17 -2469 2470 0
-2470 2486 0
-18 -2470 2471 0
-2471 2487 0
-19 -2471 2472 0
-2472 2488 0
-20 -2472 0
-5 2473 0
-2473 2489 0
-6 -2473 2474 0
-2474 2490 0
-7 -2474 2475 0
-2475 2491 0
-8 -2475 2476 0
-2476 2492 0
-9 -2476 2477 0
-2477 2493 0
-10 -2477 2478 0
-2478 2494 0
-11 -2478 2479 0
-2479 2495 0
-12 -2479 2480 0
-2480 2496 0
-13 -2480 2481 0
-2481 2497 0
-14 -2481 2482 0
-2482 2498 0
-15 -2482 2483 0
-2483 2499 0
-16 -2483 2484 0
-2484 2500 0
-17 -2484 2485 0
-2485 2501 0
-18 -2485 2486 0
-2486 2502 0
-19 -2486 2487 0
-2487 2503 0
-20 -2487 2488 0
-2488 2504 0
-21 -2488 0
-6 2489 0
-2489 2505 0
-7 -2489 2490 0
-2490 2506 0
-8 -2490 2491 0
-2491 2507 0
-9 -2491 2492 0
-2492 2508 0
-10 -2492 2493 0
-2493 2509 0
-11 -2493 2494 0
-2494 2510 0
-12 -2494 2495 0
-2495 2511 0
-13 -2495 2496 0
-2496 2512 0
-14 -2496 2497 0
-2497 2513 0
-15 -2497 2498 0
-2498 2514 0
-16 -2498 2499 0
-2499 2515 0
-17 -2499 2500 0
-2500 2516 0
-18 -2500 2501 0
-2501 2517 0
-19 -2501 2502 0
-2502 2518 0
-20 -2502 2503 0
-2503 2519 0
-21 -2503 2504 0
-2504 2520 0
-22 -2504 0
-7 2505 0
-2505 2521 0
-8 -2505 2506 0
-2506 2522 0
-9 -2506 2507 0
-2507 2523 0
-10 -2507 2508 0
-2508 2524 0
-11 -2508 2509 0
-2509 2525 0
-12 -2509 2510 0
-2510 2526 0
-13 -2510 2511 0
-2511 2527 0
-14 -2511 2512 0
-2512 2528 0
-15 -2512 2513 0
-2513 2529 0
-16 -2513 2514 0
-2514 2530 0
-17 -2514 2515 0
-2515 2531 0
-18 -2515 2516 0
-2516 2532 0
-19 -2516 2517 0
-2517 2533 0
-20 -2517 2518 0
-2518 2534 0
-21 -2518 2519 0
-2519 2535 0
-22 -2519 2520 0
-2520 2536 0
-23 -2520 0
-8 2521 0
-2521 2537 0
-9 -2521 2522 0
-2522 2538 0
-10 -2522 2523 0
-2523 2539 0
-11 -2523 2524 0
-2524 2540 0
-12 -2524 2525 0
-2525 2541 0
-13 -2525 2526 0
-2526 2542 0
-14 -2526 2527 0
-2527 2543 0
-15 -2527 2528 0
-2528 2544 0
-16 -2528 2529 0
-2529 2545 0
-17 -2529 2530 0
-2530 2546 0
-18 -2530 2531 0
-2531 2547 0
-19 -2531 2532 0
-2532 2548 0
-20 -2532 2533 0
-2533 2549 0
-21 -2533 2534 0
-2534 2550 0
-22 -2534 2535 0
-2535 2551 0
-23 -2535 2536 0
-2536 2552 0
-24 -2536 0
-9 2537 0
-2537 2553 0
-10 -2537 2538 0
-2538 2554 0
-11 -2538 2539 0
-2539 2555 0
-12 -2539 2540 0
-2540 2556 0
-13 -2540 2541 0
-2541 2557 0
-14 -2541 2542 0
-2542 2558 0
-15 -2542 2543 0
-2543 2559 0
-16 -2543 2544 0
-2544 2560 0
-17 -2544 2545 0
-2545 2561 0
-18 -2545 2546 0
-2546 2562 0
-19 -2546 2547 0
-2547 2563 0
-20 -2547 2548 0
-2548 2564 0
-21 -2548 2549 0
-2549 2565 0
-22 -2549 2550 0
-2550 2566 0
-23 -2550 2551 0
-2551 2567 0
-24 -2551 2552 0
-2552 2568 0
-25 -2552 0
-10 2553 0
-2553 2569 0
-11 -2553 2554 0
-2554 2570 0
-12 -2554 2555 0
-2555 2571 0
-13 -2555 2556 0
-2556 2572 0
-14 -2556 2557 0
-2557 2573 0
-15 -2557 2558 0
-2558 2574 0
-16 -2558 2559 0
-2559 2575 0
-17 -2559 2560 0
-2560 2576 0
-18 -2560 2561 0
-2561 2577 0
-19 -2561 2562 0
-2562 2578 0
-20 -2562 2563 0
-2563 2579 0
-21 -2563 2564 0
-2564 2580 0
-22 -2564 2565 0
-2565 2581 0
-23 -2565 2566 0
-2566 2582 0
-24 -2566 2567 0
-2567 2583 0
-25 -2567 2568 0
-2568 2584 0
-26 -2568 0
-11 2569 0
-2569 2585 0
-12 -2569 2570 0
-2570 2586 0
-13 -2570 2571 0
-2571 2587 0
-14 -2571 2572 0
-2572 2588 0
-15 -2572 2573 0
-2573 2589 0
-16 -2573 2574 0
-2574 2590 0
-17 -2574 2575 0
-2575 2591 0
-18 -2575 2576 0
-2576 2592 0
-19 -2576 2577 0
-2577 2593 0
-20 -2577 2578 0
-2578 2594 0
-21 -2578 2579 0
-2579 2595 0
-22 -2579 2580 0
-2580 2596 0
-23 -2580 2581 0
-2581 2597 0
-24 -2581 2582 0
-2582 2598 0
-25 -2582 2583 0
-2583 2599 0
-26 -2583 2584 0
-2584 2600 0
-27 -2584 0
-12 2585 0
-2585 2601 0
-13 -2585 2586 0
-2586 2602 0
-14 -2586 2587 0
-2587 2603 0
-15 -2587 2588 0
-2588 2604 0
-16 -2588 2589 0
-2589 2605 0
-17 -2589 2590 0
-2590 2606 0
-18 -2590 2591 0
-2591 2607 0
-19 -2591 2592 0
-2592 2608 0
-20 -2592 2593 0
-2593 2609 0
-21 -2593 2594 0
-2594 2610 0
-22 -2594 2595 0
-2595 2611 0
-23 -2595 2596 0
-2596 2612 0
-24 -2596 2597 0
-2597 2613 0
-25 -2597 2598 0
-2598 2614 0
-26 -2598 2599 0
-2599 2615 0
-27 -2599 2600 0
-2600 2616 0
-28 -2600 0
-13 2601 0
-2601 2617 0
-14 -2601 2602 0
-2602 2618 0
-15 -2602 2603 0
-2603 2619 0
-16 -2603 2604 0
-2604 2620 0
-17 -2604 2605 0
-2605 2621 0
-18 -2605 2606 0
-2606 2622 0
-19 -2606 2607 0
-2607 2623 0
-20 -2607 2608 0
-2608 2624 0
-21 -2608 2609 0
-2609 2625 0
-22 -2609 2610 0
-2610 2626 0
-23 -2610 2611 0
-2611 2627 0
-24 -2611 2612 0
-2612 2628 0
-25 -2612 2613 0
-2613 2629 0
-26 -2613 2614 0
-2614 2630 0
-27 -2614 2615 0
-2615 2631 0
-28 -2615 2616 0
-2616 2632 0
-29 -2616 0
-14 2617 0
-2617 2633 0
-15 -2617 2618 0
-2618 2634 0
-16 -2618 2619 0
-2619 2635 0
-17 -2619 2620 0
-2620 2636 0
-18 -2620 2621 0
-2621 2637 0
-19 -2621 2622 0
-2622 2638 0
-20 -2622 2623 0
-2623 2639 0
-21 -2623 2624 0
-2624 2640 0
-22 -2624 2625 0
-2625 2641 0
-23 -2625 2626 0
-2626 2642 0
-24 -2626 2627 0
-2627 2643 0
-25 -2627 2628 0
-2628 2644 0
-26 -2628 2629 0
-2629 2645 0
-27 -2629 2630 0
-2630 2646 0
-28 -2630 2631 0
-2631 2647 0
-29 -2631 2632 0
-2632 2648 0
-30 -2632 0
-15 2633 0
-2633 2649 0
-16 -2633 2634 0
-2634 2650 0
-17 -2634 2635 0
-2635 2651 0
-18 -2635 2636 0
-2636 2652 0
-19 -2636 2637 0
-2637 2653 0
-20 -2637 2638 0
-2638 2654 0
-21 -2638 2639 0
-2639 2655 0
-22 -2639 2640 0
-2640 2656 0
-23 -2640 2641 0
-2641 2657 0
-24 -2641 2642 0
-2642 2658 0
-25 -2642 2643 0
-2643 2659 0
-26 -2643 2644 0
-2644 2660 0
-27 -2644 2645 0
-2645 2661 0
-28 -2645 2646 0
-2646 2662 0
-29 -2646 2647 0
-2647 2663 0
-30 -2647 2648 0
-2648 2664 0
-31 -2648 0
-16 2649 0
-2649 2665 0
-17 -2649 2650 0
-2650 2666 0
-18 -2650 2651 0
-2651 2667 0
-19 -2651 2652 0
-2652 2668 0
-20 -2652 2653 0
-2653 2669 0
-21 -2653 2654 0
-2654 2670 0
-22 -2654 2655 0
-2655 2671 0
-23 -2655 2656 0
-2656 2672 0
-24 -2656 2657 0
-2657 2673 0
-25 -2657 2658 0
-2658 2674 0
-26 -2658 2659 0
-2659 2675 0
-27 -2659 2660 0
-2660 2676 0
-28 -2660 2661 0
-2661 2677 0
-29 -2661 2662 0
-2662 2678 0
-30 -2662 2663 0
-2663 2679 0
-31 -2663 2664 0
-2664 2680 0
-32 -2664 0
-17 2665 0
-2665 2681 0
-18 -2665 2666 0
-2666 2682 0
-19 -2666 2667 0
-2667 2683 0
-20 -2667 2668 0
-2668 2684 0
-21 -2668 2669 0
-2669 2685 0
-22 -2669 2670 0
-2670 2686 0
-23 -2670 2671 0
-2671 2687 0
-24 -2671 2672 0
-2672 2688 0
-25 -2672 2673 0
-2673 2689 0
-26 -2673 2674 0
-2674 2690 0
-27 -2674 2675 0
-2675 2691 0
-28 -2675 2676 0
-2676 2692 0
-29 -2676 2677 0
-2677 2693 0
-30 -2677 2678 0
-2678 2694 0
-31 -2678 2679 0
-2679 2695 0
-32 -2679 2680 0
-2680 2696 0
-33 -2680 0
-18 2681 0
-2681 2697 0
-19 -2681 2682 0
-2682 2698 0
-20 -2682 2683 0
-2683 2699 0
-21 -2683 2684 0
-2684 2700 0
-22 -2684 2685 0
-2685 2701 0
-23 -2685 2686 0
-2686 2702 0
-24 -2686 2687 0
-2687 2703 0
-25 -2687 2688 0
-2688 2704 0
-26 -2688 2689 0
-2689 2705 0
-27 -2689 2690 0
-2690 2706 0
-28 -2690 2691 0
-2691 2707 0
-29 -2691 2692 0
-2692 2708 0
-30 -2692 2693 0
-2693 2709 0
-31 -2693 2694 0
-2694 2710 0
-32 -2694 2695 0
-2695 2711 0
-33 -2695 2696 0
-2696 2712 0
-34 -2696 0
-19 2697 0
-2697 2713 0
-20 -2697 2698 0
-2698 2714 0
-21 -2698 2699 0
-2699 2715 0
-22 -2699 2700 0
-2700 2716 0
-23 -2700 2701 0
-2701 2717 0
-24 -2701 2702 0
-2702 2718 0
-25 -2702 2703 0
-2703 2719 0
-26 -2703 2704 0
-2704 2720 0
-27 -2704 2705 0
-2705 2721 0
-28 -2705 2706 0
-2706 2722 0
-29 -2706 2707 0
-2707 2723 0
-30 -2707 2708 0
-2708 2724 0
-31 -2708 2709 0
-2709 2725 0
-32 -2709 2710 0
-2710 2726 0
-33 -2710 2711 0
-2711 2727 0
-34 -2711 2712 0
-2712 2728 0
-35 -2712 0
-20 2713 0
-2713 2729 0
-21 -2713 2714 0
-2714 2730 0
-22 -2714 2715 0
-2715 2731 0
-23 -2715 2716 0
-2716 2732 0
-24 -2716 2717 0
-2717 2733 0
-25 -2717 2718 0
-2718 2734 0
-26 -2718 2719 0
-2719 2735 0
-27 -2719 2720 0
-2720 2736 0
-28 -2720 2721 0
-2721 2737 0
-29 -2721 2722 0
-2722 2738 0
-30 -2722 2723 0
-2723 2739 0
-31 -2723 2724 0
-2724 2740 0
-32 -2724 2725 0
-2725 2741 0
-33 -2725 2726 0
-2726 2742 0
-34 -2726 2727 0
-2727 2743 0
-35 -2727 2728 0
-2728 2744 0
-36 -2728 0
-21 2729 0
-2729 2745 0
-22 -2729 2730 0
-2730 2746 0
-23 -2730 2731 0
-2731 2747 0
-24 -2731 2732 0
-2732 2748 0
-25 -2732 2733 0
-2733 2749 0
-26 -2733 2734 0
-2734 2750 0
-27 -2734 2735 0
-2735 2751 0
-28 -2735 2736 0
-2736 2752 0
-29 -2736 2737 0
-2737 2753 0
-30 -2737 2738 0
-2738 2754 0
-31 -2738 2739 0
-2739 2755 0
-32 -2739 2740 0
-2740 2756 0
-33 -2740 2741 0
-2741 2757 0
-34 -2741 2742 0
-2742 2758 0
-35 -2742 2743 0
-2743 2759 0
-36 -2743 2744 0
-2744 2760 0
-37 -2744 0
-22 2745 0
-2745 2761 0
-23 -2745 2746 0
-2746 2762 0
-24 -2746 2747 0
-2747 2763 0
-25 -2747 2748 0
-2748 2764 0
-26 -2748 2749 0
-2749 2765 0
-27 -2749 2750 0
-2750 2766 0
-28 -2750 2751 0
-2751 2767 0
-29 -2751 2752 0
-2752 2768 0
-30 -2752 2753 0
-2753 2769 0
-31 -2753 2754 0
-2754 2770 0
-32 -2754 2755 0
-2755 2771 0
-33 -2755 2756 0
-2756 2772 0
-34 -2756 2757 0
-2757 2773 0
-35 -2757 2758 0
-2758 2774 0
-36 -2758 2759 0
-2759 2775 0
-37 -2759 2760 0
-2760 2776 0
-38 -2760 0
-23 2761 0
-2761 2777 0
-24 -2761 2762 0
-2762 2778 0
-25 -2762 2763 0
-2763 2779 0
-26 -2763 2764 0
-2764 2780 0
-27 -2764 2765 0
-2765 2781 0
-28 -2765 2766 0
-2766 2782 0
-29 -2766 2767 0
-2767 2783 0
-30 -2767 2768 0
-2768 2784 0
-31 -2768 2769 0
-2769 2785 0
-32 -2769 2770 0
-2770 2786 0
-33 -2770 2771 0
-2771 2787 0
-34 -2771 2772 0
-2772 2788 0
-35 -2772 2773 0
-2773 2789 0
-36 -2773 2774 0
-2774 2790 0
-37 -2774 2775 0
-2775 2791 0
-38 -2775 2776 0
-2776 2792 0
-39 -2776 0
-24 2777 0
-2777 2793 0
-25 -2777 2778 0
-2778 2794 0
-26 -2778 2779 0
-2779 2795 0
-27 -2779 2780 0
-2780 2796 0
-28 -2780 2781 0
-2781 2797 0
-29 -2781 2782 0
-2782 2798 0
-30 -2782 2783 0
-2783 2799 0
-31 -2783 2784 0
-2784 2800 0
-32 -2784 2785 0
-2785 2801 0
-33 -2785 2786 0
-2786 2802 0
-34 -2786 2787 0
-2787 2803 0
-35 -2787 2788 0
-2788 2804 0
-36 -2788 2789 0
-2789 2805 0
-37 -2789 2790 0
-2790 2806 0
-38 -2790 2791 0
-2791 2807 0
-39 -2791 2792 0
-2792 2808 0
-40 -2792 0
-25 2793 0
-2793 2809 0
-26 -2793 2794 0
-2794 2810 0
-27 -2794 2795 0
-2795 2811 0
-28 -2795 2796 0
-2796 2812 0
-29 -2796 2797 0
-2797 2813 0
-30 -2797 2798 0
-2798 2814 0
-31 -2798 2799 0
-2799 2815 0
-32 -2799 2800 0
-2800 2816 0
-33 -2800 2801 0
-2801 2817 0
-34 -2801 2802 0
-2802 2818 0
-35 -2802 2803 0
-2803 2819 0
-36 -2803 2804 0
-2804 2820 0
-37 -2804 2805 0
-2805 2821 0
-38 -2805 2806 0
-2806 2822 0
-39 -2806 2807 0
-2807 2823 0
-40 -2807 2808 0
-2808 2824 0
-41 -2808 0
-26 2809 0
-2809 2825 0
-27 -2809 2810 0
-2810 2826 0
-28 -2810 2811 0
-2811 2827 0
-29 -2811 2812 0
-2812 2828 0
-30 -2812 2813 0
-2813 2829 0
-31 -2813 2814 0
-2814 2830 0
-32 -2814 2815 0
-2815 2831 0
-33 -2815 2816 0
-2816 2832 0
-34 -2816 2817 0
-2817 2833 0
-35 -2817 2818 0
-2818 2834 0
-36 -2818 2819 0
-2819 2835 0
-37 -2819 2820 0
-2820 2836 0
-38 -2820 2821 0
-2821 2837 0
-39 -2821 2822 0
-2822 2838 0
-40 -2822 2823 0
-2823 2839 0
-41 -2823 2824 0
-2824 2840 0
-42 -2824 0
-27 2825 0
-2825 2841 0
-28 -2825 2826 0
-2826 2842 0
-29 -2826 2827 0
-2827 2843 0
-30 -2827 2828 0
-2828 2844 0
-31 -2828 2829 0
-2829 2845 0
-32 -2829 2830 0
-2830 2846 0
-33 -2830 2831 0
-2831 2847 0
-34 -2831 2832 0
-2832 2848 0
-35 -2832 2833 0
-2833 2849 0
-36 -2833 2834 0
-2834 2850 0
-37 -2834 2835 0
-2835 2851 0
-38 -2835 2836 0
-2836 2852 0
-39 -2836 2837 0
-2837 2853 0
-40 -2837 2838 0
-2838 2854 0
-41 -2838 2839 0
-2839 2855 0
-42 -2839 2840 0
-2840 2856 0
-43 -2840 0
-28 2841 0
-2841 2857 0
-29 -2841 2842 0
-2842 2858 0
-30 -2842 2843 0
-2843 2859 0
-31 -2843 2844 0
-2844 2860 0
-32 -2844 2845 0
-2845 2861 0
-33 -2845 2846 0
-2846 2862 0
-34 -2846 2847 0
-2847 2863 0
-35 -2847 2848 0
-2848 2864 0
-36 -2848 2849 0
-2849 2865 0
-37 -2849 2850 0
-2850 2866 0
-38 -2850 2851 0
-2851 2867 0
-39 -2851 2852 0
-2852 2868 0
-40 -2852 2853 0
-2853 2869 0
-41 -2853 2854 0
-2854 2870 0
-42 -2854 2855 0
-2855 2871 0
-43 -2855 2856 0
-2856 2872 0
-44 -2856 0
-29 2857 0
-2857 2873 0
-30 -2857 2858 0
-2858 2874 0
-31 -2858 2859 0
-2859 2875 0
-32 -2859 2860 0
-2860 2876 0
-33 -2860 2861 0
-2861 2877 0
-34 -2861 2862 0
-2862 2878 0
-35 -2862 2863 0
-2863 2879 0
-36 -2863 2864 0
-2864 2880 0
-37 -2864 2865 0
-2865 2881 0
-38 -2865 2866 0
-2866 2882 0
-39 -2866 2867 0
-2867 2883 0
-40 -2867 2868 0
-2868 2884 0
-41 -2868 2869 0
-2869 2885 0
-42 -2869 2870 0
-2870 2886 0
-43 -2870 2871 0
-2871 2887 0
-44 -2871 2872 0
-2872 2888 0
-45 -2872 0
-30 2873 0
-2873 2889 0
-31 -2873 2874 0
-2874 2890 0
-32 -2874 2875 0
-2875 2891 0
-33 -2875 2876 0
-2876 2892 0
-34 -2876 2877 0
-2877 2893 0
-35 -2877 2878 0
-2878 2894 0
-36 -2878 2879 0
-2879 2895 0
-37 -2879 2880 0
-2880 2896 0
-38 -2880 2881 0
-2881 2897 0
-39 -2881 2882 0
-2882 2898 0
-40 -2882 2883 0
-2883 2899 0
-41 -2883 2884 0
-2884 2900 0
-42 -2884 2885 0
-2885 2901 0
-43 -2885 2886 0
-2886 2902 0
-44 -2886 2887 0
-2887 2903 0
-45 -2887 2888 0
-2888 2904 0
-46 -2888 0
-31 2889 0
-2889 2905 0
-32 -2889 2890 0
-2890 2906 0
-33 -2890 2891 0
-2891 2907 0
-34 -2891 2892 0
-2892 2908 0
-35 -2892 2893 0
-2893 2909 0
-36 -2893 2894 0
-2894 2910 0
-37 -2894 2895 0
-2895 2911 0
-38 -2895 2896 0
-2896 2912 0
-39 -2896 2897 0
-2897 2913 0
-40 -2897 2898 0
-2898 2914 0
-41 -2898 2899 0
-2899 2915 0
-42 -2899 2900 0
-2900 2916 0
-43 -2900 2901 0
-2901 2917 0
-44 -2901 2902 0
-2902 2918 0
-45 -2902 2903 0
-2903 2919 0
-46 -2903 2904 0
-2904 2920 0
-47 -2904 0
-32 2905 0
-2905 2921 0
-33 -2905 2906 0
-2906 2922 0
-34 -2906 2907 0
-2907 2923 0
-35 -2907 2908 0
-2908 2924 0
-36 -2908 2909 0
-2909 2925 0
-37 -2909 2910 0
-2910 2926 0
-38 -2910 2911 0
-2911 2927 0
-39 -2911 2912 0
-2912 2928 0
-40 -2912 2913 0
-2913 2929 0
-41 -2913 2914 0
-2914 2930 0
-42 -2914 2915 0
-2915 2931 0
-43 -2915 2916 0
-2916 2932 0
-44 -2916 2917 0
-2917 2933 0
-45 -2917 2918 0
-2918 2934 0
-46 -2918 2919 0
-2919 2935 0
-47 -2919 2920 0
-2920 2936 0
-48 -2920 0
-33 2921 0
-2921 2937 0
-34 -2921 2922 0
-2922 2938 0
-35 -2922 2923 0
-2923 2939 0
-36 -2923 2924 0
-2924 2940 0
-37 -2924 2925 0
-2925 2941 0
-38 -2925 2926 0
-2926 2942 0
-39 -2926 2927 0
-2927 2943 0
-40 -2927 2928 0
-2928 2944 0
-41 -2928 2929 0
-2929 2945 0
-42 -2929 2930 0
-2930 2946 0
-43 -2930 2931 0
-2931 2947 0
-44 -2931 2932 0
-2932 2948 0
-45 -2932 2933 0
-2933 2949 0
-46 -2933 2934 0
-2934 2950 0
-47 -2934 2935 0
-2935 2951 0
-48 -2935 2936 0
-2936 2952 0
-49 -2936 0
-34 2937 0
-2937 2953 0
-35 -2937 2938 0
-2938 2954 0
-36 -2938 2939 0
-2939 2955 0
-37 -2939 2940 0
-2940 2956 0
-38 -2940 2941 0
-2941 2957 0
-39 -2941 2942 0
-2942 2958 0
-40 -2942 2943 0
-2943 2959 0
-41 -2943 2944 0
-2944 2960 0
-42 -2944 2945 0
-2945 2961 0
-43 -2945 2946 0
-2946 2962 0
-44 -2946 2947 0
-2947 2963 0
-45 -2947 2948 0
-2948 2964 0
-46 -2948 2949 0
-2949 2965 0
-47 -2949 2950 0
-2950 2966 0
-48 -2950 2951 0
-2951 2967 0
-49 -2951 2952 0
-2952 2968 0
-50 -2952 0
-35 2953 0
-2953 2969 0
-36 -2953 2954 0
-2954 2970 0
-37 -2954 2955 0
-2955 2971 0
-38 -2955 2956 0
-2956 2972 0
-39 -2956 2957 0
-2957 2973 0
-40 -2957 2958 0
-2958 2974 0
-41 -2958 2959 0
-2959 2975 0
-42 -2959 2960 0
-2960 2976 0
-43 -2960 2961 0
-2961 2977 0
-44 -2961 2962 0
-2962 2978 0
-45 -2962 2963 0
-2963 2979 0
-46 -2963 2964 0
-2964 2980 0
-47 -2964 2965 0
-2965 2981 0
-48 -2965 2966 0
-2966 2982 0
-49 -2966 2967 0
-2967 2983 0
-50 -2967 2968 0
-2968 2984 0
-51 -2968 0
-36 2969 0
-2969 2985 0
-37 -2969 2970 0
-2970 2986 0
-38 -2970 2971 0
-2971 2987 0
-39 -2971 2972 0
-2972 2988 0
-40 -2972 2973 0
-2973 2989 0
-41 -2973 2974 0
-2974 2990 0
-42 -2974 2975 0
-2975 2991 0
-43 -2975 2976 0
-2976 2992 0
-44 -2976 2977 0
-2977 2993 0
-45 -2977 2978 0
-2978 2994 0
-46 -2978 2979 0
-2979 2995 0
-47 -2979 2980 0
-2980 2996 0
-48 -2980 2981 0
-2981 2997 0
-49 -2981 2982 0
-2982 2998 0
-50 -2982 2983 0
-2983 2999 0
-51 -2983 2984 0
-2984 3000 0
-52 -2984 0
-37 2985 0
-2985 3001 0
-38 -2985 2986 0
-2986 3002 0
-39 -2986 2987 0
-2987 3003 0
-40 -2987 2988 0
-2988 3004 0
-41 -2988 2989 0
-2989 3005 0
-42 -2989 2990 0
-2990 3006 0
-43 -2990 2991 0
-2991 3007 0
-44 -2991 2992 0
-2992 3008 0
-45 -2992 2993 0
-2993 3009 0
-46 -2993 2994 0
-2994 3010 0
-47 -2994 2995 0
-2995 3011 0
-48 -2995 2996 0
-2996 3012 0
-49 -2996 2997 0
-2997 3013 0
-50 -2997 2998 0
-2998 3014 0
-51 -2998 2999 0
-2999 3015 0
-52 -2999 3000 0
-3000 3016 0
-53 -3000 0
-38 3001 0
-3001 3017 0
-39 -3001 3002 0
-3002 3018 0
-40 -3002 3003 0
-3003 3019 0
-41 -3003 3004 0
-3004 3020 0
-42 -3004 3005 0
-3005 3021 0
-43 -3005 3006 0
-3006 3022 0
-44 -3006 3007 0
-3007 3023 0
-45 -3007 3008 0
-3008 3024 0
-46 -3008 3009 0
-3009 3025 0
-47 -3009 3010 0
-3010 3026 0
-48 -3010 3011 0
-3011 3027 0
-49 -3011 3012 0
-3012 3028 0
-50 -3012 3013 0
-3013 3029 0
-51 -3013 3014 0
-3014 3030 0
-52 -3014 3015 0
-3015 3031 0
-53 -3015 3016 0
-3016 3032 0
-54 -3016 0
-39 3017 0
-3017 3033 0
-40 -3017 3018 0
-3018 3034 0
-41 -3018 3019 0
-3019 3035 0
-42 -3019 3020 0
-3020 3036 0
-43 -3020 3021 0
-3021 3037 0
-44 -3021 3022 0
-3022 3038 0
-45 -3022 3023 0
-3023 3039 0
-46 -3023 3024 0
-3024 3040 0
-47 -3024 3025 0
-3025 3041 0
-48 -3025 3026 0
-3026 3042 0
-49 -3026 3027 0
-3027 3043 0
-50 -3027 3028 0
-3028 3044 0
-51 -3028 3029 0
-3029 3045 0
-52 -3029 3030 0
-3030 3046 0
-53 -3030 3031 0
-3031 3047 0
-54 -3031 3032 0
-3032 3048 0
-55 -3032 0
-40 3033 0
-3033 3049 0
-41 -3033 3034 0
-3034 3050 0
-42 -3034 3035 0
-3035 3051 0
-43 -3035 3036 0
-3036 3052 0
-44 -3036 3037 0
-3037 3053 0
-45 -3037 3038 0
-3038 3054 0
-46 -3038 3039 0
-3039 3055 0
-47 -3039 3040 0
-3040 3056 0
-48 -3040 3041 0
-3041 3057 0
-49 -3041 3042 0
-3042 3058 0
-50 -3042 3043 0
-3043 3059 0
-51 -3043 3044 0
-3044 3060 0
-52 -3044 3045 0
-3045 3061 0
-53 -3045 3046 0
-3046 3062 0
-54 -3046 3047 0
-3047 3063 0
-55 -3047 3048 0
-3048 3064 0
-56 -3048 0
-41 3049 0
-3049 3065 0
-42 -3049 3050 0
-3050 3066 0
-43 -3050 3051 0
-3051 3067 0
-44 -3051 3052 0
-3052 3068 0
-45 -3052 3053 0
-3053 3069 0
-46 -3053 3054 0
-3054 3070 0
-47 -3054 3055 0
-3055 3071 0
-48 -3055 3056 0
-3056 3072 0
-49 -3056 3057 0
-3057 3073 0
-50 -3057 3058 0
-3058 3074 0
-51 -3058 3059 0
-3059 3075 0
-52 -3059 3060 0
-3060 3076 0
-53 -3060 3061 0
-3061 3077 0
-54 -3061 3062 0
-3062 3078 0
-55 -3062 3063 0
-3063 3079 0
-56 -3063 3064 0
-3064 3080 0
-57 -3064 0
-42 3065 0
-3065 3081 0
-43 -3065 3066 0
-3066 3082 0
-44 -3066 3067 0
-3067 3083 0
-45 -3067 3068 0
-3068 3084 0
-46 -3068 3069 0
-3069 3085 0
-47 -3069 3070 0
-3070 3086 0
-48 -3070 3071 0
-3071 3087 0
-49 -3071 3072 0
-3072 3088 0
-50 -3072 3073 0
-3073 3089 0
-51 -3073 3074 0
-3074 3090 0
-52 -3074 3075 0
-3075 3091 0
-53 -3075 3076 0
-3076 3092 0
-54 -3076 3077 0
-3077 3093 0
-55 -3077 3078 0
-3078 3094 0
-56 -3078 3079 0
-3079 3095 0
-57 -3079 3080 0
-3080 3096 0
-58 -3080 0
-43 3081 0
-3081 3097 0
-44 -3081 3082 0
-3082 3098 0
-45 -3082 3083 0
-3083 3099 0
-46 -3083 3084 0
-3084 3100 0
-47 -3084 3085 0
-3085 3101 0
-48 -3085 3086 0
-3086 3102 0
-49 -3086 3087 0
-3087 3103 0
-50 -3087 3088 0
-3088 3104 0
-51 -3088 3089 0
-3089 3105 0
-52 -3089 3090 0
-3090 3106 0
-53 -3090 3091 0
-3091 3107 0
-54 -3091 3092 0
-3092 3108 0
-55 -3092 3093 0
-3093 3109 0
-56 -3093 3094 0
-3094 3110 0
-57 -3094 3095 0
-3095 3111 0
-58 -3095 3096 0
-3096 3112 0
-59 -3096 0
-44 3097 0
-3097 3113 0
-45 -3097 3098 0
-3098 3114 0
-46 -3098 3099 0
-3099 3115 0
-47 -3099 3100 0
-3100 3116 0
-48 -3100 3101 0
-3101 3117 0
-49 -3101 3102 0
-3102 3118 0
-50 -3102 3103 0
-3103 3119 0
-51 -3103 3104 0
-3104 3120 0
-52 -3104 3105 0
-3105 3121 0
-53 -3105 3106 0
-3106 3122 0
-54 -3106 3107 0
-3107 3123 0
-55 -3107 3108 0
-3108 3124 0
-56 -3108 3109 0
-3109 3125 0
-57 -3109 3110 0
-3110 3126 0
-58 -3110 3111 0
-3111 3127 0
-59 -3111 3112 0
-3112 3128 0
-60 -3112 0
-45 3113 0
-3113 3129 0
-46 -3113 3114 0
-3114 3130 0
-47 -3114 3115 0
-3115 3131 0
-48 -3115 3116 0
-3116 3132 0
-49 -3116 3117 0
-3117 3133 0
-50 -3117 3118 0
-3118 3134 0
-51 -3118 3119 0
-3119 3135 0
-52 -3119 3120 0
-3120 3136 0
-53 -3120 3121 0
-3121 3137 0
-54 -3121 3122 0
-3122 3138 0
-55 -3122 3123 0
-3123 3139 0
-56 -3123 3124 0
-3124 3140 0
-57 -3124 3125 0
-3125 3141 0
-58 -3125 3126 0
-3126 3142 0
-59 -3126 3127 0
-3127 3143 0
-60 -3127 3128 0
-3128 3144 0
-61 -3128 0
-46 3129 0
-3129 3145 0
-47 -3129 3130 0
-3130 3146 0
-48 -3130 3131 0
-3131 3147 0
-49 -3131 3132 0
-3132 3148 0
-50 -3132 3133 0
-3133 3149 0
-51 -3133 3134 0
-3134 3150 0
-52 -3134 3135 0
-3135 3151 0
-53 -3135 3136 0
-3136 3152 0
-54 -3136 3137 0
-3137 3153 0
-55 -3137 3138 0
-3138 3154 0
-56 -3138 3139 0
-3139 3155 0
-57 -3139 3140 0
-3140 3156 0
-58 -3140 3141 0
-3141 3157 0
-59 -3141 3142 0
-3142 3158 0
-60 -3142 3143 0
-3143 3159 0
-61 -3143 3144 0
-3144 3160 0
-62 -3144 0
-47 3145 0
-3145 3161 0
-48 -3145 3146 0
-3146 3162 0
-49 -3146 3147 0
-3147 3163 0
-50 -3147 3148 0
-3148 3164 0
-51 -3148 3149 0
-3149 3165 0
-52 -3149 3150 0
-3150 3166 0
-53 -3150 3151 0
-3151 3167 0
-54 -3151 3152 0
-3152 3168 0
-55 -3152 3153 0
-3153 3169 0
-56 -3153 3154 0
-3154 3170 0
-57 -3154 3155 0
-3155 3171 0
-58 -3155 3156 0
-3156 3172 0
-59 -3156 3157 0
-3157 3173 0
-60 -3157 3158 0
-3158 3174 0
-61 -3158 3159 0
-3159 3175 0
-62 -3159 3160 0
-3160 3176 0
-63 -3160 0
-48 3161 0
-3161 3177 0
-49 -3161 3162 0
-3162 3178 0
-50 -3162 3163 0
-3163 3179 0
-51 -3163 3164 0
-3164 3180 0
-52 -3164 3165 0
-3165 3181 0
-53 -3165 3166 0
-3166 3182 0
-54 -3166 3167 0
-3167 3183 0
-55 -3167 3168 0
-3168 3184 0
-56 -3168 3169 0
-3169 3185 0
-57 -3169 3170 0
-3170 3186 0
-58 -3170 3171 0
-3171 3187 0
-59 -3171 3172 0
-3172 3188 0
-60 -3172 3173 0
-3173 3189 0
-61 -3173 3174 0
-3174 3190 0
-62 -3174 3175 0
-3175 3191 0
-63 -3175 3176 0
-3176 3192 0
-64 -3176 0
-49 3177 0
-3177 3193 0
-50 -3177 3178 0
-3178 3194 0
-51 -3178 3179 0
-3179 3195 0
-52 -3179 3180 0
-3180 3196 0
-53 -3180 3181 0
-3181 3197 0
-54 -3181 3182 0
-3182 3198 0
-55 -3182 3183 0
-3183 3199 0
-56 -3183 3184 0
-3184 3200 0
-57 -3184 3185 0
-3185 3201 0
-58 -3185 3186 0
-3186 3202 0
-59 -3186 3187 0
-3187 3203 0
-60 -3187 3188 0
-3188 3204 0
-61 -3188 3189 0
-3189 3205 0
-62 -3189 3190 0
-3190 3206 0
-63 -3190 3191 0
-3191 3207 0
-64 -3191 3192 0
-3192 3208 0
-65 -3192 0
-50 3193 0
-3193 3209 0
-51 -3193 3194 0
-3194 3210 0
-52 -3194 3195 0
-3195 3211 0
-53 -3195 3196 0
-3196 3212 0
-54 -3196 3197 0
-3197 3213 0
-55 -3197 3198 0
-3198 3214 0
-56 -3198 3199 0
-3199 3215 0
-57 -3199 3200 0
-3200 3216 0
-58 -3200 3201 0
-3201 3217 0
-59 -3201 3202 0
-3202 3218 0
-60 -3202 3203 0
-3203 3219 0
-61 -3203 3204 0
-3204 3220 0
-62 -3204 3205 0
-3205 3221 0
-63 -3205 3206 0
-3206 3222 0
-64 -3206 3207 0
-3207 3223 0
-65 -3207 3208 0
-3208 3224 0
-66 -3208 0
-51 3209 0
-3209 3225 0
-52 -3209 3210 0
-3210 3226 0
-53 -3210 3211 0
-3211 3227 0
-54 -3211 3212 0
-3212 3228 0
-55 -3212 3213 0
-3213 3229 0
-56 -3213 3214 0
-3214 3230 0
-57 -3214 3215 0
-3215 3231 0
-58 -3215 3216 0
-3216 3232 0
-59 -3216 3217 0
-3217 3233 0
-60 -3217 3218 0
-3218 3234 0
-61 -3218 3219 0
-3219 3235 0
-62 -3219 3220 0
-3220 3236 0
-63 -3220 3221 0
-3221 3237 0
-64 -3221 3222 0
-3222 3238 0
-65 -3222 3223 0
-3223 3239 0
-66 -3223 3224 0
-3224 3240 0
-67 -3224 0
-52 3225 0
-3225 3241 0
-53 -3225 3226 0
-3226 3242 0
-54 -3226 3227 0
-3227 3243 0
-55 -3227 3228 0
-3228 3244 0
-56 -3228 3229 0
-3229 3245 0
-57 -3229 3230 0
-3230 3246 0
-58 -3230 3231 0
-3231 3247 0
-59 -3231 3232 0
-3232 3248 0
-60 -3232 3233 0
-3233 3249 0
-61 -3233 3234 0
-3234 3250 0
-62 -3234 3235 0
-3235 3251 0
-63 -3235 3236 0
-3236 3252 0
-64 -3236 3237 0
-3237 3253 0
-65 -3237 3238 0
-3238 3254 0
-66 -3238 3239 0
-3239 3255 0
-67 -3239 3240 0
-3240 3256 0
-68 -3240 0
-53 3241 0
-3241 3257 0
-54 -3241 3242 0
-3242 3258 0
-55 -3242 3243 0
-3243 3259 0
-56 -3243 3244 0
-3244 3260 0
-57 -3244 3245 0
-3245 3261 0
-58 -3245 3246 0
-3246 3262 0
-59 -3246 3247 0
-3247 3263 0
-60 -3247 3248 0
-3248 3264 0
-61 -3248 3249 0
-3249 3265 0
-62 -3249 3250 0
-3250 3266 0
-63 -3250 3251 0
-3251 3267 0
-64 -3251 3252 0
-3252 3268 0
-65 -3252 3253 0
-3253 3269 0
-66 -3253 3254 0
-3254 3270 0
-67 -3254 3255 0
-3255 3271 0
-68 -3255 3256 0
-3256 3272 0
-69 -3256 0
-54 3257 0
-3257 3273 0
-55 -3257 3258 0
-3258 3274 0
-56 -3258 3259 0
-3259 3275 0
-57 -3259 3260 0
-3260 3276 0
-58 -3260 3261 0
-3261 3277 0
-59 -3261 3262 0
-3262 3278 0
-60 -3262 3263 0
-3263 3279 0
-61 -3263 3264 0
-3264 3280 0
-62 -3264 3265 0
-3265 3281 0
-63 -3265 3266 0
-3266 3282 0
-64 -3266 3267 0
-3267 3283 0
-65 -3267 3268 0
-3268 3284 0
-66 -3268 3269 0
-3269 3285 0
-67 -3269 3270 0
-3270 3286 0
-68 -3270 3271 0
-3271 3287 0
-69 -3271 3272 0
-3272 3288 0
-70 -3272 0
-55 3273 0
-3273 3289 0
-56 -3273 3274 0
-3274 3290 0
-57 -3274 3275 0
-3275 3291 0
-58 -3275 3276 0
-3276 3292 0
-59 -3276 3277 0
-3277 3293 0
-60 -3277 3278 0
-3278 3294 0
-61 -3278 3279 0
-3279 3295 0
-62 -3279 3280 0
-3280 3296 0
-63 -3280 3281 0
-3281 3297 0
-64 -3281 3282 0
-3282 3298 0
-65 -3282 3283 0
-3283 3299 0
-66 -3283 3284 0
-3284 3300 0
-67 -3284 3285 0
-3285 3301 0
-68 -3285 3286 0
-3286 3302 0
-69 -3286 3287 0
-3287 3303 0
-70 -3287 3288 0
-3288 3304 0
-71 -3288 0
-56 3289 0
-3289 3305 0
-57 -3289 3290 0
-3290 3306 0
-58 -3290 3291 0
-3291 3307 0
-59 -3291 3292 0
-3292 3308 0
-60 -3292 3293 0
-3293 3309 0
-61 -3293 3294 0
-3294 3310 0
-62 -3294 3295 0
-3295 3311 0
-63 -3295 3296 0
-3296 3312 0
-64 -3296 3297 0
-3297 3313 0
-65 -3297 3298 0
-3298 3314 0
-66 -3298 3299 0
-3299 3315 0
-67 -3299 3300 0
-3300 3316 0
-68 -3300 3301 0
-3301 3317 0
-69 -3301 3302 0
-3302 3318 0
-70 -3302 3303 0
-3303 3319 0
-71 -3303 3304 0
-3304 3320 0
-72 -3304 0
-57 3305 0
-3305 3321 0
-58 -3305 3306 0
-3306 3322 0
-59 -3306 3307 0
-3307 3323 0
-60 -3307 3308 0
-3308 3324 0
-61 -3308 3309 0
-3309 3325 0
-62 -3309 3310 0
-3310 3326 0
-63 -3310 3311 0
-3311 3327 0
-64 -3311 3312 0
-3312 3328 0
-65 -3312 3313 0
-3313 3329 0
-66 -3313 3314 0
-3314 3330 0
-67 -3314 3315 0
-3315 3331 0
-68 -3315 3316 0
-3316 3332 0
-69 -3316 3317 0
-3317 3333 0
-70 -3317 3318 0
-3318 3334 0
-71 -3318 3319 0
-3319 3335 0
-72 -3319 3320 0
-3320 3336 0
-73 -3320 0
-58 3321 0
-3321 3337 0
-59 -3321 3322 0
-3322 3338 0
-60 -3322 3323 0
-3323 3339 0
-61 -3323 3324 0
-3324 3340 0
-62 -3324 3325 0
-3325 3341 0
-63 -3325 3326 0
-3326 3342 0
-64 -3326 3327 0
-3327 3343 0
-65 -3327 3328 0
-3328 3344 0
-66 -3328 3329 0
-3329 3345 0
-67 -3329 3330 0
-3330 3346 0
-68 -3330 3331 0
-3331 3347 0
-69 -3331 3332 0
-3332 3348 0
-70 -3332 3333 0
-3333 3349 0
-71 -3333 3334 0
-3334 3350 0
-72 -3334 3335 0
-3335 3351 0
-73 -3335 3336 0
-3336 3352 0
-74 -3336 0
-59 3337 0
-3337 3353 0
-60 -3337 3338 0
-3338 3354 0
-61 -3338 3339 0
-3339 3355 0
-62 -3339 3340 0
-3340 3356 0
-63 -3340 3341 0
-3341 3357 0
-64 -3341 3342 0
-3342 3358 0
-65 -3342 3343 0
-3343 3359 0
-66 -3343 3344 0
-3344 3360 0
-67 -3344 3345 0
-3345 3361 0
-68 -3345 3346 0
-3346 3362 0
-69 -3346 3347 0
-3347 3363 0
-70 -3347 3348 0
-3348 3364 0
-71 -3348 3349 0
-3349 3365 0
-72 -3349 3350 0
-3350 3366 0
-73 -3350 3351 0
-3351 3367 0
-74 -3351 3352 0
-3352 3368 0
-75 -3352 0
-60 3353 0
-3353 3369 0
-61 -3353 3354 0
-3354 3370 0
-62 -3354 3355 0
-3355 3371 0
-63 -3355 3356 0
-3356 3372 0
-64 -3356 3357 0
-3357 3373 0
-65 -3357 3358 0
-3358 3374 0
-66 -3358 3359 0
-3359 3375 0
-67 -3359 3360 0
-3360 3376 0
-68 -3360 3361 0
-3361 3377 0
-69 -3361 3362 0
-3362 3378 0
-70 -3362 3363 0
-3363 3379 0
-71 -3363 3364 0
-3364 3380 0
-72 -3364 3365 0
-3365 3381 0
-73 -3365 3366 0
-3366 3382 0
-74 -3366 3367 0
-3367 3383 0
-75 -3367 3368 0
-3368 3384 0
-76 -3368 0
-61 3369 0
-3369 3385 0
-62 -3369 3370 0
-3370 3386 0
-63 -3370 3371 0
-3371 3387 0
-64 -3371 3372 0
-3372 3388 0
-65 -3372 3373 0
-3373 3389 0
-66 -3373 3374 0
-3374 3390 0
-67 -3374 3375 0
-3375 3391 0
-68 -3375 3376 0
-3376 3392 0
-69 -3376 3377 0
-3377 3393 0
-70 -3377 3378 0
-3378 3394 0
-71 -3378 3379 0
-3379 3395 0
-72 -3379 3380 0
-3380 3396 0
-73 -3380 3381 0
-3381 3397 0
-74 -3381 3382 0
-3382 3398 0
-75 -3382 3383 0
-3383 3399 0
-76 -3383 3384 0
-3384 3400 0
-77 -3384 0
-62 3385 0
-3385 3401 0
-63 -3385 3386 0
-3386 3402 0
-64 -3386 3387 0
-3387 3403 0
-65 -3387 3388 0
-3388 3404 0
-66 -3388 3389 0
-3389 3405 0
-67 -3389 3390 0
-3390 3406 0
-68 -3390 3391 0
-3391 3407 0
-69 -3391 3392 0
-3392 3408 0
-70 -3392 3393 0
-3393 3409 0
-71 -3393 3394 0
-3394 3410 0
-72 -3394 3395 0
-3395 3411 0
-73 -3395 3396 0
-3396 3412 0
-74 -3396 3397 0
-3397 3413 0
-75 -3397 3398 0
-3398 3414 0
-76 -3398 3399 0
-3399 3415 0
-77 -3399 3400 0
-3400 3416 0
-78 -3400 0
-63 3401 0
-3401 3417 0
-64 -3401 3402 0
-3402 3418 0
-65 -3402 3403 0
-3403 3419 0
-66 -3403 3404 0
-3404 3420 0
-67 -3404 3405 0
-3405 3421 0
-68 -3405 3406 0
-3406 3422 0
-69 -3406 3407 0
-3407 3423 0
-70 -3407 3408 0
-3408 3424 0
-71 -3408 3409 0
-3409 3425 0
-72 -3409 3410 0
-3410 3426 0
-73 -3410 3411 0
-3411 3427 0
-74 -3411 3412 0
-3412 3428 0
-75 -3412 3413 0
-3413 3429 0
-76 -3413 3414 0
-3414 3430 0
-77 -3414 3415 0
-3415 3431 0
-78 -3415 3416 0
-3416 3432 0
-79 -3416 0
-64 3417 0
-3417 3433 0
-65 -3417 3418 0
-3418 3434 0
-66 -3418 3419 0
-3419 3435 0
-67 -3419 3420 0
-3420 3436 0
-68 -3420 3421 0
-3421 3437 0
-69 -3421 3422 0
-3422 3438 0
-70 -3422 3423 0
-3423 3439 0
-71 -3423 3424 0
-3424 3440 0
-72 -3424 3425 0
-3425 3441 0
-73 -3425 3426 0
-3426 3442 0
-74 -3426 3427 0
-3427 3443 0
-75 -3427 3428 0
-3428 3444 0
-76 -3428 3429 0
-3429 3445 0
-77 -3429 3430 0
-3430 3446 0
-78 -3430 3431 0
-3431 3447 0
-79 -3431 3432 0
-3432 3448 0
-80 -3432 0
-65 3433 0
-3433 3449 0
-66 -3433 3434 0
-3434 3450 0
-67 -3434 3435 0
-3435 3451 0
-68 -3435 3436 0
-3436 3452 0
-69 -3436 3437 0
-3437 3453 0
-70 -3437 3438 0
-3438 3454 0
-71 -3438 3439 0
-3439 3455 0
-72 -3439 3440 0
-3440 3456 0
-73 -3440 3441 0
-3441 3457 0
-74 -3441 3442 0
-3442 3458 0
-75 -3442 3443 0
-3443 3459 0
-76 -3443 3444 0
-3444 3460 0
-77 -3444 3445 0
-3445 3461 0
-78 -3445 3446 0
-3446 3462 0
-79 -3446 3447 0
-3447 3463 0
-80 -3447 3448 0
-3448 3464 0
-81 -3448 0
-66 3449 0
-3449 3465 0
-67 -3449 3450 0
-3450 3466 0
-68 -3450 3451 0
-3451 3467 0
-69 -3451 3452 0
-3452 3468 0
-70 -3452 3453 0
-3453 3469 0
-71 -3453 3454 0
-3454 3470 0
-72 -3454 3455 0
-3455 3471 0
-73 -3455 3456 0
-3456 3472 0
-74 -3456 3457 0
-3457 3473 0
-75 -3457 3458 0
-3458 3474 0
-76 -3458 3459 0
-3459 3475 0
-77 -3459 3460 0
-3460 3476 0
-78 -3460 3461 0
-3461 3477 0
-79 -3461 3462 0
-3462 3478 0
-80 -3462 3463 0
-3463 3479 0
-81 -3463 3464 0
-3464 3480 0
-82 -3464 0
-67 3465 0
-3465 3481 0
-68 -3465 3466 0
-3466 3482 0
-69 -3466 3467 0
-3467 3483 0
-70 -3467 3468 0
-3468 3484 0
-71 -3468 3469 0
-3469 3485 0
-72 -3469 3470 0
-3470 3486 0
-73 -3470 3471 0
-3471 3487 0
-74 -3471 3472 0
-3472 3488 0
-75 -3472 3473 0
-3473 3489 0
-76 -3473 3474 0
-3474 3490 0
-77 -3474 3475 0
-3475 3491 0
-78 -3475 3476 0
-3476 3492 0
-79 -3476 3477 0
-3477 3493 0
-80 -3477 3478 0
-3478 3494 0
-81 -3478 3479 0
-3479 3495 0
-82 -3479 3480 0
-3480 3496 0
-83 -3480 0
-68 3481 0
-3481 3497 0
-69 -3481 3482 0
-3482 3498 0
-70 -3482 3483 0
-3483 3499 0
-71 -3483 3484 0
-3484 3500 0
-72 -3484 3485 0
-3485 3501 0
-73 -3485 3486 0
-3486 3502 0
-74 -3486 3487 0
-3487 3503 0
-75 -3487 3488 0
-3488 3504 0
-76 -3488 3489 0
-3489 3505 0
-77 -3489 3490 0
-3490 3506 0
-78 -3490 3491 0
-3491 3507 0
-79 -3491 3492 0
-3492 3508 0
-80 -3492 3493 0
-3493 3509 0
-81 -3493 3494 0
-3494 3510 0
-82 -3494 3495 0
-3495 3511 0
-83 -3495 3496 0
-3496 3512 0
-84 -3496 0
-69 3497 0
-3497 3513 0
-70 -3497 3498 0
-3498 3514 0
-71 -3498 3499 0
-3499 3515 0
-72 -3499 3500 0
-3500 3516 0
-73 -3500 3501 0
-3501 3517 0
-74 -3501 3502 0
-3502 3518 0
-75 -3502 3503 0
-3503 3519 0
-76 -3503 3504 0
-3504 3520 0
-77 -3504 3505 0
-3505 3521 0
-78 -3505 3506 0
-3506 3522 0
-79 -3506 3507 0
-3507 3523 0
-80 -3507 3508 0
-3508 3524 0
-81 -3508 3509 0
-3509 3525 0
-82 -3509 3510 0
-3510 3526 0
-83 -3510 3511 0
-3511 3527 0
-84 -3511 3512 0
-3512 3528 0
-85 -3512 0
-70 3513 0
-3513 3529 0
-71 -3513 3514 0
-3514 3530 0
-72 -3514 3515 0
-3515 3531 0
-73 -3515 3516 0
-3516 3532 0
-74 -3516 3517 0
-3517 3533 0
-75 -3517 3518 0
-3518 3534 0
-76 -3518 3519 0
-3519 3535 0
-77 -3519 3520 0
-3520 3536 0
-78 -3520 3521 0
-3521 3537 0
-79 -3521 3522 0
-3522 3538 0
-80 -3522 3523 0
-3523 3539 0
-81 -3523 3524 0
-3524 3540 0
-82 -3524 3525 0
-3525 3541 0
-83 -3525 3526 0
-3526 3542 0
-84 -3526 3527 0
-3527 3543 0
-85 -3527 3528 0
-3528 3544 0
-86 -3528 0
-71 3529 0
-3529 3545 0
-72 -3529 3530 0
-3530 3546 0
-73 -3530 3531 0
-3531 3547 0
-74 -3531 3532 0
-3532 3548 0
-75 -3532 3533 0
-3533 3549 0
-76 -3533 3534 0
-3534 3550 0
-77 -3534 3535 0
-3535 3551 0
-78 -3535 3536 0
-3536 3552 0
-79 -3536 3537 0
-3537 3553 0
-80 -3537 3538 0
-3538 3554 0
-81 -3538 3539 0
-3539 3555 0
-82 -3539 3540 0
-3540 3556 0
-83 -3540 3541 0
-3541 3557 0
-84 -3541 3542 0
-3542 3558 0
-85 -3542 3543 0
-3543 3559 0
-86 -3543 3544 0
-3544 3560 0
-87 -3544 0
-72 3545 0
-3545 3561 0
-73 -3545 3546 0
-3546 3562 0
-74 -3546 3547 0
-3547 3563 0
-75 -3547 3548 0
-3548 3564 0
-76 -3548 3549 0
-3549 3565 0
-77 -3549 3550 0
-3550 3566 0
-78 -3550 3551 0
-3551 3567 0
-79 -3551 3552 0
-3552 3568 0
-80 -3552 3553 0
-3553 3569 0
-81 -3553 3554 0
-3554 3570 0
-82 -3554 3555 0
-3555 3571 0
-83 -3555 3556 0
-3556 3572 0
-84 -3556 3557 0
-3557 3573 0
-85 -3557 3558 0
-3558 3574 0
-86 -3558 3559 0
-3559 3575 0
-87 -3559 3560 0
-3560 3576 0
-88 -3560 0
-73 3561 0
-3561 3577 0
-74 -3561 3562 0
-3562 3578 0
-75 -3562 3563 0
-3563 3579 0
-76 -3563 3564 0
-3564 3580 0
-77 -3564 3565 0
-3565 3581 0
-78 -3565 3566 0
-3566 3582 0
-79 -3566 3567 0
-3567 3583 0
-80 -3567 3568 0
-3568 3584 0
-81 -3568 3569 0
-3569 3585 0
-82 -3569 3570 0
-3570 3586 0
-83 -3570 3571 0
-3571 3587 0
-84 -3571 3572 0
-3572 3588 0
-85 -3572 3573 0
-3573 3589 0
-86 -3573 3574 0
-3574 3590 0
-87 -3574 3575 0
-3575 3591 0
-88 -3575 3576 0
-3576 3592 0
-89 -3576 0
-74 3577 0
-3577 3593 0
-75 -3577 3578 0
-3578 3594 0
-76 -3578 3579 0
-3579 3595 0
-77 -3579 3580 0
-3580 3596 0
-78 -3580 3581 0
-3581 3597 0
-79 -3581 3582 0
-3582 3598 0
-80 -3582 3583 0
-3583 3599 0
-81 -3583 3584 0
-3584 3600 0
-82 -3584 3585 0
-3585 3601 0
-83 -3585 3586 0
-3586 3602 0
-84 -3586 3587 0
-3587 3603 0
-85 -3587 3588 0
-3588 3604 0
-86 -3588 3589 0
-3589 3605 0
-87 -3589 3590 0
-3590 3606 0
-88 -3590 3591 0
-3591 3607 0
-89 -3591 3592 0
-3592 3608 0
-90 -3592 0
-75 3593 0
-3593 3609 0
-76 -3593 3594 0
-3594 3610 0
-77 -3594 3595 0
-3595 3611 0
-78 -3595 3596 0
-3596 3612 0
-79 -3596 3597 0
-3597 3613 0
-80 -3597 3598 0
-3598 3614 0
-81 -3598 3599 0
-3599 3615 0
-82 -3599 3600 0
-3600 3616 0
-83 -3600 3601 0
-3601 3617 0
-84 -3601 3602 0
-3602 3618 0
-85 -3602 3603 0
-3603 3619 0
-86 -3603 3604 0
-3604 3620 0
-87 -3604 3605 0
-3605 3621 0
-88 -3605 3606 0
-3606 3622 0
-89 -3606 3607 0
-3607 3623 0
-90 -3607 3608 0
-3608 3624 0
-91 -3608 0
-76 3609 0
-3609 3625 0
-77 -3609 3610 0
-3610 3626 0
-78 -3610 3611 0
-3611 3627 0
-79 -3611 3612 0
-3612 3628 0
-80 -3612 3613 0
-3613 3629 0
-81 -3613 3614 0
-3614 3630 0
-82 -3614 3615 0
-3615 3631 0
-83 -3615 3616 0
-3616 3632 0
-84 -3616 3617 0
-3617 3633 0
-85 -3617 3618 0
-3618 3634 0
-86 -3618 3619 0
-3619 3635 0
-87 -3619 3620 0
-3620 3636 0
-88 -3620 3621 0
-3621 3637 0
-89 -3621 3622 0
-3622 3638 0
-90 -3622 3623 0
-3623 3639 0
-91 -3623 3624 0
-3624 3640 0
-92 -3624 0
-77 3625 0
-3625 3641 0
-78 -3625 3626 0
-3626 3642 0
-79 -3626 3627 0
-3627 3643 0
-80 -3627 3628 0
-3628 3644 0
-81 -3628 3629 0
-3629 3645 0
-82 -3629 3630 0
-3630 3646 0
-83 -3630 3631 0
-3631 3647 0
-84 -3631 3632 0
-3632 3648 0
-85 -3632 3633 0
-3633 3649 0
-86 -3633 3634 0
-3634 3650 0
-87 -3634 3635 0
-3635 3651 0
-88 -3635 3636 0
-3636 3652 0
-89 -3636 3637 0
-3637 3653 0
-90 -3637 3638 0
-3638 3654 0
-91 -3638 3639 0
-3639 3655 0
-92 -3639 3640 0
-3640 3656 0
-93 -3640 0
-78 3641 0
-3641 3657 0
-79 -3641 3642 0
-3642 3658 0
-80 -3642 3643 0
-3643 3659 0
-81 -3643 3644 0
-3644 3660 0
-82 -3644 3645 0
-3645 3661 0
-83 -3645 3646 0
-3646 3662 0
-84 -3646 3647 0
-3647 3663 0
-85 -3647 3648 0
-3648 3664 0
-86 -3648 3649 0
-3649 3665 0
-87 -3649 3650 0
-3650 3666 0
-88 -3650 3651 0
-3651 3667 0
-89 -3651 3652 0
-3652 3668 0
-90 -3652 3653 0
-3653 3669 0
-91 -3653 3654 0
-3654 3670 0
-92 -3654 3655 0
-3655 3671 0
-93 -3655 3656 0
-3656 3672 0
-94 -3656 0
-79 3657 0
-3657 3673 0
-80 -3657 3658 0
-3658 3674 0
-81 -3658 3659 0
-3659 3675 0
-82 -3659 3660 0
-3660 3676 0
-83 -3660 3661 0
-3661 3677 0
-84 -3661 3662 0
-3662 3678 0
-85 -3662 3663 0
-3663 3679 0
-86 -3663 3664 0
-3664 3680 0
-87 -3664 3665 0
-3665 3681 0
-88 -3665 3666 0
-3666 3682 0
-89 -3666 3667 0
-3667 3683 0
-90 -3667 3668 0
-3668 3684 0
-91 -3668 3669 0
-3669 3685 0
-92 -3669 3670 0
-3670 3686 0
-93 -3670 3671 0
-3671 3687 0
-94 -3671 3672 0
-3672 3688 0
-95 -3672 0
-80 3673 0
-3673 3689 0
-81 -3673 3674 0
-3674 3690 0
-82 -3674 3675 0
-3675 3691 0
-83 -3675 3676 0
-3676 3692 0
-84 -3676 3677 0
-3677 3693 0
-85 -3677 3678 0
-3678 3694 0
-86 -3678 3679 0
-3679 3695 0
-87 -3679 3680 0
-3680 3696 0
-88 -3680 3681 0
-3681 3697 0
-89 -3681 3682 0
-3682 3698 0
-90 -3682 3683 0
-3683 3699 0
-91 -3683 3684 0
-3684 3700 0
-92 -3684 3685 0
-3685 3701 0
-93 -3685 3686 0
-3686 3702 0
-94 -3686 3687 0
-3687 3703 0
-95 -3687 3688 0
-3688 3704 0
-96 -3688 0
-81 3689 0
-3689 3705 0
-82 -3689 3690 0
-3690 3706 0
-83 -3690 3691 0
-3691 3707 0
-84 -3691 3692 0
-3692 3708 0
-85 -3692 3693 0
-3693 3709 0
-86 -3693 3694 0
-3694 3710 0
-87 -3694 3695 0
-3695 3711 0
-88 -3695 3696 0
-3696 3712 0
-89 -3696 3697 0
-3697 3713 0
-90 -3697 3698 0
-3698 3714 0
-91 -3698 3699 0
-3699 3715 0
-92 -3699 3700 0
-3700 3716 0
-93 -3700 3701 0
-3701 3717 0
-94 -3701 3702 0
-3702 3718 0
-95 -3702 3703 0
-3703 3719 0
-96 -3703 3704 0
-3704 3720 0
-97 -3704 0
-82 3705 0
-3705 3721 0
-83 -3705 3706 0
-3706 3722 0
-84 -3706 3707 0
-3707 3723 0
-85 -3707 3708 0
-3708 3724 0
-86 -3708 3709 0
-3709 3725 0
-87 -3709 3710 0
-3710 3726 0
-88 -3710 3711 0
-3711 3727 0
-89 -3711 3712 0
-3712 3728 0
-90 -3712 3713 0
-3713 3729 0
-91 -3713 3714 0
-3714 3730 0
-92 -3714 3715 0
-3715 3731 0
-93 -3715 3716 0
-3716 3732 0
-94 -3716 3717 0
-3717 3733 0
-95 -3717 3718 0
-3718 3734 0
-96 -3718 3719 0
-3719 3735 0
-97 -3719 3720 0
-3720 3736 0
-98 -3720 0
-83 3721 0
-3721 3737 0
-84 -3721 3722 0
-3722 3738 0
-85 -3722 3723 0
-3723 3739 0
-86 -3723 3724 0
-3724 3740 0
-87 -3724 3725 0
-3725 3741 0
-88 -3725 3726 0
-3726 3742 0
-89 -3726 3727 0
-3727 3743 0
-90 -3727 3728 0
-3728 3744 0
-91 -3728 3729 0
-3729 3745 0
-92 -3729 3730 0
-3730 3746 0
-93 -3730 3731 0
-3731 3747 0
-94 -3731 3732 0
-3732 3748 0
-95 -3732 3733 0
-3733 3749 0
-96 -3733 3734 0
-3734 3750 0
-97 -3734 3735 0
-3735 3751 0
-98 -3735 3736 0
-3736 3752 0
-99 -3736 0
-84 3737 0
-3737 3753 0
-85 -3737 3738 0
-3738 3754 0
-86 -3738 3739 0
-3739 3755 0
-87 -3739 3740 0
-3740 3756 0
-88 -3740 3741 0
-3741 3757 0
-89 -3741 3742 0
-3742 3758 0
-90 -3742 3743 0
-3743 3759 0
-91 -3743 3744 0
-3744 3760 0
-92 -3744 3745 0
-3745 3761 0
-93 -3745 3746 0
-3746 3762 0
-94 -3746 3747 0
-3747 3763 0
-95 -3747 3748 0
-3748 3764 0
-96 -3748 3749 0
-3749 3765 0
-97 -3749 3750 0
-3750 3766 0
-98 -3750 3751 0
-3751 3767 0
-99 -3751 3752 0
-3752 3768 0
-100 -3752 0
-85 3753 0
-3753 3769 0
-86 -3753 3754 0
-3754 3770 0
-87 -3754 3755 0
-3755 3771 0
-88 -3755 3756 0
-3756 3772 0
-89 -3756 3757 0
-3757 3773 0
-90 -3757 3758 0
-3758 3774 0
-91 -3758 3759 0
-3759 3775 0
-92 -3759 3760 0
-3760 3776 0
-93 -3760 3761 0
-3761 3777 0
-94 -3761 3762 0
-3762 3778 0
-95 -3762 3763 0
-3763 3779 0
-96 -3763 3764 0
-3764 3780 0
-97 -3764 3765 0
-3765 3781 0
-98 -3765 3766 0
-3766 3782 0
-99 -3766 3767 0
-3767 3783 0
-100 -3767 3768 0
-3768 3784 0
-101 -3768 0
-86 3769 0
-3769 3785 0
-87 -3769 3770 0
-3770 3786 0
-88 -3770 3771 0
-3771 3787 0
-89 -3771 3772 0
-3772 3788 0
-90 -3772 3773 0
-3773 3789 0
-91 -3773 3774 0
-3774 3790 0
-92 -3774 3775 0
-3775 3791 0
-93 -3775 3776 0
-3776 3792 0
-94 -3776 3777 0
-3777 3793 0
-95 -3777 3778 0
-3778 3794 0
-96 -3778 3779 0
-3779 3795 0
-97 -3779 3780 0
-3780 3796 0
-98 -3780 3781 0
-3781 3797 0
-99 -3781 3782 0
-3782 3798 0
-100 -3782 3783 0
-3783 3799 0
-101 -3783 3784 0
-3784 3800 0
-102 -3784 0
-87 3785 0
-3785 3801 0
-88 -3785 3786 0
-3786 3802 0
-89 -3786 3787 0
-3787 3803 0
-90 -3787 3788 0
-3788 3804 0
-91 -3788 3789 0
-3789 3805 0
-92 -3789 3790 0
-3790 3806 0
-93 -3790 3791 0
-3791 3807 0
-94 -3791 3792 0
-3792 3808 0
-95 -3792 3793 0
-3793 3809 0
-96 -3793 3794 0
-3794 3810 0
-97 -3794 3795 0
-3795 3811 0
-98 -3795 3796 0
-3796 3812 0
-99 -3796 3797 0
-3797 3813 0
-100 -3797 3798 0
-3798 3814 0
-101 -3798 3799 0
-3799 3815 0
-102 -3799 3800 0
-3800 3816 0
-103 -3800 0
-88 3801 0
-3801 3817 0
-89 -3801 3802 0
-3802 3818 0
-90 -3802 3803 0
-3803 3819 0
-91 -3803 3804 0
-3804 3820 0
-92 -3804 3805 0
-3805 3821 0
-93 -3805 3806 0
-3806 3822 0
-94 -3806 3807 0
-3807 3823 0
-95 -3807 3808 0
-3808 3824 0
-96 -3808 3809 0
-3809 3825 0
-97 -3809 3810 0
-3810 3826 0
-98 -3810 3811 0
-3811 3827 0
-99 -3811 3812 0
-3812 3828 0
-100 -3812 3813 0
-3813 3829 0
-101 -3813 3814 0
-3814 3830 0
-102 -3814 3815 0
-3815 3831 0
-103 -3815 3816 0
-3816 3832 0
-104 -3816 0
-89 3817 0
-3817 3833 0
-90 -3817 3818 0
-3818 3834 0
-91 -3818 3819 0
-3819 3835 0
-92 -3819 3820 0
-3820 3836 0
-93 -3820 3821 0
-3821 3837 0
-94 -3821 3822 0
-3822 3838 0
-95 -3822 3823 0
-3823 3839 0
-96 -3823 3824 0
-3824 3840 0
-97 -3824 3825 0
-3825 3841 0
-98 -3825 3826 0
-3826 3842 0
-99 -3826 3827 0
-3827 3843 0
-100 -3827 3828 0
-3828 3844 0
-101 -3828 3829 0
-3829 3845 0
-102 -3829 3830 0
-3830 3846 0
-103 -3830 3831 0
-3831 3847 0
-104 -3831 3832 0
-3832 3848 0
-105 -3832 0
-90 3833 0
-3833 3849 0
-91 -3833 3834 0
-3834 3850 0
-92 -3834 3835 0
-3835 3851 0
-93 -3835 3836 0
-3836 3852 0
-94 -3836 3837 0
-3837 3853 0
-95 -3837 3838 0
-3838 3854 0
-96 -3838 3839 0
-3839 3855 0
-97 -3839 3840 0
-3840 3856 0
-98 -3840 3841 0
-3841 3857 0
-99 -3841 3842 0
-3842 3858 0
-100 -3842 3843 0
-3843 3859 0
-101 -3843 3844 0
-3844 3860 0
-102 -3844 3845 0
-3845 3861 0
-103 -3845 3846 0
-3846 3862 0
-104 -3846 3847 0
-3847 3863 0
-105 -3847 3848 0
-3848 3864 0
-106 -3848 0
-91 3849 0
-3849 3865 0
-92 -3849 3850 0
-3850 3866 0
-93 -3850 3851 0
-3851 3867 0
-94 -3851 3852 0
-3852 3868 0
-95 -3852 3853 0
-3853 3869 0
-96 -3853 3854 0
-3854 3870 0
-97 -3854 3855 0
-3855 3871 0
-98 -3855 3856 0
-3856 3872 0
-99 -3856 3857 0
-3857 3873 0
-100 -3857 3858 0
-3858 3874 0
-101 -3858 3859 0
-3859 3875 0
-102 -3859 3860 0
-3860 3876 0
-103 -3860 3861 0
-3861 3877 0
-104 -3861 3862 0
-3862 3878 0
-105 -3862 3863 0
-3863 3879 0
-106 -3863 3864 0
-3864 3880 0
-107 -3864 0
-92 3865 0
-3865 3881 0
-93 -3865 3866 0
-3866 3882 0
-94 -3866 3867 0
-3867 3883 0
-95 -3867 3868 0
-3868 3884 0
-96 -3868 3869 0
-3869 3885 0
-97 -3869 3870 0
-3870 3886 0
-98 -3870 3871 0
-3871 3887 0
-99 -3871 3872 0
-3872 3888 0
-100 -3872 3873 0
-3873 3889 0
-101 -3873 3874 0
-3874 3890 0
-102 -3874 3875 0
-3875 3891 0
-103 -3875 3876 0
-3876 3892 0
-104 -3876 3877 0
-3877 3893 0
-105 -3877 3878 0
-3878 3894 0
-106 -3878 3879 0
-3879 3895 0
-107 -3879 3880 0
-3880 3896 0
-108 -3880 0
-93 3881 0
-3881 3897 0
-94 -3881 3882 0
-3882 3898 0
-95 -3882 3883 0
-3883 3899 0
-96 -3883 3884 0
-3884 3900 0
-97 -3884 3885 0
-3885 3901 0
-98 -3885 3886 0
-3886 3902 0
-99 -3886 3887 0
-3887 3903 0
-100 -3887 3888 0
-3888 3904 0
-101 -3888 3889 0
-3889 3905 0
-102 -3889 3890 0
-3890 3906 0
-103 -3890 3891 0
-3891 3907 0
-104 -3891 3892 0
-3892 3908 0
-105 -3892 3893 0
-3893 3909 0
-106 -3893 3894 0
-3894 3910 0
-107 -3894 3895 0
-3895 3911 0
-108 -3895 3896 0
-3896 3912 0
-109 -3896 0
-94 3897 0
-3897 3913 0
-95 -3897 3898 0
-3898 3914 0
-96 -3898 3899 0
-3899 3915 0
-97 -3899 3900 0
-3900 3916 0
-98 -3900 3901 0
-3901 3917 0
-99 -3901 3902 0
-3902 3918 0
-100 -3902 3903 0
-3903 3919 0
-101 -3903 3904 0
-3904 3920 0
-102 -3904 3905 0
-3905 3921 0
-103 -3905 3906 0
-3906 3922 0
-104 -3906 3907 0
-3907 3923 0
-105 -3907 3908 0
-3908 3924 0
-106 -3908 3909 0
-3909 3925 0
-107 -3909 3910 0
-3910 3926 0
-108 -3910 3911 0
-3911 3927 0
-109 -3911 3912 0
-3912 3928 0
-110 -3912 0
-95 3913 0
-3913 3929 0
-96 -3913 3914 0
-3914 3930 0
-97 -3914 3915 0
-3915 3931 0
-98 -3915 3916 0
-3916 3932 0
-99 -3916 3917 0
-3917 3933 0
-100 -3917 3918 0
-3918 3934 0
-101 -3918 3919 0
-3919 3935 0
-102 -3919 3920 0
-3920 3936 0
-103 -3920 3921 0
-3921 3937 0
-104 -3921 3922 0
-3922 3938 0
-105 -3922 3923 0
-3923 3939 0
-106 -3923 3924 0
-3924 3940 0
-107 -3924 3925 0
-3925 3941 0
-108 -3925 3926 0
-3926 3942 0
-109 -3926 3927 0
-3927 3943 0
-110 -3927 3928 0
-3928 3944 0
-111 -3928 0
-96 3929 0
-3929 3945 0
-97 -3929 3930 0
-3930 3946 0
-98 -3930 3931 0
-3931 3947 0
-99 -3931 3932 0
-3932 3948 0
-100 -3932 3933 0
-3933 3949 0
-101 -3933 3934 0
-3934 3950 0
-102 -3934 3935 0
-3935 3951 0
-103 -3935 3936 0
-3936 3952 0
-104 -3936 3937 0
-3937 3953 0
-105 -3937 3938 0
-3938 3954 0
-106 -3938 3939 0
-3939 3955 0
-107 -3939 3940 0
-3940 3956 0
-108 -3940 3941 0
-3941 3957 0
-109 -3941 3942 0
-3942 3958 0
-110 -3942 3943 0
-3943 3959 0
-111 -3943 3944 0
-3944 3960 0
-112 -3944 0
-97 3945 0
-3945 3961 0
-98 -3945 3946 0
-3946 3962 0
-99 -3946 3947 0
-3947 3963 0
-100 -3947 3948 0
-3948 3964 0
-101 -3948 3949 0
-3949 3965 0
-102 -3949 3950 0
-3950 3966 0
-103 -3950 3951 0
-3951 3967 0
-104 -3951 3952 0
-3952 3968 0
-105 -3952 3953 0
-3953 3969 0
-106 -3953 3954 0
-3954 3970 0
-107 -3954 3955 0
-3955 3971 0
-108 -3955 3956 0
-3956 3972 0
-109 -3956 3957 0
-3957 3973 0
-110 -3957 3958 0
-3958 3974 0
-111 -3958 3959 0
-3959 3975 0
-112 -3959 3960 0
-3960 3976 0
-113 -3960 0
-98 3961 0
-3961 3977 0
-99 -3961 3962 0
-3962 3978 0
-100 -3962 3963 0
-3963 3979 0
-101 -3963 3964 0
-3964 3980 0
-102 -3964 3965 0
-3965 3981 0
-103 -3965 3966 0
-3966 3982 0
-104 -3966 3967 0
-3967 3983 0
-105 -3967 3968 0
-3968 3984 0
-106 -3968 3969 0
-3969 3985 0
-107 -3969 3970 0
-3970 3986 0
-108 -3970 3971 0
-3971 3987 0
-109 -3971 3972 0
-3972 3988 0
-110 -3972 3973 0
-3973 3989 0
-111 -3973 3974 0
-3974 3990 0
-112 -3974 3975 0
-3975 3991 0
-113 -3975 3976 0
-3976 3992 0
-114 -3976 0
-99 3977 0
-3977 3993 0
-100 -3977 3978 0
-3978 3994 0
-101 -3978 3979 0
-3979 3995 0
-102 -3979 3980 0
-3980 3996 0
-103 -3980 3981 0
-3981 3997 0
-104 -3981 3982 0
-3982 3998 0
-105 -3982 3983 0
-3983 3999 0
-106 -3983 3984 0
-3984 4000 0
-107 -3984 3985 0
-3985 4001 0
-108 -3985 3986 0
-3986 4002 0
-109 -3986 3987 0
-3987 4003 0
-110 -3987 3988 0
-3988 4004 0
-111 -3988 3989 0
-3989 4005 0
-112 -3989 3990 0
-3990 4006 0
-113 -3990 3991 0
-3991 4007 0
-114 -3991 3992 0
-3992 4008 0
-115 -3992 0
-100 3993 0
-3993 4009 0
-101 -3993 3994 0
-3994 4010 0
-102 -3994 3995 0
-3995 4011 0
-103 -3995 3996 0
-3996 4012 0
-104 -3996 3997 0
-3997 4013 0
-105 -3997 3998 0
-3998 4014 0
-106 -3998 3999 0
-3999 4015 0
-107 -3999 4000 0
-4000 4016 0
-108 -4000 4001 0
-4001 4017 0
-109 -4001 4002 0
-4002 4018 0
-110 -4002 4003 0
-4003 4019 0
-111 -4003 4004 0
-4004 4020 0
-112 -4004 4005 0
-4005 4021 0
-113 -4005 4006 0
-4006 4022 0
-114 -4006 4007 0
-4007 4023 0
-115 -4007 4008 0
-4008 4024 0
-116 -4008 0
-101 4009 0
-4009 4025 0
-102 -4009 4010 0
-4010 4026 0
-103 -4010 4011 0
-4011 4027 0
-104 -4011 4012 0
-4012 4028 0
-105 -4012 4013 0
-4013 4029 0
-106 -4013 4014 0
-4014 4030 0
-107 -4014 4015 0
-4015 4031 0
-108 -4015 4016 0
-4016 4032 0
-109 -4016 4017 0
-4017 4033 0
-110 -4017 4018 0
-4018 4034 0
-111 -4018 4019 0
-4019 4035 0
-112 -4019 4020 0
-4020 4036 0
-113 -4020 4021 0
-4021 4037 0
-114 -4021 4022 0
-4022 4038 0
-115 -4022 4023 0
-4023 4039 0
-116 -4023 4024 0
-4024 4040 0
-117 -4024 0
-102 4025 0
-4025 4041 0
-103 -4025 4026 0
-4026 4042 0
-104 -4026 4027 0
-4027 4043 0
-105 -4027 4028 0
-4028 4044 0
-106 -4028 4029 0
-4029 4045 0
-107 -4029 4030 0
-4030 4046 0
-108 -4030 4031 0
-4031 4047 0
-109 -4031 4032 0
-4032 4048 0
-110 -4032 4033 0
-4033 4049 0
-111 -4033 4034 0
-4034 4050 0
-112 -4034 4035 0
-4035 4051 0
-113 -4035 4036 0
-4036 4052 0
-114 -4036 4037 0
-4037 4053 0
-115 -4037 4038 0
-4038 4054 0
-116 -4038 4039 0
-4039 4055 0
-117 -4039 4040 0
-4040 4056 0
-118 -4040 0
-103 4041 0
-4041 4057 0
-104 -4041 4042 0
-4042 4058 0
-105 -4042 4043 0
-4043 4059 0
-106 -4043 4044 0
-4044 4060 0
-107 -4044 4045 0
-4045 4061 0
-108 -4045 4046 0
-4046 4062 0
-109 -4046 4047 0
-4047 4063 0
-110 -4047 4048 0
-4048 4064 0
-111 -4048 4049 0
-4049 4065 0
-112 -4049 4050 0
-4050 4066 0
-113 -4050 4051 0
-4051 4067 0
-114 -4051 4052 0
-4052 4068 0
-115 -4052 4053 0
-4053 4069 0
-116 -4053 4054 0
-4054 4070 0
-117 -4054 4055 0
-4055 4071 0
-118 -4055 4056 0
-4056 4072 0
-119 -4056 0
-104 4057 0
-4057 4073 0
-105 -4057 4058 0
-4058 4074 0
-106 -4058 4059 0
-4059 4075 0
-107 -4059 4060 0
-4060 4076 0
-108 -4060 4061 0
-4061 4077 0
-109 -4061 4062 0
-4062 4078 0
-110 -4062 4063 0
-4063 4079 0
-111 -4063 4064 0
-4064 4080 0
-112 -4064 4065 0
-4065 4081 0
-113 -4065 4066 0
-4066 4082 0
-114 -4066 4067 0
-4067 4083 0
-115 -4067 4068 0
-4068 4084 0
-116 -4068 4069 0
-4069 4085 0
-117 -4069 4070 0
-4070 4086 0
-118 -4070 4071 0
-4071 4087 0
-119 -4071 4072 0
-4072 4088 0
-120 -4072 0
-105 4073 0
-4073 4089 0
-106 -4073 4074 0
-4074 4090 0
-107 -4074 4075 0
-4075 4091 0
-108 -4075 4076 0
-4076 4092 0
-109 -4076 4077 0
-4077 4093 0
-110 -4077 4078 0
-4078 4094 0
-111 -4078 4079 0
-4079 4095 0
-112 -4079 4080 0
-4080 4096 0
-113 -4080 4081 0
-4081 4097 0
-114 -4081 4082 0
-4082 4098 0
-115 -4082 4083 0
-4083 4099 0
-116 -4083 4084 0
-4084 4100 0
-117 -4084 4085 0
-4085 4101 0
-118 -4085 4086 0
-4086 4102 0
-119 -4086 4087 0
-4087 4103 0
-120 -4087 4088 0
-4088 4104 0
-121 -4088 0
-106 4089 0
-4089 4105 0
-107 -4089 4090 0
-4090 4106 0
-108 -4090 4091 0
-4091 4107 0
-109 -4091 4092 0
-4092 4108 0
-110 -4092 4093 0
-4093 4109 0
-111 -4093 4094 0
-4094 4110 0
-112 -4094 4095 0
-4095 4111 0
-113 -4095 4096 0
-4096 4112 0
-114 -4096 4097 0
-4097 4113 0
-115 -4097 4098 0
-4098 4114 0
-116 -4098 4099 0
-4099 4115 0
-117 -4099 4100 0
-4100 4116 0
-118 -4100 4101 0
-4101 4117 0
-119 -4101 4102 0
-4102 4118 0
-120 -4102 4103 0
-4103 4119 0
-121 -4103 4104 0
-4104 4120 0
-122 -4104 0
-107 4105 0
-4105 4121 0
-108 -4105 4106 0
-4106 4122 0
-109 -4106 4107 0
-4107 4123 0
-110 -4107 4108 0
-4108 4124 0
-111 -4108 4109 0
-4109 4125 0
-112 -4109 4110 0
-4110 4126 0
-113 -4110 4111 0
-4111 4127 0
-114 -4111 4112 0
-4112 4128 0
-115 -4112 4113 0
-4113 4129 0
-116 -4113 4114 0
-4114 4130 0
-117 -4114 4115 0
-4115 4131 0
-118 -4115 4116 0
-4116 4132 0
-119 -4116 4117 0
-4117 4133 0
-120 -4117 4118 0
-4118 4134 0
-121 -4118 4119 0
-4119 4135 0
-122 -4119 4120 0
-4120 4136 0
-123 -4120 0
-108 4121 0
-4121 4137 0
-109 -4121 4122 0
-4122 4138 0
-110 -4122 4123 0
-4123 4139 0
-111 -4123 4124 0
-4124 4140 0
-112 -4124 4125 0
-4125 4141 0
-113 -4125 4126 0
-4126 4142 0
-114 -4126 4127 0
-4127 4143 0
-115 -4127 4128 0
-4128 4144 0
-116 -4128 4129 0
-4129 4145 0
-117 -4129 4130 0
-4130 4146 0
-118 -4130 4131 0
-4131 4147 0
-119 -4131 4132 0
-4132 4148 0
-120 -4132 4133 0
-4133 4149 0
-121 -4133 4134 0
-4134 4150 0
-122 -4134 4135 0
-4135 4151 0
-123 -4135 4136 0
-4136 4152 0
-124 -4136 0
-109 4137 0
-4137 4153 0
-110 -4137 4138 0
-4138 4154 0
-111 -4138 4139 0
-4139 4155 0
-112 -4139 4140 0
-4140 4156 0
-113 -4140 4141 0
-4141 4157 0
-114 -4141 4142 0
-4142 4158 0
-115 -4142 4143 0
-4143 4159 0
-116 -4143 4144 0
-4144 4160 0
-117 -4144 4145 0
-4145 4161 0
-118 -4145 4146 0
-4146 4162 0
-119 -4146 4147 0
-4147 4163 0
-120 -4147 4148 0
-4148 4164 0
-121 -4148 4149 0
-4149 4165 0
-122 -4149 4150 0
-4150 4166 0
-123 -4150 4151 0
-4151 4167 0
-124 -4151 4152 0
-4152 4168 0
-125 -4152 0
-110 4153 0
-4153 4169 0
-111 -4153 4154 0
-4154 4170 0
-112 -4154 4155 0
-4155 4171 0
-113 -4155 4156 0
-4156 4172 0
-114 -4156 4157 0
-4157 4173 0
-115 -4157 4158 0
-4158 4174 0
-116 -4158 4159 0
-4159 4175 0
-117 -4159 4160 0
-4160 4176 0
-118 -4160 4161 0
-4161 4177 0
-119 -4161 4162 0
-4162 4178 0
-120 -4162 4163 0
-4163 4179 0
-121 -4163 4164 0
-4164 4180 0
-122 -4164 4165 0
-4165 4181 0
-123 -4165 4166 0
-4166 4182 0
-124 -4166 4167 0
-4167 4183 0
-125 -4167 4168 0
-4168 4184 0
-126 -4168 0
-111 4169 0
-4169 4185 0
-112 -4169 4170 0
-4170 4186 0
-113 -4170 4171 0
-4171 4187 0
-114 -4171 4172 0
-4172 4188 0
-115 -4172 4173 0
-4173 4189 0
-116 -4173 4174 0
-4174 4190 0
-117 -4174 4175 0
-4175 4191 0
-118 -4175 4176 0
-4176 4192 0
-119 -4176 4177 0
-4177 4193 0
-120 -4177 4178 0
-4178 4194 0
-121 -4178 4179 0
-4179 4195 0
-122 -4179 4180 0
-4180 4196 0
-123 -4180 4181 0
-4181 4197 0
-124 -4181 4182 0
-4182 4198 0
-125 -4182 4183 0
-4183 4199 0
-126 -4183 4184 0
-4184 4200 0
-127 -4184 0
-112 4185 0
-4185 4201 0
-113 -4185 4186 0
-4186 4202 0
-114 -4186 4187 0
-4187 4203 0
-115 -4187 4188 0
-4188 4204 0
-116 -4188 4189 0
-4189 4205 0
-117 -4189 4190 0
-4190 4206 0
-118 -4190 4191 0
-4191 4207 0
-119 -4191 4192 0
-4192 4208 0
-120 -4192 4193 0
-4193 4209 0
-121 -4193 4194 0
-4194 4210 0
-122 -4194 4195 0
-4195 4211 0
-123 -4195 4196 0
-4196 4212 0
-124 -4196 4197 0
-4197 4213 0
-125 -4197 4198 0
-4198 4214 0
-126 -4198 4199 0
-4199 4215 0
-127 -4199 4200 0
-4200 4216 0
-128 -4200 0
-113 4201 0
-4201 4217 0
-114 -4201 4202 0
-4202 4218 0
-115 -4202 4203 0
-4203 4219 0
-116 -4203 4204 0
-4204 4220 0
-117 -4204 4205 0
-4205 4221 0
-118 -4205 4206 0
-4206 4222 0
-119 -4206 4207 0
-4207 4223 0
-120 -4207 4208 0
-4208 4224 0
-121 -4208 4209 0
-4209 4225 0
-122 -4209 4210 0
-4210 4226 0
-123 -4210 4211 0
-4211 4227 0
-124 -4211 4212 0
-4212 4228 0
-125 -4212 4213 0
-4213 4229 0
-126 -4213 4214 0
-4214 4230 0
-127 -4214 4215 0
-4215 4231 0
-128 -4215 4216 0
-4216 4232 0
-129 -4216 0
-114 4217 0
-4217 4233 0
-115 -4217 4218 0
-4218 4234 0
-116 -4218 4219 0
-4219 4235 0
-117 -4219 4220 0
-4220 4236 0
-118 -4220 4221 0
-4221 4237 0
-119 -4221 4222 0
-4222 4238 0
-120 -4222 4223 0
-4223 4239 0
-121 -4223 4224 0
-4224 4240 0
-122 -4224 4225 0
-4225 4241 0
-123 -4225 4226 0
-4226 4242 0
-124 -4226 4227 0
-4227 4243 0
-125 -4227 4228 0
-4228 4244 0
-126 -4228 4229 0
-4229 4245 0
-127 -4229 4230 0
-4230 4246 0
-128 -4230 4231 0
-4231 4247 0
-129 -4231 4232 0
-4232 4248 0
-130 -4232 0
-115 4233 0
-4233 4249 0
-116 -4233 4234 0
-4234 4250 0
-117 -4234 4235 0
-4235 4251 0
-118 -4235 4236 0
-4236 4252 0
-119 -4236 4237 0
-4237 4253 0
-120 -4237 4238 0
-4238 4254 0
-121 -4238 4239 0
-4239 4255 0
-122 -4239 4240 0
-4240 4256 0
-123 -4240 4241 0
-4241 4257 0
-124 -4241 4242 0
-4242 4258 0
-125 -4242 4243 0
-4243 4259 0
-126 -4243 4244 0
-4244 4260 0
-127 -4244 4245 0
-4245 4261 0
-128 -4245 4246 0
-4246 4262 0
-129 -4246 4247 0
-4247 4263 0
-130 -4247 4248 0
-4248 4264 0
-131 -4248 0
-116 4249 0
-4249 4265 0
-117 -4249 4250 0
-4250 4266 0
-118 -4250 4251 0
-4251 4267 0
-119 -4251 4252 0
-4252 4268 0
-120 -4252 4253 0
-4253 4269 0
-121 -4253 4254 0
-4254 4270 0
-122 -4254 4255 0
-4255 4271 0
-123 -4255 4256 0
-4256 4272 0
-124 -4256 4257 0
-4257 4273 0
-125 -4257 4258 0
-4258 4274 0
-126 -4258 4259 0
-4259 4275 0
-127 -4259 4260 0
-4260 4276 0
-128 -4260 4261 0
-4261 4277 0
-129 -4261 4262 0
-4262 4278 0
-130 -4262 4263 0
-4263 4279 0
-131 -4263 4264 0
-4264 4280 0
-132 -4264 0
-117 4265 0
-4265 4281 0
-118 -4265 4266 0
-4266 4282 0
-119 -4266 4267 0
-4267 4283 0
-120 -4267 4268 0
-4268 4284 0
-121 -4268 4269 0
-4269 4285 0
-122 -4269 4270 0
-4270 4286 0
-123 -4270 4271 0
-4271 4287 0
-124 -4271 4272 0
-4272 4288 0
-125 -4272 4273 0
-4273 4289 0
-126 -4273 4274 0
-4274 4290 0
-127 -4274 4275 0
-4275 4291 0
-128 -4275 4276 0
-4276 4292 0
-129 -4276 4277 0
-4277 4293 0
-130 -4277 4278 0
-4278 4294 0
-131 -4278 4279 0
-4279 4295 0
-132 -4279 4280 0
-4280 4296 0
-133 -4280 0
-118 4281 0
-4281 4297 0
-119 -4281 4282 0
-4282 4298 0
-120 -4282 4283 0
-4283 4299 0
-121 -4283 4284 0
-4284 4300 0
-122 -4284 4285 0
-4285 4301 0
-123 -4285 4286 0
-4286 4302 0
-124 -4286 4287 0
-4287 4303 0
-125 -4287 4288 0
-4288 4304 0
-126 -4288 4289 0
-4289 4305 0
-127 -4289 4290 0
-4290 4306 0
-128 -4290 4291 0
-4291 4307 0
-129 -4291 4292 0
-4292 4308 0
-130 -4292 4293 0
-4293 4309 0
-131 -4293 4294 0
-4294 4310 0
-132 -4294 4295 0
-4295 4311 0
-133 -4295 4296 0
-4296 4312 0
-134 -4296 0
-119 4297 0
-4297 4313 0
-120 -4297 4298 0
-4298 4314 0
-121 -4298 4299 0
-4299 4315 0
-122 -4299 4300 0
-4300 4316 0
-123 -4300 4301 0
-4301 4317 0
-124 -4301 4302 0
-4302 4318 0
-125 -4302 4303 0
-4303 4319 0
-126 -4303 4304 0
-4304 4320 0
-127 -4304 4305 0
-4305 4321 0
-128 -4305 4306 0
-4306 4322 0
-129 -4306 4307 0
-4307 4323 0
-130 -4307 4308 0
-4308 4324 0
-131 -4308 4309 0
-4309 4325 0
-132 -4309 4310 0
-4310 4326 0
-133 -4310 4311 0
-4311 4327 0
-134 -4311 4312 0
-4312 4328 0
-135 -4312 0
-120 4313 0
-4313 4329 0
-121 -4313 4314 0
-4314 4330 0
-122 -4314 4315 0
-4315 4331 0
-123 -4315 4316 0
-4316 4332 0
-124 -4316 4317 0
-4317 4333 0
-125 -4317 4318 0
-4318 4334 0
-126 -4318 4319 0
-4319 4335 0
-127 -4319 4320 0
-4320 4336 0
-128 -4320 4321 0
-4321 4337 0
-129 -4321 4322 0
-4322 4338 0
-130 -4322 4323 0
-4323 4339 0
-131 -4323 4324 0
-4324 4340 0
-132 -4324 4325 0
-4325 4341 0
-133 -4325 4326 0
-4326 4342 0
-134 -4326 4327 0
-4327 4343 0
-135 -4327 4328 0
-4328 4344 0
-136 -4328 0
-121 4329 0
-4329 4345 0
-122 -4329 4330 0
-4330 4346 0
-123 -4330 4331 0
-4331 4347 0
-124 -4331 4332 0
-4332 4348 0
-125 -4332 4333 0
-4333 4349 0
-126 -4333 4334 0
-4334 4350 0
-127 -4334 4335 0
-4335 4351 0
-128 -4335 4336 0
-4336 4352 0
-129 -4336 4337 0
-4337 4353 0
-130 -4337 4338 0
-4338 4354 0
-131 -4338 4339 0
-4339 4355 0
-132 -4339 4340 0
-4340 4356 0
-133 -4340 4341 0
-4341 4357 0
-134 -4341 4342 0
-4342 4358 0
-135 -4342 4343 0
-4343 4359 0
-136 -4343 4344 0
-4344 4360 0
-137 -4344 0
-122 4345 0
-4345 4361 0
-123 -4345 4346 0
-4346 4362 0
-124 -4346 4347 0
-4347 4363 0
-125 -4347 4348 0
-4348 4364 0
-126 -4348 4349 0
-4349 4365 0
-127 -4349 4350 0
-4350 4366 0
-128 -4350 4351 0
-4351 4367 0
-129 -4351 4352 0
-4352 4368 0
-130 -4352 4353 0
-4353 4369 0
-131 -4353 4354 0
-4354 4370 0
-132 -4354 4355 0
-4355 4371 0
-133 -4355 4356 0
-4356 4372 0
-134 -4356 4357 0
-4357 4373 0
-135 -4357 4358 0
-4358 4374 0
-136 -4358 4359 0
-4359 4375 0
-137 -4359 4360 0
-4360 4376 0
-138 -4360 0
-123 4361 0
-4361 4377 0
-124 -4361 4362 0
-4362 4378 0
-125 -4362 4363 0
-4363 4379 0
-126 -4363 4364 0
-4364 4380 0
-127 -4364 4365 0
-4365 4381 0
-128 -4365 4366 0
-4366 4382 0
-129 -4366 4367 0
-4367 4383 0
-130 -4367 4368 0
-4368 4384 0
-131 -4368 4369 0
-4369 4385 0
-132 -4369 4370 0
-4370 4386 0
-133 -4370 4371 0
-4371 4387 0
-134 -4371 4372 0
-4372 4388 0
-135 -4372 4373 0
-4373 4389 0
-136 -4373 4374 0
-4374 4390 0
-137 -4374 4375 0
-4375 4391 0
-138 -4375 4376 0
-4376 4392 0
-139 -4376 0
-124 4377 0
-4377 4393 0
-125 -4377 4378 0
-4378 4394 0
-126 -4378 4379 0
-4379 4395 0
-127 -4379 4380 0
-4380 4396 0
-128 -4380 4381 0
-4381 4397 0
-129 -4381 4382 0
-4382 4398 0
-130 -4382 4383 0
-4383 4399 0
-131 -4383 4384 0
-4384 4400 0
-132 -4384 4385 0
-4385 4401 0
-133 -4385 4386 0
-4386 4402 0
-134 -4386 4387 0
-4387 4403 0
-135 -4387 4388 0
-4388 4404 0
-136 -4388 4389 0
-4389 4405 0
-137 -4389 4390 0
-4390 4406 0
-138 -4390 4391 0
-4391 4407 0
-139 -4391 4392 0
-4392 4408 0
-140 -4392 0
-125 4393 0
-4393 4409 0
-126 -4393 4394 0
-4394 4410 0
-127 -4394 4395 0
-4395 4411 0
-128 -4395 4396 0
-4396 4412 0
-129 -4396 4397 0
-4397 4413 0
-130 -4397 4398 0
-4398 4414 0
-131 -4398 4399 0
-4399 4415 0
-132 -4399 4400 0
-4400 4416 0
-133 -4400 4401 0
-4401 4417 0
-134 -4401 4402 0
-4402 4418 0
-135 -4402 4403 0
-4403 4419 0
-136 -4403 4404 0
-4404 4420 0
-137 -4404 4405 0
-4405 4421 0
-138 -4405 4406 0
-4406 4422 0
-139 -4406 4407 0
-4407 4423 0
-140 -4407 4408 0
-4408 4424 0
-141 -4408 0
-126 4409 0
-4409 4425 0
-127 -4409 4410 0
-4410 4426 0
-128 -4410 4411 0
-4411 4427 0
-129 -4411 4412 0
-4412 4428 0
-130 -4412 4413 0
-4413 4429 0
-131 -4413 4414 0
-4414 4430 0
-132 -4414 4415 0
-4415 4431 0
-133 -4415 4416 0
-4416 4432 0
-134 -4416 4417 0
-4417 4433 0
-135 -4417 4418 0
-4418 4434 0
-136 -4418 4419 0
-4419 4435 0
-137 -4419 4420 0
-4420 4436 0
-138 -4420 4421 0
-4421 4437 0
-139 -4421 4422 0
-4422 4438 0
-140 -4422 4423 0
-4423 4439 0
-141 -4423 4424 0
-4424 4440 0
-142 -4424 0
-127 4425 0
-4425 4441 0
-128 -4425 4426 0
-4426 4442 0
-129 -4426 4427 0
-4427 4443 0
-130 -4427 4428 0
-4428 4444 0
-131 -4428 4429 0
-4429 4445 0
-132 -4429 4430 0
-4430 4446 0
-133 -4430 4431 0
-4431 4447 0
-134 -4431 4432 0
-4432 4448 0
-135 -4432 4433 0
-4433 4449 0
-136 -4433 4434 0
-4434 4450 0
-137 -4434 4435 0
-4435 4451 0
-138 -4435 4436 0
-4436 4452 0
-139 -4436 4437 0
-4437 4453 0
-140 -4437 4438 0
-4438 4454 0
-141 -4438 4439 0
-4439 4455 0
-142 -4439 4440 0
-4440 4456 0
-143 -4440 0
-128 4441 0
-4441 4457 0
-129 -4441 4442 0
-4442 4458 0
-130 -4442 4443 0
-4443 4459 0
-131 -4443 4444 0
-4444 4460 0
-132 -4444 4445 0
-4445 4461 0
-133 -4445 4446 0
-4446 4462 0
-134 -4446 4447 0
-4447 4463 0
-135 -4447 4448 0
-4448 4464 0
-136 -4448 4449 0
-4449 4465 0
-137 -4449 4450 0
-4450 4466 0
-138 -4450 4451 0
-4451 4467 0
-139 -4451 4452 0
-4452 4468 0
-140 -4452 4453 0
-4453 4469 0
-141 -4453 4454 0
-4454 4470 0
-142 -4454 4455 0
-4455 4471 0
-143 -4455 4456 0
-4456 4472 0
-144 -4456 0
-129 4457 0
-4457 4473 0
-130 -4457 4458 0
-4458 4474 0
-131 -4458 4459 0
-4459 4475 0
-132 -4459 4460 0
-4460 4476 0
-133 -4460 4461 0
-4461 4477 0
-134 -4461 4462 0
-4462 4478 0
-135 -4462 4463 0
-4463 4479 0
-136 -4463 4464 0
-4464 4480 0
-137 -4464 4465 0
-4465 4481 0
-138 -4465 4466 0
-4466 4482 0
-139 -4466 4467 0
-4467 4483 0
-140 -4467 4468 0
-4468 4484 0
-141 -4468 4469 0
-4469 4485 0
-142 -4469 4470 0
-4470 4486 0
-143 -4470 4471 0
-4471 4487 0
-144 -4471 4472 0
-4472 4488 0
-145 -4472 0
-130 4473 0
-4473 4489 0
-131 -4473 4474 0
-4474 4490 0
-132 -4474 4475 0
-4475 4491 0
-133 -4475 4476 0
-4476 4492 0
-134 -4476 4477 0
-4477 4493 0
-135 -4477 4478 0
-4478 4494 0
-136 -4478 4479 0
-4479 4495 0
-137 -4479 4480 0
-4480 4496 0
-138 -4480 4481 0
-4481 4497 0
-139 -4481 4482 0
-4482 4498 0
-140 -4482 4483 0
-4483 4499 0
-141 -4483 4484 0
-4484 4500 0
-142 -4484 4485 0
-4485 4501 0
-143 -4485 4486 0
-4486 4502 0
-144 -4486 4487 0
-4487 4503 0
-145 -4487 4488 0
-4488 4504 0
-146 -4488 0
-131 4489 0
-4489 4505 0
-132 -4489 4490 0
-4490 4506 0
-133 -4490 4491 0
-4491 4507 0
-134 -4491 4492 0
-4492 4508 0
-135 -4492 4493 0
-4493 4509 0
-136 -4493 4494 0
-4494 4510 0
-137 -4494 4495 0
-4495 4511 0
-138 -4495 4496 0
-4496 4512 0
-139 -4496 4497 0
-4497 4513 0
-140 -4497 4498 0
-4498 4514 0
-141 -4498 4499 0
-4499 4515 0
-142 -4499 4500 0
-4500 4516 0
-143 -4500 4501 0
-4501 4517 0
-144 -4501 4502 0
-4502 4518 0
-145 -4502 4503 0
-4503 4519 0
-146 -4503 4504 0
-4504 4520 0
-147 -4504 0
-132 4505 0
-133 -4505 4506 0
-134 -4506 4507 0
-135 -4507 4508 0
-136 -4508 4509 0
-137 -4509 4510 0
-138 -4510 4511 0
-139 -4511 4512 0
-140 -4512 4513 0
-141 -4513 4514 0
-142 -4514 4515 0
-143 -4515 4516 0
-144 -4516 4517 0
-145 -4517 4518 0
-146 -4518 4519 0
-147 -4519 4520 0
-148 -4520 0
-149 4521 0
-4521 4522 0
-150 -4521 4523 0
-4523 4524 0
-151 -4523 4525 0
-4525 4526 0
-152 -4525 4527 0
-4527 4528 0
-153 -4527 4529 0
-4529 4530 0
-154 -4529 4531 0
-4531 4532 0
-155 -4531 4533 0
-4533 4534 0
-156 -4533 4535 0
-4535 4536 0
-157 -4535 4537 0
-4537 4538 0
-158 -4537 0
-150 4522 0
-4522 4539 0
-151 -4522 4524 0
-4524 4540 0
-152 -4524 4526 0
-4526 4541 0
-153 -4526 4528 0
-4528 4542 0
-154 -4528 4530 0
-4530 4543 0
-155 -4530 4532 0
-4532 4544 0
-156 -4532 4534 0
-4534 4545 0
-157 -4534 4536 0
-4536 4546 0
-158 -4536 4538 0
-4538 4547 0
-159 -4538 0
-151 4539 0
-4539 4548 0
-152 -4539 4540 0
-4540 4549 0
-153 -4540 4541 0
-4541 4550 0
-154 -4541 4542 0
-4542 4551 0
-155 -4542 4543 0
-4543 4552 0
-156 -4543 4544 0
-4544 4553 0
-157 -4544 4545 0
-4545 4554 0
-158 -4545 4546 0
-4546 4555 0
-159 -4546 4547 0
-4547 4556 0
-160 -4547 0
-152 4548 0
-4548 4557 0
-153 -4548 4549 0
-4549 4558 0
-154 -4549 4550 0
-4550 4559 0
-155 -4550 4551 0
-4551 4560 0
-156 -4551 4552 0
-4552 4561 0
-157 -4552 4553 0
-4553 4562 0
-158 -4553 4554 0
-4554 4563 0
-159 -4554 4555 0
-4555 4564 0
-160 -4555 4556 0
-4556 4565 0
-161 -4556 0
-153 4557 0
-4557 4566 0
-154 -4557 4558 0
-4558 4567 0
-155 -4558 4559 0
-4559 4568 0
-156 -4559 4560 0
-4560 4569 0
-157 -4560 4561 0
-4561 4570 0
-158 -4561 4562 0
-4562 4571 0
-159 -4562 4563 0
-4563 4572 0
-160 -4563 4564 0
-4564 4573 0
-161 -4564 4565 0
-4565 4574 0
-162 -4565 0
-154 4566 0
-4566 4575 0
-155 -4566 4567 0
-4567 4576 0
-156 -4567 4568 0
-4568 4577 0
-157 -4568 4569 0
-4569 4578 0
-158 -4569 4570 0
-4570 4579 0
-159 -4570 4571 0
-4571 4580 0
-160 -4571 4572 0
-4572 4581 0
-161 -4572 4573 0
-4573 4582 0
-162 -4573 4574 0
-4574 4583 0
-163 -4574 0
-155 4575 0
-4575 4584 0
-156 -4575 4576 0
-4576 4585 0
-157 -4576 4577 0
-4577 4586 0
-158 -4577 4578 0
-4578 4587 0
-159 -4578 4579 0
-4579 4588 0
-160 -4579 4580 0
-4580 4589 0
-161 -4580 4581 0
-4581 4590 0
-162 -4581 4582 0
-4582 4591 0
-163 -4582 4583 0
-4583 4592 0
-164 -4583 0
-156 4584 0
-4584 4593 0
-157 -4584 4585 0
-4585 4594 0
-158 -4585 4586 0
-4586 4595 0
-159 -4586 4587 0
-4587 4596 0
-160 -4587 4588 0
-4588 4597 0
-161 -4588 4589 0
-4589 4598 0
-162 -4589 4590 0
-4590 4599 0
-163 -4590 4591 0
-4591 4600 0
-164 -4591 4592 0
-4592 4601 0
-165 -4592 0
-157 4593 0
-4593 4602 0
-158 -4593 4594 0
-4594 4603 0
-159 -4594 4595 0
-4595 4604 0
-160 -4595 4596 0
-4596 4605 0
-161 -4596 4597 0
-4597 4606 0
-162 -4597 4598 0
-4598 4607 0
-163 -4598 4599 0
-4599 4608 0
-164 -4599 4600 0
-4600 4609 0
-165 -4600 4601 0
-4601 4610 0
-166 -4601 0
-158 4602 0
-4602 4611 0
-159 -4602 4603 0
-4603 4612 0
-160 -4603 4604 0
-4604 4613 0
-161 -4604 4605 0
-4605 4614 0
-162 -4605 4606 0
-4606 4615 0
-163 -4606 4607 0
-4607 4616 0
-164 -4607 4608 0
-4608 4617 0
-165 -4608 4609 0
-4609 4618 0
-166 -4609 4610 0
-4610 4619 0
-167 -4610 0
-159 4611 0
-4611 4620 0
-160 -4611 4612 0
-4612 4621 0
-161 -4612 4613 0
-4613 4622 0
-162 -4613 4614 0
-4614 4623 0
-163 -4614 4615 0
-4615 4624 0
-164 -4615 4616 0
-4616 4625 0
-165 -4616 4617 0
-4617 4626 0
-166 -4617 4618 0
-4618 4627 0
-167 -4618 4619 0
-4619 4628 0
-168 -4619 0
-160 4620 0
-4620 4629 0
-161 -4620 4621 0
-4621 4630 0
-162 -4621 4622 0
-4622 4631 0
-163 -4622 4623 0
-4623 4632 0
-164 -4623 4624 0
-4624 4633 0
-165 -4624 4625 0
-4625 4634 0
-166 -4625 4626 0
-4626 4635 0
-167 -4626 4627 0
-4627 4636 0
-168 -4627 4628 0
-4628 4637 0
-169 -4628 0
-161 4629 0
-4629 4638 0
-162 -4629 4630 0
-4630 4639 0
-163 -4630 4631 0
-4631 4640 0
-164 -4631 4632 0
-4632 4641 0
-165 -4632 4633 0
-4633 4642 0
-166 -4633 4634 0
-4634 4643 0
-167 -4634 4635 0
-4635 4644 0
-168 -4635 4636 0
-4636 4645 0
-169 -4636 4637 0
-4637 4646 0
-170 -4637 0
-162 4638 0
-4638 4647 0
-163 -4638 4639 0
-4639 4648 0
-164 -4639 4640 0
-4640 4649 0
-165 -4640 4641 0
-4641 4650 0
-166 -4641 4642 0
-4642 4651 0
-167 -4642 4643 0
-4643 4652 0
-168 -4643 4644 0
-4644 4653 0
-169 -4644 4645 0
-4645 4654 0
-170 -4645 4646 0
-4646 4655 0
-171 -4646 0
-163 4647 0
-4647 4656 0
-164 -4647 4648 0
-4648 4657 0
-165 -4648 4649 0
-4649 4658 0
-166 -4649 4650 0
-4650 4659 0
-167 -4650 4651 0
-4651 4660 0
-168 -4651 4652 0
-4652 4661 0
-169 -4652 4653 0
-4653 4662 0
-170 -4653 4654 0
-4654 4663 0
-171 -4654 4655 0
-4655 4664 0
-172 -4655 0
-164 4656 0
-4656 4665 0
-165 -4656 4657 0
-4657 4666 0
-166 -4657 4658 0
-4658 4667 0
-167 -4658 4659 0
-4659 4668 0
-168 -4659 4660 0
-4660 4669 0
-169 -4660 4661 0
-4661 4670 0
-170 -4661 4662 0
-4662 4671 0
-171 -4662 4663 0
-4663 4672 0
-172 -4663 4664 0
-4664 4673 0
-173 -4664 0
-165 4665 0
-4665 4674 0
-166 -4665 4666 0
-4666 4675 0
-167 -4666 4667 0
-4667 4676 0
-168 -4667 4668 0
-4668 4677 0
-169 -4668 4669 0
-4669 4678 0
-170 -4669 4670 0
-4670 4679 0
-171 -4670 4671 0
-4671 4680 0
-172 -4671 4672 0
-4672 4681 0
-173 -4672 4673 0
-4673 4682 0
-174 -4673 0
-166 4674 0
-4674 4683 0
-167 -4674 4675 0
-4675 4684 0
-168 -4675 4676 0
-4676 4685 0
-169 -4676 4677 0
-4677 4686 0
-170 -4677 4678 0
-4678 4687 0
-171 -4678 4679 0
-4679 4688 0
-172 -4679 4680 0
-4680 4689 0
-173 -4680 4681 0
-4681 4690 0
-174 -4681 4682 0
-4682 4691 0
-175 -4682 0
-167 4683 0
-4683 4692 0
-168 -4683 4684 0
-4684 4693 0
-169 -4684 4685 0
-4685 4694 0
-170 -4685 4686 0
-4686 4695 0
-171 -4686 4687 0
-4687 4696 0
-172 -4687 4688 0
-4688 4697 0
-173 -4688 4689 0
-4689 4698 0
-174 -4689 4690 0
-4690 4699 0
-175 -4690 4691 0
-4691 4700 0
-176 -4691 0
-168 4692 0
-4692 4701 0
-169 -4692 4693 0
-4693 4702 0
-170 -4693 4694 0
-4694 4703 0
-171 -4694 4695 0
-4695 4704 0
-172 -4695 4696 0
-4696 4705 0
-173 -4696 4697 0
-4697 4706 0
-174 -4697 4698 0
-4698 4707 0
-175 -4698 4699 0
-4699 4708 0
-176 -4699 4700 0
-4700 4709 0
-177 -4700 0
-169 4701 0
-4701 4710 0
-170 -4701 4702 0
-4702 4711 0
-171 -4702 4703 0
-4703 4712 0
-172 -4703 4704 0
-4704 4713 0
-173 -4704 4705 0
-4705 4714 0
-174 -4705 4706 0
-4706 4715 0
-175 -4706 4707 0
-4707 4716 0
-176 -4707 4708 0
-4708 4717 0
-177 -4708 4709 0
-4709 4718 0
-178 -4709 0
-170 4710 0
-4710 4719 0
-171 -4710 4711 0
-4711 4720 0
-172 -4711 4712 0
-4712 4721 0
-173 -4712 4713 0
-4713 4722 0
-174 -4713 4714 0
-4714 4723 0
-175 -4714 4715 0
-4715 4724 0
-176 -4715 4716 0
-4716 4725 0
-177 -4716 4717 0
-4717 4726 0
-178 -4717 4718 0
-4718 4727 0
-179 -4718 0
-171 4719 0
-4719 4728 0
-172 -4719 4720 0
-4720 4729 0
-173 -4720 4721 0
-4721 4730 0
-174 -4721 4722 0
-4722 4731 0
-175 -4722 4723 0
-4723 4732 0
-176 -4723 4724 0
-4724 4733 0
-177 -4724 4725 0
-4725 4734 0
-178 -4725 4726 0
-4726 4735 0
-179 -4726 4727 0
-4727 4736 0
-180 -4727 0
-172 4728 0
-4728 4737 0
-173 -4728 4729 0
-4729 4738 0
-174 -4729 4730 0
-4730 4739 0
-175 -4730 4731 0
-4731 4740 0
-176 -4731 4732 0
-4732 4741 0
-177 -4732 4733 0
-4733 4742 0
-178 -4733 4734 0
-4734 4743 0
-179 -4734 4735 0
-4735 4744 0
-180 -4735 4736 0
-4736 4745 0
-181 -4736 0
-173 4737 0
-4737 4746 0
-174 -4737 4738 0
-4738 4747 0
-175 -4738 4739 0
-4739 4748 0
-176 -4739 4740 0
-4740 4749 0
-177 -4740 4741 0
-4741 4750 0
-178 -4741 4742 0
-4742 4751 0
-179 -4742 4743 0
-4743 4752 0
-180 -4743 4744 0
-4744 4753 0
-181 -4744 4745 0
-4745 4754 0
-182 -4745 0
-174 4746 0
-4746 4755 0
-175 -4746 4747 0
-4747 4756 0
-176 -4747 4748 0
-4748 4757 0
-177 -4748 4749 0
-4749 4758 0
-178 -4749 4750 0
-4750 4759 0
-179 -4750 4751 0
-4751 4760 0
-180 -4751 4752 0
-4752 4761 0
-181 -4752 4753 0
-4753 4762 0
-182 -4753 4754 0
-4754 4763 0
-183 -4754 0
-175 4755 0
-4755 4764 0
-176 -4755 4756 0
-4756 4765 0
-177 -4756 4757 0
-4757 4766 0
-178 -4757 4758 0
-4758 4767 0
-179 -4758 4759 0
-4759 4768 0
-180 -4759 4760 0
-4760 4769 0
-181 -4760 4761 0
-4761 4770 0
-182 -4761 4762 0
-4762 4771 0
-183 -4762 4763 0
-4763 4772 0
-184 -4763 0
-176 4764 0
-4764 4773 0
-177 -4764 4765 0
-4765 4774 0
-178 -4765 4766 0
-4766 4775 0
-179 -4766 4767 0
-4767 4776 0
-180 -4767 4768 0
-4768 4777 0
-181 -4768 4769 0
-4769 4778 0
-182 -4769 4770 0
-4770 4779 0
-183 -4770 4771 0
-4771 4780 0
-184 -4771 4772 0
-4772 4781 0
-185 -4772 0
-177 4773 0
-4773 4782 0
-178 -4773 4774 0
-4774 4783 0
-179 -4774 4775 0
-4775 4784 0
-180 -4775 4776 0
-4776 4785 0
-181 -4776 4777 0
-4777 4786 0
-182 -4777 4778 0
-4778 4787 0
-183 -4778 4779 0
-4779 4788 0
-184 -4779 4780 0
-4780 4789 0
-185 -4780 4781 0
-4781 4790 0
-186 -4781 0
-178 4782 0
-4782 4791 0
-179 -4782 4783 0
-4783 4792 0
-180 -4783 4784 0
-4784 4793 0
-181 -4784 4785 0
-4785 4794 0
-182 -4785 4786 0
-4786 4795 0
-183 -4786 4787 0
-4787 4796 0
-184 -4787 4788 0
-4788 4797 0
-185 -4788 4789 0
-4789 4798 0
-186 -4789 4790 0
-4790 4799 0
-187 -4790 0
-179 4791 0
-4791 4800 0
-180 -4791 4792 0
-4792 4801 0
-181 -4792 4793 0
-4793 4802 0
-182 -4793 4794 0
-4794 4803 0
-183 -4794 4795 0
-4795 4804 0
-184 -4795 4796 0
-4796 4805 0
-185 -4796 4797 0
-4797 4806 0
-186 -4797 4798 0
-4798 4807 0
-187 -4798 4799 0
-4799 4808 0
-188 -4799 0
-180 4800 0
-4800 4809 0
-181 -4800 4801 0
-4801 4810 0
-182 -4801 4802 0
-4802 4811 0
-183 -4802 4803 0
-4803 4812 0
-184 -4803 4804 0
-4804 4813 0
-185 -4804 4805 0
-4805 4814 0
-186 -4805 4806 0
-4806 4815 0
-187 -4806 4807 0
-4807 4816 0
-188 -4807 4808 0
-4808 4817 0
-189 -4808 0
-181 4809 0
-4809 4818 0
-182 -4809 4810 0
-4810 4819 0
-183 -4810 4811 0
-4811 4820 0
-184 -4811 4812 0
-4812 4821 0
-185 -4812 4813 0
-4813 4822 0
-186 -4813 4814 0
-4814 4823 0
-187 -4814 4815 0
-4815 4824 0
-188 -4815 4816 0
-4816 4825 0
-189 -4816 4817 0
-4817 4826 0
-190 -4817 0
-182 4818 0
-4818 4827 0
-183 -4818 4819 0
-4819 4828 0
-184 -4819 4820 0
-4820 4829 0
-185 -4820 4821 0
-4821 4830 0
-186 -4821 4822 0
-4822 4831 0
-187 -4822 4823 0
-4823 4832 0
-188 -4823 4824 0
-4824 4833 0
-189 -4824 4825 0
-4825 4834 0
-190 -4825 4826 0
-4826 4835 0
-191 -4826 0
-183 4827 0
-4827 4836 0
-184 -4827 4828 0
-4828 4837 0
-185 -4828 4829 0
-4829 4838 0
-186 -4829 4830 0
-4830 4839 0
-187 -4830 4831 0
-4831 4840 0
-188 -4831 4832 0
-4832 4841 0
-189 -4832 4833 0
-4833 4842 0
-190 -4833 4834 0
-4834 4843 0
-191 -4834 4835 0
-4835 4844 0
-192 -4835 0
-184 4836 0
-4836 4845 0
-185 -4836 4837 0
-4837 4846 0
-186 -4837 4838 0
-4838 4847 0
-187 -4838 4839 0
-4839 4848 0
-188 -4839 4840 0
-4840 4849 0
-189 -4840 4841 0
-4841 4850 0
-190 -4841 4842 0
-4842 4851 0
-191 -4842 4843 0
-4843 4852 0
-192 -4843 4844 0
-4844 4853 0
-193 -4844 0
-185 4845 0
-4845 4854 0
-186 -4845 4846 0
-4846 4855 0
-187 -4846 4847 0
-4847 4856 0
-188 -4847 4848 0
-4848 4857 0
-189 -4848 4849 0
-4849 4858 0
-190 -4849 4850 0
-4850 4859 0
-191 -4850 4851 0
-4851 4860 0
-192 -4851 4852 0
-4852 4861 0
-193 -4852 4853 0
-4853 4862 0
-194 -4853 0
-186 4854 0
-4854 4863 0
-187 -4854 4855 0
-4855 4864 0
-188 -4855 4856 0
-4856 4865 0
-189 -4856 4857 0
-4857 4866 0
-190 -4857 4858 0
-4858 4867 0
-191 -4858 4859 0
-4859 4868 0
-192 -4859 4860 0
-4860 4869 0
-193 -4860 4861 0
-4861 4870 0
-194 -4861 4862 0
-4862 4871 0
-195 -4862 0
-187 4863 0
-4863 4872 0
-188 -4863 4864 0
-4864 4873 0
-189 -4864 4865 0
-4865 4874 0
-190 -4865 4866 0
-4866 4875 0
-191 -4866 4867 0
-4867 4876 0
-192 -4867 4868 0
-4868 4877 0
-193 -4868 4869 0
-4869 4878 0
-194 -4869 4870 0
-4870 4879 0
-195 -4870 4871 0
-4871 4880 0
-196 -4871 0
-188 4872 0
-4872 4881 0
-189 -4872 4873 0
-4873 4882 0
-190 -4873 4874 0
-4874 4883 0
-191 -4874 4875 0
-4875 4884 0
-192 -4875 4876 0
-4876 4885 0
-193 -4876 4877 0
-4877 4886 0
-194 -4877 4878 0
-4878 4887 0
-195 -4878 4879 0
-4879 4888 0
-196 -4879 4880 0
-4880 4889 0
-197 -4880 0
-189 4881 0
-4881 4890 0
-190 -4881 4882 0
-4882 4891 0
-191 -4882 4883 0
-4883 4892 0
-192 -4883 4884 0
-4884 4893 0
-193 -4884 4885 0
-4885 4894 0
-194 -4885 4886 0
-4886 4895 0
-195 -4886 4887 0
-4887 4896 0
-196 -4887 4888 0
-4888 4897 0
-197 -4888 4889 0
-4889 4898 0
-198 -4889 0
-190 4890 0
-4890 4899 0
-191 -4890 4891 0
-4891 4900 0
-192 -4891 4892 0
-4892 4901 0
-193 -4892 4893 0
-4893 4902 0
-194 -4893 4894 0
-4894 4903 0
-195 -4894 4895 0
-4895 4904 0
-196 -4895 4896 0
-4896 4905 0
-197 -4896 4897 0
-4897 4906 0
-198 -4897 4898 0
-4898 4907 0
-199 -4898 0
-191 4899 0
-4899 4908 0
-192 -4899 4900 0
-4900 4909 0
-193 -4900 4901 0
-4901 4910 0
-194 -4901 4902 0
-4902 4911 0
-195 -4902 4903 0
-4903 4912 0
-196 -4903 4904 0
-4904 4913 0
-197 -4904 4905 0
-4905 4914 0
-198 -4905 4906 0
-4906 4915 0
-199 -4906 4907 0
-4907 4916 0
-200 -4907 0
-192 4908 0
-4908 4917 0
-193 -4908 4909 0
-4909 4918 0
-194 -4909 4910 0
-4910 4919 0
-195 -4910 4911 0
-4911 4920 0
-196 -4911 4912 0
-4912 4921 0
-197 -4912 4913 0
-4913 4922 0
-198 -4913 4914 0
-4914 4923 0
-199 -4914 4915 0
-4915 4924 0
-200 -4915 4916 0
-4916 4925 0
-201 -4916 0
-193 4917 0
-4917 4926 0
-194 -4917 4918 0
-4918 4927 0
-195 -4918 4919 0
-4919 4928 0
-196 -4919 4920 0
-4920 4929 0
-197 -4920 4921 0
-4921 4930 0
-198 -4921 4922 0
-4922 4931 0
-199 -4922 4923 0
-4923 4932 0
-200 -4923 4924 0
-4924 4933 0
-201 -4924 4925 0
-4925 4934 0
-202 -4925 0
-194 4926 0
-4926 4935 0
-195 -4926 4927 0
-4927 4936 0
-196 -4927 4928 0
-4928 4937 0
-197 -4928 4929 0
-4929 4938 0
-198 -4929 4930 0
-4930 4939 0
-199 -4930 4931 0
-4931 4940 0
-200 -4931 4932 0
-4932 4941 0
-201 -4932 4933 0
-4933 4942 0
-202 -4933 4934 0
-4934 4943 0
-203 -4934 0
-195 4935 0
-4935 4944 0
-196 -4935 4936 0
-4936 4945 0
-197 -4936 4937 0
-4937 4946 0
-198 -4937 4938 0
-4938 4947 0
-199 -4938 4939 0
-4939 4948 0
-200 -4939 4940 0
-4940 4949 0
-201 -4940 4941 0
-4941 4950 0
-202 -4941 4942 0
-4942 4951 0
-203 -4942 4943 0
-4943 4952 0
-204 -4943 0
-196 4944 0
-4944 4953 0
-197 -4944 4945 0
-4945 4954 0
-198 -4945 4946 0
-4946 4955 0
-199 -4946 4947 0
-4947 4956 0
-200 -4947 4948 0
-4948 4957 0
-201 -4948 4949 0
-4949 4958 0
-202 -4949 4950 0
-4950 4959 0
-203 -4950 4951 0
-4951 4960 0
-204 -4951 4952 0
-4952 4961 0
-205 -4952 0
-197 4953 0
-4953 4962 0
-198 -4953 4954 0
-4954 4963 0
-199 -4954 4955 0
-4955 4964 0
-200 -4955 4956 0
-4956 4965 0
-201 -4956 4957 0
-4957 4966 0
-202 -4957 4958 0
-4958 4967 0
-203 -4958 4959 0
-4959 4968 0
-204 -4959 4960 0
-4960 4969 0
-205 -4960 4961 0
-4961 4970 0
-206 -4961 0
-198 4962 0
-4962 4971 0
-199 -4962 4963 0
-4963 4972 0
-200 -4963 4964 0
-4964 4973 0
-201 -4964 4965 0
-4965 4974 0
-202 -4965 4966 0
-4966 4975 0
-203 -4966 4967 0
-4967 4976 0
-204 -4967 4968 0
-4968 4977 0
-205 -4968 4969 0
-4969 4978 0
-206 -4969 4970 0
-4970 4979 0
-207 -4970 0
-199 4971 0
-4971 4980 0
-200 -4971 4972 0
-4972 4981 0
-201 -4972 4973 0
-4973 4982 0
-202 -4973 4974 0
-4974 4983 0
-203 -4974 4975 0
-4975 4984 0
-204 -4975 4976 0
-4976 4985 0
-205 -4976 4977 0
-4977 4986 0
-206 -4977 4978 0
-4978 4987 0
-207 -4978 4979 0
-4979 4988 0
-208 -4979 0
-200 4980 0
-4980 4989 0
-201 -4980 4981 0
-4981 4990 0
-202 -4981 4982 0
-4982 4991 0
-203 -4982 4983 0
-4983 4992 0
-204 -4983 4984 0
-4984 4993 0
-205 -4984 4985 0
-4985 4994 0
-206 -4985 4986 0
-4986 4995 0
-207 -4986 4987 0
-4987 4996 0
-208 -4987 4988 0
-4988 4997 0
-209 -4988 0
-201 4989 0
-4989 4998 0
-202 -4989 4990 0
-4990 4999 0
-203 -4990 4991 0
-4991 5000 0
-204 -4991 4992 0
-4992 5001 0
-205 -4992 4993 0
-4993 5002 0
-206 -4993 4994 0
-4994 5003 0
-207 -4994 4995 0
-4995 5004 0
-208 -4995 4996 0
-4996 5005 0
-209 -4996 4997 0
-4997 5006 0
-210 -4997 0
-202 4998 0
-4998 5007 0
-203 -4998 4999 0
-4999 5008 0
-204 -4999 5000 0
-5000 5009 0
-205 -5000 5001 0
-5001 5010 0
-206 -5001 5002 0
-5002 5011 0
-207 -5002 5003 0
-5003 5012 0
-208 -5003 5004 0
-5004 5013 0
-209 -5004 5005 0
-5005 5014 0
-210 -5005 5006 0
-5006 5015 0
-211 -5006 0
-203 5007 0
-5007 5016 0
-204 -5007 5008 0
-5008 5017 0
-205 -5008 5009 0
-5009 5018 0
-206 -5009 5010 0
-5010 5019 0
-207 -5010 5011 0
-5011 5020 0
-208 -5011 5012 0
-5012 5021 0
-209 -5012 5013 0
-5013 5022 0
-210 -5013 5014 0
-5014 5023 0
-211 -5014 5015 0
-5015 5024 0
-212 -5015 0
-204 5016 0
-5016 5025 0
-205 -5016 5017 0
-5017 5026 0
-206 -5017 5018 0
-5018 5027 0
-207 -5018 5019 0
-5019 5028 0
-208 -5019 5020 0
-5020 5029 0
-209 -5020 5021 0
-5021 5030 0
-210 -5021 5022 0
-5022 5031 0
-211 -5022 5023 0
-5023 5032 0
-212 -5023 5024 0
-5024 5033 0
-213 -5024 0
-205 5025 0
-5025 5034 0
-206 -5025 5026 0
-5026 5035 0
-207 -5026 5027 0
-5027 5036 0
-208 -5027 5028 0
-5028 5037 0
-209 -5028 5029 0
-5029 5038 0
-210 -5029 5030 0
-5030 5039 0
-211 -5030 5031 0
-5031 5040 0
-212 -5031 5032 0
-5032 5041 0
-213 -5032 5033 0
-5033 5042 0
-214 -5033 0
-206 5034 0
-5034 5043 0
-207 -5034 5035 0
-5035 5044 0
-208 -5035 5036 0
-5036 5045 0
-209 -5036 5037 0
-5037 5046 0
-210 -5037 5038 0
-5038 5047 0
-211 -5038 5039 0
-5039 5048 0
-212 -5039 5040 0
-5040 5049 0
-213 -5040 5041 0
-5041 5050 0
-214 -5041 5042 0
-5042 5051 0
-215 -5042 0
-207 5043 0
-5043 5052 0
-208 -5043 5044 0
-5044 5053 0
-209 -5044 5045 0
-5045 5054 0
-210 -5045 5046 0
-5046 5055 0
-211 -5046 5047 0
-5047 5056 0
-212 -5047 5048 0
-5048 5057 0
-213 -5048 5049 0
-5049 5058 0
-214 -5049 5050 0
-5050 5059 0
-215 -5050 5051 0
-5051 5060 0
-216 -5051 0
-208 5052 0
-5052 5061 0
-209 -5052 5053 0
-5053 5062 0
-210 -5053 5054 0
-5054 5063 0
-211 -5054 5055 0
-5055 5064 0
-212 -5055 5056 0
-5056 5065 0
-213 -5056 5057 0
-5057 5066 0
-214 -5057 5058 0
-5058 5067 0
-215 -5058 5059 0
-5059 5068 0
-216 -5059 5060 0
-5060 5069 0
-217 -5060 0
-209 5061 0
-5061 5070 0
-210 -5061 5062 0
-5062 5071 0
-211 -5062 5063 0
-5063 5072 0
-212 -5063 5064 0
-5064 5073 0
-213 -5064 5065 0
-5065 5074 0
-214 -5065 5066 0
-5066 5075 0
-215 -5066 5067 0
-5067 5076 0
-216 -5067 5068 0
-5068 5077 0
-217 -5068 5069 0
-5069 5078 0
-218 -5069 0
-210 5070 0
-5070 5079 0
-211 -5070 5071 0
-5071 5080 0
-212 -5071 5072 0
-5072 5081 0
-213 -5072 5073 0
-5073 5082 0
-214 -5073 5074 0
-5074 5083 0
-215 -5074 5075 0
-5075 5084 0
-216 -5075 5076 0
-5076 5085 0
-217 -5076 5077 0
-5077 5086 0
-218 -5077 5078 0
-5078 5087 0
-219 -5078 0
-211 5079 0
-5079 5088 0
-212 -5079 5080 0
-5080 5089 0
-213 -5080 5081 0
-5081 5090 0
-214 -5081 5082 0
-5082 5091 0
-215 -5082 5083 0
-5083 5092 0
-216 -5083 5084 0
-5084 5093 0
-217 -5084 5085 0
-5085 5094 0
-218 -5085 5086 0
-5086 5095 0
-219 -5086 5087 0
-5087 5096 0
-220 -5087 0
-212 5088 0
-5088 5097 0
-213 -5088 5089 0
-5089 5098 0
-214 -5089 5090 0
-5090 5099 0
-215 -5090 5091 0
-5091 5100 0
-216 -5091 5092 0
-5092 5101 0
-217 -5092 5093 0
-5093 5102 0
-218 -5093 5094 0
-5094 5103 0
-219 -5094 5095 0
-5095 5104 0
-220 -5095 5096 0
-5096 5105 0
-221 -5096 0
-213 5097 0
-5097 5106 0
-214 -5097 5098 0
-5098 5107 0
-215 -5098 5099 0
-5099 5108 0
-216 -5099 5100 0
-5100 5109 0
-217 -5100 5101 0
-5101 5110 0
-218 -5101 5102 0
-5102 5111 0
-219 -5102 5103 0
-5103 5112 0
-220 -5103 5104 0
-5104 5113 0
-221 -5104 5105 0
-5105 5114 0
-222 -5105 0
-214 5106 0
-5106 5115 0
-215 -5106 5107 0
-5107 5116 0
-216 -5107 5108 0
-5108 5117 0
-217 -5108 5109 0
-5109 5118 0
-218 -5109 5110 0
-5110 5119 0
-219 -5110 5111 0
-5111 5120 0
-220 -5111 5112 0
-5112 5121 0
-221 -5112 5113 0
-5113 5122 0
-222 -5113 5114 0
-5114 5123 0
-223 -5114 0
-215 5115 0
-5115 5124 0
-216 -5115 5116 0
-5116 5125 0
-217 -5116 5117 0
-5117 5126 0
-218 -5117 5118 0
-5118 5127 0
-219 -5118 5119 0
-5119 5128 0
-220 -5119 5120 0
-5120 5129 0
-221 -5120 5121 0
-5121 5130 0
-222 -5121 5122 0
-5122 5131 0
-223 -5122 5123 0
-5123 5132 0
-224 -5123 0
-216 5124 0
-5124 5133 0
-217 -5124 5125 0
-5125 5134 0
-218 -5125 5126 0
-5126 5135 0
-219 -5126 5127 0
-5127 5136 0
-220 -5127 5128 0
-5128 5137 0
-221 -5128 5129 0
-5129 5138 0
-222 -5129 5130 0
-5130 5139 0
-223 -5130 5131 0
-5131 5140 0
-224 -5131 5132 0
-5132 5141 0
-225 -5132 0
-217 5133 0
-5133 5142 0
-218 -5133 5134 0
-5134 5143 0
-219 -5134 5135 0
-5135 5144 0
-220 -5135 5136 0
-5136 5145 0
-221 -5136 5137 0
-5137 5146 0
-222 -5137 5138 0
-5138 5147 0
-223 -5138 5139 0
-5139 5148 0
-224 -5139 5140 0
-5140 5149 0
-225 -5140 5141 0
-5141 5150 0
-226 -5141 0
-218 5142 0
-5142 5151 0
-219 -5142 5143 0
-5143 5152 0
-220 -5143 5144 0
-5144 5153 0
-221 -5144 5145 0
-5145 5154 0
-222 -5145 5146 0
-5146 5155 0
-223 -5146 5147 0
-5147 5156 0
-224 -5147 5148 0
-5148 5157 0
-225 -5148 5149 0
-5149 5158 0
-226 -5149 5150 0
-5150 5159 0
-227 -5150 0
-219 5151 0
-5151 5160 0
-220 -5151 5152 0
-5152 5161 0
-221 -5152 5153 0
-5153 5162 0
-222 -5153 5154 0
-5154 5163 0
-223 -5154 5155 0
-5155 5164 0
-224 -5155 5156 0
-5156 5165 0
-225 -5156 5157 0
-5157 5166 0
-226 -5157 5158 0
-5158 5167 0
-227 -5158 5159 0
-5159 5168 0
-228 -5159 0
-220 5160 0
-5160 5169 0
-221 -5160 5161 0
-5161 5170 0
-222 -5161 5162 0
-5162 5171 0
-223 -5162 5163 0
-5163 5172 0
-224 -5163 5164 0
-5164 5173 0
-225 -5164 5165 0
-5165 5174 0
-226 -5165 5166 0
-5166 5175 0
-227 -5166 5167 0
-5167 5176 0
-228 -5167 5168 0
-5168 5177 0
-229 -5168 0
-221 5169 0
-5169 5178 0
-222 -5169 5170 0
-5170 5179 0
-223 -5170 5171 0
-5171 5180 0
-224 -5171 5172 0
-5172 5181 0
-225 -5172 5173 0
-5173 5182 0
-226 -5173 5174 0
-5174 5183 0
-227 -5174 5175 0
-5175 5184 0
-228 -5175 5176 0
-5176 5185 0
-229 -5176 5177 0
-5177 5186 0
-230 -5177 0
-222 5178 0
-5178 5187 0
-223 -5178 5179 0
-5179 5188 0
-224 -5179 5180 0
-5180 5189 0
-225 -5180 5181 0
-5181 5190 0
-226 -5181 5182 0
-5182 5191 0
-227 -5182 5183 0
-5183 5192 0
-228 -5183 5184 0
-5184 5193 0
-229 -5184 5185 0
-5185 5194 0
-230 -5185 5186 0
-5186 5195 0
-231 -5186 0
-223 5187 0
-5187 5196 0
-224 -5187 5188 0
-5188 5197 0
-225 -5188 5189 0
-5189 5198 0
-226 -5189 5190 0
-5190 5199 0
-227 -5190 5191 0
-5191 5200 0
-228 -5191 5192 0
-5192 5201 0
-229 -5192 5193 0
-5193 5202 0
-230 -5193 5194 0
-5194 5203 0
-231 -5194 5195 0
-5195 5204 0
-232 -5195 0
-224 5196 0
-5196 5205 0
-225 -5196 5197 0
-5197 5206 0
-226 -5197 5198 0
-5198 5207 0
-227 -5198 5199 0
-5199 5208 0
-228 -5199 5200 0
-5200 5209 0
-229 -5200 5201 0
-5201 5210 0
-230 -5201 5202 0
-5202 5211 0
-231 -5202 5203 0
-5203 5212 0
-232 -5203 5204 0
-5204 5213 0
-233 -5204 0
-225 5205 0
-5205 5214 0
-226 -5205 5206 0
-5206 5215 0
-227 -5206 5207 0
-5207 5216 0
-228 -5207 5208 0
-5208 5217 0
-229 -5208 5209 0
-5209 5218 0
-230 -5209 5210 0
-5210 5219 0
-231 -5210 5211 0
-5211 5220 0
-232 -5211 5212 0
-5212 5221 0
-233 -5212 5213 0
-5213 5222 0
-234 -5213 0
-226 5214 0
-5214 5223 0
-227 -5214 5215 0
-5215 5224 0
-228 -5215 5216 0
-5216 5225 0
-229 -5216 5217 0
-5217 5226 0
-230 -5217 5218 0
-5218 5227 0
-231 -5218 5219 0
-5219 5228 0
-232 -5219 5220 0
-5220 5229 0
-233 -5220 5221 0
-5221 5230 0
-234 -5221 5222 0
-5222 5231 0
-235 -5222 0
-227 5223 0
-5223 5232 0
-228 -5223 5224 0
-5224 5233 0
-229 -5224 5225 0
-5225 5234 0
-230 -5225 5226 0
-5226 5235 0
-231 -5226 5227 0
-5227 5236 0
-232 -5227 5228 0
-5228 5237 0
-233 -5228 5229 0
-5229 5238 0
-234 -5229 5230 0
-5230 5239 0
-235 -5230 5231 0
-5231 5240 0
-236 -5231 0
-228 5232 0
-5232 5241 0
-229 -5232 5233 0
-5233 5242 0
-230 -5233 5234 0
-5234 5243 0
-231 -5234 5235 0
-5235 5244 0
-232 -5235 5236 0
-5236 5245 0
-233 -5236 5237 0
-5237 5246 0
-234 -5237 5238 0
-5238 5247 0
-235 -5238 5239 0
-5239 5248 0
-236 -5239 5240 0
-5240 5249 0
-237 -5240 0
-229 5241 0
-5241 5250 0
-230 -5241 5242 0
-5242 5251 0
-231 -5242 5243 0
-5243 5252 0
-232 -5243 5244 0
-5244 5253 0
-233 -5244 5245 0
-5245 5254 0
-234 -5245 5246 0
-5246 5255 0
-235 -5246 5247 0
-5247 5256 0
-236 -5247 5248 0
-5248 5257 0
-237 -5248 5249 0
-5249 5258 0
-238 -5249 0
-230 5250 0
-5250 5259 0
-231 -5250 5251 0
-5251 5260 0
-232 -5251 5252 0
-5252 5261 0
-233 -5252 5253 0
-5253 5262 0
-234 -5253 5254 0
-5254 5263 0
-235 -5254 5255 0
-5255 5264 0
-236 -5255 5256 0
-5256 5265 0
-237 -5256 5257 0
-5257 5266 0
-238 -5257 5258 0
-5258 5267 0
-239 -5258 0
-231 5259 0
-5259 5268 0
-232 -5259 5260 0
-5260 5269 0
-233 -5260 5261 0
-5261 5270 0
-234 -5261 5262 0
-5262 5271 0
-235 -5262 5263 0
-5263 5272 0
-236 -5263 5264 0
-5264 5273 0
-237 -5264 5265 0
-5265 5274 0
-238 -5265 5266 0
-5266 5275 0
-239 -5266 5267 0
-5267 5276 0
-240 -5267 0
-232 5268 0
-5268 5277 0
-233 -5268 5269 0
-5269 5278 0
-234 -5269 5270 0
-5270 5279 0
-235 -5270 5271 0
-5271 5280 0
-236 -5271 5272 0
-5272 5281 0
-237 -5272 5273 0
-5273 5282 0
-238 -5273 5274 0
-5274 5283 0
-239 -5274 5275 0
-5275 5284 0
-240 -5275 5276 0
-5276 5285 0
-241 -5276 0
-233 5277 0
-5277 5286 0
-234 -5277 5278 0
-5278 5287 0
-235 -5278 5279 0
-5279 5288 0
-236 -5279 5280 0
-5280 5289 0
-237 -5280 5281 0
-5281 5290 0
-238 -5281 5282 0
-5282 5291 0
-239 -5282 5283 0
-5283 5292 0
-240 -5283 5284 0
-5284 5293 0
-241 -5284 5285 0
-5285 5294 0
-242 -5285 0
-234 5286 0
-5286 5295 0
-235 -5286 5287 0
-5287 5296 0
-236 -5287 5288 0
-5288 5297 0
-237 -5288 5289 0
-5289 5298 0
-238 -5289 5290 0
-5290 5299 0
-239 -5290 5291 0
-5291 5300 0
-240 -5291 5292 0
-5292 5301 0
-241 -5292 5293 0
-5293 5302 0
-242 -5293 5294 0
-5294 5303 0
-243 -5294 0
-235 5295 0
-5295 5304 0
-236 -5295 5296 0
-5296 5305 0
-237 -5296 5297 0
-5297 5306 0
-238 -5297 5298 0
-5298 5307 0
-239 -5298 5299 0
-5299 5308 0
-240 -5299 5300 0
-5300 5309 0
-241 -5300 5301 0
-5301 5310 0
-242 -5301 5302 0
-5302 5311 0
-243 -5302 5303 0
-5303 5312 0
-244 -5303 0
-236 5304 0
-5304 5313 0
-237 -5304 5305 0
-5305 5314 0
-238 -5305 5306 0
-5306 5315 0
-239 -5306 5307 0
-5307 5316 0
-240 -5307 5308 0
-5308 5317 0
-241 -5308 5309 0
-5309 5318 0
-242 -5309 5310 0
-5310 5319 0
-243 -5310 5311 0
-5311 5320 0
-244 -5311 5312 0
-5312 5321 0
-245 -5312 0
-237 5313 0
-5313 5322 0
-238 -5313 5314 0
-5314 5323 0
-239 -5314 5315 0
-5315 5324 0
-240 -5315 5316 0
-5316 5325 0
-241 -5316 5317 0
-5317 5326 0
-242 -5317 5318 0
-5318 5327 0
-243 -5318 5319 0
-5319 5328 0
-244 -5319 5320 0
-5320 5329 0
-245 -5320 5321 0
-5321 5330 0
-246 -5321 0
-238 5322 0
-5322 5331 0
-239 -5322 5323 0
-5323 5332 0
-240 -5323 5324 0
-5324 5333 0
-241 -5324 5325 0
-5325 5334 0
-242 -5325 5326 0
-5326 5335 0
-243 -5326 5327 0
-5327 5336 0
-244 -5327 5328 0
-5328 5337 0
-245 -5328 5329 0
-5329 5338 0
-246 -5329 5330 0
-5330 5339 0
-247 -5330 0
-239 5331 0
-5331 5340 0
-240 -5331 5332 0
-5332 5341 0
-241 -5332 5333 0
-5333 5342 0
-242 -5333 5334 0
-5334 5343 0
-243 -5334 5335 0
-5335 5344 0
-244 -5335 5336 0
-5336 5345 0
-245 -5336 5337 0
-5337 5346 0
-246 -5337 5338 0
-5338 5347 0
-247 -5338 5339 0
-5339 5348 0
-248 -5339 0
-240 5340 0
-5340 5349 0
-241 -5340 5341 0
-5341 5350 0
-242 -5341 5342 0
-5342 5351 0
-243 -5342 5343 0
-5343 5352 0
-244 -5343 5344 0
-5344 5353 0
-245 -5344 5345 0
-5345 5354 0
-246 -5345 5346 0
-5346 5355 0
-247 -5346 5347 0
-5347 5356 0
-248 -5347 5348 0
-5348 5357 0
-249 -5348 0
-241 5349 0
-5349 5358 0
-242 -5349 5350 0
-5350 5359 0
-243 -5350 5351 0
-5351 5360 0
-244 -5351 5352 0
-5352 5361 0
-245 -5352 5353 0
-5353 5362 0
-246 -5353 5354 0
-5354 5363 0
-247 -5354 5355 0
-5355 5364 0
-248 -5355 5356 0
-5356 5365 0
-249 -5356 5357 0
-5357 5366 0
-250 -5357 0
-242 5358 0
-5358 5367 0
-243 -5358 5359 0
-5359 5368 0
-244 -5359 5360 0
-5360 5369 0
-245 -5360 5361 0
-5361 5370 0
-246 -5361 5362 0
-5362 5371 0
-247 -5362 5363 0
-5363 5372 0
-248 -5363 5364 0
-5364 5373 0
-249 -5364 5365 0
-5365 5374 0
-250 -5365 5366 0
-5366 5375 0
-251 -5366 0
-243 5367 0
-5367 5376 0
-244 -5367 5368 0
-5368 5377 0
-245 -5368 5369 0
-5369 5378 0
-246 -5369 5370 0
-5370 5379 0
-247 -5370 5371 0
-5371 5380 0
-248 -5371 5372 0
-5372 5381 0
-249 -5372 5373 0
-5373 5382 0
-250 -5373 5374 0
-5374 5383 0
-251 -5374 5375 0
-5375 5384 0
-252 -5375 0
-244 5376 0
-5376 5385 0
-245 -5376 5377 0
-5377 5386 0
-246 -5377 5378 0
-5378 5387 0
-247 -5378 5379 0
-5379 5388 0
-248 -5379 5380 0
-5380 5389 0
-249 -5380 5381 0
-5381 5390 0
-250 -5381 5382 0
-5382 5391 0
-251 -5382 5383 0
-5383 5392 0
-252 -5383 5384 0
-5384 5393 0
-253 -5384 0
-245 5385 0
-5385 5394 0
-246 -5385 5386 0
-5386 5395 0
-247 -5386 5387 0
-5387 5396 0
-248 -5387 5388 0
-5388 5397 0
-249 -5388 5389 0
-5389 5398 0
-250 -5389 5390 0
-5390 5399 0
-251 -5390 5391 0
-5391 5400 0
-252 -5391 5392 0
-5392 5401 0
-253 -5392 5393 0
-5393 5402 0
-254 -5393 0
-246 5394 0
-5394 5403 0
-247 -5394 5395 0
-5395 5404 0
-248 -5395 5396 0
-5396 5405 0
-249 -5396 5397 0
-5397 5406 0
-250 -5397 5398 0
-5398 5407 0
-251 -5398 5399 0
-5399 5408 0
-252 -5399 5400 0
-5400 5409 0
-253 -5400 5401 0
-5401 5410 0
-254 -5401 5402 0
-5402 5411 0
-255 -5402 0
-247 5403 0
-5403 5412 0
-248 -5403 5404 0
-5404 5413 0
-249 -5404 5405 0
-5405 5414 0
-250 -5405 5406 0
-5406 5415 0
-251 -5406 5407 0
-5407 5416 0
-252 -5407 5408 0
-5408 5417 0
-253 -5408 5409 0
-5409 5418 0
-254 -5409 5410 0
-5410 5419 0
-255 -5410 5411 0
-5411 5420 0
-256 -5411 0
-248 5412 0
-5412 5421 0
-249 -5412 5413 0
-5413 5422 0
-250 -5413 5414 0
-5414 5423 0
-251 -5414 5415 0
-5415 5424 0
-252 -5415 5416 0
-5416 5425 0
-253 -5416 5417 0
-5417 5426 0
-254 -5417 5418 0
-5418 5427 0
-255 -5418 5419 0
-5419 5428 0
-256 -5419 5420 0
-5420 5429 0
-257 -5420 0
-249 5421 0
-5421 5430 0
-250 -5421 5422 0
-5422 5431 0
-251 -5422 5423 0
-5423 5432 0
-252 -5423 5424 0
-5424 5433 0
-253 -5424 5425 0
-5425 5434 0
-254 -5425 5426 0
-5426 5435 0
-255 -5426 5427 0
-5427 5436 0
-256 -5427 5428 0
-5428 5437 0
-257 -5428 5429 0
-5429 5438 0
-258 -5429 0
-250 5430 0
-5430 5439 0
-251 -5430 5431 0
-5431 5440 0
-252 -5431 5432 0
-5432 5441 0
-253 -5432 5433 0
-5433 5442 0
-254 -5433 5434 0
-5434 5443 0
-255 -5434 5435 0
-5435 5444 0
-256 -5435 5436 0
-5436 5445 0
-257 -5436 5437 0
-5437 5446 0
-258 -5437 5438 0
-5438 5447 0
-259 -5438 0
-251 5439 0
-5439 5448 0
-252 -5439 5440 0
-5440 5449 0
-253 -5440 5441 0
-5441 5450 0
-254 -5441 5442 0
-5442 5451 0
-255 -5442 5443 0
-5443 5452 0
-256 -5443 5444 0
-5444 5453 0
-257 -5444 5445 0
-5445 5454 0
-258 -5445 5446 0
-5446 5455 0
-259 -5446 5447 0
-5447 5456 0
-260 -5447 0
-252 5448 0
-5448 5457 0
-253 -5448 5449 0
-5449 5458 0
-254 -5449 5450 0
-5450 5459 0
-255 -5450 5451 0
-5451 5460 0
-256 -5451 5452 0
-5452 5461 0
-257 -5452 5453 0
-5453 5462 0
-258 -5453 5454 0
-5454 5463 0
-259 -5454 5455 0
-5455 5464 0
-260 -5455 5456 0
-5456 5465 0
-261 -5456 0
-253 5457 0
-5457 5466 0
-254 -5457 5458 0
-5458 5467 0
-255 -5458 5459 0
-5459 5468 0
-256 -5459 5460 0
-5460 5469 0
-257 -5460 5461 0
-5461 5470 0
-258 -5461 5462 0
-5462 5471 0
-259 -5462 5463 0
-5463 5472 0
-260 -5463 5464 0
-5464 5473 0
-261 -5464 5465 0
-5465 5474 0
-262 -5465 0
-254 5466 0
-5466 5475 0
-255 -5466 5467 0
-5467 5476 0
-256 -5467 5468 0
-5468 5477 0
-257 -5468 5469 0
-5469 5478 0
-258 -5469 5470 0
-5470 5479 0
-259 -5470 5471 0
-5471 5480 0
-260 -5471 5472 0
-5472 5481 0
-261 -5472 5473 0
-5473 5482 0
-262 -5473 5474 0
-5474 5483 0
-263 -5474 0
-255 5475 0
-5475 5484 0
-256 -5475 5476 0
-5476 5485 0
-257 -5476 5477 0
-5477 5486 0
-258 -5477 5478 0
-5478 5487 0
-259 -5478 5479 0
-5479 5488 0
-260 -5479 5480 0
-5480 5489 0
-261 -5480 5481 0
-5481 5490 0
-262 -5481 5482 0
-5482 5491 0
-263 -5482 5483 0
-5483 5492 0
-264 -5483 0
-256 5484 0
-5484 5493 0
-257 -5484 5485 0
-5485 5494 0
-258 -5485 5486 0
-5486 5495 0
-259 -5486 5487 0
-5487 5496 0
-260 -5487 5488 0
-5488 5497 0
-261 -5488 5489 0
-5489 5498 0
-262 -5489 5490 0
-5490 5499 0
-263 -5490 5491 0
-5491 5500 0
-264 -5491 5492 0
-5492 5501 0
-265 -5492 0
-257 5493 0
-5493 5502 0
-258 -5493 5494 0
-5494 5503 0
-259 -5494 5495 0
-5495 5504 0
-260 -5495 5496 0
-5496 5505 0
-261 -5496 5497 0
-5497 5506 0
-262 -5497 5498 0
-5498 5507 0
-263 -5498 5499 0
-5499 5508 0
-264 -5499 5500 0
-5500 5509 0
-265 -5500 5501 0
-5501 5510 0
-266 -5501 0
-258 5502 0
-5502 5511 0
-259 -5502 5503 0
-5503 5512 0
-260 -5503 5504 0
-5504 5513 0
-261 -5504 5505 0
-5505 5514 0
-262 -5505 5506 0
-5506 5515 0
-263 -5506 5507 0
-5507 5516 0
-264 -5507 5508 0
-5508 5517 0
-265 -5508 5509 0
-5509 5518 0
-266 -5509 5510 0
-5510 5519 0
-267 -5510 0
-259 5511 0
-5511 5520 0
-260 -5511 5512 0
-5512 5521 0
-261 -5512 5513 0
-5513 5522 0
-262 -5513 5514 0
-5514 5523 0
-263 -5514 5515 0
-5515 5524 0
-264 -5515 5516 0
-5516 5525 0
-265 -5516 5517 0
-5517 5526 0
-266 -5517 5518 0
-5518 5527 0
-267 -5518 5519 0
-5519 5528 0
-268 -5519 0
-260 5520 0
-5520 5529 0
-261 -5520 5521 0
-5521 5530 0
-262 -5521 5522 0
-5522 5531 0
-263 -5522 5523 0
-5523 5532 0
-264 -5523 5524 0
-5524 5533 0
-265 -5524 5525 0
-5525 5534 0
-266 -5525 5526 0
-5526 5535 0
-267 -5526 5527 0
-5527 5536 0
-268 -5527 5528 0
-5528 5537 0
-269 -5528 0
-261 5529 0
-5529 5538 0
-262 -5529 5530 0
-5530 5539 0
-263 -5530 5531 0
-5531 5540 0
-264 -5531 5532 0
-5532 5541 0
-265 -5532 5533 0
-5533 5542 0
-266 -5533 5534 0
-5534 5543 0
-267 -5534 5535 0
-5535 5544 0
-268 -5535 5536 0
-5536 5545 0
-269 -5536 5537 0
-5537 5546 0
-270 -5537 0
-262 5538 0
-5538 5547 0
-263 -5538 5539 0
-5539 5548 0
-264 -5539 5540 0
-5540 5549 0
-265 -5540 5541 0
-5541 5550 0
-266 -5541 5542 0
-5542 5551 0
-267 -5542 5543 0
-5543 5552 0
-268 -5543 5544 0
-5544 5553 0
-269 -5544 5545 0
-5545 5554 0
-270 -5545 5546 0
-5546 5555 0
-271 -5546 0
-263 5547 0
-5547 5556 0
-264 -5547 5548 0
-5548 5557 0
-265 -5548 5549 0
-5549 5558 0
-266 -5549 5550 0
-5550 5559 0
-267 -5550 5551 0
-5551 5560 0
-268 -5551 5552 0
-5552 5561 0
-269 -5552 5553 0
-5553 5562 0
-270 -5553 5554 0
-5554 5563 0
-271 -5554 5555 0
-5555 5564 0
-272 -5555 0
-264 5556 0
-5556 5565 0
-265 -5556 5557 0
-5557 5566 0
-266 -5557 5558 0
-5558 5567 0
-267 -5558 5559 0
-5559 5568 0
-268 -5559 5560 0
-5560 5569 0
-269 -5560 5561 0
-5561 5570 0
-270 -5561 5562 0
-5562 5571 0
-271 -5562 5563 0
-5563 5572 0
-272 -5563 5564 0
-5564 5573 0
-273 -5564 0
-265 5565 0
-5565 5574 0
-266 -5565 5566 0
-5566 5575 0
-267 -5566 5567 0
-5567 5576 0
-268 -5567 5568 0
-5568 5577 0
-269 -5568 5569 0
-5569 5578 0
-270 -5569 5570 0
-5570 5579 0
-271 -5570 5571 0
-5571 5580 0
-272 -5571 5572 0
-5572 5581 0
-273 -5572 5573 0
-5573 5582 0
-274 -5573 0
-266 5574 0
-5574 5583 0
-267 -5574 5575 0
-5575 5584 0
-268 -5575 5576 0
-5576 5585 0
-269 -5576 5577 0
-5577 5586 0
-270 -5577 5578 0
-5578 5587 0
-271 -5578 5579 0
-5579 5588 0
-272 -5579 5580 0
-5580 5589 0
-273 -5580 5581 0
-5581 5590 0
-274 -5581 5582 0
-5582 5591 0
-275 -5582 0
-267 5583 0
-5583 5592 0
-268 -5583 5584 0
-5584 5593 0
-269 -5584 5585 0
-5585 5594 0
-270 -5585 5586 0
-5586 5595 0
-271 -5586 5587 0
-5587 5596 0
-272 -5587 5588 0
-5588 5597 0
-273 -5588 5589 0
-5589 5598 0
-274 -5589 5590 0
-5590 5599 0
-275 -5590 5591 0
-5591 5600 0
-276 -5591 0
-268 5592 0
-5592 5601 0
-269 -5592 5593 0
-5593 5602 0
-270 -5593 5594 0
-5594 5603 0
-271 -5594 5595 0
-5595 5604 0
-272 -5595 5596 0
-5596 5605 0
-273 -5596 5597 0
-5597 5606 0
-274 -5597 5598 0
-5598 5607 0
-275 -5598 5599 0
-5599 5608 0
-276 -5599 5600 0
-5600 5609 0
-277 -5600 0
-269 5601 0
-5601 5610 0
-270 -5601 5602 0
-5602 5611 0
-271 -5602 5603 0
-5603 5612 0
-272 -5603 5604 0
-5604 5613 0
-273 -5604 5605 0
-5605 5614 0
-274 -5605 5606 0
-5606 5615 0
-275 -5606 5607 0
-5607 5616 0
-276 -5607 5608 0
-5608 5617 0
-277 -5608 5609 0
-5609 5618 0
-278 -5609 0
-270 5610 0
-5610 5619 0
-271 -5610 5611 0
-5611 5620 0
-272 -5611 5612 0
-5612 5621 0
-273 -5612 5613 0
-5613 5622 0
-274 -5613 5614 0
-5614 5623 0
-275 -5614 5615 0
-5615 5624 0
-276 -5615 5616 0
-5616 5625 0
-277 -5616 5617 0
-5617 5626 0
-278 -5617 5618 0
-5618 5627 0
-279 -5618 0
-271 5619 0
-5619 5628 0
-272 -5619 5620 0
-5620 5629 0
-273 -5620 5621 0
-5621 5630 0
-274 -5621 5622 0
-5622 5631 0
-275 -5622 5623 0
-5623 5632 0
-276 -5623 5624 0
-5624 5633 0
-277 -5624 5625 0
-5625 5634 0
-278 -5625 5626 0
-5626 5635 0
-279 -5626 5627 0
-5627 5636 0
-280 -5627 0
-272 5628 0
-5628 5637 0
-273 -5628 5629 0
-5629 5638 0
-274 -5629 5630 0
-5630 5639 0
-275 -5630 5631 0
-5631 5640 0
-276 -5631 5632 0
-5632 5641 0
-277 -5632 5633 0
-5633 5642 0
-278 -5633 5634 0
-5634 5643 0
-279 -5634 5635 0
-5635 5644 0
-280 -5635 5636 0
-5636 5645 0
-281 -5636 0
-273 5637 0
-5637 5646 0
-274 -5637 5638 0
-5638 5647 0
-275 -5638 5639 0
-5639 5648 0
-276 -5639 5640 0
-5640 5649 0
-277 -5640 5641 0
-5641 5650 0
-278 -5641 5642 0
-5642 5651 0
-279 -5642 5643 0
-5643 5652 0
-280 -5643 5644 0
-5644 5653 0
-281 -5644 5645 0
-5645 5654 0
-282 -5645 0
-274 5646 0
-5646 5655 0
-275 -5646 5647 0
-5647 5656 0
-276 -5647 5648 0
-5648 5657 0
-277 -5648 5649 0
-5649 5658 0
-278 -5649 5650 0
-5650 5659 0
-279 -5650 5651 0
-5651 5660 0
-280 -5651 5652 0
-5652 5661 0
-281 -5652 5653 0
-5653 5662 0
-282 -5653 5654 0
-5654 5663 0
-283 -5654 0
-275 5655 0
-5655 5664 0
-276 -5655 5656 0
-5656 5665 0
-277 -5656 5657 0
-5657 5666 0
-278 -5657 5658 0
-5658 5667 0
-279 -5658 5659 0
-5659 5668 0
-280 -5659 5660 0
-5660 5669 0
-281 -5660 5661 0
-5661 5670 0
-282 -5661 5662 0
-5662 5671 0
-283 -5662 5663 0
-5663 5672 0
-284 -5663 0
-276 5664 0
-5664 5673 0
-277 -5664 5665 0
-5665 5674 0
-278 -5665 5666 0
-5666 5675 0
-279 -5666 5667 0
-5667 5676 0
-280 -5667 5668 0
-5668 5677 0
-281 -5668 5669 0
-5669 5678 0
-282 -5669 5670 0
-5670 5679 0
-283 -5670 5671 0
-5671 5680 0
-284 -5671 5672 0
-5672 5681 0
-285 -5672 0
-277 5673 0
-5673 5682 0
-278 -5673 5674 0
-5674 5683 0
-279 -5674 5675 0
-5675 5684 0
-280 -5675 5676 0
-5676 5685 0
-281 -5676 5677 0
-5677 5686 0
-282 -5677 5678 0
-5678 5687 0
-283 -5678 5679 0
-5679 5688 0
-284 -5679 5680 0
-5680 5689 0
-285 -5680 5681 0
-5681 5690 0
-286 -5681 0
-278 5682 0
-5682 5691 0
-279 -5682 5683 0
-5683 5692 0
-280 -5683 5684 0
-5684 5693 0
-281 -5684 5685 0
-5685 5694 0
-282 -5685 5686 0
-5686 5695 0
-283 -5686 5687 0
-5687 5696 0
-284 -5687 5688 0
-5688 5697 0
-285 -5688 5689 0
-5689 5698 0
-286 -5689 5690 0
-5690 5699 0
-287 -5690 0
-279 5691 0
-5691 5700 0
-280 -5691 5692 0
-5692 5701 0
-281 -5692 5693 0
-5693 5702 0
-282 -5693 5694 0
-5694 5703 0
-283 -5694 5695 0
-5695 5704 0
-284 -5695 5696 0
-5696 5705 0
-285 -5696 5697 0
-5697 5706 0
-286 -5697 5698 0
-5698 5707 0
-287 -5698 5699 0
-5699 5708 0
-288 -5699 0
-280 5700 0
-5700 5709 0
-281 -5700 5701 0
-5701 5710 0
-282 -5701 5702 0
-5702 5711 0
-283 -5702 5703 0
-5703 5712 0
-284 -5703 5704 0
-5704 5713 0
-285 -5704 5705 0
-5705 5714 0
-286 -5705 5706 0
-5706 5715 0
-287 -5706 5707 0
-5707 5716 0
-288 -5707 5708 0
-5708 5717 0
-289 -5708 0
-281 5709 0
-5709 5718 0
-282 -5709 5710 0
-5710 5719 0
-283 -5710 5711 0
-5711 5720 0
-284 -5711 5712 0
-5712 5721 0
-285 -5712 5713 0
-5713 5722 0
-286 -5713 5714 0
-5714 5723 0
-287 -5714 5715 0
-5715 5724 0
-288 -5715 5716 0
-5716 5725 0
-289 -5716 5717 0
-5717 5726 0
-290 -5717 0
-282 5718 0
-5718 5727 0
-283 -5718 5719 0
-5719 5728 0
-284 -5719 5720 0
-5720 5729 0
-285 -5720 5721 0
-5721 5730 0
-286 -5721 5722 0
-5722 5731 0
-287 -5722 5723 0
-5723 5732 0
-288 -5723 5724 0
-5724 5733 0
-289 -5724 5725 0
-5725 5734 0
-290 -5725 5726 0
-5726 5735 0
-291 -5726 0
-283 5727 0
-5727 5736 0
-284 -5727 5728 0
-5728 5737 0
-285 -5728 5729 0
-5729 5738 0
-286 -5729 5730 0
-5730 5739 0
-287 -5730 5731 0
-5731 5740 0
-288 -5731 5732 0
-5732 5741 0
-289 -5732 5733 0
-5733 5742 0
-290 -5733 5734 0
-5734 5743 0
-291 -5734 5735 0
-5735 5744 0
-292 -5735 0
-284 5736 0
-5736 5745 0
-285 -5736 5737 0
-5737 5746 0
-286 -5737 5738 0
-5738 5747 0
-287 -5738 5739 0
-5739 5748 0
-288 -5739 5740 0
-5740 5749 0
-289 -5740 5741 0
-5741 5750 0
-290 -5741 5742 0
-5742 5751 0
-291 -5742 5743 0
-5743 5752 0
-292 -5743 5744 0
-5744 5753 0
-293 -5744 0
-285 5745 0
-5745 5754 0
-286 -5745 5746 0
-5746 5755 0
-287 -5746 5747 0
-5747 5756 0
-288 -5747 5748 0
-5748 5757 0
-289 -5748 5749 0
-5749 5758 0
-290 -5749 5750 0
-5750 5759 0
-291 -5750 5751 0
-5751 5760 0
-292 -5751 5752 0
-5752 5761 0
-293 -5752 5753 0
-5753 5762 0
-294 -5753 0
-286 5754 0
-5754 5763 0
-287 -5754 5755 0
-5755 5764 0
-288 -5755 5756 0
-5756 5765 0
-289 -5756 5757 0
-5757 5766 0
-290 -5757 5758 0
-5758 5767 0
-291 -5758 5759 0
-5759 5768 0
-292 -5759 5760 0
-5760 5769 0
-293 -5760 5761 0
-5761 5770 0
-294 -5761 5762 0
-5762 5771 0
-295 -5762 0
-287 5763 0
-288 -5763 5764 0
-289 -5764 5765 0
-290 -5765 5766 0
-291 -5766 5767 0
-292 -5767 5768 0
-293 -5768 5769 0
-294 -5769 5770 0
-295 -5770 5771 0
-296 -5771 0
1 75 0
