p cnf 123 341
-1 25 0
-25 26 0
-2 -25 27 0
-27 28 0
-3 -27 29 0
-29 30 0
-4 -29 31 0
-31 32 0
-5 -31 33 0
-33 34 0
-6 -33 0
-2 26 0
-26 35 0
-3 -26 28 0
-28 36 0
-4 -28 30 0
-30 37 0
-5 -30 32 0
-32 38 0
-6 -32 34 0
-34 39 0
-7 -34 0
-3 35 0
-35 40 0
-4 -35 36 0
-36 41 0
-5 -36 37 0
-37 42 0
-6 -37 38 0
-38 43 0
-7 -38 39 0
-39 44 0
-8 -39 0
-4 40 0
-40 45 0
-5 -40 41 0
-41 46 0
-6 -41 42 0
-42 47 0
-7 -42 43 0
-43 48 0
-8 -43 44 0
-44 49 0
-9 -44 0
-5 45 0
-45 50 0
-6 -45 46 0
-46 51 0
-7 -46 47 0
-47 52 0
-8 -47 48 0
-48 53 0
-9 -48 49 0
-49 54 0
-10 -49 0
-6 50 0
-50 55 0
-7 -50 51 0
-51 56 0
-8 -51 52 0
-52 57 0
-9 -52 53 0
-53 58 0
-10 -53 54 0
-54 59 0
-11 -54 0
-7 55 0
-55 60 0
-8 -55 56 0
-56 61 0
-9 -56 57 0
-57 62 0
-10 -57 58 0
-58 63 0
-11 -58 59 0
-59 64 0
-12 -59 0
-8 60 0
-60 65 0
-9 -60 61 0
-61 66 0
-10 -61 62 0
-62 67 0
-11 -62 63 0
-63 68 0
-12 -63 64 0
-64 69 0
-13 -64 0
-9 65 0
-65 70 0
-10 -65 66 0
-66 71 0
-11 -66 67 0
-67 72 0
-12 -67 68 0
-68 73 0
-13 -68 69 0
-69 74 0
-14 -69 0
-10 70 0
-70 75 0
-11 -70 71 0
-71 76 0
-12 -71 72 0
-72 77 0
-13 -72 73 0
-73 78 0
-14 -73 74 0
-74 79 0
-15 -74 0
-11 75 0
-75 80 0
-12 -75 76 0
-76 81 0
-13 -76 77 0
-77 82 0
-14 -77 78 0
-78 83 0
-15 -78 79 0
-79 84 0
-16 -79 0
-12 80 0
-80 85 0
-13 -80 81 0
-81 86 0
-14 -81 82 0
-82 87 0
-15 -82 83 0
-83 88 0
-16 -83 84 0
-84 89 0
-17 -84 0
-13 85 0
-85 90 0
-14 -85 86 0
-86 91 0
-15 -86 87 0
-87 92 0
-16 -87 88 0
-88 93 0
-17 -88 89 0
-89 94 0
-18 -89 0
-14 90 0
-90 95 0
-15 -90 91 0
-91 96 0
-16 -91 92 0
-92 97 0
-17 -92 93 0
-93 98 0
-18 -93 94 0
-94 99 0
-19 -94 0
-15 95 0
-95 100 0
-16 -95 96 0
-96 101 0
-17 -96 97 0
-97 102 0
-18 -97 98 0
-98 103 0
-19 -98 99 0
-99 104 0
-20 -99 0
-16 100 0
-100 105 0
-17 -100 101 0
-101 106 0
-18 -101 102 0
-102 107 0
-19 -102 103 0
-103 108 0
-20 -103 104 0
-104 109 0
-21 -104 0
-17 105 0
-105 110 0
-18 -105 106 0
-106 111 0
-19 -106 107 0
-107 112 0
-20 -107 108 0
-108 113 0
-21 -108 109 0
-109 114 0
-22 -109 0
-18 110 0
-110 115 0
-19 -110 111 0
-111 116 0
-20 -111 112 0
-112 117 0
-21 -112 113 0
-113 118 0
-22 -113 114 0
-114 119 0
-23 -114 0
-19 115 0
-20 -115 116 0
-21 -116 117 0
-22 -117 118 0
-23 -118 119 0
-24 -119 0
-120 1 0
-120 2 0
-120 12 0
-120 -13 0
-121 1 0
-121 12 0
-121 13 0
-121 -2 0
-122 17 0
-122 13 0
-122 21 0
-122 -1 0
-123 1 0
-123 13 0
-123 21 0
-123 -17 0
120 121 122 123 0
2 4 6 8 10 12 19 22 23 24 0
1 3 5 7 9 11 13 20 23 24 0
2 4 6 8 10 12 13 14 21 24 0
1 3 5 7 9 11 13 14 15 22 0
2 4 6 8 10 12 14 15 16 23 0
1 3 5 7 9 11 15 16 17 24 0
2 4 6 8 10 12 13 16 17 18 0
1 3 5 7 9 11 14 17 18 19 0
2 4 6 8 10 12 15 18 19 20 0
1 3 5 7 9 11 16 19 20 21 0
2 4 6 8 10 12 17 20 21 22 0
1 3 5 7 9 11 18 21 22 23 0
2 4 6 8 10 12 14 15 16 19 0
1 3 5 7 9 11 15 16 17 20 0
2 4 6 8 10 12 16 17 18 21 0
1 3 5 7 9 11 17 18 19 22 0
2 4 6 8 10 12 18 19 20 23 0
1 3 5 7 9 11 19 20 21 24 0
2 4 6 8 10 12 13 20 21 22 0
1 3 5 7 9 11 14 21 22 23 0
2 4 6 8 10 12 15 22 23 24 0
1 3 5 7 9 11 13 16 23 24 0
2 4 6 8 10 12 13 14 17 24 0
1 3 5 7 9 11 13 14 15 18 0
2 4 6 7 8 10 11 12 15 22 24 0
1 3 5 7 8 9 11 12 13 16 23 0
1 2 4 6 8 9 10 12 14 17 24 0
1 2 3 5 7 9 10 11 13 15 18 0
2 3 4 6 8 10 11 12 14 16 19 0
1 3 4 5 7 9 11 12 15 17 20 0
1 2 4 5 6 8 10 12 16 18 21 0
1 2 3 5 6 7 9 11 17 19 22 0
2 3 4 6 7 8 10 12 18 20 23 0
1 3 4 5 7 8 9 11 19 21 24 0
2 4 5 6 8 9 10 12 13 20 22 0
1 3 5 6 7 9 10 11 14 21 23 0
2 3 4 6 7 8 10 12 14 16 23 0
1 3 4 5 7 8 9 11 15 17 24 0
2 4 5 6 8 9 10 12 13 16 18 0
1 3 5 6 7 9 10 11 14 17 19 0
2 4 6 7 8 10 11 12 15 18 20 0
1 3 5 7 8 9 11 12 16 19 21 0
1 2 4 6 8 9 10 12 17 20 22 0
1 2 3 5 7 9 10 11 18 21 23 0
2 3 4 6 8 10 11 12 19 22 24 0
1 3 4 5 7 9 11 12 13 20 23 0
1 2 4 5 6 8 10 12 14 21 24 0
1 2 3 5 6 7 9 11 13 15 22 0
3 4 6 8 10 11 14 19 24 0
4 5 7 9 11 12 13 15 20 0
1 5 6 8 10 12 14 16 21 0
1 2 6 7 9 11 15 17 22 0
2 3 7 8 10 12 16 18 23 0
1 3 4 8 9 11 17 19 24 0
2 4 5 9 10 12 13 18 20 0
1 3 5 6 10 11 14 19 21 0
2 4 6 7 11 12 15 20 22 0
1 3 5 7 8 12 16 21 23 0
1 2 4 6 8 9 17 22 24 0
2 3 5 7 9 10 13 18 23 0
3 4 6 8 10 14 16 19 20 23 0
4 5 7 9 11 15 17 20 21 24 0
5 6 8 10 12 13 16 18 21 22 0
1 6 7 9 11 14 17 19 22 23 0
2 7 8 10 12 15 18 20 23 24 0
1 3 8 9 11 13 16 19 21 24 0
2 4 9 10 12 13 14 17 20 22 0
1 3 5 10 11 14 15 18 21 23 0
2 4 6 11 12 15 16 19 22 24 0
1 3 5 7 12 13 16 17 20 23 0
1 2 4 6 8 14 17 18 21 24 0
2 3 5 7 9 13 15 18 19 22 0
4 6 8 10 11 15 18 19 22 24 0
5 7 9 11 12 13 16 19 20 23 0
1 6 8 10 12 14 17 20 21 24 0
1 2 7 9 11 13 15 18 21 22 0
2 3 8 10 12 14 16 19 22 23 0
1 3 4 9 11 15 17 20 23 24 0
2 4 5 10 12 13 16 18 21 24 0
1 3 5 6 11 13 14 17 19 22 0
2 4 6 7 12 14 15 18 20 23 0
1 3 5 7 8 15 16 19 21 24 0
2 4 6 8 9 13 16 17 20 22 0
3 5 7 9 10 14 17 18 21 23 0
3 4 6 8 10 11 14 15 23 24 0
4 5 7 9 11 12 13 15 16 24 0
1 5 6 8 10 12 13 14 16 17 0
1 2 6 7 9 11 14 15 17 18 0
2 3 7 8 10 12 15 16 18 19 0
1 3 4 8 9 11 16 17 19 20 0
2 4 5 9 10 12 17 18 20 21 0
1 3 5 6 10 11 18 19 21 22 0
2 4 6 7 11 12 19 20 22 23 0
1 3 5 7 8 12 20 21 23 24 0
1 2 4 6 8 9 13 21 22 24 0
2 3 5 7 9 10 13 14 22 23 0
3 4 6 7 11 14 20 22 23 24 0
4 5 7 8 12 13 15 21 23 24 0
1 5 6 8 9 13 14 16 22 24 0
2 6 7 9 10 13 14 15 17 23 0
3 7 8 10 11 14 15 16 18 24 0
4 8 9 11 12 13 15 16 17 19 0
1 5 9 10 12 14 16 17 18 20 0
1 2 6 10 11 15 17 18 19 21 0
2 3 7 11 12 16 18 19 20 22 0
1 3 4 8 12 17 19 20 21 23 0
1 2 4 5 9 18 20 21 22 24 0
2 3 5 6 10 13 19 21 22 23 0
5 8 11 16 17 18 19 21 22 23 24 0
6 9 12 13 17 18 19 20 22 23 24 0
1 7 10 13 14 18 19 20 21 23 24 0
2 8 11 13 14 15 19 20 21 22 24 0
3 9 12 13 14 15 16 20 21 22 23 0
1 4 10 14 15 16 17 21 22 23 24 0
2 5 11 13 15 16 17 18 22 23 24 0
3 6 12 13 14 16 17 18 19 23 24 0
1 4 7 13 14 15 17 18 19 20 24 0
2 5 8 13 14 15 16 18 19 20 21 0
3 6 9 14 15 16 17 19 20 21 22 0
4 7 10 15 16 17 18 20 21 22 23 0
