p cnf 99 342
-1 21 0
-21 22 0
-2 -21 23 0
-23 24 0
-3 -23 25 0
-25 26 0
-4 -25 27 0
-27 28 0
-5 -27 29 0
-29 30 0
-6 -29 0
-2 22 0
-22 31 0
-3 -22 24 0
-24 32 0
-4 -24 26 0
-26 33 0
-5 -26 28 0
-28 34 0
-6 -28 30 0
-30 35 0
-7 -30 0
-3 31 0
-31 36 0
-4 -31 32 0
-32 37 0
-5 -32 33 0
-33 38 0
-6 -33 34 0
-34 39 0
-7 -34 35 0
-35 40 0
-8 -35 0
-4 36 0
-36 41 0
-5 -36 37 0
-37 42 0
-6 -37 38 0
-38 43 0
-7 -38 39 0
-39 44 0
-8 -39 40 0
-40 45 0
-9 -40 0
-5 41 0
-41 46 0
-6 -41 42 0
-42 47 0
-7 -42 43 0
-43 48 0
-8 -43 44 0
-44 49 0
-9 -44 45 0
-45 50 0
-10 -45 0
-6 46 0
-46 51 0
-7 -46 47 0
-47 52 0
-8 -47 48 0
-48 53 0
-9 -48 49 0
-49 54 0
-10 -49 50 0
-50 55 0
-11 -50 0
-7 51 0
-51 56 0
-8 -51 52 0
-52 57 0
-9 -52 53 0
-53 58 0
-10 -53 54 0
-54 59 0
-11 -54 55 0
-55 60 0
-12 -55 0
-8 56 0
-56 61 0
-9 -56 57 0
-57 62 0
-10 -57 58 0
-58 63 0
-11 -58 59 0
-59 64 0
-12 -59 60 0
-60 65 0
-13 -60 0
-9 61 0
-61 66 0
-10 -61 62 0
-62 67 0
-11 -62 63 0
-63 68 0
-12 -63 64 0
-64 69 0
-13 -64 65 0
-65 70 0
-14 -65 0
-10 66 0
-66 71 0
-11 -66 67 0
-67 72 0
-12 -67 68 0
-68 73 0
-13 -68 69 0
-69 74 0
-14 -69 70 0
-70 75 0
-15 -70 0
-11 71 0
-71 76 0
-12 -71 72 0
-72 77 0
-13 -72 73 0
-73 78 0
-14 -73 74 0
-74 79 0
-15 -74 75 0
-75 80 0
-16 -75 0
-12 76 0
-76 81 0
-13 -76 77 0
-77 82 0
-14 -77 78 0
-78 83 0
-15 -78 79 0
-79 84 0
-16 -79 80 0
-80 85 0
-17 -80 0
-13 81 0
-81 86 0
-14 -81 82 0
-82 87 0
-15 -82 83 0
-83 88 0
-16 -83 84 0
-84 89 0
-17 -84 85 0
-85 90 0
-18 -85 0
-14 86 0
-86 91 0
-15 -86 87 0
-87 92 0
-16 -87 88 0
-88 93 0
-17 -88 89 0
-89 94 0
-18 -89 90 0
-90 95 0
-19 -90 0
-15 91 0
-16 -91 92 0
-17 -92 93 0
-18 -93 94 0
-19 -94 95 0
-20 -95 0
-96 1 0
-96 2 0
-96 10 0
-96 -11 0
-97 1 0
-97 10 0
-97 11 0
-97 -2 0
-98 17 0
-98 11 0
-98 15 0
-98 -1 0
-99 1 0
-99 17 0
-99 11 0
-99 -15 0
96 97 98 99 0
2 5 7 10 13 14 18 19 0
1 3 6 8 14 15 19 20 0
2 4 7 9 11 15 16 20 0
3 5 8 10 11 12 16 17 0
1 4 6 9 12 13 17 18 0
2 5 7 9 10 12 13 14 19 20 0
1 3 6 8 10 11 13 14 15 20 0
1 2 4 7 9 11 12 14 15 16 0
2 3 5 8 10 12 13 15 16 17 0
1 3 4 6 9 13 14 16 17 18 0
2 4 5 7 10 14 15 17 18 19 0
1 3 5 6 8 15 16 18 19 20 0
2 4 6 7 9 11 16 17 19 20 0
3 5 7 8 10 11 12 17 18 20 0
1 4 6 8 9 11 12 13 18 19 0
2 3 5 7 10 12 13 18 19 20 0
1 3 4 6 8 11 13 14 19 20 0
2 4 5 7 9 11 12 14 15 20 0
3 5 6 8 10 11 12 13 15 16 0
1 4 6 7 9 12 13 14 16 17 0
2 5 7 8 10 13 14 15 17 18 0
1 3 6 8 9 14 15 16 18 19 0
2 4 7 9 10 15 16 17 19 20 0
1 3 5 8 10 11 16 17 18 20 0
1 2 4 6 9 11 12 17 18 19 0
2 4 6 7 9 10 13 18 20 0
1 3 5 7 8 10 11 14 19 0
1 2 4 6 8 9 12 15 20 0
2 3 5 7 9 10 11 13 16 0
1 3 4 6 8 10 12 14 17 0
1 2 4 5 7 9 13 15 18 0
2 3 5 6 8 10 14 16 19 0
1 3 4 6 7 9 15 17 20 0
2 4 5 7 8 10 11 16 18 0
1 3 5 6 8 9 12 17 19 0
2 3 5 6 8 10 12 14 19 0
1 3 4 6 7 9 13 15 20 0
2 4 5 7 8 10 11 14 16 0
1 3 5 6 8 9 12 15 17 0
2 4 6 7 9 10 13 16 18 0
1 3 5 7 8 10 14 17 19 0
1 2 4 6 8 9 15 18 20 0
2 3 5 7 9 10 11 16 19 0
1 3 4 6 8 10 12 17 20 0
1 2 4 5 7 9 11 13 18 0
2 4 6 7 9 10 12 13 14 0
1 3 5 7 8 10 13 14 15 0
1 2 4 6 8 9 14 15 16 0
2 3 5 7 9 10 15 16 17 0
1 3 4 6 8 10 16 17 18 0
1 2 4 5 7 9 17 18 19 0
2 3 5 6 8 10 18 19 20 0
1 3 4 6 7 9 11 19 20 0
2 4 5 7 8 10 11 12 20 0
1 3 5 6 8 9 11 12 13 0
2 4 6 8 10 18 20 0
1 3 5 7 9 11 19 0
2 4 6 8 10 12 20 0
1 3 5 7 9 11 13 0
2 4 6 8 10 12 14 0
1 3 5 7 9 13 15 0
2 4 6 8 10 14 16 0
1 3 5 7 9 15 17 0
2 4 6 8 10 16 18 0
1 3 5 7 9 17 19 0
3 5 7 9 12 13 14 19 20 0
4 6 8 10 11 13 14 15 20 0
1 5 7 9 11 12 14 15 16 0
2 6 8 10 12 13 15 16 17 0
1 3 7 9 13 14 16 17 18 0
2 4 8 10 14 15 17 18 19 0
1 3 5 9 15 16 18 19 20 0
2 4 6 10 11 16 17 19 20 0
1 3 5 7 11 12 17 18 20 0
2 4 6 8 11 12 13 18 19 0
3 5 7 9 12 13 18 19 20 0
4 6 8 10 11 13 14 19 20 0
1 5 7 9 11 12 14 15 20 0
2 6 8 10 11 12 13 15 16 0
1 3 7 9 12 13 14 16 17 0
2 4 8 10 13 14 15 17 18 0
1 3 5 9 14 15 16 18 19 0
2 4 6 10 15 16 17 19 20 0
1 3 5 7 11 16 17 18 20 0
2 4 6 8 11 12 17 18 19 0
3 5 6 8 9 12 18 19 20 0
4 6 7 9 10 11 13 19 20 0
1 5 7 8 10 11 12 14 20 0
1 2 6 8 9 11 12 13 15 0
2 3 7 9 10 12 13 14 16 0
1 3 4 8 10 13 14 15 17 0
1 2 4 5 9 14 15 16 18 0
2 3 5 6 10 15 16 17 19 0
1 3 4 6 7 16 17 18 20 0
2 4 5 7 8 11 17 18 19 0
3 4 6 7 9 12 13 14 20 0
4 5 7 8 10 11 13 14 15 0
1 5 6 8 9 12 14 15 16 0
2 6 7 9 10 13 15 16 17 0
1 3 7 8 10 14 16 17 18 0
1 2 4 8 9 15 17 18 19 0
2 3 5 9 10 16 18 19 20 0
1 3 4 6 10 11 17 19 20 0
1 2 4 5 7 11 12 18 20 0
2 3 5 6 8 11 12 13 19 0
4 5 7 9 13 16 18 19 20 0
5 6 8 10 11 14 17 19 20 0
1 6 7 9 11 12 15 18 20 0
2 7 8 10 11 12 13 16 19 0
1 3 8 9 12 13 14 17 20 0
2 4 9 10 11 13 14 15 18 0
1 3 5 10 12 14 15 16 19 0
1 2 4 6 13 15 16 17 20 0
2 3 5 7 11 14 16 17 18 0
3 4 6 8 12 15 17 18 19 0
3 5 7 8 12 13 14 16 19 0
4 6 8 9 13 14 15 17 20 0
5 7 9 10 11 14 15 16 18 0
1 6 8 10 12 15 16 17 19 0
1 2 7 9 13 16 17 18 20 0
2 3 8 10 11 14 17 18 19 0
1 3 4 9 12 15 18 19 20 0
2 4 5 10 11 13 16 19 20 0
1 3 5 6 11 12 14 17 20 0
2 4 6 7 11 12 13 15 18 0
3 4 7 8 9 12 15 16 17 20 0
4 5 8 9 10 11 13 16 17 18 0
1 5 6 9 10 12 14 17 18 19 0
1 2 6 7 10 13 15 18 19 20 0
1 2 3 7 8 11 14 16 19 20 0
2 3 4 8 9 11 12 15 17 20 0
3 4 5 9 10 11 12 13 16 18 0
1 4 5 6 10 12 13 14 17 19 0
1 2 5 6 7 13 14 15 18 20 0
2 3 6 7 8 11 14 15 16 19 0
3 4 5 8 9 12 15 16 17 20 0
4 5 6 9 10 11 13 16 17 18 0
1 5 6 7 10 12 14 17 18 19 0
1 2 6 7 8 13 15 18 19 20 0
2 3 7 8 9 11 14 16 19 20 0
3 4 8 9 10 11 12 15 17 20 0
1 4 5 9 10 11 12 13 16 18 0
1 2 5 6 10 12 13 14 17 19 0
1 2 3 6 7 13 14 15 18 20 0
2 3 4 7 8 11 14 15 16 19 0
3 6 7 12 13 14 15 16 17 18 0
4 7 8 13 14 15 16 17 18 19 0
5 8 9 14 15 16 17 18 19 20 0
6 9 10 11 15 16 17 18 19 20 0
1 7 10 11 12 16 17 18 19 20 0
1 2 8 11 12 13 17 18 19 20 0
2 3 9 11 12 13 14 18 19 20 0
3 4 10 11 12 13 14 15 19 20 0
1 4 5 11 12 13 14 15 16 20 0
2 5 6 11 12 13 14 15 16 17 0
5 6 9 14 15 16 17 18 19 20 0
6 7 10 11 15 16 17 18 19 20 0
1 7 8 11 12 16 17 18 19 20 0
2 8 9 11 12 13 17 18 19 20 0
3 9 10 11 12 13 14 18 19 20 0
1 4 10 11 12 13 14 15 19 20 0
1 2 5 11 12 13 14 15 16 20 0
2 3 6 11 12 13 14 15 16 17 0
3 4 7 12 13 14 15 16 17 18 0
4 5 8 13 14 15 16 17 18 19 0
