p cnf 122 615
-1 23 0
-23 24 0
-2 -23 25 0
-25 26 0
-3 -25 27 0
-27 28 0
-4 -27 29 0
-29 30 0
-5 -29 31 0
-31 32 0
-6 -31 33 0
-33 34 0
-7 -33 0
-2 24 0
-24 35 0
-3 -24 26 0
-26 36 0
-4 -26 28 0
-28 37 0
-5 -28 30 0
-30 38 0
-6 -30 32 0
-32 39 0
-7 -32 34 0
-34 40 0
-8 -34 0
-3 35 0
-35 41 0
-4 -35 36 0
-36 42 0
-5 -36 37 0
-37 43 0
-6 -37 38 0
-38 44 0
-7 -38 39 0
-39 45 0
-8 -39 40 0
-40 46 0
-9 -40 0
-4 41 0
-41 47 0
-5 -41 42 0
-42 48 0
-6 -42 43 0
-43 49 0
-7 -43 44 0
-44 50 0
-8 -44 45 0
-45 51 0
-9 -45 46 0
-46 52 0
-10 -46 0
-5 47 0
-47 53 0
-6 -47 48 0
-48 54 0
-7 -48 49 0
-49 55 0
-8 -49 50 0
-50 56 0
-9 -50 51 0
-51 57 0
-10 -51 52 0
-52 58 0
-11 -52 0
-6 53 0
-53 59 0
-7 -53 54 0
-54 60 0
-8 -54 55 0
-55 61 0
-9 -55 56 0
-56 62 0
-10 -56 57 0
-57 63 0
-11 -57 58 0
-58 64 0
-12 -58 0
-7 59 0
-59 65 0
-8 -59 60 0
-60 66 0
-9 -60 61 0
-61 67 0
-10 -61 62 0
-62 68 0
-11 -62 63 0
-63 69 0
-12 -63 64 0
-64 70 0
-13 -64 0
-8 65 0
-65 71 0
-9 -65 66 0
-66 72 0
-10 -66 67 0
-67 73 0
-11 -67 68 0
-68 74 0
-12 -68 69 0
-69 75 0
-13 -69 70 0
-70 76 0
-14 -70 0
-9 71 0
-71 77 0
-10 -71 72 0
-72 78 0
-11 -72 73 0
-73 79 0
-12 -73 74 0
-74 80 0
-13 -74 75 0
-75 81 0
-14 -75 76 0
-76 82 0
-15 -76 0
-10 77 0
-77 83 0
-11 -77 78 0
-78 84 0
-12 -78 79 0
-79 85 0
-13 -79 80 0
-80 86 0
-14 -80 81 0
-81 87 0
-15 -81 82 0
-82 88 0
-16 -82 0
-11 83 0
-83 89 0
-12 -83 84 0
-84 90 0
-13 -84 85 0
-85 91 0
-14 -85 86 0
-86 92 0
-15 -86 87 0
-87 93 0
-16 -87 88 0
-88 94 0
-17 -88 0
-12 89 0
-89 95 0
-13 -89 90 0
-90 96 0
-14 -90 91 0
-91 97 0
-15 -91 92 0
-92 98 0
-16 -92 93 0
-93 99 0
-17 -93 94 0
-94 100 0
-18 -94 0
-13 95 0
-95 101 0
-14 -95 96 0
-96 102 0
-15 -96 97 0
-97 103 0
-16 -97 98 0
-98 104 0
-17 -98 99 0
-99 105 0
-18 -99 100 0
-100 106 0
-19 -100 0
-14 101 0
-101 107 0
-15 -101 102 0
-102 108 0
-16 -102 103 0
-103 109 0
-17 -103 104 0
-104 110 0
-18 -104 105 0
-105 111 0
-19 -105 106 0
-106 112 0
-20 -106 0
-15 107 0
-107 113 0
-16 -107 108 0
-108 114 0
-17 -108 109 0
-109 115 0
-18 -109 110 0
-110 116 0
-19 -110 111 0
-111 117 0
-20 -111 112 0
-112 118 0
-21 -112 0
-16 113 0
-17 -113 114 0
-18 -114 115 0
-19 -115 116 0
-20 -116 117 0
-21 -117 118 0
-22 -118 0
-119 1 0
-119 2 0
-119 11 0
-119 -12 0
-120 1 0
-120 11 0
-120 12 0
-120 -2 0
-121 19 0
-121 12 0
-121 16 0
-121 -1 0
-122 1 0
-122 19 0
-122 12 0
-122 -16 0
119 120 121 122 0
2 5 8 11 14 15 17 18 20 21 0
1 3 6 9 15 16 18 19 21 22 0
2 4 7 10 12 16 17 19 20 22 0
3 5 8 11 12 13 17 18 20 21 0
1 4 6 9 13 14 18 19 21 22 0
2 5 7 10 12 14 15 19 20 22 0
3 6 8 11 12 13 15 16 20 21 0
1 4 7 9 13 14 16 17 21 22 0
2 5 8 10 12 14 15 17 18 22 0
3 6 9 11 12 13 15 16 18 19 0
1 4 7 10 13 14 16 17 19 20 0
2 4 6 8 9 11 13 15 18 21 0
1 3 5 7 9 10 14 16 19 22 0
2 4 6 8 10 11 12 15 17 20 0
1 3 5 7 9 11 13 16 18 21 0
1 2 4 6 8 10 14 17 19 22 0
2 3 5 7 9 11 12 15 18 20 0
1 3 4 6 8 10 13 16 19 21 0
2 4 5 7 9 11 14 17 20 22 0
1 3 5 6 8 10 12 15 18 21 0
2 4 6 7 9 11 13 16 19 22 0
1 3 5 7 8 10 12 14 17 20 0
2 4 6 8 9 11 13 14 15 21 22 0
1 3 5 7 9 10 12 14 15 16 22 0
2 4 6 8 10 11 12 13 15 16 17 0
1 3 5 7 9 11 13 14 16 17 18 0
1 2 4 6 8 10 14 15 17 18 19 0
2 3 5 7 9 11 15 16 18 19 20 0
1 3 4 6 8 10 16 17 19 20 21 0
2 4 5 7 9 11 17 18 20 21 22 0
1 3 5 6 8 10 12 18 19 21 22 0
2 4 6 7 9 11 12 13 19 20 22 0
1 3 5 7 8 10 12 13 14 20 21 0
2 4 5 7 9 11 13 14 20 21 22 0
1 3 5 6 8 10 12 14 15 21 22 0
2 4 6 7 9 11 12 13 15 16 22 0
1 3 5 7 8 10 12 13 14 16 17 0
2 4 6 8 9 11 13 14 15 17 18 0
1 3 5 7 9 10 14 15 16 18 19 0
2 4 6 8 10 11 15 16 17 19 20 0
1 3 5 7 9 11 16 17 18 20 21 0
1 2 4 6 8 10 17 18 19 21 22 0
2 3 5 7 9 11 12 18 19 20 22 0
1 3 4 6 8 10 12 13 19 20 21 0
2 4 6 8 9 11 13 14 15 17 22 0
1 3 5 7 9 10 12 14 15 16 18 0
2 4 6 8 10 11 13 15 16 17 19 0
1 3 5 7 9 11 14 16 17 18 20 0
1 2 4 6 8 10 15 17 18 19 21 0
2 3 5 7 9 11 16 18 19 20 22 0
1 3 4 6 8 10 12 17 19 20 21 0
2 4 5 7 9 11 13 18 20 21 22 0
1 3 5 6 8 10 12 14 19 21 22 0
2 4 6 7 9 11 12 13 15 20 22 0
1 3 5 7 8 10 12 13 14 16 21 0
2 4 6 8 9 10 11 13 14 15 22 0
1 3 5 7 9 10 11 12 14 15 16 0
1 2 4 6 8 10 11 13 15 16 17 0
1 2 3 5 7 9 11 14 16 17 18 0
1 2 3 4 6 8 10 15 17 18 19 0
2 3 4 5 7 9 11 16 18 19 20 0
1 3 4 5 6 8 10 17 19 20 21 0
2 4 5 6 7 9 11 18 20 21 22 0
1 3 5 6 7 8 10 12 19 21 22 0
2 4 6 7 8 9 11 12 13 20 22 0
1 3 5 7 8 9 10 12 13 14 21 0
2 3 4 5 7 9 11 13 20 21 22 0
1 3 4 5 6 8 10 12 14 21 22 0
2 4 5 6 7 9 11 12 13 15 22 0
1 3 5 6 7 8 10 12 13 14 16 0
2 4 6 7 8 9 11 13 14 15 17 0
1 3 5 7 8 9 10 14 15 16 18 0
2 4 6 8 9 10 11 15 16 17 19 0
1 3 5 7 9 10 11 16 17 18 20 0
1 2 4 6 8 10 11 17 18 19 21 0
1 2 3 5 7 9 11 18 19 20 22 0
1 2 3 4 6 8 10 12 19 20 21 0
2 4 6 7 9 11 13 14 17 22 0
1 3 5 7 8 10 12 14 15 18 0
2 4 6 8 9 11 13 15 16 19 0
1 3 5 7 9 10 14 16 17 20 0
2 4 6 8 10 11 15 17 18 21 0
1 3 5 7 9 11 16 18 19 22 0
1 2 4 6 8 10 12 17 19 20 0
2 3 5 7 9 11 13 18 20 21 0
1 3 4 6 8 10 14 19 21 22 0
2 4 5 7 9 11 12 15 20 22 0
1 3 5 6 8 10 12 13 16 21 0
2 4 6 7 9 11 13 18 21 22 0
1 3 5 7 8 10 12 14 19 22 0
2 4 6 8 9 11 12 13 15 20 0
1 3 5 7 9 10 13 14 16 21 0
2 4 6 8 10 11 14 15 17 22 0
1 3 5 7 9 11 12 15 16 18 0
1 2 4 6 8 10 13 16 17 19 0
2 3 5 7 9 11 14 17 18 20 0
1 3 4 6 8 10 15 18 19 21 0
2 4 5 7 9 11 16 19 20 22 0
1 3 5 6 8 10 12 17 20 21 0
2 4 5 6 7 9 10 11 13 14 20 22 0
1 3 5 6 7 8 10 11 12 14 15 21 0
1 2 4 6 7 8 9 11 13 15 16 22 0
1 2 3 5 7 8 9 10 12 14 16 17 0
2 3 4 6 8 9 10 11 13 15 17 18 0
1 3 4 5 7 9 10 11 14 16 18 19 0
1 2 4 5 6 8 10 11 15 17 19 20 0
1 2 3 5 6 7 9 11 16 18 20 21 0
1 2 3 4 6 7 8 10 17 19 21 22 0
2 3 4 5 7 8 9 11 12 18 20 22 0
1 3 4 5 6 8 9 10 12 13 19 21 0
2 3 4 6 7 8 9 11 13 15 21 22 0
1 3 4 5 7 8 9 10 12 14 16 22 0
2 4 5 6 8 9 10 11 12 13 15 17 0
1 3 5 6 7 9 10 11 13 14 16 18 0
1 2 4 6 7 8 10 11 14 15 17 19 0
1 2 3 5 7 8 9 11 15 16 18 20 0
1 2 3 4 6 8 9 10 16 17 19 21 0
2 3 4 5 7 9 10 11 17 18 20 22 0
1 3 4 5 6 8 10 11 12 18 19 21 0
1 2 4 5 6 7 9 11 13 19 20 22 0
1 2 3 5 6 7 8 10 12 14 20 21 0
3 5 7 9 13 14 20 21 0
4 6 8 10 14 15 21 22 0
5 7 9 11 12 15 16 22 0
1 6 8 10 12 13 16 17 0
2 7 9 11 13 14 17 18 0
1 3 8 10 14 15 18 19 0
2 4 9 11 15 16 19 20 0
1 3 5 10 16 17 20 21 0
2 4 6 11 17 18 21 22 0
1 3 5 7 12 18 19 22 0
2 4 6 8 12 13 19 20 0
2 5 6 8 10 11 13 14 15 18 20 0
1 3 6 7 9 11 14 15 16 19 21 0
1 2 4 7 8 10 15 16 17 20 22 0
2 3 5 8 9 11 12 16 17 18 21 0
1 3 4 6 9 10 13 17 18 19 22 0
2 4 5 7 10 11 12 14 18 19 20 0
1 3 5 6 8 11 13 15 19 20 21 0
1 2 4 6 7 9 14 16 20 21 22 0
2 3 5 7 8 10 12 15 17 21 22 0
3 4 6 8 9 11 12 13 16 18 22 0
1 4 5 7 9 10 12 13 14 17 19 0
2 3 5 7 8 11 15 17 20 21 22 0
1 3 4 6 8 9 12 16 18 21 22 0
2 4 5 7 9 10 12 13 17 19 22 0
3 5 6 8 10 11 12 13 14 18 20 0
1 4 6 7 9 11 13 14 15 19 21 0
1 2 5 7 8 10 14 15 16 20 22 0
2 3 6 8 9 11 12 15 16 17 21 0
1 3 4 7 9 10 13 16 17 18 22 0
2 4 5 8 10 11 12 14 17 18 19 0
1 3 5 6 9 11 13 15 18 19 20 0
1 2 4 6 7 10 14 16 19 20 21 0
2 3 5 6 8 9 11 13 15 18 20 0
1 3 4 6 7 9 10 14 16 19 21 0
2 4 5 7 8 10 11 15 17 20 22 0
1 3 5 6 8 9 11 12 16 18 21 0
1 2 4 6 7 9 10 13 17 19 22 0
2 3 5 7 8 10 11 12 14 18 20 0
1 3 4 6 8 9 11 13 15 19 21 0
1 2 4 5 7 9 10 14 16 20 22 0
2 3 5 6 8 10 11 12 15 17 21 0
1 3 4 6 7 9 11 13 16 18 22 0
1 2 4 5 7 8 10 12 14 17 19 0
2 3 5 6 8 11 15 20 21 0
1 3 4 6 7 9 16 21 22 0
2 4 5 7 8 10 12 17 22 0
3 5 6 8 9 11 12 13 18 0
1 4 6 7 9 10 13 14 19 0
2 5 7 8 10 11 14 15 20 0
1 3 6 8 9 11 15 16 21 0
1 2 4 7 9 10 16 17 22 0
2 3 5 8 10 11 12 17 18 0
1 3 4 6 9 11 13 18 19 0
1 2 4 5 7 10 14 19 20 0
3 5 8 9 13 15 17 18 20 21 0
4 6 9 10 14 16 18 19 21 22 0
5 7 10 11 12 15 17 19 20 22 0
1 6 8 11 12 13 16 18 20 21 0
1 2 7 9 13 14 17 19 21 22 0
2 3 8 10 12 14 15 18 20 22 0
3 4 9 11 12 13 15 16 19 21 0
1 4 5 10 13 14 16 17 20 22 0
2 5 6 11 12 14 15 17 18 21 0
1 3 6 7 13 15 16 18 19 22 0
2 4 7 8 12 14 16 17 19 20 0
4 5 8 10 14 15 17 18 20 22 0
5 6 9 11 12 15 16 18 19 21 0
1 6 7 10 13 16 17 19 20 22 0
2 7 8 11 12 14 17 18 20 21 0
1 3 8 9 13 15 18 19 21 22 0
2 4 9 10 12 14 16 19 20 22 0
3 5 10 11 12 13 15 17 20 21 0
1 4 6 11 13 14 16 18 21 22 0
1 2 5 7 12 14 15 17 19 22 0
2 3 6 8 12 13 15 16 18 20 0
3 4 7 9 13 14 16 17 19 21 0
3 5 8 13 14 15 17 18 20 0
4 6 9 14 15 16 18 19 21 0
5 7 10 15 16 17 19 20 22 0
6 8 11 12 16 17 18 20 21 0
1 7 9 13 17 18 19 21 22 0
2 8 10 12 14 18 19 20 22 0
3 9 11 12 13 15 19 20 21 0
1 4 10 13 14 16 20 21 22 0
2 5 11 12 14 15 17 21 22 0
1 3 6 12 13 15 16 18 22 0
2 4 7 12 13 14 16 17 19 0
5 8 10 15 17 18 20 21 22 0
6 9 11 12 16 18 19 21 22 0
1 7 10 12 13 17 19 20 22 0
2 8 11 12 13 14 18 20 21 0
1 3 9 13 14 15 19 21 22 0
2 4 10 12 14 15 16 20 22 0
3 5 11 12 13 15 16 17 21 0
1 4 6 13 14 16 17 18 22 0
2 5 7 12 14 15 17 18 19 0
3 6 8 13 15 16 18 19 20 0
4 7 9 14 16 17 19 20 21 0
3 4 6 8 9 13 15 18 21 0
4 5 7 9 10 14 16 19 22 0
5 6 8 10 11 12 15 17 20 0
1 6 7 9 11 13 16 18 21 0
1 2 7 8 10 14 17 19 22 0
2 3 8 9 11 12 15 18 20 0
1 3 4 9 10 13 16 19 21 0
2 4 5 10 11 14 17 20 22 0
1 3 5 6 11 12 15 18 21 0
1 2 4 6 7 13 16 19 22 0
2 3 5 7 8 12 14 17 20 0
4 5 7 9 10 14 17 20 22 0
5 6 8 10 11 12 15 18 21 0
1 6 7 9 11 13 16 19 22 0
1 2 7 8 10 12 14 17 20 0
2 3 8 9 11 13 15 18 21 0
1 3 4 9 10 14 16 19 22 0
2 4 5 10 11 12 15 17 20 0
1 3 5 6 11 13 16 18 21 0
1 2 4 6 7 14 17 19 22 0
2 3 5 7 8 12 15 18 20 0
3 4 6 8 9 13 16 19 21 0
3 5 7 8 10 13 15 20 21 22 0
4 6 8 9 11 12 14 16 21 22 0
1 5 7 9 10 12 13 15 17 22 0
2 6 8 10 11 12 13 14 16 18 0
1 3 7 9 11 13 14 15 17 19 0
1 2 4 8 10 14 15 16 18 20 0
2 3 5 9 11 15 16 17 19 21 0
1 3 4 6 10 16 17 18 20 22 0
2 4 5 7 11 12 17 18 19 21 0
1 3 5 6 8 13 18 19 20 22 0
2 4 6 7 9 12 14 19 20 21 0
3 5 6 8 10 13 14 15 20 22 0
4 6 7 9 11 12 14 15 16 21 0
1 5 7 8 10 13 15 16 17 22 0
2 6 8 9 11 12 14 16 17 18 0
1 3 7 9 10 13 15 17 18 19 0
2 4 8 10 11 14 16 18 19 20 0
1 3 5 9 11 15 17 19 20 21 0
1 2 4 6 10 16 18 20 21 22 0
2 3 5 7 11 12 17 19 21 22 0
1 3 4 6 8 12 13 18 20 22 0
2 4 5 7 9 12 13 14 19 21 0
3 4 5 7 9 10 13 20 21 22 0
4 5 6 8 10 11 12 14 21 22 0
1 5 6 7 9 11 12 13 15 22 0
1 2 6 7 8 10 12 13 14 16 0
2 3 7 8 9 11 13 14 15 17 0
1 3 4 8 9 10 14 15 16 18 0
2 4 5 9 10 11 15 16 17 19 0
1 3 5 6 10 11 16 17 18 20 0
1 2 4 6 7 11 17 18 19 21 0
1 2 3 5 7 8 18 19 20 22 0
2 3 4 6 8 9 12 19 20 21 0
3 4 6 8 9 10 13 14 15 22 0
4 5 7 9 10 11 12 14 15 16 0
1 5 6 8 10 11 13 15 16 17 0
1 2 6 7 9 11 14 16 17 18 0
1 2 3 7 8 10 15 17 18 19 0
2 3 4 8 9 11 16 18 19 20 0
1 3 4 5 9 10 17 19 20 21 0
2 4 5 6 10 11 18 20 21 22 0
1 3 5 6 7 11 12 19 21 22 0
1 2 4 6 7 8 12 13 20 22 0
2 3 5 7 8 9 12 13 14 21 0
3 4 6 7 9 10 13 21 22 0
4 5 7 8 10 11 12 14 22 0
1 5 6 8 9 11 12 13 15 0
1 2 6 7 9 10 13 14 16 0
2 3 7 8 10 11 14 15 17 0
1 3 4 8 9 11 15 16 18 0
1 2 4 5 9 10 16 17 19 0
2 3 5 6 10 11 17 18 20 0
1 3 4 6 7 11 18 19 21 0
1 2 4 5 7 8 19 20 22 0
2 3 5 6 8 9 12 20 21 0
3 4 6 7 9 10 13 14 22 0
4 5 7 8 10 11 12 14 15 0
1 5 6 8 9 11 13 15 16 0
1 2 6 7 9 10 14 16 17 0
2 3 7 8 10 11 15 17 18 0
1 3 4 8 9 11 16 18 19 0
1 2 4 5 9 10 17 19 20 0
2 3 5 6 10 11 18 20 21 0
1 3 4 6 7 11 19 21 22 0
1 2 4 5 7 8 12 20 22 0
2 3 5 6 8 9 12 13 21 0
3 5 8 10 13 15 17 18 20 22 0
4 6 9 11 12 14 16 18 19 21 0
1 5 7 10 13 15 17 19 20 22 0
2 6 8 11 12 14 16 18 20 21 0
1 3 7 9 13 15 17 19 21 22 0
2 4 8 10 12 14 16 18 20 22 0
3 5 9 11 12 13 15 17 19 21 0
1 4 6 10 13 14 16 18 20 22 0
2 5 7 11 12 14 15 17 19 21 0
1 3 6 8 13 15 16 18 20 22 0
2 4 7 9 12 14 16 17 19 21 0
4 5 8 9 14 15 17 18 20 21 0
5 6 9 10 15 16 18 19 21 22 0
6 7 10 11 12 16 17 19 20 22 0
1 7 8 11 12 13 17 18 20 21 0
1 2 8 9 13 14 18 19 21 22 0
2 3 9 10 12 14 15 19 20 22 0
3 4 10 11 12 13 15 16 20 21 0
1 4 5 11 13 14 16 17 21 22 0
1 2 5 6 12 14 15 17 18 22 0
2 3 6 7 12 13 15 16 18 19 0
3 4 7 8 13 14 16 17 19 20 0
3 4 5 6 10 13 18 20 21 22 0
4 5 6 7 11 12 14 19 21 22 0
1 5 6 7 8 12 13 15 20 22 0
2 6 7 8 9 12 13 14 16 21 0
3 7 8 9 10 13 14 15 17 22 0
4 8 9 10 11 12 14 15 16 18 0
1 5 9 10 11 13 15 16 17 19 0
1 2 6 10 11 14 16 17 18 20 0
1 2 3 7 11 15 17 18 19 21 0
1 2 3 4 8 16 18 19 20 22 0
2 3 4 5 9 12 17 19 20 21 0
3 6 8 10 13 15 16 17 18 19 22 0
4 7 9 11 12 14 16 17 18 19 20 0
1 5 8 10 13 15 17 18 19 20 21 0
2 6 9 11 14 16 18 19 20 21 22 0
1 3 7 10 12 15 17 19 20 21 22 0
2 4 8 11 12 13 16 18 20 21 22 0
1 3 5 9 12 13 14 17 19 21 22 0
2 4 6 10 12 13 14 15 18 20 22 0
3 5 7 11 12 13 14 15 16 19 21 0
1 4 6 8 13 14 15 16 17 20 22 0
2 5 7 9 12 14 15 16 17 18 21 0
3 5 7 10 13 16 17 18 19 20 22 0
4 6 8 11 12 14 17 18 19 20 21 0
1 5 7 9 13 15 18 19 20 21 22 0
2 6 8 10 12 14 16 19 20 21 22 0
3 7 9 11 12 13 15 17 20 21 22 0
1 4 8 10 12 13 14 16 18 21 22 0
2 5 9 11 12 13 14 15 17 19 22 0
1 3 6 10 12 13 14 15 16 18 20 0
2 4 7 11 13 14 15 16 17 19 21 0
1 3 5 8 14 15 16 17 18 20 22 0
2 4 6 9 12 15 16 17 18 19 21 0
3 6 7 13 14 15 16 17 18 19 0
4 7 8 14 15 16 17 18 19 20 0
5 8 9 15 16 17 18 19 20 21 0
6 9 10 16 17 18 19 20 21 22 0
7 10 11 12 17 18 19 20 21 22 0
1 8 11 12 13 18 19 20 21 22 0
1 2 9 12 13 14 19 20 21 22 0
2 3 10 12 13 14 15 20 21 22 0
3 4 11 12 13 14 15 16 21 22 0
1 4 5 12 13 14 15 16 17 22 0
2 5 6 12 13 14 15 16 17 18 0
6 7 10 16 17 18 19 20 21 22 0
7 8 11 12 17 18 19 20 21 22 0
1 8 9 12 13 18 19 20 21 22 0
2 9 10 12 13 14 19 20 21 22 0
3 10 11 12 13 14 15 20 21 22 0
1 4 11 12 13 14 15 16 21 22 0
1 2 5 12 13 14 15 16 17 22 0
2 3 6 12 13 14 15 16 17 18 0
3 4 7 13 14 15 16 17 18 19 0
4 5 8 14 15 16 17 18 19 20 0
5 6 9 15 16 17 18 19 20 21 0
3 4 8 10 13 16 18 19 21 22 0
4 5 9 11 12 14 17 19 20 22 0
1 5 6 10 12 13 15 18 20 21 0
2 6 7 11 13 14 16 19 21 22 0
1 3 7 8 12 14 15 17 20 22 0
2 4 8 9 12 13 15 16 18 21 0
3 5 9 10 13 14 16 17 19 22 0
4 6 10 11 12 14 15 17 18 20 0
1 5 7 11 13 15 16 18 19 21 0
1 2 6 8 14 16 17 19 20 22 0
2 3 7 9 12 15 17 18 20 21 0
