p cnf 211 2313
-1 33 0
-33 34 0
-2 -33 35 0
-35 36 0
-3 -35 37 0
-37 38 0
-4 -37 39 0
-39 40 0
-5 -39 41 0
-41 42 0
-6 -41 43 0
-43 44 0
-7 -43 45 0
-45 46 0
-8 -45 0
-2 34 0
-34 47 0
-3 -34 36 0
-36 48 0
-4 -36 38 0
-38 49 0
-5 -38 40 0
-40 50 0
-6 -40 42 0
-42 51 0
-7 -42 44 0
-44 52 0
-8 -44 46 0
-46 53 0
-9 -46 0
-3 47 0
-47 54 0
-4 -47 48 0
-48 55 0
-5 -48 49 0
-49 56 0
-6 -49 50 0
-50 57 0
-7 -50 51 0
-51 58 0
-8 -51 52 0
-52 59 0
-9 -52 53 0
-53 60 0
-10 -53 0
-4 54 0
-54 61 0
-5 -54 55 0
-55 62 0
-6 -55 56 0
-56 63 0
-7 -56 57 0
-57 64 0
-8 -57 58 0
-58 65 0
-9 -58 59 0
-59 66 0
-10 -59 60 0
-60 67 0
-11 -60 0
-5 61 0
-61 68 0
-6 -61 62 0
-62 69 0
-7 -62 63 0
-63 70 0
-8 -63 64 0
-64 71 0
-9 -64 65 0
-65 72 0
-10 -65 66 0
-66 73 0
-11 -66 67 0
-67 74 0
-12 -67 0
-6 68 0
-68 75 0
-7 -68 69 0
-69 76 0
-8 -69 70 0
-70 77 0
-9 -70 71 0
-71 78 0
-10 -71 72 0
-72 79 0
-11 -72 73 0
-73 80 0
-12 -73 74 0
-74 81 0
-13 -74 0
-7 75 0
-75 82 0
-8 -75 76 0
-76 83 0
-9 -76 77 0
-77 84 0
-10 -77 78 0
-78 85 0
-11 -78 79 0
-79 86 0
-12 -79 80 0
-80 87 0
-13 -80 81 0
-81 88 0
-14 -81 0
-8 82 0
-82 89 0
-9 -82 83 0
-83 90 0
-10 -83 84 0
-84 91 0
-11 -84 85 0
-85 92 0
-12 -85 86 0
-86 93 0
-13 -86 87 0
-87 94 0
-14 -87 88 0
-88 95 0
-15 -88 0
-9 89 0
-89 96 0
-10 -89 90 0
-90 97 0
-11 -90 91 0
-91 98 0
-12 -91 92 0
-92 99 0
-13 -92 93 0
-93 100 0
-14 -93 94 0
-94 101 0
-15 -94 95 0
-95 102 0
-16 -95 0
-10 96 0
-96 103 0
-11 -96 97 0
-97 104 0
-12 -97 98 0
-98 105 0
-13 -98 99 0
-99 106 0
-14 -99 100 0
-100 107 0
-15 -100 101 0
-101 108 0
-16 -101 102 0
-102 109 0
-17 -102 0
-11 103 0
-103 110 0
-12 -103 104 0
-104 111 0
-13 -104 105 0
-105 112 0
-14 -105 106 0
-106 113 0
-15 -106 107 0
-107 114 0
-16 -107 108 0
-108 115 0
-17 -108 109 0
-109 116 0
-18 -109 0
-12 110 0
-110 117 0
-13 -110 111 0
-111 118 0
-14 -111 112 0
-112 119 0
-15 -112 113 0
-113 120 0
-16 -113 114 0
-114 121 0
-17 -114 115 0
-115 122 0
-18 -115 116 0
-116 123 0
-19 -116 0
-13 117 0
-117 124 0
-14 -117 118 0
-118 125 0
-15 -118 119 0
-119 126 0
-16 -119 120 0
-120 127 0
-17 -120 121 0
-121 128 0
-18 -121 122 0
-122 129 0
-19 -122 123 0
-123 130 0
-20 -123 0
-14 124 0
-124 131 0
-15 -124 125 0
-125 132 0
-16 -125 126 0
-126 133 0
-17 -126 127 0
-127 134 0
-18 -127 128 0
-128 135 0
-19 -128 129 0
-129 136 0
-20 -129 130 0
-130 137 0
-21 -130 0
-15 131 0
-131 138 0
-16 -131 132 0
-132 139 0
-17 -132 133 0
-133 140 0
-18 -133 134 0
-134 141 0
-19 -134 135 0
-135 142 0
-20 -135 136 0
-136 143 0
-21 -136 137 0
-137 144 0
-22 -137 0
-16 138 0
-138 145 0
-17 -138 139 0
-139 146 0
-18 -139 140 0
-140 147 0
-19 -140 141 0
-141 148 0
-20 -141 142 0
-142 149 0
-21 -142 143 0
-143 150 0
-22 -143 144 0
-144 151 0
-23 -144 0
-17 145 0
-145 152 0
-18 -145 146 0
-146 153 0
-19 -146 147 0
-147 154 0
-20 -147 148 0
-148 155 0
-21 -148 149 0
-149 156 0
-22 -149 150 0
-150 157 0
-23 -150 151 0
-151 158 0
-24 -151 0
-18 152 0
-152 159 0
-19 -152 153 0
-153 160 0
-20 -153 154 0
-154 161 0
-21 -154 155 0
-155 162 0
-22 -155 156 0
-156 163 0
-23 -156 157 0
-157 164 0
-24 -157 158 0
-158 165 0
-25 -158 0
-19 159 0
-159 166 0
-20 -159 160 0
-160 167 0
-21 -160 161 0
-161 168 0
-22 -161 162 0
-162 169 0
-23 -162 163 0
-163 170 0
-24 -163 164 0
-164 171 0
-25 -164 165 0
-165 172 0
-26 -165 0
-20 166 0
-166 173 0
-21 -166 167 0
-167 174 0
-22 -167 168 0
-168 175 0
-23 -168 169 0
-169 176 0
-24 -169 170 0
-170 177 0
-25 -170 171 0
-171 178 0
-26 -171 172 0
-172 179 0
-27 -172 0
-21 173 0
-173 180 0
-22 -173 174 0
-174 181 0
-23 -174 175 0
-175 182 0
-24 -175 176 0
-176 183 0
-25 -176 177 0
-177 184 0
-26 -177 178 0
-178 185 0
-27 -178 179 0
-179 186 0
-28 -179 0
-22 180 0
-180 187 0
-23 -180 181 0
-181 188 0
-24 -181 182 0
-182 189 0
-25 -182 183 0
-183 190 0
-26 -183 184 0
-184 191 0
-27 -184 185 0
-185 192 0
-28 -185 186 0
-186 193 0
-29 -186 0
-23 187 0
-187 194 0
-24 -187 188 0
-188 195 0
-25 -188 189 0
-189 196 0
-26 -189 190 0
-190 197 0
-27 -190 191 0
-191 198 0
-28 -191 192 0
-192 199 0
-29 -192 193 0
-193 200 0
-30 -193 0
-24 194 0
-194 201 0
-25 -194 195 0
-195 202 0
-26 -195 196 0
-196 203 0
-27 -196 197 0
-197 204 0
-28 -197 198 0
-198 205 0
-29 -198 199 0
-199 206 0
-30 -199 200 0
-200 207 0
-31 -200 0
-25 201 0
-26 -201 202 0
-27 -202 203 0
-28 -203 204 0
-29 -204 205 0
-30 -205 206 0
-31 -206 207 0
-32 -207 0
-208 1 0
-208 2 0
-208 16 0
-208 -17 0
-209 1 0
-209 17 0
-209 16 0
-209 -2 0
-210 17 0
-210 21 0
-210 29 0
-210 -1 0
-211 17 0
-211 1 0
-211 29 0
-211 -21 0
208 209 210 211 0
2 5 8 11 13 16 19 20 22 23 25 26 30 31 0
1 3 6 9 12 14 20 21 23 24 26 27 31 32 0
2 4 7 10 13 15 17 21 22 24 25 27 28 32 0
3 5 8 11 14 16 17 18 22 23 25 26 28 29 0
1 4 6 9 12 15 18 19 23 24 26 27 29 30 0
2 5 7 10 13 16 19 20 24 25 27 28 30 31 0
1 3 6 8 11 14 20 21 25 26 28 29 31 32 0
2 4 7 9 12 15 17 21 22 26 27 29 30 32 0
3 5 8 10 13 16 17 18 22 23 27 28 30 31 0
1 4 6 9 11 14 18 19 23 24 28 29 31 32 0
2 5 7 10 12 15 17 19 20 24 25 29 30 32 0
3 6 8 11 13 16 17 18 20 21 25 26 30 31 0
1 4 7 9 12 14 18 19 21 22 26 27 31 32 0
2 5 8 10 13 15 17 19 20 22 23 27 28 32 0
3 6 9 11 14 16 17 18 20 21 23 24 28 29 0
1 4 7 10 12 15 18 19 21 22 24 25 29 30 0
2 5 8 11 13 15 16 18 19 20 22 23 25 26 0
1 3 6 9 12 14 16 19 20 21 23 24 26 27 0
1 2 4 7 10 13 15 20 21 22 24 25 27 28 0
2 3 5 8 11 14 16 21 22 23 25 26 28 29 0
1 3 4 6 9 12 15 22 23 24 26 27 29 30 0
2 4 5 7 10 13 16 23 24 25 27 28 30 31 0
1 3 5 6 8 11 14 24 25 26 28 29 31 32 0
2 4 6 7 9 12 15 17 25 26 27 29 30 32 0
3 5 7 8 10 13 16 17 18 26 27 28 30 31 0
1 4 6 8 9 11 14 18 19 27 28 29 31 32 0
2 5 7 9 10 12 15 17 19 20 28 29 30 32 0
3 6 8 10 11 13 16 17 18 20 21 29 30 31 0
1 4 7 9 11 12 14 18 19 21 22 30 31 32 0
2 5 8 10 12 13 15 17 19 20 22 23 31 32 0
3 6 9 11 13 14 16 17 18 20 21 23 24 32 0
1 4 7 10 12 14 15 17 18 19 21 22 24 25 0
2 3 5 7 10 13 16 24 25 27 28 30 31 32 0
1 3 4 6 8 11 14 17 25 26 28 29 31 32 0
2 4 5 7 9 12 15 17 18 26 27 29 30 32 0
3 5 6 8 10 13 16 17 18 19 27 28 30 31 0
1 4 6 7 9 11 14 18 19 20 28 29 31 32 0
2 5 7 8 10 12 15 17 19 20 21 29 30 32 0
3 6 8 9 11 13 16 17 18 20 21 22 30 31 0
1 4 7 9 10 12 14 18 19 21 22 23 31 32 0
2 5 8 10 11 13 15 17 19 20 22 23 24 32 0
3 6 9 11 12 14 16 17 18 20 21 23 24 25 0
1 4 7 10 12 13 15 18 19 21 22 24 25 26 0
2 5 8 11 13 14 16 19 20 22 23 25 26 27 0
1 3 6 9 12 14 15 20 21 23 24 26 27 28 0
2 4 7 10 13 15 16 21 22 24 25 27 28 29 0
1 3 5 8 11 14 16 22 23 25 26 28 29 30 0
1 2 4 6 9 12 15 23 24 26 27 29 30 31 0
2 4 6 8 10 12 14 16 22 23 26 28 31 32 0
1 3 5 7 9 11 13 15 17 23 24 27 29 32 0
2 4 6 8 10 12 14 16 17 18 24 25 28 30 0
1 3 5 7 9 11 13 15 18 19 25 26 29 31 0
2 4 6 8 10 12 14 16 19 20 26 27 30 32 0
1 3 5 7 9 11 13 15 17 20 21 27 28 31 0
2 4 6 8 10 12 14 16 18 21 22 28 29 32 0
1 3 5 7 9 11 13 15 17 19 22 23 29 30 0
2 4 6 8 10 12 14 16 18 20 23 24 30 31 0
1 3 5 7 9 11 13 15 19 21 24 25 31 32 0
2 4 6 8 10 12 14 16 17 20 22 25 26 32 0
1 3 5 7 9 11 13 15 17 18 21 23 26 27 0
2 4 6 8 10 12 14 16 18 19 22 24 27 28 0
1 3 5 7 9 11 13 15 19 20 23 25 28 29 0
2 4 6 8 10 12 14 16 20 21 24 26 29 30 0
1 3 5 7 9 11 13 15 21 22 25 27 30 31 0
2 5 8 10 12 13 14 16 18 19 20 22 23 25 31 32 0
1 3 6 9 11 13 14 15 17 19 20 21 23 24 26 32 0
2 4 7 10 12 14 15 16 17 18 20 21 22 24 25 27 0
1 3 5 8 11 13 15 16 18 19 21 22 23 25 26 28 0
1 2 4 6 9 12 14 16 19 20 22 23 24 26 27 29 0
1 2 3 5 7 10 13 15 20 21 23 24 25 27 28 30 0
2 3 4 6 8 11 14 16 21 22 24 25 26 28 29 31 0
1 3 4 5 7 9 12 15 22 23 25 26 27 29 30 32 0
2 4 5 6 8 10 13 16 17 23 24 26 27 28 30 31 0
1 3 5 6 7 9 11 14 18 24 25 27 28 29 31 32 0
2 4 6 7 8 10 12 15 17 19 25 26 28 29 30 32 0
3 5 7 8 9 11 13 16 17 18 20 26 27 29 30 31 0
1 4 6 8 9 10 12 14 18 19 21 27 28 30 31 32 0
2 5 7 9 10 11 13 15 17 19 20 22 28 29 31 32 0
3 6 8 10 11 12 14 16 17 18 20 21 23 29 30 32 0
1 4 7 9 11 12 13 15 17 18 19 21 22 24 30 31 0
2 4 5 6 8 10 13 16 18 19 25 27 28 30 31 32 0
1 3 5 6 7 9 11 14 17 19 20 26 28 29 31 32 0
2 4 6 7 8 10 12 15 17 18 20 21 27 29 30 32 0
3 5 7 8 9 11 13 16 17 18 19 21 22 28 30 31 0
1 4 6 8 9 10 12 14 18 19 20 22 23 29 31 32 0
2 5 7 9 10 11 13 15 17 19 20 21 23 24 30 32 0
3 6 8 10 11 12 14 16 17 18 20 21 22 24 25 31 0
1 4 7 9 11 12 13 15 18 19 21 22 23 25 26 32 0
2 5 8 10 12 13 14 16 17 19 20 22 23 24 26 27 0
1 3 6 9 11 13 14 15 18 20 21 23 24 25 27 28 0
2 4 7 10 12 14 15 16 19 21 22 24 25 26 28 29 0
1 3 5 8 11 13 15 16 20 22 23 25 26 27 29 30 0
1 2 4 6 9 12 14 16 21 23 24 26 27 28 30 31 0
1 2 3 5 7 10 13 15 22 24 25 27 28 29 31 32 0
2 3 4 6 8 11 14 16 17 23 25 26 28 29 30 32 0
1 3 4 5 7 9 12 15 17 18 24 26 27 29 30 31 0
2 4 6 8 10 12 14 16 18 22 23 28 31 32 0
1 3 5 7 9 11 13 15 17 19 23 24 29 32 0
2 4 6 8 10 12 14 16 17 18 20 24 25 30 0
1 3 5 7 9 11 13 15 18 19 21 25 26 31 0
2 4 6 8 10 12 14 16 19 20 22 26 27 32 0
1 3 5 7 9 11 13 15 17 20 21 23 27 28 0
2 4 6 8 10 12 14 16 18 21 22 24 28 29 0
1 3 5 7 9 11 13 15 19 22 23 25 29 30 0
2 4 6 8 10 12 14 16 20 23 24 26 30 31 0
1 3 5 7 9 11 13 15 21 24 25 27 31 32 0
2 4 6 8 10 12 14 16 17 22 25 26 28 32 0
1 3 5 7 9 11 13 15 17 18 23 26 27 29 0
2 4 6 8 10 12 14 16 18 19 24 27 28 30 0
1 3 5 7 9 11 13 15 19 20 25 28 29 31 0
2 4 6 8 10 12 14 16 20 21 26 29 30 32 0
1 3 5 7 9 11 13 15 17 21 22 27 30 31 0
2 4 6 8 10 12 14 16 18 19 22 27 28 32 0
1 3 5 7 9 11 13 15 17 19 20 23 28 29 0
2 4 6 8 10 12 14 16 18 20 21 24 29 30 0
1 3 5 7 9 11 13 15 19 21 22 25 30 31 0
2 4 6 8 10 12 14 16 20 22 23 26 31 32 0
1 3 5 7 9 11 13 15 17 21 23 24 27 32 0
2 4 6 8 10 12 14 16 17 18 22 24 25 28 0
1 3 5 7 9 11 13 15 18 19 23 25 26 29 0
2 4 6 8 10 12 14 16 19 20 24 26 27 30 0
1 3 5 7 9 11 13 15 20 21 25 27 28 31 0
2 4 6 8 10 12 14 16 21 22 26 28 29 32 0
1 3 5 7 9 11 13 15 17 22 23 27 29 30 0
2 4 6 8 10 12 14 16 18 23 24 28 30 31 0
1 3 5 7 9 11 13 15 19 24 25 29 31 32 0
2 4 6 8 10 12 14 16 17 20 25 26 30 32 0
1 3 5 7 9 11 13 15 17 18 21 26 27 31 0
2 4 6 8 10 12 14 16 18 22 23 24 31 32 0
1 3 5 7 9 11 13 15 17 19 23 24 25 32 0
2 4 6 8 10 12 14 16 17 18 20 24 25 26 0
1 3 5 7 9 11 13 15 18 19 21 25 26 27 0
2 4 6 8 10 12 14 16 19 20 22 26 27 28 0
1 3 5 7 9 11 13 15 20 21 23 27 28 29 0
2 4 6 8 10 12 14 16 21 22 24 28 29 30 0
1 3 5 7 9 11 13 15 22 23 25 29 30 31 0
2 4 6 8 10 12 14 16 23 24 26 30 31 32 0
1 3 5 7 9 11 13 15 17 24 25 27 31 32 0
2 4 6 8 10 12 14 16 17 18 25 26 28 32 0
1 3 5 7 9 11 13 15 17 18 19 26 27 29 0
2 4 6 8 10 12 14 16 18 19 20 27 28 30 0
1 3 5 7 9 11 13 15 19 20 21 28 29 31 0
2 4 6 8 10 12 14 16 20 21 22 29 30 32 0
1 3 5 7 9 11 13 15 17 21 22 23 30 31 0
2 4 6 8 10 12 14 16 18 19 26 27 28 32 0
1 3 5 7 9 11 13 15 17 19 20 27 28 29 0
2 4 6 8 10 12 14 16 18 20 21 28 29 30 0
1 3 5 7 9 11 13 15 19 21 22 29 30 31 0
2 4 6 8 10 12 14 16 20 22 23 30 31 32 0
1 3 5 7 9 11 13 15 17 21 23 24 31 32 0
2 4 6 8 10 12 14 16 17 18 22 24 25 32 0
1 3 5 7 9 11 13 15 17 18 19 23 25 26 0
2 4 6 8 10 12 14 16 18 19 20 24 26 27 0
1 3 5 7 9 11 13 15 19 20 21 25 27 28 0
2 4 6 8 10 12 14 16 20 21 22 26 28 29 0
1 3 5 7 9 11 13 15 21 22 23 27 29 30 0
2 4 6 8 10 12 14 16 22 23 24 28 30 31 0
1 3 5 7 9 11 13 15 23 24 25 29 31 32 0
2 4 6 8 10 12 14 16 17 24 25 26 30 32 0
1 3 5 7 9 11 13 15 17 18 25 26 27 31 0
2 4 6 8 10 12 14 16 19 22 24 27 30 32 0
1 3 5 7 9 11 13 15 17 20 23 25 28 31 0
2 4 6 8 10 12 14 16 18 21 24 26 29 32 0
1 3 5 7 9 11 13 15 17 19 22 25 27 30 0
2 4 6 8 10 12 14 16 18 20 23 26 28 31 0
1 3 5 7 9 11 13 15 19 21 24 27 29 32 0
2 4 6 8 10 12 14 16 17 20 22 25 28 30 0
1 3 5 7 9 11 13 15 18 21 23 26 29 31 0
2 4 6 8 10 11 12 14 15 16 19 23 24 26 30 32 0
1 3 5 7 9 11 12 13 15 16 17 20 24 25 27 31 0
1 2 4 6 8 10 12 13 14 16 18 21 25 26 28 32 0
1 2 3 5 7 9 11 13 14 15 17 19 22 26 27 29 0
2 3 4 6 8 10 12 14 15 16 18 20 23 27 28 30 0
1 3 4 5 7 9 11 13 15 16 19 21 24 28 29 31 0
1 2 4 5 6 8 10 12 14 16 20 22 25 29 30 32 0
1 2 3 5 6 7 9 11 13 15 17 21 23 26 30 31 0
2 3 4 6 7 8 10 12 14 16 18 22 24 27 31 32 0
1 3 4 5 7 8 9 11 13 15 17 19 23 25 28 32 0
2 4 5 6 8 9 10 12 14 16 17 18 20 24 26 29 0
1 3 5 6 7 9 10 11 13 15 18 19 21 25 27 30 0
2 4 6 7 8 10 11 12 14 16 19 20 22 26 28 31 0
1 3 5 7 8 9 11 12 13 15 20 21 23 27 29 32 0
2 4 6 8 9 10 12 13 14 16 17 21 22 24 28 30 0
1 3 5 7 9 10 11 13 14 15 18 22 23 25 29 31 0
2 3 4 6 7 8 10 12 14 16 18 20 24 26 27 31 0
1 3 4 5 7 8 9 11 13 15 19 21 25 27 28 32 0
2 4 5 6 8 9 10 12 14 16 17 20 22 26 28 29 0
1 3 5 6 7 9 10 11 13 15 18 21 23 27 29 30 0
2 4 6 7 8 10 11 12 14 16 19 22 24 28 30 31 0
1 3 5 7 8 9 11 12 13 15 20 23 25 29 31 32 0
2 4 6 8 9 10 12 13 14 16 17 21 24 26 30 32 0
1 3 5 7 9 10 11 13 14 15 17 18 22 25 27 31 0
2 4 6 8 10 11 12 14 15 16 18 19 23 26 28 32 0
1 3 5 7 9 11 12 13 15 16 17 19 20 24 27 29 0
1 2 4 6 8 10 12 13 14 16 18 20 21 25 28 30 0
1 2 3 5 7 9 11 13 14 15 19 21 22 26 29 31 0
2 3 4 6 8 10 12 14 15 16 20 22 23 27 30 32 0
1 3 4 5 7 9 11 13 15 16 17 21 23 24 28 31 0
1 2 4 5 6 8 10 12 14 16 18 22 24 25 29 32 0
1 2 3 5 6 7 9 11 13 15 17 19 23 25 26 30 0
2 5 8 10 11 13 15 16 19 20 22 23 24 25 32 0
1 3 6 9 11 12 14 16 17 20 21 23 24 25 26 0
1 2 4 7 10 12 13 15 18 21 22 24 25 26 27 0
2 3 5 8 11 13 14 16 19 22 23 25 26 27 28 0
1 3 4 6 9 12 14 15 20 23 24 26 27 28 29 0
2 4 5 7 10 13 15 16 21 24 25 27 28 29 30 0
1 3 5 6 8 11 14 16 22 25 26 28 29 30 31 0
1 2 4 6 7 9 12 15 23 26 27 29 30 31 32 0
2 3 5 7 8 10 13 16 17 24 27 28 30 31 32 0
1 3 4 6 8 9 11 14 17 18 25 28 29 31 32 0
2 4 5 7 9 10 12 15 17 18 19 26 29 30 32 0
3 5 6 8 10 11 13 16 17 18 19 20 27 30 31 0
1 4 6 7 9 11 12 14 18 19 20 21 28 31 32 0
2 5 7 8 10 12 13 15 17 19 20 21 22 29 32 0
3 6 8 9 11 13 14 16 17 18 20 21 22 23 30 0
1 4 7 9 10 12 14 15 18 19 21 22 23 24 31 0
2 3 5 7 8 10 13 16 18 25 26 27 28 30 31 0
1 3 4 6 8 9 11 14 19 26 27 28 29 31 32 0
2 4 5 7 9 10 12 15 17 20 27 28 29 30 32 0
3 5 6 8 10 11 13 16 17 18 21 28 29 30 31 0
1 4 6 7 9 11 12 14 18 19 22 29 30 31 32 0
2 5 7 8 10 12 13 15 17 19 20 23 30 31 32 0
3 6 8 9 11 13 14 16 17 18 20 21 24 31 32 0
1 4 7 9 10 12 14 15 17 18 19 21 22 25 32 0
2 5 8 10 11 13 15 16 17 18 19 20 22 23 26 0
1 3 6 9 11 12 14 16 18 19 20 21 23 24 27 0
1 2 4 7 10 12 13 15 19 20 21 22 24 25 28 0
2 3 5 8 11 13 14 16 20 21 22 23 25 26 29 0
1 3 4 6 9 12 14 15 21 22 23 24 26 27 30 0
2 4 5 7 10 13 15 16 22 23 24 25 27 28 31 0
1 3 5 6 8 11 14 16 23 24 25 26 28 29 32 0
1 2 4 6 7 9 12 15 17 24 25 26 27 29 30 0
2 4 6 8 10 11 12 14 15 16 19 22 23 28 30 32 0
1 3 5 7 9 11 12 13 15 16 17 20 23 24 29 31 0
1 2 4 6 8 10 12 13 14 16 18 21 24 25 30 32 0
1 2 3 5 7 9 11 13 14 15 17 19 22 25 26 31 0
2 3 4 6 8 10 12 14 15 16 18 20 23 26 27 32 0
1 3 4 5 7 9 11 13 15 16 17 19 21 24 27 28 0
1 2 4 5 6 8 10 12 14 16 18 20 22 25 28 29 0
1 2 3 5 6 7 9 11 13 15 19 21 23 26 29 30 0
2 3 4 6 7 8 10 12 14 16 20 22 24 27 30 31 0
1 3 4 5 7 8 9 11 13 15 21 23 25 28 31 32 0
2 4 5 6 8 9 10 12 14 16 17 22 24 26 29 32 0
1 3 5 6 7 9 10 11 13 15 17 18 23 25 27 30 0
2 4 6 7 8 10 11 12 14 16 18 19 24 26 28 31 0
1 3 5 7 8 9 11 12 13 15 19 20 25 27 29 32 0
2 4 6 8 9 10 12 13 14 16 17 20 21 26 28 30 0
1 3 5 7 9 10 11 13 14 15 18 21 22 27 29 31 0
2 3 4 6 7 8 10 12 14 16 18 20 22 27 28 31 0
1 3 4 5 7 8 9 11 13 15 19 21 23 28 29 32 0
2 4 5 6 8 9 10 12 14 16 17 20 22 24 29 30 0
1 3 5 6 7 9 10 11 13 15 18 21 23 25 30 31 0
2 4 6 7 8 10 11 12 14 16 19 22 24 26 31 32 0
1 3 5 7 8 9 11 12 13 15 17 20 23 25 27 32 0
2 4 6 8 9 10 12 13 14 16 17 18 21 24 26 28 0
1 3 5 7 9 10 11 13 14 15 18 19 22 25 27 29 0
2 4 6 8 10 11 12 14 15 16 19 20 23 26 28 30 0
1 3 5 7 9 11 12 13 15 16 20 21 24 27 29 31 0
1 2 4 6 8 10 12 13 14 16 21 22 25 28 30 32 0
1 2 3 5 7 9 11 13 14 15 17 22 23 26 29 31 0
2 3 4 6 8 10 12 14 15 16 18 23 24 27 30 32 0
1 3 4 5 7 9 11 13 15 16 17 19 24 25 28 31 0
1 2 4 5 6 8 10 12 14 16 18 20 25 26 29 32 0
1 2 3 5 6 7 9 11 13 15 17 19 21 26 27 30 0
2 5 8 10 12 13 14 16 18 19 20 22 23 24 25 31 0
1 3 6 9 11 13 14 15 19 20 21 23 24 25 26 32 0
2 4 7 10 12 14 15 16 17 20 21 22 24 25 26 27 0
1 3 5 8 11 13 15 16 18 21 22 23 25 26 27 28 0
1 2 4 6 9 12 14 16 19 22 23 24 26 27 28 29 0
1 2 3 5 7 10 13 15 20 23 24 25 27 28 29 30 0
2 3 4 6 8 11 14 16 21 24 25 26 28 29 30 31 0
1 3 4 5 7 9 12 15 22 25 26 27 29 30 31 32 0
2 4 5 6 8 10 13 16 17 23 26 27 28 30 31 32 0
1 3 5 6 7 9 11 14 17 18 24 27 28 29 31 32 0
2 4 6 7 8 10 12 15 17 18 19 25 28 29 30 32 0
3 5 7 8 9 11 13 16 17 18 19 20 26 29 30 31 0
1 4 6 8 9 10 12 14 18 19 20 21 27 30 31 32 0
2 5 7 9 10 11 13 15 17 19 20 21 22 28 31 32 0
3 6 8 10 11 12 14 16 17 18 20 21 22 23 29 32 0
1 4 7 9 11 12 13 15 17 18 19 21 22 23 24 30 0
2 4 5 6 8 10 13 16 19 25 26 27 28 30 31 32 0
1 3 5 6 7 9 11 14 17 20 26 27 28 29 31 32 0
2 4 6 7 8 10 12 15 17 18 21 27 28 29 30 32 0
3 5 7 8 9 11 13 16 17 18 19 22 28 29 30 31 0
1 4 6 8 9 10 12 14 18 19 20 23 29 30 31 32 0
2 5 7 9 10 11 13 15 17 19 20 21 24 30 31 32 0
3 6 8 10 11 12 14 16 17 18 20 21 22 25 31 32 0
1 4 7 9 11 12 13 15 17 18 19 21 22 23 26 32 0
2 5 8 10 12 13 14 16 17 18 19 20 22 23 24 27 0
1 3 6 9 11 13 14 15 18 19 20 21 23 24 25 28 0
2 4 7 10 12 14 15 16 19 20 21 22 24 25 26 29 0
1 3 5 8 11 13 15 16 20 21 22 23 25 26 27 30 0
1 2 4 6 9 12 14 16 21 22 23 24 26 27 28 31 0
1 2 3 5 7 10 13 15 22 23 24 25 27 28 29 32 0
2 3 4 6 8 11 14 16 17 23 24 25 26 28 29 30 0
1 3 4 5 7 9 12 15 18 24 25 26 27 29 30 31 0
2 5 8 10 12 13 15 16 19 20 22 23 24 25 27 0
1 3 6 9 11 13 14 16 20 21 23 24 25 26 28 0
1 2 4 7 10 12 14 15 21 22 24 25 26 27 29 0
2 3 5 8 11 13 15 16 22 23 25 26 27 28 30 0
1 3 4 6 9 12 14 16 23 24 26 27 28 29 31 0
1 2 4 5 7 10 13 15 24 25 27 28 29 30 32 0
2 3 5 6 8 11 14 16 17 25 26 28 29 30 31 0
1 3 4 6 7 9 12 15 18 26 27 29 30 31 32 0
2 4 5 7 8 10 13 16 17 19 27 28 30 31 32 0
1 3 5 6 8 9 11 14 17 18 20 28 29 31 32 0
2 4 6 7 9 10 12 15 17 18 19 21 29 30 32 0
3 5 7 8 10 11 13 16 17 18 19 20 22 30 31 0
1 4 6 8 9 11 12 14 18 19 20 21 23 31 32 0
2 5 7 9 10 12 13 15 17 19 20 21 22 24 32 0
3 6 8 10 11 13 14 16 17 18 20 21 22 23 25 0
1 4 7 9 11 12 14 15 18 19 21 22 23 24 26 0
2 3 5 6 8 10 13 16 23 25 26 27 28 30 31 0
1 3 4 6 7 9 11 14 24 26 27 28 29 31 32 0
2 4 5 7 8 10 12 15 17 25 27 28 29 30 32 0
3 5 6 8 9 11 13 16 17 18 26 28 29 30 31 0
1 4 6 7 9 10 12 14 18 19 27 29 30 31 32 0
2 5 7 8 10 11 13 15 17 19 20 28 30 31 32 0
3 6 8 9 11 12 14 16 17 18 20 21 29 31 32 0
1 4 7 9 10 12 13 15 17 18 19 21 22 30 32 0
2 5 8 10 11 13 14 16 17 18 19 20 22 23 31 0
1 3 6 9 11 12 14 15 18 19 20 21 23 24 32 0
2 4 7 10 12 13 15 16 17 19 20 21 22 24 25 0
1 3 5 8 11 13 14 16 18 20 21 22 23 25 26 0
1 2 4 6 9 12 14 15 19 21 22 23 24 26 27 0
2 3 5 7 10 13 15 16 20 22 23 24 25 27 28 0
1 3 4 6 8 11 14 16 21 23 24 25 26 28 29 0
1 2 4 5 7 9 12 15 22 24 25 26 27 29 30 0
2 5 8 10 11 13 15 16 19 20 22 23 25 0
1 3 6 9 11 12 14 16 20 21 23 24 26 0
1 2 4 7 10 12 13 15 21 22 24 25 27 0
2 3 5 8 11 13 14 16 22 23 25 26 28 0
1 3 4 6 9 12 14 15 23 24 26 27 29 0
2 4 5 7 10 13 15 16 24 25 27 28 30 0
1 3 5 6 8 11 14 16 25 26 28 29 31 0
1 2 4 6 7 9 12 15 26 27 29 30 32 0
2 3 5 7 8 10 13 16 17 27 28 30 31 0
1 3 4 6 8 9 11 14 18 28 29 31 32 0
2 4 5 7 9 10 12 15 17 19 29 30 32 0
3 5 6 8 10 11 13 16 17 18 20 30 31 0
1 4 6 7 9 11 12 14 18 19 21 31 32 0
2 5 7 8 10 12 13 15 17 19 20 22 32 0
3 6 8 9 11 13 14 16 17 18 20 21 23 0
1 4 7 9 10 12 14 15 18 19 21 22 24 0
2 3 5 7 8 10 13 16 25 27 28 30 31 0
1 3 4 6 8 9 11 14 26 28 29 31 32 0
2 4 5 7 9 10 12 15 17 27 29 30 32 0
3 5 6 8 10 11 13 16 17 18 28 30 31 0
1 4 6 7 9 11 12 14 18 19 29 31 32 0
2 5 7 8 10 12 13 15 17 19 20 30 32 0
3 6 8 9 11 13 14 16 17 18 20 21 31 0
1 4 7 9 10 12 14 15 18 19 21 22 32 0
2 5 8 10 11 13 15 16 17 19 20 22 23 0
1 3 6 9 11 12 14 16 18 20 21 23 24 0
1 2 4 7 10 12 13 15 19 21 22 24 25 0
2 3 5 8 11 13 14 16 20 22 23 25 26 0
1 3 4 6 9 12 14 15 21 23 24 26 27 0
2 4 5 7 10 13 15 16 22 24 25 27 28 0
1 3 5 6 8 11 14 16 23 25 26 28 29 0
1 2 4 6 7 9 12 15 24 26 27 29 30 0
2 5 7 10 12 13 15 16 19 20 24 25 30 0
1 3 6 8 11 13 14 16 20 21 25 26 31 0
1 2 4 7 9 12 14 15 21 22 26 27 32 0
2 3 5 8 10 13 15 16 17 22 23 27 28 0
1 3 4 6 9 11 14 16 18 23 24 28 29 0
1 2 4 5 7 10 12 15 19 24 25 29 30 0
2 3 5 6 8 11 13 16 20 25 26 30 31 0
1 3 4 6 7 9 12 14 21 26 27 31 32 0
2 4 5 7 8 10 13 15 17 22 27 28 32 0
3 5 6 8 9 11 14 16 17 18 23 28 29 0
1 4 6 7 9 10 12 15 18 19 24 29 30 0
2 5 7 8 10 11 13 16 19 20 25 30 31 0
1 3 6 8 9 11 12 14 20 21 26 31 32 0
2 4 7 9 10 12 13 15 17 21 22 27 32 0
3 5 8 10 11 13 14 16 17 18 22 23 28 0
1 4 6 9 11 12 14 15 18 19 23 24 29 0
2 5 7 10 11 13 14 16 18 19 20 22 24 25 31 32 0
1 3 6 8 11 12 14 15 17 19 20 21 23 25 26 32 0
2 4 7 9 12 13 15 16 17 18 20 21 22 24 26 27 0
1 3 5 8 10 13 14 16 18 19 21 22 23 25 27 28 0
1 2 4 6 9 11 14 15 19 20 22 23 24 26 28 29 0
2 3 5 7 10 12 15 16 20 21 23 24 25 27 29 30 0
1 3 4 6 8 11 13 16 21 22 24 25 26 28 30 31 0
1 2 4 5 7 9 12 14 22 23 25 26 27 29 31 32 0
2 3 5 6 8 10 13 15 17 23 24 26 27 28 30 32 0
3 4 6 7 9 11 14 16 17 18 24 25 27 28 29 31 0
1 4 5 7 8 10 12 15 18 19 25 26 28 29 30 32 0
2 5 6 8 9 11 13 16 17 19 20 26 27 29 30 31 0
1 3 6 7 9 10 12 14 18 20 21 27 28 30 31 32 0
2 4 7 8 10 11 13 15 17 19 21 22 28 29 31 32 0
3 5 8 9 11 12 14 16 17 18 20 22 23 29 30 32 0
1 4 6 9 10 12 13 15 17 18 19 21 23 24 30 31 0
2 4 5 7 8 11 13 16 18 19 25 26 28 30 31 32 0
1 3 5 6 8 9 12 14 17 19 20 26 27 29 31 32 0
2 4 6 7 9 10 13 15 17 18 20 21 27 28 30 32 0
3 5 7 8 10 11 14 16 17 18 19 21 22 28 29 31 0
1 4 6 8 9 11 12 15 18 19 20 22 23 29 30 32 0
2 5 7 9 10 12 13 16 17 19 20 21 23 24 30 31 0
1 3 6 8 10 11 13 14 18 20 21 22 24 25 31 32 0
2 4 7 9 11 12 14 15 17 19 21 22 23 25 26 32 0
3 5 8 10 12 13 15 16 17 18 20 22 23 24 26 27 0
1 4 6 9 11 13 14 16 18 19 21 23 24 25 27 28 0
1 2 5 7 10 12 14 15 19 20 22 24 25 26 28 29 0
2 3 6 8 11 13 15 16 20 21 23 25 26 27 29 30 0
1 3 4 7 9 12 14 16 21 22 24 26 27 28 30 31 0
1 2 4 5 8 10 13 15 22 23 25 27 28 29 31 32 0
2 3 5 6 9 11 14 16 17 23 24 26 28 29 30 32 0
1 3 4 6 7 10 12 15 17 18 24 25 27 29 30 31 0
2 5 7 9 10 12 13 15 16 19 20 22 25 28 0
1 3 6 8 10 11 13 14 16 20 21 23 26 29 0
1 2 4 7 9 11 12 14 15 21 22 24 27 30 0
2 3 5 8 10 12 13 15 16 22 23 25 28 31 0
1 3 4 6 9 11 13 14 16 23 24 26 29 32 0
1 2 4 5 7 10 12 14 15 17 24 25 27 30 0
2 3 5 6 8 11 13 15 16 18 25 26 28 31 0
1 3 4 6 7 9 12 14 16 19 26 27 29 32 0
1 2 4 5 7 8 10 13 15 17 20 27 28 30 0
2 3 5 6 8 9 11 14 16 18 21 28 29 31 0
1 3 4 6 7 9 10 12 15 19 22 29 30 32 0
2 4 5 7 8 10 11 13 16 17 20 23 30 31 0
1 3 5 6 8 9 11 12 14 18 21 24 31 32 0
2 4 6 7 9 10 12 13 15 17 19 22 25 32 0
3 5 7 8 10 11 13 14 16 17 18 20 23 26 0
1 4 6 8 9 11 12 14 15 18 19 21 24 27 0
2 3 5 6 8 9 11 13 16 22 25 28 30 31 0
1 3 4 6 7 9 10 12 14 23 26 29 31 32 0
2 4 5 7 8 10 11 13 15 17 24 27 30 32 0
3 5 6 8 9 11 12 14 16 17 18 25 28 31 0
1 4 6 7 9 10 12 13 15 18 19 26 29 32 0
2 5 7 8 10 11 13 14 16 17 19 20 27 30 0
1 3 6 8 9 11 12 14 15 18 20 21 28 31 0
2 4 7 9 10 12 13 15 16 19 21 22 29 32 0
1 3 5 8 10 11 13 14 16 17 20 22 23 30 0
1 2 4 6 9 11 12 14 15 18 21 23 24 31 0
2 3 5 7 10 12 13 15 16 19 22 24 25 32 0
1 3 4 6 8 11 13 14 16 17 20 23 25 26 0
1 2 4 5 7 9 12 14 15 18 21 24 26 27 0
2 3 5 6 8 10 13 15 16 19 22 25 27 28 0
1 3 4 6 7 9 11 14 16 20 23 26 28 29 0
1 2 4 5 7 8 10 12 15 21 24 27 29 30 0
2 4 6 7 8 10 12 14 15 16 19 26 28 30 32 0
1 3 5 7 8 9 11 13 15 16 17 20 27 29 31 0
1 2 4 6 8 9 10 12 14 16 18 21 28 30 32 0
1 2 3 5 7 9 10 11 13 15 17 19 22 29 31 0
2 3 4 6 8 10 11 12 14 16 18 20 23 30 32 0
1 3 4 5 7 9 11 12 13 15 17 19 21 24 31 0
2 4 5 6 8 10 12 13 14 16 18 20 22 25 32 0
1 3 5 6 7 9 11 13 14 15 17 19 21 23 26 0
2 4 6 7 8 10 12 14 15 16 18 20 22 24 27 0
1 3 5 7 8 9 11 13 15 16 19 21 23 25 28 0
1 2 4 6 8 9 10 12 14 16 20 22 24 26 29 0
1 2 3 5 7 9 10 11 13 15 21 23 25 27 30 0
2 3 4 6 8 10 11 12 14 16 22 24 26 28 31 0
1 3 4 5 7 9 11 12 13 15 23 25 27 29 32 0
2 4 5 6 8 10 12 13 14 16 17 24 26 28 30 0
1 3 5 6 7 9 11 13 14 15 18 25 27 29 31 0
2 3 4 6 8 10 11 12 14 16 18 20 22 24 31 0
1 3 4 5 7 9 11 12 13 15 19 21 23 25 32 0
2 4 5 6 8 10 12 13 14 16 17 20 22 24 26 0
1 3 5 6 7 9 11 13 14 15 18 21 23 25 27 0
2 4 6 7 8 10 12 14 15 16 19 22 24 26 28 0
1 3 5 7 8 9 11 13 15 16 20 23 25 27 29 0
1 2 4 6 8 9 10 12 14 16 21 24 26 28 30 0
1 2 3 5 7 9 10 11 13 15 22 25 27 29 31 0
2 3 4 6 8 10 11 12 14 16 23 26 28 30 32 0
1 3 4 5 7 9 11 12 13 15 17 24 27 29 31 0
2 4 5 6 8 10 12 13 14 16 18 25 28 30 32 0
1 3 5 6 7 9 11 13 14 15 17 19 26 29 31 0
2 4 6 7 8 10 12 14 15 16 18 20 27 30 32 0
1 3 5 7 8 9 11 13 15 16 17 19 21 28 31 0
1 2 4 6 8 9 10 12 14 16 18 20 22 29 32 0
1 2 3 5 7 9 10 11 13 15 17 19 21 23 30 0
2 4 6 8 10 15 16 20 23 26 27 30 31 0
1 3 5 7 9 11 16 21 24 27 28 31 32 0
1 2 4 6 8 10 12 17 22 25 28 29 32 0
2 3 5 7 9 11 13 17 18 23 26 29 30 0
3 4 6 8 10 12 14 18 19 24 27 30 31 0
4 5 7 9 11 13 15 19 20 25 28 31 32 0
5 6 8 10 12 14 16 17 20 21 26 29 32 0
1 6 7 9 11 13 15 17 18 21 22 27 30 0
2 7 8 10 12 14 16 18 19 22 23 28 31 0
1 3 8 9 11 13 15 19 20 23 24 29 32 0
2 4 9 10 12 14 16 17 20 21 24 25 30 0
1 3 5 10 11 13 15 18 21 22 25 26 31 0
2 4 6 11 12 14 16 19 22 23 26 27 32 0
1 3 5 7 12 13 15 17 20 23 24 27 28 0
2 4 6 8 13 14 16 18 21 24 25 28 29 0
1 3 5 7 9 14 15 19 22 25 26 29 30 0
2 3 8 10 12 14 16 19 20 23 24 27 30 0
1 3 4 9 11 13 15 20 21 24 25 28 31 0
2 4 5 10 12 14 16 21 22 25 26 29 32 0
1 3 5 6 11 13 15 17 22 23 26 27 30 0
2 4 6 7 12 14 16 18 23 24 27 28 31 0
1 3 5 7 8 13 15 19 24 25 28 29 32 0
2 4 6 8 9 14 16 17 20 25 26 29 30 0
1 3 5 7 9 10 15 18 21 26 27 30 31 0
2 4 6 8 10 11 16 19 22 27 28 31 32 0
1 3 5 7 9 11 12 17 20 23 28 29 32 0
2 4 6 8 10 12 13 17 18 21 24 29 30 0
3 5 7 9 11 13 14 18 19 22 25 30 31 0
4 6 8 10 12 14 15 19 20 23 26 31 32 0
5 7 9 11 13 15 16 17 20 21 24 27 32 0
1 6 8 10 12 14 16 17 18 21 22 25 28 0
1 2 7 9 11 13 15 18 19 22 23 26 29 0
2 5 6 9 11 13 14 16 18 19 20 23 24 25 27 32 0
1 3 6 7 10 12 14 15 17 19 20 21 24 25 26 28 0
2 4 7 8 11 13 15 16 18 20 21 22 25 26 27 29 0
1 3 5 8 9 12 14 16 19 21 22 23 26 27 28 30 0
1 2 4 6 9 10 13 15 20 22 23 24 27 28 29 31 0
2 3 5 7 10 11 14 16 21 23 24 25 28 29 30 32 0
1 3 4 6 8 11 12 15 17 22 24 25 26 29 30 31 0
2 4 5 7 9 12 13 16 18 23 25 26 27 30 31 32 0
1 3 5 6 8 10 13 14 17 19 24 26 27 28 31 32 0
2 4 6 7 9 11 14 15 17 18 20 25 27 28 29 32 0
3 5 7 8 10 12 15 16 17 18 19 21 26 28 29 30 0
1 4 6 8 9 11 13 16 18 19 20 22 27 29 30 31 0
1 2 5 7 9 10 12 14 19 20 21 23 28 30 31 32 0
2 3 6 8 10 11 13 15 17 20 21 22 24 29 31 32 0
3 4 7 9 11 12 14 16 17 18 21 22 23 25 30 32 0
1 4 5 8 10 12 13 15 17 18 19 22 23 24 26 31 0
3 4 5 8 11 12 13 18 19 22 23 24 25 26 27 30 0
4 5 6 9 12 13 14 19 20 23 24 25 26 27 28 31 0
5 6 7 10 13 14 15 20 21 24 25 26 27 28 29 32 0
6 7 8 11 14 15 16 17 21 22 25 26 27 28 29 30 0
1 7 8 9 12 15 16 18 22 23 26 27 28 29 30 31 0
1 2 8 9 10 13 16 19 23 24 27 28 29 30 31 32 0
1 2 3 9 10 11 14 17 20 24 25 28 29 30 31 32 0
2 3 4 10 11 12 15 17 18 21 25 26 29 30 31 32 0
3 4 5 11 12 13 16 17 18 19 22 26 27 30 31 32 0
1 4 5 6 12 13 14 17 18 19 20 23 27 28 31 32 0
2 5 6 7 13 14 15 17 18 19 20 21 24 28 29 32 0
3 6 7 8 14 15 16 17 18 19 20 21 22 25 29 30 0
1 4 7 8 9 15 16 18 19 20 21 22 23 26 30 31 0
1 2 5 8 9 10 16 19 20 21 22 23 24 27 31 32 0
1 2 3 6 9 10 11 17 20 21 22 23 24 25 28 32 0
2 3 4 7 10 11 12 17 18 21 22 23 24 25 26 29 0
5 6 7 10 13 14 15 20 23 24 25 26 27 28 31 32 0
6 7 8 11 14 15 16 17 21 24 25 26 27 28 29 32 0
1 7 8 9 12 15 16 17 18 22 25 26 27 28 29 30 0
1 2 8 9 10 13 16 18 19 23 26 27 28 29 30 31 0
1 2 3 9 10 11 14 19 20 24 27 28 29 30 31 32 0
2 3 4 10 11 12 15 17 20 21 25 28 29 30 31 32 0
3 4 5 11 12 13 16 17 18 21 22 26 29 30 31 32 0
1 4 5 6 12 13 14 17 18 19 22 23 27 30 31 32 0
2 5 6 7 13 14 15 17 18 19 20 23 24 28 31 32 0
3 6 7 8 14 15 16 17 18 19 20 21 24 25 29 32 0
1 4 7 8 9 15 16 17 18 19 20 21 22 25 26 30 0
1 2 5 8 9 10 16 18 19 20 21 22 23 26 27 31 0
1 2 3 6 9 10 11 19 20 21 22 23 24 27 28 32 0
2 3 4 7 10 11 12 17 20 21 22 23 24 25 28 29 0
3 4 5 8 11 12 13 18 21 22 23 24 25 26 29 30 0
4 5 6 9 12 13 14 19 22 23 24 25 26 27 30 31 0
3 4 5 8 11 12 13 14 18 22 23 24 25 26 31 0
4 5 6 9 12 13 14 15 19 23 24 25 26 27 32 0
5 6 7 10 13 14 15 16 17 20 24 25 26 27 28 0
1 6 7 8 11 14 15 16 18 21 25 26 27 28 29 0
1 2 7 8 9 12 15 16 19 22 26 27 28 29 30 0
1 2 3 8 9 10 13 16 20 23 27 28 29 30 31 0
1 2 3 4 9 10 11 14 21 24 28 29 30 31 32 0
2 3 4 5 10 11 12 15 17 22 25 29 30 31 32 0
3 4 5 6 11 12 13 16 17 18 23 26 30 31 32 0
1 4 5 6 7 12 13 14 17 18 19 24 27 31 32 0
2 5 6 7 8 13 14 15 17 18 19 20 25 28 32 0
3 6 7 8 9 14 15 16 17 18 19 20 21 26 29 0
1 4 7 8 9 10 15 16 18 19 20 21 22 27 30 0
1 2 5 8 9 10 11 16 19 20 21 22 23 28 31 0
1 2 3 6 9 10 11 12 20 21 22 23 24 29 32 0
2 3 4 7 10 11 12 13 17 21 22 23 24 25 30 0
4 5 6 7 10 13 14 15 19 24 25 26 27 28 32 0
5 6 7 8 11 14 15 16 17 20 25 26 27 28 29 0
1 6 7 8 9 12 15 16 18 21 26 27 28 29 30 0
1 2 7 8 9 10 13 16 19 22 27 28 29 30 31 0
1 2 3 8 9 10 11 14 20 23 28 29 30 31 32 0
2 3 4 9 10 11 12 15 17 21 24 29 30 31 32 0
3 4 5 10 11 12 13 16 17 18 22 25 30 31 32 0
1 4 5 6 11 12 13 14 17 18 19 23 26 31 32 0
2 5 6 7 12 13 14 15 17 18 19 20 24 27 32 0
3 6 7 8 13 14 15 16 17 18 19 20 21 25 28 0
1 4 7 8 9 14 15 16 18 19 20 21 22 26 29 0
1 2 5 8 9 10 15 16 19 20 21 22 23 27 30 0
1 2 3 6 9 10 11 16 20 21 22 23 24 28 31 0
1 2 3 4 7 10 11 12 21 22 23 24 25 29 32 0
2 3 4 5 8 11 12 13 17 22 23 24 25 26 30 0
3 4 5 6 9 12 13 14 18 23 24 25 26 27 31 0
4 5 8 10 13 15 19 22 23 25 27 28 30 32 0
5 6 9 11 14 16 17 20 23 24 26 28 29 31 0
1 6 7 10 12 15 18 21 24 25 27 29 30 32 0
2 7 8 11 13 16 17 19 22 25 26 28 30 31 0
1 3 8 9 12 14 18 20 23 26 27 29 31 32 0
2 4 9 10 13 15 17 19 21 24 27 28 30 32 0
3 5 10 11 14 16 17 18 20 22 25 28 29 31 0
1 4 6 11 12 15 18 19 21 23 26 29 30 32 0
2 5 7 12 13 16 17 19 20 22 24 27 30 31 0
1 3 6 8 13 14 18 20 21 23 25 28 31 32 0
2 4 7 9 14 15 17 19 21 22 24 26 29 32 0
3 5 8 10 15 16 17 18 20 22 23 25 27 30 0
1 4 6 9 11 16 18 19 21 23 24 26 28 31 0
1 2 5 7 10 12 19 20 22 24 25 27 29 32 0
2 3 6 8 11 13 17 20 21 23 25 26 28 30 0
3 4 7 9 12 14 18 21 22 24 26 27 29 31 0
3 5 8 10 13 14 18 20 22 23 25 27 28 31 0
4 6 9 11 14 15 19 21 23 24 26 28 29 32 0
5 7 10 12 15 16 17 20 22 24 25 27 29 30 0
1 6 8 11 13 16 18 21 23 25 26 28 30 31 0
1 2 7 9 12 14 19 22 24 26 27 29 31 32 0
2 3 8 10 13 15 17 20 23 25 27 28 30 32 0
3 4 9 11 14 16 17 18 21 24 26 28 29 31 0
1 4 5 10 12 15 18 19 22 25 27 29 30 32 0
2 5 6 11 13 16 17 19 20 23 26 28 30 31 0
1 3 6 7 12 14 18 20 21 24 27 29 31 32 0
2 4 7 8 13 15 17 19 21 22 25 28 30 32 0
3 5 8 9 14 16 17 18 20 22 23 26 29 31 0
1 4 6 9 10 15 18 19 21 23 24 27 30 32 0
2 5 7 10 11 16 17 19 20 22 24 25 28 31 0
1 3 6 8 11 12 18 20 21 23 25 26 29 32 0
2 4 7 9 12 13 17 19 21 22 24 26 27 30 0
4 5 8 10 13 14 19 20 22 23 25 27 28 30 31 0
5 6 9 11 14 15 20 21 23 24 26 28 29 31 32 0
6 7 10 12 15 16 17 21 22 24 25 27 29 30 32 0
1 7 8 11 13 16 17 18 22 23 25 26 28 30 31 0
1 2 8 9 12 14 18 19 23 24 26 27 29 31 32 0
2 3 9 10 13 15 17 19 20 24 25 27 28 30 32 0
3 4 10 11 14 16 17 18 20 21 25 26 28 29 31 0
1 4 5 11 12 15 18 19 21 22 26 27 29 30 32 0
2 5 6 12 13 16 17 19 20 22 23 27 28 30 31 0
1 3 6 7 13 14 18 20 21 23 24 28 29 31 32 0
2 4 7 8 14 15 17 19 21 22 24 25 29 30 32 0
3 5 8 9 15 16 17 18 20 22 23 25 26 30 31 0
1 4 6 9 10 16 18 19 21 23 24 26 27 31 32 0
1 2 5 7 10 11 17 19 20 22 24 25 27 28 32 0
2 3 6 8 11 12 17 18 20 21 23 25 26 28 29 0
3 4 7 9 12 13 18 19 21 22 24 26 27 29 30 0
4 6 8 10 12 14 15 19 22 27 28 30 32 0
5 7 9 11 13 15 16 17 20 23 28 29 31 0
1 6 8 10 12 14 16 18 21 24 29 30 32 0
1 2 7 9 11 13 15 17 19 22 25 30 31 0
2 3 8 10 12 14 16 18 20 23 26 31 32 0
1 3 4 9 11 13 15 17 19 21 24 27 32 0
2 4 5 10 12 14 16 17 18 20 22 25 28 0
1 3 5 6 11 13 15 18 19 21 23 26 29 0
2 4 6 7 12 14 16 19 20 22 24 27 30 0
1 3 5 7 8 13 15 20 21 23 25 28 31 0
2 4 6 8 9 14 16 21 22 24 26 29 32 0
1 3 5 7 9 10 15 17 22 23 25 27 30 0
2 4 6 8 10 11 16 18 23 24 26 28 31 0
1 3 5 7 9 11 12 19 24 25 27 29 32 0
2 4 6 8 10 12 13 17 20 25 26 28 30 0
3 5 7 9 11 13 14 18 21 26 27 29 31 0
3 4 6 8 10 12 14 18 20 22 23 28 31 0
4 5 7 9 11 13 15 19 21 23 24 29 32 0
5 6 8 10 12 14 16 17 20 22 24 25 30 0
1 6 7 9 11 13 15 18 21 23 25 26 31 0
2 7 8 10 12 14 16 19 22 24 26 27 32 0
1 3 8 9 11 13 15 17 20 23 25 27 28 0
2 4 9 10 12 14 16 18 21 24 26 28 29 0
1 3 5 10 11 13 15 19 22 25 27 29 30 0
2 4 6 11 12 14 16 20 23 26 28 30 31 0
1 3 5 7 12 13 15 21 24 27 29 31 32 0
2 4 6 8 13 14 16 17 22 25 28 30 32 0
1 3 5 7 9 14 15 17 18 23 26 29 31 0
2 4 6 8 10 15 16 18 19 24 27 30 32 0
1 3 5 7 9 11 16 17 19 20 25 28 31 0
1 2 4 6 8 10 12 18 20 21 26 29 32 0
2 3 5 7 9 11 13 17 19 21 22 27 30 0
5 8 10 13 15 20 22 23 25 27 28 30 31 32 0
6 9 11 14 16 17 21 23 24 26 28 29 31 32 0
1 7 10 12 15 17 18 22 24 25 27 29 30 32 0
2 8 11 13 16 17 18 19 23 25 26 28 30 31 0
1 3 9 12 14 18 19 20 24 26 27 29 31 32 0
2 4 10 13 15 17 19 20 21 25 27 28 30 32 0
3 5 11 14 16 17 18 20 21 22 26 28 29 31 0
1 4 6 12 15 18 19 21 22 23 27 29 30 32 0
2 5 7 13 16 17 19 20 22 23 24 28 30 31 0
1 3 6 8 14 18 20 21 23 24 25 29 31 32 0
2 4 7 9 15 17 19 21 22 24 25 26 30 32 0
3 5 8 10 16 17 18 20 22 23 25 26 27 31 0
1 4 6 9 11 18 19 21 23 24 26 27 28 32 0
2 5 7 10 12 17 19 20 22 24 25 27 28 29 0
3 6 8 11 13 18 20 21 23 25 26 28 29 30 0
4 7 9 12 14 19 21 22 24 26 27 29 30 31 0
3 5 8 10 13 18 19 20 22 23 25 27 28 30 0
4 6 9 11 14 19 20 21 23 24 26 28 29 31 0
5 7 10 12 15 20 21 22 24 25 27 29 30 32 0
6 8 11 13 16 17 21 22 23 25 26 28 30 31 0
1 7 9 12 14 18 22 23 24 26 27 29 31 32 0
2 8 10 13 15 17 19 23 24 25 27 28 30 32 0
3 9 11 14 16 17 18 20 24 25 26 28 29 31 0
1 4 10 12 15 18 19 21 25 26 27 29 30 32 0
2 5 11 13 16 17 19 20 22 26 27 28 30 31 0
1 3 6 12 14 18 20 21 23 27 28 29 31 32 0
2 4 7 13 15 17 19 21 22 24 28 29 30 32 0
3 5 8 14 16 17 18 20 22 23 25 29 30 31 0
1 4 6 9 15 18 19 21 23 24 26 30 31 32 0
2 5 7 10 16 17 19 20 22 24 25 27 31 32 0
1 3 6 8 11 17 18 20 21 23 25 26 28 32 0
2 4 7 9 12 17 18 19 21 22 24 26 27 29 0
4 5 8 10 12 13 15 19 22 23 24 25 30 31 32 0
5 6 9 11 13 14 16 17 20 23 24 25 26 31 32 0
1 6 7 10 12 14 15 17 18 21 24 25 26 27 32 0
2 7 8 11 13 15 16 17 18 19 22 25 26 27 28 0
1 3 8 9 12 14 16 18 19 20 23 26 27 28 29 0
1 2 4 9 10 13 15 19 20 21 24 27 28 29 30 0
2 3 5 10 11 14 16 20 21 22 25 28 29 30 31 0
1 3 4 6 11 12 15 21 22 23 26 29 30 31 32 0
2 4 5 7 12 13 16 17 22 23 24 27 30 31 32 0
1 3 5 6 8 13 14 17 18 23 24 25 28 31 32 0
2 4 6 7 9 14 15 17 18 19 24 25 26 29 32 0
3 5 7 8 10 15 16 17 18 19 20 25 26 27 30 0
1 4 6 8 9 11 16 18 19 20 21 26 27 28 31 0
1 2 5 7 9 10 12 19 20 21 22 27 28 29 32 0
2 3 6 8 10 11 13 17 20 21 22 23 28 29 30 0
3 4 7 9 11 12 14 18 21 22 23 24 29 30 31 0
3 5 6 8 10 13 14 18 19 20 25 26 27 28 31 0
4 6 7 9 11 14 15 19 20 21 26 27 28 29 32 0
5 7 8 10 12 15 16 17 20 21 22 27 28 29 30 0
1 6 8 9 11 13 16 18 21 22 23 28 29 30 31 0
1 2 7 9 10 12 14 19 22 23 24 29 30 31 32 0
2 3 8 10 11 13 15 17 20 23 24 25 30 31 32 0
3 4 9 11 12 14 16 17 18 21 24 25 26 31 32 0
1 4 5 10 12 13 15 17 18 19 22 25 26 27 32 0
2 5 6 11 13 14 16 17 18 19 20 23 26 27 28 0
1 3 6 7 12 14 15 18 19 20 21 24 27 28 29 0
2 4 7 8 13 15 16 19 20 21 22 25 28 29 30 0
1 3 5 8 9 14 16 20 21 22 23 26 29 30 31 0
1 2 4 6 9 10 15 21 22 23 24 27 30 31 32 0
2 3 5 7 10 11 16 17 22 23 24 25 28 31 32 0
1 3 4 6 8 11 12 17 18 23 24 25 26 29 32 0
2 4 5 7 9 12 13 17 18 19 24 25 26 27 30 0
3 5 6 9 10 13 15 18 23 24 25 27 28 30 32 0
4 6 7 10 11 14 16 17 19 24 25 26 28 29 31 0
1 5 7 8 11 12 15 18 20 25 26 27 29 30 32 0
2 6 8 9 12 13 16 17 19 21 26 27 28 30 31 0
1 3 7 9 10 13 14 18 20 22 27 28 29 31 32 0
2 4 8 10 11 14 15 17 19 21 23 28 29 30 32 0
3 5 9 11 12 15 16 17 18 20 22 24 29 30 31 0
1 4 6 10 12 13 16 18 19 21 23 25 30 31 32 0
1 2 5 7 11 13 14 17 19 20 22 24 26 31 32 0
2 3 6 8 12 14 15 17 18 20 21 23 25 27 32 0
3 4 7 9 13 15 16 17 18 19 21 22 24 26 28 0
1 4 5 8 10 14 16 18 19 20 22 23 25 27 29 0
1 2 5 6 9 11 15 19 20 21 23 24 26 28 30 0
2 3 6 7 10 12 16 20 21 22 24 25 27 29 31 0
1 3 4 7 8 11 13 21 22 23 25 26 28 30 32 0
2 4 5 8 9 12 14 17 22 23 24 26 27 29 31 0
3 5 8 9 12 13 15 18 20 22 23 25 26 27 32 0
4 6 9 10 13 14 16 17 19 21 23 24 26 27 28 0
1 5 7 10 11 14 15 18 20 22 24 25 27 28 29 0
2 6 8 11 12 15 16 19 21 23 25 26 28 29 30 0
1 3 7 9 12 13 16 20 22 24 26 27 29 30 31 0
1 2 4 8 10 13 14 21 23 25 27 28 30 31 32 0
2 3 5 9 11 14 15 17 22 24 26 28 29 31 32 0
3 4 6 10 12 15 16 17 18 23 25 27 29 30 32 0
1 4 5 7 11 13 16 17 18 19 24 26 28 30 31 0
1 2 5 6 8 12 14 18 19 20 25 27 29 31 32 0
2 3 6 7 9 13 15 17 19 20 21 26 28 30 32 0
3 4 7 8 10 14 16 17 18 20 21 22 27 29 31 0
1 4 5 8 9 11 15 18 19 21 22 23 28 30 32 0
2 5 6 9 10 12 16 17 19 20 22 23 24 29 31 0
1 3 6 7 10 11 13 18 20 21 23 24 25 30 32 0
2 4 7 8 11 12 14 17 19 21 22 24 25 26 31 0
3 5 7 10 13 15 18 22 24 25 27 28 30 31 32 0
4 6 8 11 14 16 17 19 23 25 26 28 29 31 32 0
1 5 7 9 12 15 17 18 20 24 26 27 29 30 32 0
2 6 8 10 13 16 17 18 19 21 25 27 28 30 31 0
1 3 7 9 11 14 18 19 20 22 26 28 29 31 32 0
2 4 8 10 12 15 17 19 20 21 23 27 29 30 32 0
3 5 9 11 13 16 17 18 20 21 22 24 28 30 31 0
1 4 6 10 12 14 18 19 21 22 23 25 29 31 32 0
2 5 7 11 13 15 17 19 20 22 23 24 26 30 32 0
3 6 8 12 14 16 17 18 20 21 23 24 25 27 31 0
1 4 7 9 13 15 18 19 21 22 24 25 26 28 32 0
2 5 8 10 14 16 17 19 20 22 23 25 26 27 29 0
1 3 6 9 11 15 18 20 21 23 24 26 27 28 30 0
2 4 7 10 12 16 19 21 22 24 25 27 28 29 31 0
1 3 5 8 11 13 20 22 23 25 26 28 29 30 32 0
2 4 6 9 12 14 17 21 23 24 26 27 29 30 31 0
3 5 8 11 13 15 18 19 20 22 23 25 26 28 32 0
4 6 9 12 14 16 17 19 20 21 23 24 26 27 29 0
1 5 7 10 13 15 18 20 21 22 24 25 27 28 30 0
2 6 8 11 14 16 19 21 22 23 25 26 28 29 31 0
1 3 7 9 12 15 20 22 23 24 26 27 29 30 32 0
2 4 8 10 13 16 17 21 23 24 25 27 28 30 31 0
1 3 5 9 11 14 18 22 24 25 26 28 29 31 32 0
2 4 6 10 12 15 17 19 23 25 26 27 29 30 32 0
3 5 7 11 13 16 17 18 20 24 26 27 28 30 31 0
1 4 6 8 12 14 18 19 21 25 27 28 29 31 32 0
2 5 7 9 13 15 17 19 20 22 26 28 29 30 32 0
3 6 8 10 14 16 17 18 20 21 23 27 29 30 31 0
1 4 7 9 11 15 18 19 21 22 24 28 30 31 32 0
2 5 8 10 12 16 17 19 20 22 23 25 29 31 32 0
1 3 6 9 11 13 17 18 20 21 23 24 26 30 32 0
2 4 7 10 12 14 17 18 19 21 22 24 25 27 31 0
3 5 8 10 11 13 15 18 19 22 23 24 25 30 32 0
4 6 9 11 12 14 16 17 19 20 23 24 25 26 31 0
1 5 7 10 12 13 15 18 20 21 24 25 26 27 32 0
2 6 8 11 13 14 16 17 19 21 22 25 26 27 28 0
1 3 7 9 12 14 15 18 20 22 23 26 27 28 29 0
2 4 8 10 13 15 16 19 21 23 24 27 28 29 30 0
1 3 5 9 11 14 16 20 22 24 25 28 29 30 31 0
1 2 4 6 10 12 15 21 23 25 26 29 30 31 32 0
2 3 5 7 11 13 16 17 22 24 26 27 30 31 32 0
1 3 4 6 8 12 14 17 18 23 25 27 28 31 32 0
2 4 5 7 9 13 15 17 18 19 24 26 28 29 32 0
3 5 6 8 10 14 16 17 18 19 20 25 27 29 30 0
1 4 6 7 9 11 15 18 19 20 21 26 28 30 31 0
2 5 7 8 10 12 16 19 20 21 22 27 29 31 32 0
1 3 6 8 9 11 13 17 20 21 22 23 28 30 32 0
2 4 7 9 10 12 14 17 18 21 22 23 24 29 31 0
3 5 7 8 10 13 15 18 20 25 26 27 28 31 32 0
4 6 8 9 11 14 16 17 19 21 26 27 28 29 32 0
1 5 7 9 10 12 15 17 18 20 22 27 28 29 30 0
2 6 8 10 11 13 16 18 19 21 23 28 29 30 31 0
1 3 7 9 11 12 14 19 20 22 24 29 30 31 32 0
2 4 8 10 12 13 15 17 20 21 23 25 30 31 32 0
3 5 9 11 13 14 16 17 18 21 22 24 26 31 32 0
1 4 6 10 12 14 15 17 18 19 22 23 25 27 32 0
2 5 7 11 13 15 16 17 18 19 20 23 24 26 28 0
1 3 6 8 12 14 16 18 19 20 21 24 25 27 29 0
1 2 4 7 9 13 15 19 20 21 22 25 26 28 30 0
2 3 5 8 10 14 16 20 21 22 23 26 27 29 31 0
1 3 4 6 9 11 15 21 22 23 24 27 28 30 32 0
2 4 5 7 10 12 16 17 22 23 24 25 28 29 31 0
1 3 5 6 8 11 13 18 23 24 25 26 29 30 32 0
2 4 6 7 9 12 14 17 19 24 25 26 27 30 31 0
3 5 8 10 13 14 15 18 22 23 24 25 27 28 32 0
4 6 9 11 14 15 16 17 19 23 24 25 26 28 29 0
1 5 7 10 12 15 16 18 20 24 25 26 27 29 30 0
1 2 6 8 11 13 16 19 21 25 26 27 28 30 31 0
1 2 3 7 9 12 14 20 22 26 27 28 29 31 32 0
2 3 4 8 10 13 15 17 21 23 27 28 29 30 32 0
3 4 5 9 11 14 16 17 18 22 24 28 29 30 31 0
1 4 5 6 10 12 15 18 19 23 25 29 30 31 32 0
2 5 6 7 11 13 16 17 19 20 24 26 30 31 32 0
1 3 6 7 8 12 14 17 18 20 21 25 27 31 32 0
2 4 7 8 9 13 15 17 18 19 21 22 26 28 32 0
3 5 8 9 10 14 16 17 18 19 20 22 23 27 29 0
1 4 6 9 10 11 15 18 19 20 21 23 24 28 30 0
2 5 7 10 11 12 16 19 20 21 22 24 25 29 31 0
1 3 6 8 11 12 13 20 21 22 23 25 26 30 32 0
2 4 7 9 12 13 14 17 21 22 23 24 26 27 31 0
3 4 5 8 10 13 15 18 22 23 25 26 27 28 32 0
4 5 6 9 11 14 16 17 19 23 24 26 27 28 29 0
1 5 6 7 10 12 15 18 20 24 25 27 28 29 30 0
2 6 7 8 11 13 16 19 21 25 26 28 29 30 31 0
1 3 7 8 9 12 14 20 22 26 27 29 30 31 32 0
2 4 8 9 10 13 15 17 21 23 27 28 30 31 32 0
3 5 9 10 11 14 16 17 18 22 24 28 29 31 32 0
1 4 6 10 11 12 15 17 18 19 23 25 29 30 32 0
2 5 7 11 12 13 16 17 18 19 20 24 26 30 31 0
1 3 6 8 12 13 14 18 19 20 21 25 27 31 32 0
2 4 7 9 13 14 15 17 19 20 21 22 26 28 32 0
3 5 8 10 14 15 16 17 18 20 21 22 23 27 29 0
1 4 6 9 11 15 16 18 19 21 22 23 24 28 30 0
1 2 5 7 10 12 16 19 20 22 23 24 25 29 31 0
1 2 3 6 8 11 13 20 21 23 24 25 26 30 32 0
2 3 4 7 9 12 14 17 21 22 24 25 26 27 31 0
3 5 8 10 12 13 15 18 22 23 24 25 30 31 32 0
4 6 9 11 13 14 16 17 19 23 24 25 26 31 32 0
1 5 7 10 12 14 15 17 18 20 24 25 26 27 32 0
2 6 8 11 13 15 16 17 18 19 21 25 26 27 28 0
1 3 7 9 12 14 16 18 19 20 22 26 27 28 29 0
1 2 4 8 10 13 15 19 20 21 23 27 28 29 30 0
2 3 5 9 11 14 16 20 21 22 24 28 29 30 31 0
1 3 4 6 10 12 15 21 22 23 25 29 30 31 32 0
2 4 5 7 11 13 16 17 22 23 24 26 30 31 32 0
1 3 5 6 8 12 14 17 18 23 24 25 27 31 32 0
2 4 6 7 9 13 15 17 18 19 24 25 26 28 32 0
3 5 7 8 10 14 16 17 18 19 20 25 26 27 29 0
1 4 6 8 9 11 15 18 19 20 21 26 27 28 30 0
2 5 7 9 10 12 16 19 20 21 22 27 28 29 31 0
1 3 6 8 10 11 13 20 21 22 23 28 29 30 32 0
2 4 7 9 11 12 14 17 21 22 23 24 29 30 31 0
3 5 6 8 10 13 15 18 19 20 25 26 27 28 32 0
4 6 7 9 11 14 16 17 19 20 21 26 27 28 29 0
1 5 7 8 10 12 15 18 20 21 22 27 28 29 30 0
2 6 8 9 11 13 16 19 21 22 23 28 29 30 31 0
1 3 7 9 10 12 14 20 22 23 24 29 30 31 32 0
2 4 8 10 11 13 15 17 21 23 24 25 30 31 32 0
3 5 9 11 12 14 16 17 18 22 24 25 26 31 32 0
1 4 6 10 12 13 15 17 18 19 23 25 26 27 32 0
2 5 7 11 13 14 16 17 18 19 20 24 26 27 28 0
1 3 6 8 12 14 15 18 19 20 21 25 27 28 29 0
2 4 7 9 13 15 16 19 20 21 22 26 28 29 30 0
1 3 5 8 10 14 16 20 21 22 23 27 29 30 31 0
1 2 4 6 9 11 15 21 22 23 24 28 30 31 32 0
2 3 5 7 10 12 16 17 22 23 24 25 29 31 32 0
1 3 4 6 8 11 13 17 18 23 24 25 26 30 32 0
2 4 5 7 9 12 14 17 18 19 24 25 26 27 31 0
3 5 8 10 12 13 14 15 18 22 23 24 25 31 32 0
4 6 9 11 13 14 15 16 17 19 23 24 25 26 32 0
1 5 7 10 12 14 15 16 17 18 20 24 25 26 27 0
1 2 6 8 11 13 15 16 18 19 21 25 26 27 28 0
1 2 3 7 9 12 14 16 19 20 22 26 27 28 29 0
1 2 3 4 8 10 13 15 20 21 23 27 28 29 30 0
2 3 4 5 9 11 14 16 21 22 24 28 29 30 31 0
1 3 4 5 6 10 12 15 22 23 25 29 30 31 32 0
2 4 5 6 7 11 13 16 17 23 24 26 30 31 32 0
1 3 5 6 7 8 12 14 17 18 24 25 27 31 32 0
2 4 6 7 8 9 13 15 17 18 19 25 26 28 32 0
3 5 7 8 9 10 14 16 17 18 19 20 26 27 29 0
1 4 6 8 9 10 11 15 18 19 20 21 27 28 30 0
2 5 7 9 10 11 12 16 19 20 21 22 28 29 31 0
1 3 6 8 10 11 12 13 20 21 22 23 29 30 32 0
2 4 7 9 11 12 13 14 17 21 22 23 24 30 31 0
3 4 5 6 8 10 13 15 18 19 25 26 27 28 32 0
4 5 6 7 9 11 14 16 17 19 20 26 27 28 29 0
1 5 6 7 8 10 12 15 18 20 21 27 28 29 30 0
2 6 7 8 9 11 13 16 19 21 22 28 29 30 31 0
1 3 7 8 9 10 12 14 20 22 23 29 30 31 32 0
2 4 8 9 10 11 13 15 17 21 23 24 30 31 32 0
3 5 9 10 11 12 14 16 17 18 22 24 25 31 32 0
1 4 6 10 11 12 13 15 17 18 19 23 25 26 32 0
2 5 7 11 12 13 14 16 17 18 19 20 24 26 27 0
1 3 6 8 12 13 14 15 18 19 20 21 25 27 28 0
2 4 7 9 13 14 15 16 19 20 21 22 26 28 29 0
1 3 5 8 10 14 15 16 20 21 22 23 27 29 30 0
1 2 4 6 9 11 15 16 21 22 23 24 28 30 31 0
1 2 3 5 7 10 12 16 22 23 24 25 29 31 32 0
1 2 3 4 6 8 11 13 17 23 24 25 26 30 32 0
2 3 4 5 7 9 12 14 17 18 24 25 26 27 31 0
3 5 7 10 12 13 15 18 24 25 26 27 31 32 0
4 6 8 11 13 14 16 17 19 25 26 27 28 32 0
1 5 7 9 12 14 15 17 18 20 26 27 28 29 0
2 6 8 10 13 15 16 18 19 21 27 28 29 30 0
1 3 7 9 11 14 16 19 20 22 28 29 30 31 0
1 2 4 8 10 12 15 20 21 23 29 30 31 32 0
2 3 5 9 11 13 16 17 21 22 24 30 31 32 0
1 3 4 6 10 12 14 17 18 22 23 25 31 32 0
2 4 5 7 11 13 15 17 18 19 23 24 26 32 0
3 5 6 8 12 14 16 17 18 19 20 24 25 27 0
1 4 6 7 9 13 15 18 19 20 21 25 26 28 0
2 5 7 8 10 14 16 19 20 21 22 26 27 29 0
1 3 6 8 9 11 15 20 21 22 23 27 28 30 0
2 4 7 9 10 12 16 21 22 23 24 28 29 31 0
1 3 5 8 10 11 13 22 23 24 25 29 30 32 0
2 4 6 9 11 12 14 17 23 24 25 26 30 31 0
3 5 6 8 11 13 15 18 19 23 24 25 26 32 0
4 6 7 9 12 14 16 17 19 20 24 25 26 27 0
1 5 7 8 10 13 15 18 20 21 25 26 27 28 0
2 6 8 9 11 14 16 19 21 22 26 27 28 29 0
1 3 7 9 10 12 15 20 22 23 27 28 29 30 0
2 4 8 10 11 13 16 21 23 24 28 29 30 31 0
1 3 5 9 11 12 14 22 24 25 29 30 31 32 0
2 4 6 10 12 13 15 17 23 25 26 30 31 32 0
3 5 7 11 13 14 16 17 18 24 26 27 31 32 0
1 4 6 8 12 14 15 17 18 19 25 27 28 32 0
2 5 7 9 13 15 16 17 18 19 20 26 28 29 0
1 3 6 8 10 14 16 18 19 20 21 27 29 30 0
1 2 4 7 9 11 15 19 20 21 22 28 30 31 0
2 3 5 8 10 12 16 20 21 22 23 29 31 32 0
1 3 4 6 9 11 13 17 21 22 23 24 30 32 0
2 4 5 7 10 12 14 17 18 22 23 24 25 31 0
3 5 7 10 12 13 15 18 19 24 25 26 32 0
4 6 8 11 13 14 16 17 19 20 25 26 27 0
1 5 7 9 12 14 15 18 20 21 26 27 28 0
2 6 8 10 13 15 16 19 21 22 27 28 29 0
1 3 7 9 11 14 16 20 22 23 28 29 30 0
1 2 4 8 10 12 15 21 23 24 29 30 31 0
2 3 5 9 11 13 16 22 24 25 30 31 32 0
1 3 4 6 10 12 14 17 23 25 26 31 32 0
2 4 5 7 11 13 15 17 18 24 26 27 32 0
3 5 6 8 12 14 16 17 18 19 25 27 28 0
1 4 6 7 9 13 15 18 19 20 26 28 29 0
2 5 7 8 10 14 16 19 20 21 27 29 30 0
1 3 6 8 9 11 15 20 21 22 28 30 31 0
2 4 7 9 10 12 16 21 22 23 29 31 32 0
1 3 5 8 10 11 13 17 22 23 24 30 32 0
2 4 6 9 11 12 14 17 18 23 24 25 31 0
3 5 6 8 11 13 15 18 24 25 26 31 32 0
4 6 7 9 12 14 16 17 19 25 26 27 32 0
1 5 7 8 10 13 15 17 18 20 26 27 28 0
2 6 8 9 11 14 16 18 19 21 27 28 29 0
1 3 7 9 10 12 15 19 20 22 28 29 30 0
2 4 8 10 11 13 16 20 21 23 29 30 31 0
1 3 5 9 11 12 14 21 22 24 30 31 32 0
2 4 6 10 12 13 15 17 22 23 25 31 32 0
3 5 7 11 13 14 16 17 18 23 24 26 32 0
1 4 6 8 12 14 15 17 18 19 24 25 27 0
2 5 7 9 13 15 16 18 19 20 25 26 28 0
1 3 6 8 10 14 16 19 20 21 26 27 29 0
1 2 4 7 9 11 15 20 21 22 27 28 30 0
2 3 5 8 10 12 16 21 22 23 28 29 31 0
1 3 4 6 9 11 13 22 23 24 29 30 32 0
2 4 5 7 10 12 14 17 23 24 25 30 31 0
3 4 6 8 10 12 14 15 18 23 24 27 30 32 0
4 5 7 9 11 13 15 16 17 19 24 25 28 31 0
1 5 6 8 10 12 14 16 18 20 25 26 29 32 0
1 2 6 7 9 11 13 15 17 19 21 26 27 30 0
2 3 7 8 10 12 14 16 18 20 22 27 28 31 0
1 3 4 8 9 11 13 15 19 21 23 28 29 32 0
2 4 5 9 10 12 14 16 17 20 22 24 29 30 0
1 3 5 6 10 11 13 15 18 21 23 25 30 31 0
2 4 6 7 11 12 14 16 19 22 24 26 31 32 0
1 3 5 7 8 12 13 15 17 20 23 25 27 32 0
2 4 6 8 9 13 14 16 17 18 21 24 26 28 0
1 3 5 7 9 10 14 15 18 19 22 25 27 29 0
2 4 6 8 10 11 15 16 19 20 23 26 28 30 0
1 3 5 7 9 11 12 16 20 21 24 27 29 31 0
1 2 4 6 8 10 12 13 21 22 25 28 30 32 0
2 3 5 7 9 11 13 14 17 22 23 26 29 31 0
3 4 6 8 10 12 14 15 18 20 23 26 27 32 0
4 5 7 9 11 13 15 16 17 19 21 24 27 28 0
1 5 6 8 10 12 14 16 18 20 22 25 28 29 0
1 2 6 7 9 11 13 15 19 21 23 26 29 30 0
2 3 7 8 10 12 14 16 20 22 24 27 30 31 0
1 3 4 8 9 11 13 15 21 23 25 28 31 32 0
2 4 5 9 10 12 14 16 17 22 24 26 29 32 0
1 3 5 6 10 11 13 15 17 18 23 25 27 30 0
2 4 6 7 11 12 14 16 18 19 24 26 28 31 0
1 3 5 7 8 12 13 15 19 20 25 27 29 32 0
2 4 6 8 9 13 14 16 17 20 21 26 28 30 0
1 3 5 7 9 10 14 15 18 21 22 27 29 31 0
2 4 6 8 10 11 15 16 19 22 23 28 30 32 0
1 3 5 7 9 11 12 16 17 20 23 24 29 31 0
1 2 4 6 8 10 12 13 18 21 24 25 30 32 0
2 3 5 7 9 11 13 14 17 19 22 25 26 31 0
5 8 11 13 15 20 22 23 24 25 26 30 31 32 0
6 9 12 14 16 17 21 23 24 25 26 27 31 32 0
1 7 10 13 15 17 18 22 24 25 26 27 28 32 0
2 8 11 14 16 17 18 19 23 25 26 27 28 29 0
1 3 9 12 15 18 19 20 24 26 27 28 29 30 0
2 4 10 13 16 19 20 21 25 27 28 29 30 31 0
1 3 5 11 14 20 21 22 26 28 29 30 31 32 0
2 4 6 12 15 17 21 22 23 27 29 30 31 32 0
3 5 7 13 16 17 18 22 23 24 28 30 31 32 0
1 4 6 8 14 17 18 19 23 24 25 29 31 32 0
2 5 7 9 15 17 18 19 20 24 25 26 30 32 0
3 6 8 10 16 17 18 19 20 21 25 26 27 31 0
1 4 7 9 11 18 19 20 21 22 26 27 28 32 0
2 5 8 10 12 17 19 20 21 22 23 27 28 29 0
3 6 9 11 13 18 20 21 22 23 24 28 29 30 0
4 7 10 12 14 19 21 22 23 24 25 29 30 31 0
3 5 7 10 13 18 19 20 24 25 26 27 28 30 0
4 6 8 11 14 19 20 21 25 26 27 28 29 31 0
5 7 9 12 15 20 21 22 26 27 28 29 30 32 0
6 8 10 13 16 17 21 22 23 27 28 29 30 31 0
1 7 9 11 14 18 22 23 24 28 29 30 31 32 0
2 8 10 12 15 17 19 23 24 25 29 30 31 32 0
3 9 11 13 16 17 18 20 24 25 26 30 31 32 0
1 4 10 12 14 17 18 19 21 25 26 27 31 32 0
2 5 11 13 15 17 18 19 20 22 26 27 28 32 0
3 6 12 14 16 17 18 19 20 21 23 27 28 29 0
1 4 7 13 15 18 19 20 21 22 24 28 29 30 0
2 5 8 14 16 19 20 21 22 23 25 29 30 31 0
1 3 6 9 15 20 21 22 23 24 26 30 31 32 0
2 4 7 10 16 17 21 22 23 24 25 27 31 32 0
1 3 5 8 11 17 18 22 23 24 25 26 28 32 0
2 4 6 9 12 17 18 19 23 24 25 26 27 29 0
4 5 7 10 12 13 15 19 22 24 25 30 32 0
5 6 8 11 13 14 16 17 20 23 25 26 31 0
1 6 7 9 12 14 15 18 21 24 26 27 32 0
2 7 8 10 13 15 16 17 19 22 25 27 28 0
1 3 8 9 11 14 16 18 20 23 26 28 29 0
1 2 4 9 10 12 15 19 21 24 27 29 30 0
2 3 5 10 11 13 16 20 22 25 28 30 31 0
1 3 4 6 11 12 14 21 23 26 29 31 32 0
2 4 5 7 12 13 15 17 22 24 27 30 32 0
3 5 6 8 13 14 16 17 18 23 25 28 31 0
1 4 6 7 9 14 15 18 19 24 26 29 32 0
2 5 7 8 10 15 16 17 19 20 25 27 30 0
1 3 6 8 9 11 16 18 20 21 26 28 31 0
1 2 4 7 9 10 12 19 21 22 27 29 32 0
2 3 5 8 10 11 13 17 20 22 23 28 30 0
3 4 6 9 11 12 14 18 21 23 24 29 31 0
3 5 6 8 11 13 14 18 20 25 26 28 31 0
4 6 7 9 12 14 15 19 21 26 27 29 32 0
5 7 8 10 13 15 16 17 20 22 27 28 30 0
1 6 8 9 11 14 16 18 21 23 28 29 31 0
1 2 7 9 10 12 15 19 22 24 29 30 32 0
2 3 8 10 11 13 16 17 20 23 25 30 31 0
1 3 4 9 11 12 14 18 21 24 26 31 32 0
2 4 5 10 12 13 15 17 19 22 25 27 32 0
3 5 6 11 13 14 16 17 18 20 23 26 28 0
1 4 6 7 12 14 15 18 19 21 24 27 29 0
2 5 7 8 13 15 16 19 20 22 25 28 30 0
1 3 6 8 9 14 16 20 21 23 26 29 31 0
1 2 4 7 9 10 15 21 22 24 27 30 32 0
2 3 5 8 10 11 16 17 22 23 25 28 31 0
1 3 4 6 9 11 12 18 23 24 26 29 32 0
2 4 5 7 10 12 13 17 19 24 25 27 30 0
4 5 8 11 13 14 19 20 22 23 25 26 28 30 31 0
5 6 9 12 14 15 20 21 23 24 26 27 29 31 32 0
6 7 10 13 15 16 17 21 22 24 25 27 28 30 32 0
1 7 8 11 14 16 17 18 22 23 25 26 28 29 31 0
1 2 8 9 12 15 18 19 23 24 26 27 29 30 32 0
2 3 9 10 13 16 17 19 20 24 25 27 28 30 31 0
1 3 4 10 11 14 18 20 21 25 26 28 29 31 32 0
2 4 5 11 12 15 17 19 21 22 26 27 29 30 32 0
3 5 6 12 13 16 17 18 20 22 23 27 28 30 31 0
1 4 6 7 13 14 18 19 21 23 24 28 29 31 32 0
2 5 7 8 14 15 17 19 20 22 24 25 29 30 32 0
3 6 8 9 15 16 17 18 20 21 23 25 26 30 31 0
1 4 7 9 10 16 18 19 21 22 24 26 27 31 32 0
1 2 5 8 10 11 17 19 20 22 23 25 27 28 32 0
2 3 6 9 11 12 17 18 20 21 23 24 26 28 29 0
3 4 7 10 12 13 18 19 21 22 24 25 27 29 30 0
4 5 7 10 13 14 19 20 22 24 25 27 28 30 31 0
5 6 8 11 14 15 20 21 23 25 26 28 29 31 32 0
6 7 9 12 15 16 17 21 22 24 26 27 29 30 32 0
1 7 8 10 13 16 17 18 22 23 25 27 28 30 31 0
1 2 8 9 11 14 18 19 23 24 26 28 29 31 32 0
2 3 9 10 12 15 17 19 20 24 25 27 29 30 32 0
3 4 10 11 13 16 17 18 20 21 25 26 28 30 31 0
1 4 5 11 12 14 18 19 21 22 26 27 29 31 32 0
2 5 6 12 13 15 17 19 20 22 23 27 28 30 32 0
3 6 7 13 14 16 17 18 20 21 23 24 28 29 31 0
1 4 7 8 14 15 18 19 21 22 24 25 29 30 32 0
2 5 8 9 15 16 17 19 20 22 23 25 26 30 31 0
1 3 6 9 10 16 18 20 21 23 24 26 27 31 32 0
1 2 4 7 10 11 17 19 21 22 24 25 27 28 32 0
2 3 5 8 11 12 17 18 20 22 23 25 26 28 29 0
3 4 6 9 12 13 18 19 21 23 24 26 27 29 30 0
4 6 8 10 12 14 19 20 22 27 28 30 31 0
5 7 9 11 13 15 20 21 23 28 29 31 32 0
6 8 10 12 14 16 17 21 22 24 29 30 32 0
1 7 9 11 13 15 17 18 22 23 25 30 31 0
2 8 10 12 14 16 18 19 23 24 26 31 32 0
1 3 9 11 13 15 17 19 20 24 25 27 32 0
2 4 10 12 14 16 17 18 20 21 25 26 28 0
1 3 5 11 13 15 18 19 21 22 26 27 29 0
2 4 6 12 14 16 19 20 22 23 27 28 30 0
1 3 5 7 13 15 20 21 23 24 28 29 31 0
2 4 6 8 14 16 21 22 24 25 29 30 32 0
1 3 5 7 9 15 17 22 23 25 26 30 31 0
2 4 6 8 10 16 18 23 24 26 27 31 32 0
1 3 5 7 9 11 17 19 24 25 27 28 32 0
2 4 6 8 10 12 17 18 20 25 26 28 29 0
3 5 7 9 11 13 18 19 21 26 27 29 30 0
4 6 8 10 12 14 19 20 22 23 28 30 31 0
5 7 9 11 13 15 20 21 23 24 29 31 32 0
6 8 10 12 14 16 17 21 22 24 25 30 32 0
1 7 9 11 13 15 17 18 22 23 25 26 31 0
2 8 10 12 14 16 18 19 23 24 26 27 32 0
1 3 9 11 13 15 17 19 20 24 25 27 28 0
2 4 10 12 14 16 18 20 21 25 26 28 29 0
1 3 5 11 13 15 19 21 22 26 27 29 30 0
2 4 6 12 14 16 20 22 23 27 28 30 31 0
1 3 5 7 13 15 21 23 24 28 29 31 32 0
2 4 6 8 14 16 17 22 24 25 29 30 32 0
1 3 5 7 9 15 17 18 23 25 26 30 31 0
2 4 6 8 10 16 18 19 24 26 27 31 32 0
1 3 5 7 9 11 17 19 20 25 27 28 32 0
2 4 6 8 10 12 17 18 20 21 26 28 29 0
3 5 7 9 11 13 18 19 21 22 27 29 30 0
5 8 11 13 14 20 22 23 25 26 28 30 31 0
6 9 12 14 15 21 23 24 26 27 29 31 32 0
7 10 13 15 16 17 22 24 25 27 28 30 32 0
1 8 11 14 16 17 18 23 25 26 28 29 31 0
1 2 9 12 15 18 19 24 26 27 29 30 32 0
2 3 10 13 16 17 19 20 25 27 28 30 31 0
1 3 4 11 14 18 20 21 26 28 29 31 32 0
2 4 5 12 15 17 19 21 22 27 29 30 32 0
3 5 6 13 16 17 18 20 22 23 28 30 31 0
1 4 6 7 14 18 19 21 23 24 29 31 32 0
2 5 7 8 15 17 19 20 22 24 25 30 32 0
3 6 8 9 16 17 18 20 21 23 25 26 31 0
1 4 7 9 10 18 19 21 22 24 26 27 32 0
2 5 8 10 11 17 19 20 22 23 25 27 28 0
3 6 9 11 12 18 20 21 23 24 26 28 29 0
4 7 10 12 13 19 21 22 24 25 27 29 30 0
4 5 7 10 13 19 20 22 24 25 27 28 30 0
5 6 8 11 14 20 21 23 25 26 28 29 31 0
6 7 9 12 15 21 22 24 26 27 29 30 32 0
7 8 10 13 16 17 22 23 25 27 28 30 31 0
1 8 9 11 14 18 23 24 26 28 29 31 32 0
2 9 10 12 15 17 19 24 25 27 29 30 32 0
3 10 11 13 16 17 18 20 25 26 28 30 31 0
1 4 11 12 14 18 19 21 26 27 29 31 32 0
2 5 12 13 15 17 19 20 22 27 28 30 32 0
3 6 13 14 16 17 18 20 21 23 28 29 31 0
1 4 7 14 15 18 19 21 22 24 29 30 32 0
2 5 8 15 16 17 19 20 22 23 25 30 31 0
1 3 6 9 16 18 20 21 23 24 26 31 32 0
1 2 4 7 10 17 19 21 22 24 25 27 32 0
2 3 5 8 11 17 18 20 22 23 25 26 28 0
3 4 6 9 12 18 19 21 23 24 26 27 29 0
5 7 10 13 15 20 22 24 25 27 28 30 32 0
6 8 11 14 16 17 21 23 25 26 28 29 31 0
1 7 9 12 15 18 22 24 26 27 29 30 32 0
2 8 10 13 16 17 19 23 25 27 28 30 31 0
1 3 9 11 14 18 20 24 26 28 29 31 32 0
2 4 10 12 15 17 19 21 25 27 29 30 32 0
3 5 11 13 16 17 18 20 22 26 28 30 31 0
1 4 6 12 14 18 19 21 23 27 29 31 32 0
2 5 7 13 15 17 19 20 22 24 28 30 32 0
3 6 8 14 16 17 18 20 21 23 25 29 31 0
1 4 7 9 15 18 19 21 22 24 26 30 32 0
2 5 8 10 16 17 19 20 22 23 25 27 31 0
1 3 6 9 11 18 20 21 23 24 26 28 32 0
2 4 7 10 12 17 19 21 22 24 25 27 29 0
3 5 8 11 13 18 20 22 23 25 26 28 30 0
4 6 9 12 14 19 21 23 24 26 27 29 31 0
7 8 10 12 14 15 22 23 24 30 31 32 0
8 9 11 13 15 16 17 23 24 25 31 32 0
1 9 10 12 14 16 17 18 24 25 26 32 0
1 2 10 11 13 15 17 18 19 25 26 27 0
2 3 11 12 14 16 18 19 20 26 27 28 0
1 3 4 12 13 15 19 20 21 27 28 29 0
2 4 5 13 14 16 20 21 22 28 29 30 0
1 3 5 6 14 15 21 22 23 29 30 31 0
2 4 6 7 15 16 22 23 24 30 31 32 0
1 3 5 7 8 16 17 23 24 25 31 32 0
1 2 4 6 8 9 17 18 24 25 26 32 0
2 3 5 7 9 10 17 18 19 25 26 27 0
3 4 6 8 10 11 18 19 20 26 27 28 0
4 5 7 9 11 12 19 20 21 27 28 29 0
5 6 8 10 12 13 20 21 22 28 29 30 0
6 7 9 11 13 14 21 22 23 29 30 31 0
3 4 6 7 8 10 11 12 14 15 18 19 28 30 31 32 0
4 5 7 8 9 11 12 13 15 16 17 19 20 29 31 32 0
1 5 6 8 9 10 12 13 14 16 17 18 20 21 30 32 0
1 2 6 7 9 10 11 13 14 15 17 18 19 21 22 31 0
2 3 7 8 10 11 12 14 15 16 18 19 20 22 23 32 0
1 3 4 8 9 11 12 13 15 16 17 19 20 21 23 24 0
1 2 4 5 9 10 12 13 14 16 18 20 21 22 24 25 0
1 2 3 5 6 10 11 13 14 15 19 21 22 23 25 26 0
2 3 4 6 7 11 12 14 15 16 20 22 23 24 26 27 0
1 3 4 5 7 8 12 13 15 16 21 23 24 25 27 28 0
1 2 4 5 6 8 9 13 14 16 22 24 25 26 28 29 0
1 2 3 5 6 7 9 10 14 15 23 25 26 27 29 30 0
2 3 4 6 7 8 10 11 15 16 24 26 27 28 30 31 0
1 3 4 5 7 8 9 11 12 16 25 27 28 29 31 32 0
1 2 4 5 6 8 9 10 12 13 17 26 28 29 30 32 0
2 3 5 6 7 9 10 11 13 14 17 18 27 29 30 31 0
3 4 6 7 8 10 11 12 14 15 18 19 20 22 31 32 0
4 5 7 8 9 11 12 13 15 16 17 19 20 21 23 32 0
1 5 6 8 9 10 12 13 14 16 17 18 20 21 22 24 0
1 2 6 7 9 10 11 13 14 15 18 19 21 22 23 25 0
2 3 7 8 10 11 12 14 15 16 19 20 22 23 24 26 0
1 3 4 8 9 11 12 13 15 16 20 21 23 24 25 27 0
1 2 4 5 9 10 12 13 14 16 21 22 24 25 26 28 0
1 2 3 5 6 10 11 13 14 15 22 23 25 26 27 29 0
2 3 4 6 7 11 12 14 15 16 23 24 26 27 28 30 0
1 3 4 5 7 8 12 13 15 16 24 25 27 28 29 31 0
1 2 4 5 6 8 9 13 14 16 25 26 28 29 30 32 0
1 2 3 5 6 7 9 10 14 15 17 26 27 29 30 31 0
2 3 4 6 7 8 10 11 15 16 18 27 28 30 31 32 0
1 3 4 5 7 8 9 11 12 16 17 19 28 29 31 32 0
1 2 4 5 6 8 9 10 12 13 17 18 20 29 30 32 0
2 3 5 6 7 9 10 11 13 14 17 18 19 21 30 31 0
3 4 6 8 10 12 14 15 18 23 26 28 31 32 0
4 5 7 9 11 13 15 16 17 19 24 27 29 32 0
1 5 6 8 10 12 14 16 17 18 20 25 28 30 0
1 2 6 7 9 11 13 15 18 19 21 26 29 31 0
2 3 7 8 10 12 14 16 19 20 22 27 30 32 0
1 3 4 8 9 11 13 15 17 20 21 23 28 31 0
2 4 5 9 10 12 14 16 18 21 22 24 29 32 0
1 3 5 6 10 11 13 15 17 19 22 23 25 30 0
2 4 6 7 11 12 14 16 18 20 23 24 26 31 0
1 3 5 7 8 12 13 15 19 21 24 25 27 32 0
2 4 6 8 9 13 14 16 17 20 22 25 26 28 0
1 3 5 7 9 10 14 15 18 21 23 26 27 29 0
2 4 6 8 10 11 15 16 19 22 24 27 28 30 0
1 3 5 7 9 11 12 16 20 23 25 28 29 31 0
1 2 4 6 8 10 12 13 21 24 26 29 30 32 0
2 3 5 7 9 11 13 14 17 22 25 27 30 31 0
3 4 6 8 10 12 14 15 18 19 22 24 27 32 0
4 5 7 9 11 13 15 16 17 19 20 23 25 28 0
1 5 6 8 10 12 14 16 18 20 21 24 26 29 0
1 2 6 7 9 11 13 15 19 21 22 25 27 30 0
2 3 7 8 10 12 14 16 20 22 23 26 28 31 0
1 3 4 8 9 11 13 15 21 23 24 27 29 32 0
2 4 5 9 10 12 14 16 17 22 24 25 28 30 0
1 3 5 6 10 11 13 15 18 23 25 26 29 31 0
2 4 6 7 11 12 14 16 19 24 26 27 30 32 0
1 3 5 7 8 12 13 15 17 20 25 27 28 31 0
2 4 6 8 9 13 14 16 18 21 26 28 29 32 0
1 3 5 7 9 10 14 15 17 19 22 27 29 30 0
2 4 6 8 10 11 15 16 18 20 23 28 30 31 0
1 3 5 7 9 11 12 16 19 21 24 29 31 32 0
1 2 4 6 8 10 12 13 17 20 22 25 30 32 0
2 3 5 7 9 11 13 14 17 18 21 23 26 31 0
3 4 6 7 8 10 12 14 15 18 27 28 30 31 32 0
4 5 7 8 9 11 13 15 16 17 19 28 29 31 32 0
1 5 6 8 9 10 12 14 16 17 18 20 29 30 32 0
1 2 6 7 9 10 11 13 15 17 18 19 21 30 31 0
2 3 7 8 10 11 12 14 16 18 19 20 22 31 32 0
1 3 4 8 9 11 12 13 15 17 19 20 21 23 32 0
2 4 5 9 10 12 13 14 16 17 18 20 21 22 24 0
1 3 5 6 10 11 13 14 15 18 19 21 22 23 25 0
2 4 6 7 11 12 14 15 16 19 20 22 23 24 26 0
1 3 5 7 8 12 13 15 16 20 21 23 24 25 27 0
1 2 4 6 8 9 13 14 16 21 22 24 25 26 28 0
1 2 3 5 7 9 10 14 15 22 23 25 26 27 29 0
2 3 4 6 8 10 11 15 16 23 24 26 27 28 30 0
1 3 4 5 7 9 11 12 16 24 25 27 28 29 31 0
1 2 4 5 6 8 10 12 13 25 26 28 29 30 32 0
2 3 5 6 7 9 11 13 14 17 26 27 29 30 31 0
3 4 6 8 10 11 12 14 15 18 19 20 22 23 32 0
4 5 7 9 11 12 13 15 16 17 19 20 21 23 24 0
1 5 6 8 10 12 13 14 16 18 20 21 22 24 25 0
1 2 6 7 9 11 13 14 15 19 21 22 23 25 26 0
2 3 7 8 10 12 14 15 16 20 22 23 24 26 27 0
1 3 4 8 9 11 13 15 16 21 23 24 25 27 28 0
1 2 4 5 9 10 12 14 16 22 24 25 26 28 29 0
1 2 3 5 6 10 11 13 15 23 25 26 27 29 30 0
2 3 4 6 7 11 12 14 16 24 26 27 28 30 31 0
1 3 4 5 7 8 12 13 15 25 27 28 29 31 32 0
2 4 5 6 8 9 13 14 16 17 26 28 29 30 32 0
1 3 5 6 7 9 10 14 15 17 18 27 29 30 31 0
2 4 6 7 8 10 11 15 16 18 19 28 30 31 32 0
1 3 5 7 8 9 11 12 16 17 19 20 29 31 32 0
1 2 4 6 8 9 10 12 13 17 18 20 21 30 32 0
2 3 5 7 9 10 11 13 14 17 18 19 21 22 31 0
3 4 6 8 10 11 15 18 28 30 31 32 0
4 5 7 9 11 12 16 17 19 29 31 32 0
1 5 6 8 10 12 13 17 18 20 30 32 0
2 6 7 9 11 13 14 17 18 19 21 31 0
3 7 8 10 12 14 15 18 19 20 22 32 0
4 8 9 11 13 15 16 17 19 20 21 23 0
1 5 9 10 12 14 16 18 20 21 22 24 0
1 2 6 10 11 13 15 19 21 22 23 25 0
2 3 7 11 12 14 16 20 22 23 24 26 0
1 3 4 8 12 13 15 21 23 24 25 27 0
2 4 5 9 13 14 16 22 24 25 26 28 0
1 3 5 6 10 14 15 23 25 26 27 29 0
2 4 6 7 11 15 16 24 26 27 28 30 0
1 3 5 7 8 12 16 25 27 28 29 31 0
1 2 4 6 8 9 13 26 28 29 30 32 0
2 3 5 7 9 10 14 17 27 29 30 31 0
4 6 8 10 11 15 19 22 27 28 30 32 0
5 7 9 11 12 16 17 20 23 28 29 31 0
1 6 8 10 12 13 18 21 24 29 30 32 0
2 7 9 11 13 14 17 19 22 25 30 31 0
3 8 10 12 14 15 18 20 23 26 31 32 0
4 9 11 13 15 16 17 19 21 24 27 32 0
1 5 10 12 14 16 17 18 20 22 25 28 0
1 2 6 11 13 15 18 19 21 23 26 29 0
2 3 7 12 14 16 19 20 22 24 27 30 0
1 3 4 8 13 15 20 21 23 25 28 31 0
2 4 5 9 14 16 21 22 24 26 29 32 0
1 3 5 6 10 15 17 22 23 25 27 30 0
2 4 6 7 11 16 18 23 24 26 28 31 0
1 3 5 7 8 12 19 24 25 27 29 32 0
2 4 6 8 9 13 17 20 25 26 28 30 0
3 5 7 9 10 14 18 21 26 27 29 31 0
3 7 8 10 12 14 18 20 22 23 28 31 0
4 8 9 11 13 15 19 21 23 24 29 32 0
5 9 10 12 14 16 17 20 22 24 25 30 0
1 6 10 11 13 15 18 21 23 25 26 31 0
2 7 11 12 14 16 19 22 24 26 27 32 0
1 3 8 12 13 15 17 20 23 25 27 28 0
2 4 9 13 14 16 18 21 24 26 28 29 0
1 3 5 10 14 15 19 22 25 27 29 30 0
2 4 6 11 15 16 20 23 26 28 30 31 0
1 3 5 7 12 16 21 24 27 29 31 32 0
1 2 4 6 8 13 17 22 25 28 30 32 0
2 3 5 7 9 14 17 18 23 26 29 31 0
3 4 6 8 10 15 18 19 24 27 30 32 0
4 5 7 9 11 16 17 19 20 25 28 31 0
1 5 6 8 10 12 18 20 21 26 29 32 0
2 6 7 9 11 13 17 19 21 22 27 30 0
2 5 8 10 12 13 16 19 20 22 23 25 30 31 32 0
1 3 6 9 11 13 14 17 20 21 23 24 26 31 32 0
2 4 7 10 12 14 15 17 18 21 22 24 25 27 32 0
3 5 8 11 13 15 16 17 18 19 22 23 25 26 28 0
1 4 6 9 12 14 16 18 19 20 23 24 26 27 29 0
1 2 5 7 10 13 15 19 20 21 24 25 27 28 30 0
2 3 6 8 11 14 16 20 21 22 25 26 28 29 31 0
1 3 4 7 9 12 15 21 22 23 26 27 29 30 32 0
2 4 5 8 10 13 16 17 22 23 24 27 28 30 31 0
1 3 5 6 9 11 14 18 23 24 25 28 29 31 32 0
2 4 6 7 10 12 15 17 19 24 25 26 29 30 32 0
3 5 7 8 11 13 16 17 18 20 25 26 27 30 31 0
1 4 6 8 9 12 14 18 19 21 26 27 28 31 32 0
2 5 7 9 10 13 15 17 19 20 22 27 28 29 32 0
3 6 8 10 11 14 16 17 18 20 21 23 28 29 30 0
1 4 7 9 11 12 15 18 19 21 22 24 29 30 31 0
2 5 6 8 10 13 16 18 19 20 25 27 28 30 31 0
1 3 6 7 9 11 14 19 20 21 26 28 29 31 32 0
2 4 7 8 10 12 15 17 20 21 22 27 29 30 32 0
3 5 8 9 11 13 16 17 18 21 22 23 28 30 31 0
1 4 6 9 10 12 14 18 19 22 23 24 29 31 32 0
2 5 7 10 11 13 15 17 19 20 23 24 25 30 32 0
3 6 8 11 12 14 16 17 18 20 21 24 25 26 31 0
1 4 7 9 12 13 15 18 19 21 22 25 26 27 32 0
2 5 8 10 13 14 16 17 19 20 22 23 26 27 28 0
1 3 6 9 11 14 15 18 20 21 23 24 27 28 29 0
2 4 7 10 12 15 16 19 21 22 24 25 28 29 30 0
1 3 5 8 11 13 16 20 22 23 25 26 29 30 31 0
1 2 4 6 9 12 14 21 23 24 26 27 30 31 32 0
2 3 5 7 10 13 15 17 22 24 25 27 28 31 32 0
3 4 6 8 11 14 16 17 18 23 25 26 28 29 32 0
1 4 5 7 9 12 15 17 18 19 24 26 27 29 30 0
3 5 8 9 13 15 18 22 23 24 25 26 28 31 32 0
4 6 9 10 14 16 17 19 23 24 25 26 27 29 32 0
1 5 7 10 11 15 17 18 20 24 25 26 27 28 30 0
2 6 8 11 12 16 18 19 21 25 26 27 28 29 31 0
1 3 7 9 12 13 19 20 22 26 27 28 29 30 32 0
2 4 8 10 13 14 17 20 21 23 27 28 29 30 31 0
3 5 9 11 14 15 18 21 22 24 28 29 30 31 32 0
4 6 10 12 15 16 17 19 22 23 25 29 30 31 32 0
1 5 7 11 13 16 17 18 20 23 24 26 30 31 32 0
1 2 6 8 12 14 17 18 19 21 24 25 27 31 32 0
2 3 7 9 13 15 17 18 19 20 22 25 26 28 32 0
3 4 8 10 14 16 17 18 19 20 21 23 26 27 29 0
1 4 5 9 11 15 18 19 20 21 22 24 27 28 30 0
2 5 6 10 12 16 19 20 21 22 23 25 28 29 31 0
1 3 6 7 11 13 20 21 22 23 24 26 29 30 32 0
2 4 7 8 12 14 17 21 22 23 24 25 27 30 31 0
3 5 9 10 13 15 18 19 22 24 25 26 27 28 32 0
4 6 10 11 14 16 17 19 20 23 25 26 27 28 29 0
1 5 7 11 12 15 18 20 21 24 26 27 28 29 30 0
2 6 8 12 13 16 19 21 22 25 27 28 29 30 31 0
1 3 7 9 13 14 20 22 23 26 28 29 30 31 32 0
2 4 8 10 14 15 17 21 23 24 27 29 30 31 32 0
3 5 9 11 15 16 17 18 22 24 25 28 30 31 32 0
1 4 6 10 12 16 17 18 19 23 25 26 29 31 32 0
1 2 5 7 11 13 17 18 19 20 24 26 27 30 32 0
2 3 6 8 12 14 17 18 19 20 21 25 27 28 31 0
3 4 7 9 13 15 18 19 20 21 22 26 28 29 32 0
4 5 8 10 14 16 17 19 20 21 22 23 27 29 30 0
1 5 6 9 11 15 18 20 21 22 23 24 28 30 31 0
2 6 7 10 12 16 19 21 22 23 24 25 29 31 32 0
1 3 7 8 11 13 17 20 22 23 24 25 26 30 32 0
2 4 8 9 12 14 17 18 21 23 24 25 26 27 31 0
3 4 6 7 12 14 15 18 22 24 27 30 31 32 0
4 5 7 8 13 15 16 17 19 23 25 28 31 32 0
1 5 6 8 9 14 16 17 18 20 24 26 29 32 0
1 2 6 7 9 10 15 17 18 19 21 25 27 30 0
2 3 7 8 10 11 16 18 19 20 22 26 28 31 0
1 3 4 8 9 11 12 19 20 21 23 27 29 32 0
2 4 5 9 10 12 13 17 20 21 22 24 28 30 0
3 5 6 10 11 13 14 18 21 22 23 25 29 31 0
4 6 7 11 12 14 15 19 22 23 24 26 30 32 0
5 7 8 12 13 15 16 17 20 23 24 25 27 31 0
1 6 8 9 13 14 16 18 21 24 25 26 28 32 0
1 2 7 9 10 14 15 17 19 22 25 26 27 29 0
2 3 8 10 11 15 16 18 20 23 26 27 28 30 0
1 3 4 9 11 12 16 19 21 24 27 28 29 31 0
1 2 4 5 10 12 13 20 22 25 28 29 30 32 0
2 3 5 6 11 13 14 17 21 23 26 29 30 31 0
3 4 6 11 12 14 15 18 19 20 23 26 28 32 0
4 5 7 12 13 15 16 17 19 20 21 24 27 29 0
1 5 6 8 13 14 16 18 20 21 22 25 28 30 0
1 2 6 7 9 14 15 19 21 22 23 26 29 31 0
2 3 7 8 10 15 16 20 22 23 24 27 30 32 0
1 3 4 8 9 11 16 17 21 23 24 25 28 31 0
1 2 4 5 9 10 12 18 22 24 25 26 29 32 0
2 3 5 6 10 11 13 17 19 23 25 26 27 30 0
3 4 6 7 11 12 14 18 20 24 26 27 28 31 0
4 5 7 8 12 13 15 19 21 25 27 28 29 32 0
5 6 8 9 13 14 16 17 20 22 26 28 29 30 0
1 6 7 9 10 14 15 18 21 23 27 29 30 31 0
2 7 8 10 11 15 16 19 22 24 28 30 31 32 0
1 3 8 9 11 12 16 17 20 23 25 29 31 32 0
1 2 4 9 10 12 13 17 18 21 24 26 30 32 0
2 3 5 10 11 13 14 17 18 19 22 25 27 31 0
2 4 5 8 9 11 13 15 16 19 22 23 25 28 30 32 0
1 3 5 6 9 10 12 14 16 17 20 23 24 26 29 31 0
1 2 4 6 7 10 11 13 15 18 21 24 25 27 30 32 0
2 3 5 7 8 11 12 14 16 17 19 22 25 26 28 31 0
1 3 4 6 8 9 12 13 15 18 20 23 26 27 29 32 0
2 4 5 7 9 10 13 14 16 17 19 21 24 27 28 30 0
1 3 5 6 8 10 11 14 15 18 20 22 25 28 29 31 0
2 4 6 7 9 11 12 15 16 19 21 23 26 29 30 32 0
1 3 5 7 8 10 12 13 16 17 20 22 24 27 30 31 0
1 2 4 6 8 9 11 13 14 18 21 23 25 28 31 32 0
2 3 5 7 9 10 12 14 15 17 19 22 24 26 29 32 0
3 4 6 8 10 11 13 15 16 17 18 20 23 25 27 30 0
1 4 5 7 9 11 12 14 16 18 19 21 24 26 28 31 0
1 2 5 6 8 10 12 13 15 19 20 22 25 27 29 32 0
2 3 6 7 9 11 13 14 16 17 20 21 23 26 28 30 0
1 3 4 7 8 10 12 14 15 18 21 22 24 27 29 31 0
2 3 5 7 9 10 13 14 16 18 20 22 25 27 28 31 0
1 3 4 6 8 10 11 14 15 19 21 23 26 28 29 32 0
2 4 5 7 9 11 12 15 16 17 20 22 24 27 29 30 0
1 3 5 6 8 10 12 13 16 18 21 23 25 28 30 31 0
1 2 4 6 7 9 11 13 14 19 22 24 26 29 31 32 0
2 3 5 7 8 10 12 14 15 17 20 23 25 27 30 32 0
3 4 6 8 9 11 13 15 16 17 18 21 24 26 28 31 0
1 4 5 7 9 10 12 14 16 18 19 22 25 27 29 32 0
1 2 5 6 8 10 11 13 15 17 19 20 23 26 28 30 0
2 3 6 7 9 11 12 14 16 18 20 21 24 27 29 31 0
1 3 4 7 8 10 12 13 15 19 21 22 25 28 30 32 0
2 4 5 8 9 11 13 14 16 17 20 22 23 26 29 31 0
1 3 5 6 9 10 12 14 15 18 21 23 24 27 30 32 0
2 4 6 7 10 11 13 15 16 17 19 22 24 25 28 31 0
1 3 5 7 8 11 12 14 16 18 20 23 25 26 29 32 0
1 2 4 6 8 9 12 13 15 17 19 21 24 26 27 30 0
3 5 8 9 11 13 15 18 22 23 24 25 27 30 32 0
4 6 9 10 12 14 16 17 19 23 24 25 26 28 31 0
1 5 7 10 11 13 15 18 20 24 25 26 27 29 32 0
2 6 8 11 12 14 16 17 19 21 25 26 27 28 30 0
1 3 7 9 12 13 15 18 20 22 26 27 28 29 31 0
2 4 8 10 13 14 16 19 21 23 27 28 29 30 32 0
1 3 5 9 11 14 15 17 20 22 24 28 29 30 31 0
2 4 6 10 12 15 16 18 21 23 25 29 30 31 32 0
1 3 5 7 11 13 16 17 19 22 24 26 30 31 32 0
1 2 4 6 8 12 14 17 18 20 23 25 27 31 32 0
2 3 5 7 9 13 15 17 18 19 21 24 26 28 32 0
3 4 6 8 10 14 16 17 18 19 20 22 25 27 29 0
1 4 5 7 9 11 15 18 19 20 21 23 26 28 30 0
2 5 6 8 10 12 16 19 20 21 22 24 27 29 31 0
1 3 6 7 9 11 13 20 21 22 23 25 28 30 32 0
2 4 7 8 10 12 14 17 21 22 23 24 26 29 31 0
3 5 7 9 10 13 15 18 20 23 25 26 27 28 32 0
4 6 8 10 11 14 16 17 19 21 24 26 27 28 29 0
1 5 7 9 11 12 15 18 20 22 25 27 28 29 30 0
2 6 8 10 12 13 16 19 21 23 26 28 29 30 31 0
1 3 7 9 11 13 14 20 22 24 27 29 30 31 32 0
2 4 8 10 12 14 15 17 21 23 25 28 30 31 32 0
3 5 9 11 13 15 16 17 18 22 24 26 29 31 32 0
1 4 6 10 12 14 16 17 18 19 23 25 27 30 32 0
1 2 5 7 11 13 15 17 18 19 20 24 26 28 31 0
2 3 6 8 12 14 16 18 19 20 21 25 27 29 32 0
1 3 4 7 9 13 15 17 19 20 21 22 26 28 30 0
2 4 5 8 10 14 16 18 20 21 22 23 27 29 31 0
1 3 5 6 9 11 15 19 21 22 23 24 28 30 32 0
2 4 6 7 10 12 16 17 20 22 23 24 25 29 31 0
1 3 5 7 8 11 13 18 21 23 24 25 26 30 32 0
2 4 6 8 9 12 14 17 19 22 24 25 26 27 31 0
3 5 7 9 12 13 15 18 19 24 25 26 27 32 0
4 6 8 10 13 14 16 17 19 20 25 26 27 28 0
1 5 7 9 11 14 15 18 20 21 26 27 28 29 0
2 6 8 10 12 15 16 19 21 22 27 28 29 30 0
1 3 7 9 11 13 16 20 22 23 28 29 30 31 0
1 2 4 8 10 12 14 21 23 24 29 30 31 32 0
2 3 5 9 11 13 15 17 22 24 25 30 31 32 0
3 4 6 10 12 14 16 17 18 23 25 26 31 32 0
1 4 5 7 11 13 15 17 18 19 24 26 27 32 0
2 5 6 8 12 14 16 17 18 19 20 25 27 28 0
1 3 6 7 9 13 15 18 19 20 21 26 28 29 0
2 4 7 8 10 14 16 19 20 21 22 27 29 30 0
1 3 5 8 9 11 15 20 21 22 23 28 30 31 0
2 4 6 9 10 12 16 21 22 23 24 29 31 32 0
1 3 5 7 10 11 13 17 22 23 24 25 30 32 0
2 4 6 8 11 12 14 17 18 23 24 25 26 31 0
3 5 6 9 11 13 15 18 23 24 25 26 31 32 0
4 6 7 10 12 14 16 17 19 24 25 26 27 32 0
1 5 7 8 11 13 15 17 18 20 25 26 27 28 0
2 6 8 9 12 14 16 18 19 21 26 27 28 29 0
1 3 7 9 10 13 15 19 20 22 27 28 29 30 0
2 4 8 10 11 14 16 20 21 23 28 29 30 31 0
1 3 5 9 11 12 15 21 22 24 29 30 31 32 0
2 4 6 10 12 13 16 17 22 23 25 30 31 32 0
1 3 5 7 11 13 14 17 18 23 24 26 31 32 0
2 4 6 8 12 14 15 17 18 19 24 25 27 32 0
3 5 7 9 13 15 16 17 18 19 20 25 26 28 0
1 4 6 8 10 14 16 18 19 20 21 26 27 29 0
1 2 5 7 9 11 15 19 20 21 22 27 28 30 0
2 3 6 8 10 12 16 20 21 22 23 28 29 31 0
1 3 4 7 9 11 13 21 22 23 24 29 30 32 0
2 4 5 8 10 12 14 17 22 23 24 25 30 31 0
3 4 6 7 11 15 18 24 26 27 28 30 31 32 0
4 5 7 8 12 16 17 19 25 27 28 29 31 32 0
1 5 6 8 9 13 17 18 20 26 28 29 30 32 0
2 6 7 9 10 14 17 18 19 21 27 29 30 31 0
3 7 8 10 11 15 18 19 20 22 28 30 31 32 0
4 8 9 11 12 16 17 19 20 21 23 29 31 32 0
1 5 9 10 12 13 17 18 20 21 22 24 30 32 0
2 6 10 11 13 14 17 18 19 21 22 23 25 31 0
3 7 11 12 14 15 18 19 20 22 23 24 26 32 0
4 8 12 13 15 16 17 19 20 21 23 24 25 27 0
1 5 9 13 14 16 18 20 21 22 24 25 26 28 0
1 2 6 10 14 15 19 21 22 23 25 26 27 29 0
2 3 7 11 15 16 20 22 23 24 26 27 28 30 0
1 3 4 8 12 16 21 23 24 25 27 28 29 31 0
1 2 4 5 9 13 22 24 25 26 28 29 30 32 0
2 3 5 6 10 14 17 23 25 26 27 29 30 31 0
3 6 8 11 14 18 19 20 21 25 26 27 28 29 31 0
4 7 9 12 15 19 20 21 22 26 27 28 29 30 32 0
5 8 10 13 16 17 20 21 22 23 27 28 29 30 31 0
1 6 9 11 14 18 21 22 23 24 28 29 30 31 32 0
2 7 10 12 15 17 19 22 23 24 25 29 30 31 32 0
3 8 11 13 16 17 18 20 23 24 25 26 30 31 32 0
1 4 9 12 14 17 18 19 21 24 25 26 27 31 32 0
2 5 10 13 15 17 18 19 20 22 25 26 27 28 32 0
3 6 11 14 16 17 18 19 20 21 23 26 27 28 29 0
1 4 7 12 15 18 19 20 21 22 24 27 28 29 30 0
2 5 8 13 16 19 20 21 22 23 25 28 29 30 31 0
1 3 6 9 14 20 21 22 23 24 26 29 30 31 32 0
2 4 7 10 15 17 21 22 23 24 25 27 30 31 32 0
3 5 8 11 16 17 18 22 23 24 25 26 28 31 32 0
1 4 6 9 12 17 18 19 23 24 25 26 27 29 32 0
2 5 7 10 13 17 18 19 20 24 25 26 27 28 30 0
4 7 10 12 15 19 21 22 23 24 25 29 30 31 32 0
5 8 11 13 16 17 20 22 23 24 25 26 30 31 32 0
1 6 9 12 14 17 18 21 23 24 25 26 27 31 32 0
2 7 10 13 15 17 18 19 22 24 25 26 27 28 32 0
3 8 11 14 16 17 18 19 20 23 25 26 27 28 29 0
1 4 9 12 15 18 19 20 21 24 26 27 28 29 30 0
2 5 10 13 16 19 20 21 22 25 27 28 29 30 31 0
1 3 6 11 14 20 21 22 23 26 28 29 30 31 32 0
2 4 7 12 15 17 21 22 23 24 27 29 30 31 32 0
3 5 8 13 16 17 18 22 23 24 25 28 30 31 32 0
1 4 6 9 14 17 18 19 23 24 25 26 29 31 32 0
2 5 7 10 15 17 18 19 20 24 25 26 27 30 32 0
3 6 8 11 16 17 18 19 20 21 25 26 27 28 31 0
1 4 7 9 12 18 19 20 21 22 26 27 28 29 32 0
2 5 8 10 13 17 19 20 21 22 23 27 28 29 30 0
3 6 9 11 14 18 20 21 22 23 24 28 29 30 31 0
3 6 7 10 11 14 18 19 20 21 24 25 28 29 30 31 0
4 7 8 11 12 15 19 20 21 22 25 26 29 30 31 32 0
5 8 9 12 13 16 17 20 21 22 23 26 27 30 31 32 0
1 6 9 10 13 14 17 18 21 22 23 24 27 28 31 32 0
2 7 10 11 14 15 17 18 19 22 23 24 25 28 29 32 0
3 8 11 12 15 16 17 18 19 20 23 24 25 26 29 30 0
1 4 9 12 13 16 18 19 20 21 24 25 26 27 30 31 0
1 2 5 10 13 14 19 20 21 22 25 26 27 28 31 32 0
2 3 6 11 14 15 17 20 21 22 23 26 27 28 29 32 0
3 4 7 12 15 16 17 18 21 22 23 24 27 28 29 30 0
1 4 5 8 13 16 18 19 22 23 24 25 28 29 30 31 0
1 2 5 6 9 14 19 20 23 24 25 26 29 30 31 32 0
2 3 6 7 10 15 17 20 21 24 25 26 27 30 31 32 0
3 4 7 8 11 16 17 18 21 22 25 26 27 28 31 32 0
1 4 5 8 9 12 17 18 19 22 23 26 27 28 29 32 0
2 5 6 9 10 13 17 18 19 20 23 24 27 28 29 30 0
3 6 9 10 12 15 18 20 21 23 24 29 30 31 32 0
4 7 10 11 13 16 17 19 21 22 24 25 30 31 32 0
1 5 8 11 12 14 17 18 20 22 23 25 26 31 32 0
2 6 9 12 13 15 17 18 19 21 23 24 26 27 32 0
3 7 10 13 14 16 17 18 19 20 22 24 25 27 28 0
1 4 8 11 14 15 18 19 20 21 23 25 26 28 29 0
2 5 9 12 15 16 19 20 21 22 24 26 27 29 30 0
1 3 6 10 13 16 20 21 22 23 25 27 28 30 31 0
1 2 4 7 11 14 21 22 23 24 26 28 29 31 32 0
2 3 5 8 12 15 17 22 23 24 25 27 29 30 32 0
3 4 6 9 13 16 17 18 23 24 25 26 28 30 31 0
1 4 5 7 10 14 18 19 24 25 26 27 29 31 32 0
2 5 6 8 11 15 17 19 20 25 26 27 28 30 32 0
3 6 7 9 12 16 17 18 20 21 26 27 28 29 31 0
1 4 7 8 10 13 18 19 21 22 27 28 29 30 32 0
2 5 8 9 11 14 17 19 20 22 23 28 29 30 31 0
3 6 8 9 12 15 18 19 20 21 26 27 29 30 32 0
4 7 9 10 13 16 17 19 20 21 22 27 28 30 31 0
1 5 8 10 11 14 18 20 21 22 23 28 29 31 32 0
2 6 9 11 12 15 17 19 21 22 23 24 29 30 32 0
3 7 10 12 13 16 17 18 20 22 23 24 25 30 31 0
1 4 8 11 13 14 18 19 21 23 24 25 26 31 32 0
2 5 9 12 14 15 17 19 20 22 24 25 26 27 32 0
3 6 10 13 15 16 17 18 20 21 23 25 26 27 28 0
1 4 7 11 14 16 18 19 21 22 24 26 27 28 29 0
1 2 5 8 12 15 19 20 22 23 25 27 28 29 30 0
2 3 6 9 13 16 20 21 23 24 26 28 29 30 31 0
1 3 4 7 10 14 21 22 24 25 27 29 30 31 32 0
2 4 5 8 11 15 17 22 23 25 26 28 30 31 32 0
3 5 6 9 12 16 17 18 23 24 26 27 29 31 32 0
1 4 6 7 10 13 17 18 19 24 25 27 28 30 32 0
2 5 7 8 11 14 17 18 19 20 25 26 28 29 31 0
3 6 8 10 12 15 18 20 21 23 29 30 31 32 0
4 7 9 11 13 16 17 19 21 22 24 30 31 32 0
1 5 8 10 12 14 17 18 20 22 23 25 31 32 0
2 6 9 11 13 15 17 18 19 21 23 24 26 32 0
3 7 10 12 14 16 17 18 19 20 22 24 25 27 0
1 4 8 11 13 15 18 19 20 21 23 25 26 28 0
2 5 9 12 14 16 19 20 21 22 24 26 27 29 0
1 3 6 10 13 15 20 21 22 23 25 27 28 30 0
2 4 7 11 14 16 21 22 23 24 26 28 29 31 0
1 3 5 8 12 15 22 23 24 25 27 29 30 32 0
2 4 6 9 13 16 17 23 24 25 26 28 30 31 0
1 3 5 7 10 14 18 24 25 26 27 29 31 32 0
2 4 6 8 11 15 17 19 25 26 27 28 30 32 0
3 5 7 9 12 16 17 18 20 26 27 28 29 31 0
1 4 6 8 10 13 18 19 21 27 28 29 30 32 0
2 5 7 9 11 14 17 19 20 22 28 29 30 31 0
3 6 8 10 12 15 18 19 20 21 27 29 30 32 0
4 7 9 11 13 16 17 19 20 21 22 28 30 31 0
1 5 8 10 12 14 18 20 21 22 23 29 31 32 0
2 6 9 11 13 15 17 19 21 22 23 24 30 32 0
3 7 10 12 14 16 17 18 20 22 23 24 25 31 0
1 4 8 11 13 15 18 19 21 23 24 25 26 32 0
2 5 9 12 14 16 17 19 20 22 24 25 26 27 0
1 3 6 10 13 15 18 20 21 23 25 26 27 28 0
2 4 7 11 14 16 19 21 22 24 26 27 28 29 0
1 3 5 8 12 15 20 22 23 25 27 28 29 30 0
2 4 6 9 13 16 21 23 24 26 28 29 30 31 0
1 3 5 7 10 14 22 24 25 27 29 30 31 32 0
2 4 6 8 11 15 17 23 25 26 28 30 31 32 0
3 5 7 9 12 16 17 18 24 26 27 29 31 32 0
1 4 6 8 10 13 17 18 19 25 27 28 30 32 0
2 5 7 9 11 14 17 18 19 20 26 28 29 31 0
3 6 9 10 12 14 18 20 21 23 24 28 29 30 31 0
4 7 10 11 13 15 19 21 22 24 25 29 30 31 32 0
5 8 11 12 14 16 17 20 22 23 25 26 30 31 32 0
1 6 9 12 13 15 17 18 21 23 24 26 27 31 32 0
2 7 10 13 14 16 17 18 19 22 24 25 27 28 32 0
1 3 8 11 14 15 17 18 19 20 23 25 26 28 29 0
2 4 9 12 15 16 18 19 20 21 24 26 27 29 30 0
1 3 5 10 13 16 19 20 21 22 25 27 28 30 31 0
1 2 4 6 11 14 20 21 22 23 26 28 29 31 32 0
2 3 5 7 12 15 17 21 22 23 24 27 29 30 32 0
3 4 6 8 13 16 17 18 22 23 24 25 28 30 31 0
1 4 5 7 9 14 18 19 23 24 25 26 29 31 32 0
2 5 6 8 10 15 17 19 20 24 25 26 27 30 32 0
3 6 7 9 11 16 17 18 20 21 25 26 27 28 31 0
1 4 7 8 10 12 18 19 21 22 26 27 28 29 32 0
2 5 8 9 11 13 17 19 20 22 23 27 28 29 30 0
4 6 8 9 12 15 19 20 21 22 26 27 29 30 32 0
5 7 9 10 13 16 17 20 21 22 23 27 28 30 31 0
1 6 8 10 11 14 18 21 22 23 24 28 29 31 32 0
2 7 9 11 12 15 17 19 22 23 24 25 29 30 32 0
3 8 10 12 13 16 17 18 20 23 24 25 26 30 31 0
1 4 9 11 13 14 18 19 21 24 25 26 27 31 32 0
2 5 10 12 14 15 17 19 20 22 25 26 27 28 32 0
3 6 11 13 15 16 17 18 20 21 23 26 27 28 29 0
1 4 7 12 14 16 18 19 21 22 24 27 28 29 30 0
1 2 5 8 13 15 19 20 22 23 25 28 29 30 31 0
2 3 6 9 14 16 20 21 23 24 26 29 30 31 32 0
1 3 4 7 10 15 17 21 22 24 25 27 30 31 32 0
2 4 5 8 11 16 17 18 22 23 25 26 28 31 32 0
1 3 5 6 9 12 17 18 19 23 24 26 27 29 32 0
2 4 6 7 10 13 17 18 19 20 24 25 27 28 30 0
3 5 7 8 11 14 18 19 20 21 25 26 28 29 31 0
3 4 8 11 14 18 20 21 23 25 26 28 29 31 0
4 5 9 12 15 19 21 22 24 26 27 29 30 32 0
5 6 10 13 16 17 20 22 23 25 27 28 30 31 0
1 6 7 11 14 18 21 23 24 26 28 29 31 32 0
2 7 8 12 15 17 19 22 24 25 27 29 30 32 0
3 8 9 13 16 17 18 20 23 25 26 28 30 31 0
1 4 9 10 14 18 19 21 24 26 27 29 31 32 0
2 5 10 11 15 17 19 20 22 25 27 28 30 32 0
3 6 11 12 16 17 18 20 21 23 26 28 29 31 0
1 4 7 12 13 18 19 21 22 24 27 29 30 32 0
2 5 8 13 14 17 19 20 22 23 25 28 30 31 0
3 6 9 14 15 18 20 21 23 24 26 29 31 32 0
4 7 10 15 16 17 19 21 22 24 25 27 30 32 0
1 5 8 11 16 17 18 20 22 23 25 26 28 31 0
1 2 6 9 12 18 19 21 23 24 26 27 29 32 0
2 3 7 10 13 17 19 20 22 24 25 27 28 30 0
4 7 10 14 15 19 21 22 24 25 27 29 30 32 0
5 8 11 15 16 17 20 22 23 25 26 28 30 31 0
1 6 9 12 16 18 21 23 24 26 27 29 31 32 0
1 2 7 10 13 17 19 22 24 25 27 28 30 32 0
2 3 8 11 14 17 18 20 23 25 26 28 29 31 0
3 4 9 12 15 18 19 21 24 26 27 29 30 32 0
4 5 10 13 16 17 19 20 22 25 27 28 30 31 0
1 5 6 11 14 18 20 21 23 26 28 29 31 32 0
2 6 7 12 15 17 19 21 22 24 27 29 30 32 0
3 7 8 13 16 17 18 20 22 23 25 28 30 31 0
1 4 8 9 14 18 19 21 23 24 26 29 31 32 0
2 5 9 10 15 17 19 20 22 24 25 27 30 32 0
3 6 10 11 16 17 18 20 21 23 25 26 28 31 0
1 4 7 11 12 18 19 21 22 24 26 27 29 32 0
2 5 8 12 13 17 19 20 22 23 25 27 28 30 0
3 6 9 13 14 18 20 21 23 24 26 28 29 31 0
3 4 7 10 13 15 18 21 22 23 24 25 27 28 29 30 32 0
4 5 8 11 14 16 17 19 22 23 24 25 26 28 29 30 31 0
1 5 6 9 12 15 18 20 23 24 25 26 27 29 30 31 32 0
2 6 7 10 13 16 17 19 21 24 25 26 27 28 30 31 32 0
1 3 7 8 11 14 17 18 20 22 25 26 27 28 29 31 32 0
2 4 8 9 12 15 17 18 19 21 23 26 27 28 29 30 32 0
3 5 9 10 13 16 17 18 19 20 22 24 27 28 29 30 31 0
1 4 6 10 11 14 18 19 20 21 23 25 28 29 30 31 32 0
2 5 7 11 12 15 17 19 20 21 22 24 26 29 30 31 32 0
3 6 8 12 13 16 17 18 20 21 22 23 25 27 30 31 32 0
1 4 7 9 13 14 17 18 19 21 22 23 24 26 28 31 32 0
2 5 8 10 14 15 17 18 19 20 22 23 24 25 27 29 32 0
3 6 9 11 15 16 17 18 19 20 21 23 24 25 26 28 30 0
1 4 7 10 12 16 18 19 20 21 22 24 25 26 27 29 31 0
1 2 5 8 11 13 19 20 21 22 23 25 26 27 28 30 32 0
2 3 6 9 12 14 17 20 21 22 23 24 26 27 28 29 31 0
3 5 8 11 14 15 18 20 21 22 23 25 26 27 28 29 32 0
4 6 9 12 15 16 17 19 21 22 23 24 26 27 28 29 30 0
1 5 7 10 13 16 18 20 22 23 24 25 27 28 29 30 31 0
1 2 6 8 11 14 19 21 23 24 25 26 28 29 30 31 32 0
2 3 7 9 12 15 17 20 22 24 25 26 27 29 30 31 32 0
3 4 8 10 13 16 17 18 21 23 25 26 27 28 30 31 32 0
1 4 5 9 11 14 17 18 19 22 24 26 27 28 29 31 32 0
2 5 6 10 12 15 17 18 19 20 23 25 27 28 29 30 32 0
3 6 7 11 13 16 17 18 19 20 21 24 26 28 29 30 31 0
1 4 7 8 12 14 18 19 20 21 22 25 27 29 30 31 32 0
2 5 8 9 13 15 17 19 20 21 22 23 26 28 30 31 32 0
3 6 9 10 14 16 17 18 20 21 22 23 24 27 29 31 32 0
1 4 7 10 11 15 17 18 19 21 22 23 24 25 28 30 32 0
2 5 8 11 12 16 17 18 19 20 22 23 24 25 26 29 31 0
1 3 6 9 12 13 18 19 20 21 23 24 25 26 27 30 32 0
2 4 7 10 13 14 17 19 20 21 22 24 25 26 27 28 31 0
3 5 8 10 13 14 18 20 21 22 23 27 28 29 31 0
4 6 9 11 14 15 19 21 22 23 24 28 29 30 32 0
5 7 10 12 15 16 17 20 22 23 24 25 29 30 31 0
1 6 8 11 13 16 18 21 23 24 25 26 30 31 32 0
1 2 7 9 12 14 17 19 22 24 25 26 27 31 32 0
2 3 8 10 13 15 17 18 20 23 25 26 27 28 32 0
3 4 9 11 14 16 17 18 19 21 24 26 27 28 29 0
1 4 5 10 12 15 18 19 20 22 25 27 28 29 30 0
2 5 6 11 13 16 19 20 21 23 26 28 29 30 31 0
1 3 6 7 12 14 20 21 22 24 27 29 30 31 32 0
2 4 7 8 13 15 17 21 22 23 25 28 30 31 32 0
3 5 8 9 14 16 17 18 22 23 24 26 29 31 32 0
1 4 6 9 10 15 17 18 19 23 24 25 27 30 32 0
2 5 7 10 11 16 17 18 19 20 24 25 26 28 31 0
1 3 6 8 11 12 18 19 20 21 25 26 27 29 32 0
2 4 7 9 12 13 17 19 20 21 22 26 27 28 30 0
4 5 8 10 13 15 19 21 22 23 27 28 29 30 32 0
5 6 9 11 14 16 17 20 22 23 24 28 29 30 31 0
1 6 7 10 12 15 18 21 23 24 25 29 30 31 32 0
2 7 8 11 13 16 17 19 22 24 25 26 30 31 32 0
1 3 8 9 12 14 17 18 20 23 25 26 27 31 32 0
2 4 9 10 13 15 17 18 19 21 24 26 27 28 32 0
3 5 10 11 14 16 17 18 19 20 22 25 27 28 29 0
1 4 6 11 12 15 18 19 20 21 23 26 28 29 30 0
2 5 7 12 13 16 19 20 21 22 24 27 29 30 31 0
1 3 6 8 13 14 20 21 22 23 25 28 30 31 32 0
2 4 7 9 14 15 17 21 22 23 24 26 29 31 32 0
3 5 8 10 15 16 17 18 22 23 24 25 27 30 32 0
1 4 6 9 11 16 17 18 19 23 24 25 26 28 31 0
1 2 5 7 10 12 18 19 20 24 25 26 27 29 32 0
2 3 6 8 11 13 17 19 20 21 25 26 27 28 30 0
3 4 7 9 12 14 18 20 21 22 26 27 28 29 31 0
3 6 8 13 15 18 20 21 22 23 25 28 29 30 31 32 0
4 7 9 14 16 17 19 21 22 23 24 26 29 30 31 32 0
1 5 8 10 15 17 18 20 22 23 24 25 27 30 31 32 0
2 6 9 11 16 17 18 19 21 23 24 25 26 28 31 32 0
1 3 7 10 12 17 18 19 20 22 24 25 26 27 29 32 0
2 4 8 11 13 17 18 19 20 21 23 25 26 27 28 30 0
3 5 9 12 14 18 19 20 21 22 24 26 27 28 29 31 0
4 6 10 13 15 19 20 21 22 23 25 27 28 29 30 32 0
5 7 11 14 16 17 20 21 22 23 24 26 28 29 30 31 0
1 6 8 12 15 18 21 22 23 24 25 27 29 30 31 32 0
2 7 9 13 16 17 19 22 23 24 25 26 28 30 31 32 0
1 3 8 10 14 17 18 20 23 24 25 26 27 29 31 32 0
2 4 9 11 15 17 18 19 21 24 25 26 27 28 30 32 0
3 5 10 12 16 17 18 19 20 22 25 26 27 28 29 31 0
1 4 6 11 13 18 19 20 21 23 26 27 28 29 30 32 0
2 5 7 12 14 17 19 20 21 22 24 27 28 29 30 31 0
3 5 10 12 15 18 19 20 21 22 25 27 28 29 30 32 0
4 6 11 13 16 17 19 20 21 22 23 26 28 29 30 31 0
1 5 7 12 14 18 20 21 22 23 24 27 29 30 31 32 0
2 6 8 13 15 17 19 21 22 23 24 25 28 30 31 32 0
3 7 9 14 16 17 18 20 22 23 24 25 26 29 31 32 0
1 4 8 10 15 17 18 19 21 23 24 25 26 27 30 32 0
2 5 9 11 16 17 18 19 20 22 24 25 26 27 28 31 0
1 3 6 10 12 18 19 20 21 23 25 26 27 28 29 32 0
2 4 7 11 13 17 19 20 21 22 24 26 27 28 29 30 0
3 5 8 12 14 18 20 21 22 23 25 27 28 29 30 31 0
4 6 9 13 15 19 21 22 23 24 26 28 29 30 31 32 0
5 7 10 14 16 17 20 22 23 24 25 27 29 30 31 32 0
1 6 8 11 15 17 18 21 23 24 25 26 28 30 31 32 0
2 7 9 12 16 17 18 19 22 24 25 26 27 29 31 32 0
1 3 8 10 13 17 18 19 20 23 25 26 27 28 30 32 0
2 4 9 11 14 17 18 19 20 21 24 26 27 28 29 31 0
3 4 7 8 11 14 15 18 21 22 25 26 27 28 29 31 32 0
4 5 8 9 12 15 16 17 19 22 23 26 27 28 29 30 32 0
1 5 6 9 10 13 16 17 18 20 23 24 27 28 29 30 31 0
1 2 6 7 10 11 14 18 19 21 24 25 28 29 30 31 32 0
2 3 7 8 11 12 15 17 19 20 22 25 26 29 30 31 32 0
3 4 8 9 12 13 16 17 18 20 21 23 26 27 30 31 32 0
1 4 5 9 10 13 14 17 18 19 21 22 24 27 28 31 32 0
2 5 6 10 11 14 15 17 18 19 20 22 23 25 28 29 32 0
3 6 7 11 12 15 16 17 18 19 20 21 23 24 26 29 30 0
1 4 7 8 12 13 16 18 19 20 21 22 24 25 27 30 31 0
1 2 5 8 9 13 14 19 20 21 22 23 25 26 28 31 32 0
2 3 6 9 10 14 15 17 20 21 22 23 24 26 27 29 32 0
3 4 7 10 11 15 16 17 18 21 22 23 24 25 27 28 30 0
1 4 5 8 11 12 16 18 19 22 23 24 25 26 28 29 31 0
1 2 5 6 9 12 13 19 20 23 24 25 26 27 29 30 32 0
2 3 6 7 10 13 14 17 20 21 24 25 26 27 28 30 31 0
3 4 7 10 11 14 15 18 19 21 22 23 24 25 28 29 32 0
4 5 8 11 12 15 16 17 19 20 22 23 24 25 26 29 30 0
1 5 6 9 12 13 16 18 20 21 23 24 25 26 27 30 31 0
1 2 6 7 10 13 14 19 21 22 24 25 26 27 28 31 32 0
2 3 7 8 11 14 15 17 20 22 23 25 26 27 28 29 32 0
3 4 8 9 12 15 16 17 18 21 23 24 26 27 28 29 30 0
1 4 5 9 10 13 16 18 19 22 24 25 27 28 29 30 31 0
1 2 5 6 10 11 14 19 20 23 25 26 28 29 30 31 32 0
2 3 6 7 11 12 15 17 20 21 24 26 27 29 30 31 32 0
3 4 7 8 12 13 16 17 18 21 22 25 27 28 30 31 32 0
1 4 5 8 9 13 14 17 18 19 22 23 26 28 29 31 32 0
2 5 6 9 10 14 15 17 18 19 20 23 24 27 29 30 32 0
3 6 7 10 11 15 16 17 18 19 20 21 24 25 28 30 31 0
1 4 7 8 11 12 16 18 19 20 21 22 25 26 29 31 32 0
1 2 5 8 9 12 13 17 19 20 21 22 23 26 27 30 32 0
2 3 6 9 10 13 14 17 18 20 21 22 23 24 27 28 31 0
3 4 8 11 14 15 18 21 23 25 26 28 29 31 32 0
4 5 9 12 15 16 17 19 22 24 26 27 29 30 32 0
1 5 6 10 13 16 17 18 20 23 25 27 28 30 31 0
1 2 6 7 11 14 18 19 21 24 26 28 29 31 32 0
2 3 7 8 12 15 17 19 20 22 25 27 29 30 32 0
3 4 8 9 13 16 17 18 20 21 23 26 28 30 31 0
1 4 5 9 10 14 18 19 21 22 24 27 29 31 32 0
2 5 6 10 11 15 17 19 20 22 23 25 28 30 32 0
3 6 7 11 12 16 17 18 20 21 23 24 26 29 31 0
1 4 7 8 12 13 18 19 21 22 24 25 27 30 32 0
2 5 8 9 13 14 17 19 20 22 23 25 26 28 31 0
3 6 9 10 14 15 18 20 21 23 24 26 27 29 32 0
4 7 10 11 15 16 17 19 21 22 24 25 27 28 30 0
1 5 8 11 12 16 18 20 22 23 25 26 28 29 31 0
1 2 6 9 12 13 19 21 23 24 26 27 29 30 32 0
2 3 7 10 13 14 17 20 22 24 25 27 28 30 31 0
3 4 7 10 14 15 18 19 21 22 24 25 27 29 32 0
4 5 8 11 15 16 17 19 20 22 23 25 26 28 30 0
1 5 6 9 12 16 18 20 21 23 24 26 27 29 31 0
1 2 6 7 10 13 19 21 22 24 25 27 28 30 32 0
2 3 7 8 11 14 17 20 22 23 25 26 28 29 31 0
3 4 8 9 12 15 18 21 23 24 26 27 29 30 32 0
4 5 9 10 13 16 17 19 22 24 25 27 28 30 31 0
1 5 6 10 11 14 18 20 23 25 26 28 29 31 32 0
2 6 7 11 12 15 17 19 21 24 26 27 29 30 32 0
3 7 8 12 13 16 17 18 20 22 25 27 28 30 31 0
1 4 8 9 13 14 18 19 21 23 26 28 29 31 32 0
2 5 9 10 14 15 17 19 20 22 24 27 29 30 32 0
3 6 10 11 15 16 17 18 20 21 23 25 28 30 31 0
1 4 7 11 12 16 18 19 21 22 24 26 29 31 32 0
1 2 5 8 12 13 17 19 20 22 23 25 27 30 32 0
2 3 6 9 13 14 17 18 20 21 23 24 26 28 31 0
3 4 7 8 11 14 15 18 19 21 22 23 25 26 28 29 32 0
4 5 8 9 12 15 16 17 19 20 22 23 24 26 27 29 30 0
1 5 6 9 10 13 16 18 20 21 23 24 25 27 28 30 31 0
1 2 6 7 10 11 14 19 21 22 24 25 26 28 29 31 32 0
2 3 7 8 11 12 15 17 20 22 23 25 26 27 29 30 32 0
3 4 8 9 12 13 16 17 18 21 23 24 26 27 28 30 31 0
1 4 5 9 10 13 14 18 19 22 24 25 27 28 29 31 32 0
2 5 6 10 11 14 15 17 19 20 23 25 26 28 29 30 32 0
3 6 7 11 12 15 16 17 18 20 21 24 26 27 29 30 31 0
1 4 7 8 12 13 16 18 19 21 22 25 27 28 30 31 32 0
1 2 5 8 9 13 14 17 19 20 22 23 26 28 29 31 32 0
2 3 6 9 10 14 15 17 18 20 21 23 24 27 29 30 32 0
3 4 7 10 11 15 16 17 18 19 21 22 24 25 28 30 31 0
1 4 5 8 11 12 16 18 19 20 22 23 25 26 29 31 32 0
1 2 5 6 9 12 13 17 19 20 21 23 24 26 27 30 32 0
2 3 6 7 10 13 14 17 18 20 21 22 24 25 27 28 31 0
3 4 7 10 11 14 15 18 21 22 24 25 27 28 29 31 32 0
4 5 8 11 12 15 16 17 19 22 23 25 26 28 29 30 32 0
1 5 6 9 12 13 16 17 18 20 23 24 26 27 29 30 31 0
1 2 6 7 10 13 14 18 19 21 24 25 27 28 30 31 32 0
2 3 7 8 11 14 15 17 19 20 22 25 26 28 29 31 32 0
3 4 8 9 12 15 16 17 18 20 21 23 26 27 29 30 32 0
1 4 5 9 10 13 16 17 18 19 21 22 24 27 28 30 31 0
1 2 5 6 10 11 14 18 19 20 22 23 25 28 29 31 32 0
2 3 6 7 11 12 15 17 19 20 21 23 24 26 29 30 32 0
3 4 7 8 12 13 16 17 18 20 21 22 24 25 27 30 31 0
1 4 5 8 9 13 14 18 19 21 22 23 25 26 28 31 32 0
2 5 6 9 10 14 15 17 19 20 22 23 24 26 27 29 32 0
3 6 7 10 11 15 16 17 18 20 21 23 24 25 27 28 30 0
1 4 7 8 11 12 16 18 19 21 22 24 25 26 28 29 31 0
1 2 5 8 9 12 13 19 20 22 23 25 26 27 29 30 32 0
2 3 6 9 10 13 14 17 20 21 23 24 26 27 28 30 31 0
