p cnf 87 272
-1 19 0
-19 20 0
-2 -19 21 0
-21 22 0
-3 -21 23 0
-23 24 0
-4 -23 25 0
-25 26 0
-5 -25 27 0
-27 28 0
-6 -27 0
-2 20 0
-20 29 0
-3 -20 22 0
-22 30 0
-4 -22 24 0
-24 31 0
-5 -24 26 0
-26 32 0
-6 -26 28 0
-28 33 0
-7 -28 0
-3 29 0
-29 34 0
-4 -29 30 0
-30 35 0
-5 -30 31 0
-31 36 0
-6 -31 32 0
-32 37 0
-7 -32 33 0
-33 38 0
-8 -33 0
-4 34 0
-34 39 0
-5 -34 35 0
-35 40 0
-6 -35 36 0
-36 41 0
-7 -36 37 0
-37 42 0
-8 -37 38 0
-38 43 0
-9 -38 0
-5 39 0
-39 44 0
-6 -39 40 0
-40 45 0
-7 -40 41 0
-41 46 0
-8 -41 42 0
-42 47 0
-9 -42 43 0
-43 48 0
-10 -43 0
-6 44 0
-44 49 0
-7 -44 45 0
-45 50 0
-8 -45 46 0
-46 51 0
-9 -46 47 0
-47 52 0
-10 -47 48 0
-48 53 0
-11 -48 0
-7 49 0
-49 54 0
-8 -49 50 0
-50 55 0
-9 -50 51 0
-51 56 0
-10 -51 52 0
-52 57 0
-11 -52 53 0
-53 58 0
-12 -53 0
-8 54 0
-54 59 0
-9 -54 55 0
-55 60 0
-10 -55 56 0
-56 61 0
-11 -56 57 0
-57 62 0
-12 -57 58 0
-58 63 0
-13 -58 0
-9 59 0
-59 64 0
-10 -59 60 0
-60 65 0
-11 -60 61 0
-61 66 0
-12 -61 62 0
-62 67 0
-13 -62 63 0
-63 68 0
-14 -63 0
-10 64 0
-64 69 0
-11 -64 65 0
-65 70 0
-12 -65 66 0
-66 71 0
-13 -66 67 0
-67 72 0
-14 -67 68 0
-68 73 0
-15 -68 0
-11 69 0
-69 74 0
-12 -69 70 0
-70 75 0
-13 -70 71 0
-71 76 0
-14 -71 72 0
-72 77 0
-15 -72 73 0
-73 78 0
-16 -73 0
-12 74 0
-74 79 0
-13 -74 75 0
-75 80 0
-14 -75 76 0
-76 81 0
-15 -76 77 0
-77 82 0
-16 -77 78 0
-78 83 0
-17 -78 0
-13 79 0
-14 -79 80 0
-15 -80 81 0
-16 -81 82 0
-17 -82 83 0
-18 -83 0
-84 1 0
-84 9 0
-84 2 0
-84 -10 0
-85 1 0
-85 9 0
-85 10 0
-85 -2 0
-86 10 0
-86 14 0
-86 15 0
-86 -1 0
-87 1 0
-87 10 0
-87 15 0
-87 -14 0
84 85 86 87 0
2 5 6 9 11 12 13 16 17 18 0
1 3 6 7 10 12 13 14 17 18 0
2 4 7 8 10 11 13 14 15 18 0
3 5 8 9 10 11 12 14 15 16 0
1 4 6 9 11 12 13 15 16 17 0
1 2 5 7 12 13 14 16 17 18 0
2 3 6 8 10 13 14 15 17 18 0
3 4 7 9 10 11 14 15 16 18 0
1 4 5 8 10 11 12 15 16 17 0
2 5 6 8 9 11 12 13 18 0
1 3 6 7 9 10 12 13 14 0
1 2 4 7 8 11 13 14 15 0
2 3 5 8 9 12 14 15 16 0
1 3 4 6 9 13 15 16 17 0
1 2 4 5 7 14 16 17 18 0
2 3 5 6 8 10 15 17 18 0
3 4 6 7 9 10 11 16 18 0
1 4 5 7 8 10 11 12 17 0
2 3 5 6 9 11 16 17 18 0
1 3 4 6 7 10 12 17 18 0
2 4 5 7 8 10 11 13 18 0
3 5 6 8 9 10 11 12 14 0
1 4 6 7 9 11 12 13 15 0
1 2 5 7 8 12 13 14 16 0
2 3 6 8 9 13 14 15 17 0
1 3 4 7 9 14 15 16 18 0
1 2 4 5 8 10 15 16 17 0
2 4 5 6 8 9 11 12 18 0
1 3 5 6 7 9 10 12 13 0
1 2 4 6 7 8 11 13 14 0
2 3 5 7 8 9 12 14 15 0
1 3 4 6 8 9 13 15 16 0
1 2 4 5 7 9 14 16 17 0
1 2 3 5 6 8 15 17 18 0
2 3 4 6 7 9 10 16 18 0
1 3 4 5 7 8 10 11 17 0
2 3 5 6 7 9 11 17 18 0
1 3 4 6 7 8 10 12 18 0
2 4 5 7 8 9 10 11 13 0
1 3 5 6 8 9 11 12 14 0
1 2 4 6 7 9 12 13 15 0
1 2 3 5 7 8 13 14 16 0
2 3 4 6 8 9 14 15 17 0
1 3 4 5 7 9 15 16 18 0
1 2 4 5 6 8 10 16 17 0
2 3 5 6 8 9 11 13 16 18 0
1 3 4 6 7 9 10 12 14 17 0
1 2 4 5 7 8 11 13 15 18 0
2 3 5 6 8 9 10 12 14 16 0
1 3 4 6 7 9 11 13 15 17 0
1 2 4 5 7 8 12 14 16 18 0
2 3 5 6 8 9 10 13 15 17 0
1 3 4 6 7 9 11 14 16 18 0
1 2 4 5 7 8 10 12 15 17 0
2 4 6 9 11 13 16 17 0
1 3 5 7 12 14 17 18 0
2 4 6 8 10 13 15 18 0
3 5 7 9 10 11 14 16 0
1 4 6 8 11 12 15 17 0
2 5 7 9 12 13 16 18 0
1 3 6 8 10 13 14 17 0
2 4 7 9 11 14 15 18 0
1 3 5 8 10 12 15 16 0
3 4 6 7 11 17 0
4 5 7 8 12 18 0
5 6 8 9 10 13 0
1 6 7 9 11 14 0
1 2 7 8 12 15 0
2 3 8 9 13 16 0
1 3 4 9 14 17 0
1 2 4 5 15 18 0
2 3 5 6 10 16 0
3 5 6 8 11 16 17 18 0
4 6 7 9 10 12 17 18 0
1 5 7 8 10 11 13 18 0
2 6 8 9 10 11 12 14 0
1 3 7 9 11 12 13 15 0
1 2 4 8 12 13 14 16 0
2 3 5 9 13 14 15 17 0
1 3 4 6 14 15 16 18 0
2 4 5 7 10 15 16 17 0
3 5 6 8 11 12 13 18 0
4 6 7 9 10 12 13 14 0
1 5 7 8 11 13 14 15 0
2 6 8 9 12 14 15 16 0
1 3 7 9 13 15 16 17 0
1 2 4 8 14 16 17 18 0
2 3 5 9 10 15 17 18 0
1 3 4 6 10 11 16 18 0
2 4 5 7 10 11 12 17 0
4 7 12 13 14 15 16 17 0
5 8 13 14 15 16 17 18 0
6 9 10 14 15 16 17 18 0
1 7 10 11 15 16 17 18 0
2 8 10 11 12 16 17 18 0
3 9 10 11 12 13 17 18 0
1 4 10 11 12 13 14 18 0
2 5 10 11 12 13 14 15 0
3 6 11 12 13 14 15 16 0
3 6 8 11 13 14 15 16 18 0
4 7 9 10 12 14 15 16 17 0
1 5 8 11 13 15 16 17 18 0
2 6 9 10 12 14 16 17 18 0
1 3 7 10 11 13 15 17 18 0
2 4 8 10 11 12 14 16 18 0
3 5 9 10 11 12 13 15 17 0
1 4 6 11 12 13 14 16 18 0
2 5 7 10 12 13 14 15 17 0
3 5 8 11 13 14 15 16 18 0
4 6 9 10 12 14 15 16 17 0
1 5 7 11 13 15 16 17 18 0
2 6 8 10 12 14 16 17 18 0
3 7 9 10 11 13 15 17 18 0
1 4 8 10 11 12 14 16 18 0
2 5 9 10 11 12 13 15 17 0
1 3 6 11 12 13 14 16 18 0
2 4 7 10 12 13 14 15 17 0
