p cnf 303 12738
-1 39 0
-39 40 0
-2 -39 41 0
-41 42 0
-3 -41 43 0
-43 44 0
-4 -43 45 0
-45 46 0
-5 -45 47 0
-47 48 0
-6 -47 49 0
-49 50 0
-7 -49 51 0
-51 52 0
-8 -51 53 0
-53 54 0
-9 -53 55 0
-55 56 0
-10 -55 0
-2 40 0
-40 57 0
-3 -40 42 0
-42 58 0
-4 -42 44 0
-44 59 0
-5 -44 46 0
-46 60 0
-6 -46 48 0
-48 61 0
-7 -48 50 0
-50 62 0
-8 -50 52 0
-52 63 0
-9 -52 54 0
-54 64 0
-10 -54 56 0
-56 65 0
-11 -56 0
-3 57 0
-57 66 0
-4 -57 58 0
-58 67 0
-5 -58 59 0
-59 68 0
-6 -59 60 0
-60 69 0
-7 -60 61 0
-61 70 0
-8 -61 62 0
-62 71 0
-9 -62 63 0
-63 72 0
-10 -63 64 0
-64 73 0
-11 -64 65 0
-65 74 0
-12 -65 0
-4 66 0
-66 75 0
-5 -66 67 0
-67 76 0
-6 -67 68 0
-68 77 0
-7 -68 69 0
-69 78 0
-8 -69 70 0
-70 79 0
-9 -70 71 0
-71 80 0
-10 -71 72 0
-72 81 0
-11 -72 73 0
-73 82 0
-12 -73 74 0
-74 83 0
-13 -74 0
-5 75 0
-75 84 0
-6 -75 76 0
-76 85 0
-7 -76 77 0
-77 86 0
-8 -77 78 0
-78 87 0
-9 -78 79 0
-79 88 0
-10 -79 80 0
-80 89 0
-11 -80 81 0
-81 90 0
-12 -81 82 0
-82 91 0
-13 -82 83 0
-83 92 0
-14 -83 0
-6 84 0
-84 93 0
-7 -84 85 0
-85 94 0
-8 -85 86 0
-86 95 0
-9 -86 87 0
-87 96 0
-10 -87 88 0
-88 97 0
-11 -88 89 0
-89 98 0
-12 -89 90 0
-90 99 0
-13 -90 91 0
-91 100 0
-14 -91 92 0
-92 101 0
-15 -92 0
-7 93 0
-93 102 0
-8 -93 94 0
-94 103 0
-9 -94 95 0
-95 104 0
-10 -95 96 0
-96 105 0
-11 -96 97 0
-97 106 0
-12 -97 98 0
-98 107 0
-13 -98 99 0
-99 108 0
-14 -99 100 0
-100 109 0
-15 -100 101 0
-101 110 0
-16 -101 0
-8 102 0
-102 111 0
-9 -102 103 0
-103 112 0
-10 -103 104 0
-104 113 0
-11 -104 105 0
-105 114 0
-12 -105 106 0
-106 115 0
-13 -106 107 0
-107 116 0
-14 -107 108 0
-108 117 0
-15 -108 109 0
-109 118 0
-16 -109 110 0
-110 119 0
-17 -110 0
-9 111 0
-111 120 0
-10 -111 112 0
-112 121 0
-11 -112 113 0
-113 122 0
-12 -113 114 0
-114 123 0
-13 -114 115 0
-115 124 0
-14 -115 116 0
-116 125 0
-15 -116 117 0
-117 126 0
-16 -117 118 0
-118 127 0
-17 -118 119 0
-119 128 0
-18 -119 0
-10 120 0
-120 129 0
-11 -120 121 0
-121 130 0
-12 -121 122 0
-122 131 0
-13 -122 123 0
-123 132 0
-14 -123 124 0
-124 133 0
-15 -124 125 0
-125 134 0
-16 -125 126 0
-126 135 0
-17 -126 127 0
-127 136 0
-18 -127 128 0
-128 137 0
-19 -128 0
-11 129 0
-129 138 0
-12 -129 130 0
-130 139 0
-13 -130 131 0
-131 140 0
-14 -131 132 0
-132 141 0
-15 -132 133 0
-133 142 0
-16 -133 134 0
-134 143 0
-17 -134 135 0
-135 144 0
-18 -135 136 0
-136 145 0
-19 -136 137 0
-137 146 0
-20 -137 0
-12 138 0
-138 147 0
-13 -138 139 0
-139 148 0
-14 -139 140 0
-140 149 0
-15 -140 141 0
-141 150 0
-16 -141 142 0
-142 151 0
-17 -142 143 0
-143 152 0
-18 -143 144 0
-144 153 0
-19 -144 145 0
-145 154 0
-20 -145 146 0
-146 155 0
-21 -146 0
-13 147 0
-147 156 0
-14 -147 148 0
-148 157 0
-15 -148 149 0
-149 158 0
-16 -149 150 0
-150 159 0
-17 -150 151 0
-151 160 0
-18 -151 152 0
-152 161 0
-19 -152 153 0
-153 162 0
-20 -153 154 0
-154 163 0
-21 -154 155 0
-155 164 0
-22 -155 0
-14 156 0
-156 165 0
-15 -156 157 0
-157 166 0
-16 -157 158 0
-158 167 0
-17 -158 159 0
-159 168 0
-18 -159 160 0
-160 169 0
-19 -160 161 0
-161 170 0
-20 -161 162 0
-162 171 0
-21 -162 163 0
-163 172 0
-22 -163 164 0
-164 173 0
-23 -164 0
-15 165 0
-165 174 0
-16 -165 166 0
-166 175 0
-17 -166 167 0
-167 176 0
-18 -167 168 0
-168 177 0
-19 -168 169 0
-169 178 0
-20 -169 170 0
-170 179 0
-21 -170 171 0
-171 180 0
-22 -171 172 0
-172 181 0
-23 -172 173 0
-173 182 0
-24 -173 0
-16 174 0
-174 183 0
-17 -174 175 0
-175 184 0
-18 -175 176 0
-176 185 0
-19 -176 177 0
-177 186 0
-20 -177 178 0
-178 187 0
-21 -178 179 0
-179 188 0
-22 -179 180 0
-180 189 0
-23 -180 181 0
-181 190 0
-24 -181 182 0
-182 191 0
-25 -182 0
-17 183 0
-183 192 0
-18 -183 184 0
-184 193 0
-19 -184 185 0
-185 194 0
-20 -185 186 0
-186 195 0
-21 -186 187 0
-187 196 0
-22 -187 188 0
-188 197 0
-23 -188 189 0
-189 198 0
-24 -189 190 0
-190 199 0
-25 -190 191 0
-191 200 0
-26 -191 0
-18 192 0
-192 201 0
-19 -192 193 0
-193 202 0
-20 -193 194 0
-194 203 0
-21 -194 195 0
-195 204 0
-22 -195 196 0
-196 205 0
-23 -196 197 0
-197 206 0
-24 -197 198 0
-198 207 0
-25 -198 199 0
-199 208 0
-26 -199 200 0
-200 209 0
-27 -200 0
-19 201 0
-201 210 0
-20 -201 202 0
-202 211 0
-21 -202 203 0
-203 212 0
-22 -203 204 0
-204 213 0
-23 -204 205 0
-205 214 0
-24 -205 206 0
-206 215 0
-25 -206 207 0
-207 216 0
-26 -207 208 0
-208 217 0
-27 -208 209 0
-209 218 0
-28 -209 0
-20 210 0
-210 219 0
-21 -210 211 0
-211 220 0
-22 -211 212 0
-212 221 0
-23 -212 213 0
-213 222 0
-24 -213 214 0
-214 223 0
-25 -214 215 0
-215 224 0
-26 -215 216 0
-216 225 0
-27 -216 217 0
-217 226 0
-28 -217 218 0
-218 227 0
-29 -218 0
-21 219 0
-219 228 0
-22 -219 220 0
-220 229 0
-23 -220 221 0
-221 230 0
-24 -221 222 0
-222 231 0
-25 -222 223 0
-223 232 0
-26 -223 224 0
-224 233 0
-27 -224 225 0
-225 234 0
-28 -225 226 0
-226 235 0
-29 -226 227 0
-227 236 0
-30 -227 0
-22 228 0
-228 237 0
-23 -228 229 0
-229 238 0
-24 -229 230 0
-230 239 0
-25 -230 231 0
-231 240 0
-26 -231 232 0
-232 241 0
-27 -232 233 0
-233 242 0
-28 -233 234 0
-234 243 0
-29 -234 235 0
-235 244 0
-30 -235 236 0
-236 245 0
-31 -236 0
-23 237 0
-237 246 0
-24 -237 238 0
-238 247 0
-25 -238 239 0
-239 248 0
-26 -239 240 0
-240 249 0
-27 -240 241 0
-241 250 0
-28 -241 242 0
-242 251 0
-29 -242 243 0
-243 252 0
-30 -243 244 0
-244 253 0
-31 -244 245 0
-245 254 0
-32 -245 0
-24 246 0
-246 255 0
-25 -246 247 0
-247 256 0
-26 -247 248 0
-248 257 0
-27 -248 249 0
-249 258 0
-28 -249 250 0
-250 259 0
-29 -250 251 0
-251 260 0
-30 -251 252 0
-252 261 0
-31 -252 253 0
-253 262 0
-32 -253 254 0
-254 263 0
-33 -254 0
-25 255 0
-255 264 0
-26 -255 256 0
-256 265 0
-27 -256 257 0
-257 266 0
-28 -257 258 0
-258 267 0
-29 -258 259 0
-259 268 0
-30 -259 260 0
-260 269 0
-31 -260 261 0
-261 270 0
-32 -261 262 0
-262 271 0
-33 -262 263 0
-263 272 0
-34 -263 0
-26 264 0
-264 273 0
-27 -264 265 0
-265 274 0
-28 -265 266 0
-266 275 0
-29 -266 267 0
-267 276 0
-30 -267 268 0
-268 277 0
-31 -268 269 0
-269 278 0
-32 -269 270 0
-270 279 0
-33 -270 271 0
-271 280 0
-34 -271 272 0
-272 281 0
-35 -272 0
-27 273 0
-273 282 0
-28 -273 274 0
-274 283 0
-29 -274 275 0
-275 284 0
-30 -275 276 0
-276 285 0
-31 -276 277 0
-277 286 0
-32 -277 278 0
-278 287 0
-33 -278 279 0
-279 288 0
-34 -279 280 0
-280 289 0
-35 -280 281 0
-281 290 0
-36 -281 0
-28 282 0
-282 291 0
-29 -282 283 0
-283 292 0
-30 -283 284 0
-284 293 0
-31 -284 285 0
-285 294 0
-32 -285 286 0
-286 295 0
-33 -286 287 0
-287 296 0
-34 -287 288 0
-288 297 0
-35 -288 289 0
-289 298 0
-36 -289 290 0
-290 299 0
-37 -290 0
-29 291 0
-30 -291 292 0
-31 -292 293 0
-32 -293 294 0
-33 -294 295 0
-34 -295 296 0
-35 -296 297 0
-36 -297 298 0
-37 -298 299 0
-38 -299 0
-300 1 0
-300 2 0
-300 19 0
-300 -20 0
-301 1 0
-301 19 0
-301 20 0
-301 -2 0
-302 35 0
-302 20 0
-302 24 0
-302 -1 0
-303 1 0
-303 35 0
-303 20 0
-303 -24 0
300 301 302 303 0
2 5 8 11 14 16 19 22 23 25 26 28 29 31 32 36 37 0
1 3 6 9 12 15 17 23 24 26 27 29 30 32 33 37 38 0
2 4 7 10 13 16 18 20 24 25 27 28 30 31 33 34 38 0
3 5 8 11 14 17 19 20 21 25 26 28 29 31 32 34 35 0
1 4 6 9 12 15 18 21 22 26 27 29 30 32 33 35 36 0
2 5 7 10 13 16 19 22 23 27 28 30 31 33 34 36 37 0
1 3 6 8 11 14 17 23 24 28 29 31 32 34 35 37 38 0
2 4 7 9 12 15 18 20 24 25 29 30 32 33 35 36 38 0
3 5 8 10 13 16 19 20 21 25 26 30 31 33 34 36 37 0
1 4 6 9 11 14 17 21 22 26 27 31 32 34 35 37 38 0
2 5 7 10 12 15 18 20 22 23 27 28 32 33 35 36 38 0
3 6 8 11 13 16 19 20 21 23 24 28 29 33 34 36 37 0
1 4 7 9 12 14 17 21 22 24 25 29 30 34 35 37 38 0
2 5 8 10 13 15 18 20 22 23 25 26 30 31 35 36 38 0
3 6 9 11 14 16 19 20 21 23 24 26 27 31 32 36 37 0
1 4 7 10 12 15 17 21 22 24 25 27 28 32 33 37 38 0
2 5 8 11 13 16 18 20 22 23 25 26 28 29 33 34 38 0
3 6 9 12 14 17 19 20 21 23 24 26 27 29 30 34 35 0
1 4 7 10 13 15 18 21 22 24 25 27 28 30 31 35 36 0
2 5 8 11 14 16 18 19 21 22 23 25 26 28 29 31 32 0
1 3 6 9 12 15 17 19 22 23 24 26 27 29 30 32 33 0
1 2 4 7 10 13 16 18 23 24 25 27 28 30 31 33 34 0
2 3 5 8 11 14 17 19 24 25 26 28 29 31 32 34 35 0
1 3 4 6 9 12 15 18 25 26 27 29 30 32 33 35 36 0
2 4 5 7 10 13 16 19 26 27 28 30 31 33 34 36 37 0
1 3 5 6 8 11 14 17 27 28 29 31 32 34 35 37 38 0
2 4 6 7 9 12 15 18 20 28 29 30 32 33 35 36 38 0
3 5 7 8 10 13 16 19 20 21 29 30 31 33 34 36 37 0
1 4 6 8 9 11 14 17 21 22 30 31 32 34 35 37 38 0
2 5 7 9 10 12 15 18 20 22 23 31 32 33 35 36 38 0
3 6 8 10 11 13 16 19 20 21 23 24 32 33 34 36 37 0
1 4 7 9 11 12 14 17 21 22 24 25 33 34 35 37 38 0
2 5 8 10 12 13 15 18 20 22 23 25 26 34 35 36 38 0
3 6 9 11 13 14 16 19 20 21 23 24 26 27 35 36 37 0
1 4 7 10 12 14 15 17 21 22 24 25 27 28 36 37 38 0
2 5 8 11 13 15 16 18 20 22 23 25 26 28 29 37 38 0
3 6 9 12 14 16 17 19 20 21 23 24 26 27 29 30 38 0
1 4 7 10 13 15 17 18 20 21 22 24 25 27 28 30 31 0
2 3 5 7 10 13 16 19 27 28 30 31 33 34 36 37 38 0
1 3 4 6 8 11 14 17 20 28 29 31 32 34 35 37 38 0
2 4 5 7 9 12 15 18 20 21 29 30 32 33 35 36 38 0
3 5 6 8 10 13 16 19 20 21 22 30 31 33 34 36 37 0
1 4 6 7 9 11 14 17 21 22 23 31 32 34 35 37 38 0
2 5 7 8 10 12 15 18 20 22 23 24 32 33 35 36 38 0
3 6 8 9 11 13 16 19 20 21 23 24 25 33 34 36 37 0
1 4 7 9 10 12 14 17 21 22 24 25 26 34 35 37 38 0
2 5 8 10 11 13 15 18 20 22 23 25 26 27 35 36 38 0
3 6 9 11 12 14 16 19 20 21 23 24 26 27 28 36 37 0
1 4 7 10 12 13 15 17 21 22 24 25 27 28 29 37 38 0
2 5 8 11 13 14 16 18 20 22 23 25 26 28 29 30 38 0
3 6 9 12 14 15 17 19 20 21 23 24 26 27 29 30 31 0
1 4 7 10 13 15 16 18 21 22 24 25 27 28 30 31 32 0
2 5 8 11 14 16 17 19 22 23 25 26 28 29 31 32 33 0
1 3 6 9 12 15 17 18 23 24 26 27 29 30 32 33 34 0
2 4 7 10 13 16 18 19 24 25 27 28 30 31 33 34 35 0
1 3 5 8 11 14 17 19 25 26 28 29 31 32 34 35 36 0
1 2 4 6 9 12 15 18 26 27 29 30 32 33 35 36 37 0
2 5 8 11 12 15 17 19 22 23 25 26 27 28 29 32 33 38 0
1 3 6 9 12 13 16 18 20 23 24 26 27 28 29 30 33 34 0
2 4 7 10 13 14 17 19 21 24 25 27 28 29 30 31 34 35 0
1 3 5 8 11 14 15 18 22 25 26 28 29 30 31 32 35 36 0
2 4 6 9 12 15 16 19 23 26 27 29 30 31 32 33 36 37 0
1 3 5 7 10 13 16 17 24 27 28 30 31 32 33 34 37 38 0
2 4 6 8 11 14 17 18 20 25 28 29 31 32 33 34 35 38 0
3 5 7 9 12 15 18 19 20 21 26 29 30 32 33 34 35 36 0
1 4 6 8 10 13 16 19 21 22 27 30 31 33 34 35 36 37 0
1 2 5 7 9 11 14 17 22 23 28 31 32 34 35 36 37 38 0
2 3 6 8 10 12 15 18 20 23 24 29 32 33 35 36 37 38 0
3 4 7 9 11 13 16 19 20 21 24 25 30 33 34 36 37 38 0
1 4 5 8 10 12 14 17 20 21 22 25 26 31 34 35 37 38 0
2 5 6 9 11 13 15 18 20 21 22 23 26 27 32 35 36 38 0
3 6 7 10 12 14 16 19 20 21 22 23 24 27 28 33 36 37 0
1 4 7 8 11 13 15 17 21 22 23 24 25 28 29 34 37 38 0
2 5 8 9 12 14 16 18 20 22 23 24 25 26 29 30 35 38 0
3 6 9 10 13 15 17 19 20 21 23 24 25 26 27 30 31 36 0
1 4 7 10 11 14 16 18 21 22 24 25 26 27 28 31 32 37 0
2 4 6 9 10 13 16 19 21 26 27 30 31 32 33 34 36 37 0
1 3 5 7 10 11 14 17 22 27 28 31 32 33 34 35 37 38 0
2 4 6 8 11 12 15 18 20 23 28 29 32 33 34 35 36 38 0
3 5 7 9 12 13 16 19 20 21 24 29 30 33 34 35 36 37 0
1 4 6 8 10 13 14 17 21 22 25 30 31 34 35 36 37 38 0
2 5 7 9 11 14 15 18 20 22 23 26 31 32 35 36 37 38 0
3 6 8 10 12 15 16 19 20 21 23 24 27 32 33 36 37 38 0
1 4 7 9 11 13 16 17 20 21 22 24 25 28 33 34 37 38 0
2 5 8 10 12 14 17 18 20 21 22 23 25 26 29 34 35 38 0
3 6 9 11 13 15 18 19 20 21 22 23 24 26 27 30 35 36 0
1 4 7 10 12 14 16 19 21 22 23 24 25 27 28 31 36 37 0
1 2 5 8 11 13 15 17 22 23 24 25 26 28 29 32 37 38 0
2 3 6 9 12 14 16 18 20 23 24 25 26 27 29 30 33 38 0
3 4 7 10 13 15 17 19 20 21 24 25 26 27 28 30 31 34 0
1 4 5 8 11 14 16 18 21 22 25 26 27 28 29 31 32 35 0
2 5 6 9 12 15 17 19 22 23 26 27 28 29 30 32 33 36 0
1 3 6 7 10 13 16 18 23 24 27 28 29 30 31 33 34 37 0
2 4 7 8 11 14 17 19 24 25 28 29 30 31 32 34 35 38 0
1 3 5 8 9 12 15 18 20 25 26 29 30 31 32 33 35 36 0
2 5 8 11 13 16 17 19 21 22 23 25 26 28 29 31 33 34 0
1 3 6 9 12 14 17 18 22 23 24 26 27 29 30 32 34 35 0
2 4 7 10 13 15 18 19 23 24 25 27 28 30 31 33 35 36 0
1 3 5 8 11 14 16 19 24 25 26 28 29 31 32 34 36 37 0
1 2 4 6 9 12 15 17 25 26 27 29 30 32 33 35 37 38 0
2 3 5 7 10 13 16 18 20 26 27 28 30 31 33 34 36 38 0
3 4 6 8 11 14 17 19 20 21 27 28 29 31 32 34 35 37 0
1 4 5 7 9 12 15 18 21 22 28 29 30 32 33 35 36 38 0
2 5 6 8 10 13 16 19 20 22 23 29 30 31 33 34 36 37 0
1 3 6 7 9 11 14 17 21 23 24 30 31 32 34 35 37 38 0
2 4 7 8 10 12 15 18 20 22 24 25 31 32 33 35 36 38 0
3 5 8 9 11 13 16 19 20 21 23 25 26 32 33 34 36 37 0
1 4 6 9 10 12 14 17 21 22 24 26 27 33 34 35 37 38 0
2 5 7 10 11 13 15 18 20 22 23 25 27 28 34 35 36 38 0
3 6 8 11 12 14 16 19 20 21 23 24 26 28 29 35 36 37 0
1 4 7 9 12 13 15 17 21 22 24 25 27 29 30 36 37 38 0
2 5 8 10 13 14 16 18 20 22 23 25 26 28 30 31 37 38 0
3 6 9 11 14 15 17 19 20 21 23 24 26 27 29 31 32 38 0
1 4 7 10 12 15 16 18 20 21 22 24 25 27 28 30 32 33 0
2 4 5 8 10 13 16 19 25 26 28 30 31 33 34 36 37 38 0
1 3 5 6 9 11 14 17 20 26 27 29 31 32 34 35 37 38 0
2 4 6 7 10 12 15 18 20 21 27 28 30 32 33 35 36 38 0
3 5 7 8 11 13 16 19 20 21 22 28 29 31 33 34 36 37 0
1 4 6 8 9 12 14 17 21 22 23 29 30 32 34 35 37 38 0
2 5 7 9 10 13 15 18 20 22 23 24 30 31 33 35 36 38 0
3 6 8 10 11 14 16 19 20 21 23 24 25 31 32 34 36 37 0
1 4 7 9 11 12 15 17 21 22 24 25 26 32 33 35 37 38 0
2 5 8 10 12 13 16 18 20 22 23 25 26 27 33 34 36 38 0
3 6 9 11 13 14 17 19 20 21 23 24 26 27 28 34 35 37 0
1 4 7 10 12 14 15 18 21 22 24 25 27 28 29 35 36 38 0
2 5 8 11 13 15 16 19 20 22 23 25 26 28 29 30 36 37 0
1 3 6 9 12 14 16 17 21 23 24 26 27 29 30 31 37 38 0
2 4 7 10 13 15 17 18 20 22 24 25 27 28 30 31 32 38 0
3 5 8 11 14 16 18 19 20 21 23 25 26 28 29 31 32 33 0
1 4 6 9 12 15 17 19 21 22 24 26 27 29 30 32 33 34 0
1 2 5 7 10 13 16 18 22 23 25 27 28 30 31 33 34 35 0
2 3 6 8 11 14 17 19 23 24 26 28 29 31 32 34 35 36 0
1 3 4 7 9 12 15 18 24 25 27 29 30 32 33 35 36 37 0
2 5 8 11 12 13 15 17 19 21 22 23 25 26 27 28 29 37 38 0
1 3 6 9 12 13 14 16 18 20 22 23 24 26 27 28 29 30 38 0
2 4 7 10 13 14 15 17 19 20 21 23 24 25 27 28 29 30 31 0
1 3 5 8 11 14 15 16 18 21 22 24 25 26 28 29 30 31 32 0
2 4 6 9 12 15 16 17 19 22 23 25 26 27 29 30 31 32 33 0
1 3 5 7 10 13 16 17 18 23 24 26 27 28 30 31 32 33 34 0
2 4 6 8 11 14 17 18 19 24 25 27 28 29 31 32 33 34 35 0
1 3 5 7 9 12 15 18 19 25 26 28 29 30 32 33 34 35 36 0
1 2 4 6 8 10 13 16 19 26 27 29 30 31 33 34 35 36 37 0
1 2 3 5 7 9 11 14 17 27 28 30 31 32 34 35 36 37 38 0
2 3 4 6 8 10 12 15 18 20 28 29 31 32 33 35 36 37 38 0
3 4 5 7 9 11 13 16 19 20 21 29 30 32 33 34 36 37 38 0
1 4 5 6 8 10 12 14 17 20 21 22 30 31 33 34 35 37 38 0
2 5 6 7 9 11 13 15 18 20 21 22 23 31 32 34 35 36 38 0
3 6 7 8 10 12 14 16 19 20 21 22 23 24 32 33 35 36 37 0
1 4 7 8 9 11 13 15 17 21 22 23 24 25 33 34 36 37 38 0
2 5 8 9 10 12 14 16 18 20 22 23 24 25 26 34 35 37 38 0
3 6 9 10 11 13 15 17 19 20 21 23 24 25 26 27 35 36 38 0
1 4 7 10 11 12 14 16 18 20 21 22 24 25 26 27 28 36 37 0
2 4 6 8 9 10 13 16 19 21 22 30 31 32 33 34 36 37 38 0
1 3 5 7 9 10 11 14 17 20 22 23 31 32 33 34 35 37 38 0
2 4 6 8 10 11 12 15 18 20 21 23 24 32 33 34 35 36 38 0
3 5 7 9 11 12 13 16 19 20 21 22 24 25 33 34 35 36 37 0
1 4 6 8 10 12 13 14 17 21 22 23 25 26 34 35 36 37 38 0
2 5 7 9 11 13 14 15 18 20 22 23 24 26 27 35 36 37 38 0
3 6 8 10 12 14 15 16 19 20 21 23 24 25 27 28 36 37 38 0
1 4 7 9 11 13 15 16 17 20 21 22 24 25 26 28 29 37 38 0
2 5 8 10 12 14 16 17 18 20 21 22 23 25 26 27 29 30 38 0
3 6 9 11 13 15 17 18 19 20 21 22 23 24 26 27 28 30 31 0
1 4 7 10 12 14 16 18 19 21 22 23 24 25 27 28 29 31 32 0
1 2 5 8 11 13 15 17 19 22 23 24 25 26 28 29 30 32 33 0
1 2 3 6 9 12 14 16 18 23 24 25 26 27 29 30 31 33 34 0
2 3 4 7 10 13 15 17 19 24 25 26 27 28 30 31 32 34 35 0
1 3 4 5 8 11 14 16 18 25 26 27 28 29 31 32 33 35 36 0
2 4 5 6 9 12 15 17 19 26 27 28 29 30 32 33 34 36 37 0
1 3 5 6 7 10 13 16 18 27 28 29 30 31 33 34 35 37 38 0
2 4 6 7 8 11 14 17 19 20 28 29 30 31 32 34 35 36 38 0
1 3 5 7 8 9 12 15 18 20 21 29 30 31 32 33 35 36 37 0
2 5 8 11 12 14 15 17 19 22 23 25 26 27 28 29 33 36 38 0
1 3 6 9 12 13 15 16 18 20 23 24 26 27 28 29 30 34 37 0
2 4 7 10 13 14 16 17 19 21 24 25 27 28 29 30 31 35 38 0
1 3 5 8 11 14 15 17 18 20 22 25 26 28 29 30 31 32 36 0
2 4 6 9 12 15 16 18 19 21 23 26 27 29 30 31 32 33 37 0
1 3 5 7 10 13 16 17 19 22 24 27 28 30 31 32 33 34 38 0
1 2 4 6 8 11 14 17 18 20 23 25 28 29 31 32 33 34 35 0
2 3 5 7 9 12 15 18 19 21 24 26 29 30 32 33 34 35 36 0
1 3 4 6 8 10 13 16 19 22 25 27 30 31 33 34 35 36 37 0
1 2 4 5 7 9 11 14 17 23 26 28 31 32 34 35 36 37 38 0
2 3 5 6 8 10 12 15 18 20 24 27 29 32 33 35 36 37 38 0
3 4 6 7 9 11 13 16 19 20 21 25 28 30 33 34 36 37 38 0
1 4 5 7 8 10 12 14 17 20 21 22 26 29 31 34 35 37 38 0
2 5 6 8 9 11 13 15 18 20 21 22 23 27 30 32 35 36 38 0
3 6 7 9 10 12 14 16 19 20 21 22 23 24 28 31 33 36 37 0
1 4 7 8 10 11 13 15 17 21 22 23 24 25 29 32 34 37 38 0
2 5 8 9 11 12 14 16 18 20 22 23 24 25 26 30 33 35 38 0
3 6 9 10 12 13 15 17 19 20 21 23 24 25 26 27 31 34 36 0
1 4 7 10 11 13 14 16 18 21 22 24 25 26 27 28 32 35 37 0
2 4 6 7 9 10 13 16 19 21 23 26 30 31 32 33 34 36 37 0
1 3 5 7 8 10 11 14 17 22 24 27 31 32 33 34 35 37 38 0
2 4 6 8 9 11 12 15 18 20 23 25 28 32 33 34 35 36 38 0
3 5 7 9 10 12 13 16 19 20 21 24 26 29 33 34 35 36 37 0
1 4 6 8 10 11 13 14 17 21 22 25 27 30 34 35 36 37 38 0
2 5 7 9 11 12 14 15 18 20 22 23 26 28 31 35 36 37 38 0
3 6 8 10 12 13 15 16 19 20 21 23 24 27 29 32 36 37 38 0
1 4 7 9 11 13 14 16 17 20 21 22 24 25 28 30 33 37 38 0
2 5 8 10 12 14 15 17 18 20 21 22 23 25 26 29 31 34 38 0
3 6 9 11 13 15 16 18 19 20 21 22 23 24 26 27 30 32 35 0
1 4 7 10 12 14 16 17 19 21 22 23 24 25 27 28 31 33 36 0
1 2 5 8 11 13 15 17 18 22 23 24 25 26 28 29 32 34 37 0
2 3 6 9 12 14 16 18 19 23 24 25 26 27 29 30 33 35 38 0
1 3 4 7 10 13 15 17 19 20 24 25 26 27 28 30 31 34 36 0
1 2 4 5 8 11 14 16 18 21 25 26 27 28 29 31 32 35 37 0
2 3 5 6 9 12 15 17 19 22 26 27 28 29 30 32 33 36 38 0
1 3 4 6 7 10 13 16 18 20 23 27 28 29 30 31 33 34 37 0
2 4 5 7 8 11 14 17 19 21 24 28 29 30 31 32 34 35 38 0
1 3 5 6 8 9 12 15 18 20 22 25 29 30 31 32 33 35 36 0
2 5 8 11 12 14 15 17 18 19 22 23 25 26 27 28 29 36 38 0
1 3 6 9 12 13 15 16 18 19 20 23 24 26 27 28 29 30 37 0
1 2 4 7 10 13 14 16 17 19 21 24 25 27 28 29 30 31 38 0
1 2 3 5 8 11 14 15 17 18 20 22 25 26 28 29 30 31 32 0
2 3 4 6 9 12 15 16 18 19 21 23 26 27 29 30 31 32 33 0
1 3 4 5 7 10 13 16 17 19 22 24 27 28 30 31 32 33 34 0
1 2 4 5 6 8 11 14 17 18 23 25 28 29 31 32 33 34 35 0
2 3 5 6 7 9 12 15 18 19 24 26 29 30 32 33 34 35 36 0
1 3 4 6 7 8 10 13 16 19 25 27 30 31 33 34 35 36 37 0
1 2 4 5 7 8 9 11 14 17 26 28 31 32 34 35 36 37 38 0
2 3 5 6 8 9 10 12 15 18 20 27 29 32 33 35 36 37 38 0
3 4 6 7 9 10 11 13 16 19 20 21 28 30 33 34 36 37 38 0
1 4 5 7 8 10 11 12 14 17 20 21 22 29 31 34 35 37 38 0
2 5 6 8 9 11 12 13 15 18 20 21 22 23 30 32 35 36 38 0
3 6 7 9 10 12 13 14 16 19 20 21 22 23 24 31 33 36 37 0
1 4 7 8 10 11 13 14 15 17 21 22 23 24 25 32 34 37 38 0
2 5 8 9 11 12 14 15 16 18 20 22 23 24 25 26 33 35 38 0
3 6 9 10 12 13 15 16 17 19 20 21 23 24 25 26 27 34 36 0
1 4 7 10 11 13 14 16 17 18 21 22 24 25 26 27 28 35 37 0
2 3 4 6 7 9 10 13 16 19 21 23 30 31 32 33 34 36 37 0
1 3 4 5 7 8 10 11 14 17 22 24 31 32 33 34 35 37 38 0
2 4 5 6 8 9 11 12 15 18 20 23 25 32 33 34 35 36 38 0
3 5 6 7 9 10 12 13 16 19 20 21 24 26 33 34 35 36 37 0
1 4 6 7 8 10 11 13 14 17 21 22 25 27 34 35 36 37 38 0
2 5 7 8 9 11 12 14 15 18 20 22 23 26 28 35 36 37 38 0
3 6 8 9 10 12 13 15 16 19 20 21 23 24 27 29 36 37 38 0
1 4 7 9 10 11 13 14 16 17 20 21 22 24 25 28 30 37 38 0
2 5 8 10 11 12 14 15 17 18 20 21 22 23 25 26 29 31 38 0
3 6 9 11 12 13 15 16 18 19 20 21 22 23 24 26 27 30 32 0
1 4 7 10 12 13 14 16 17 19 21 22 23 24 25 27 28 31 33 0
1 2 5 8 11 13 14 15 17 18 22 23 24 25 26 28 29 32 34 0
2 3 6 9 12 14 15 16 18 19 23 24 25 26 27 29 30 33 35 0
1 3 4 7 10 13 15 16 17 19 24 25 26 27 28 30 31 34 36 0
1 2 4 5 8 11 14 16 17 18 25 26 27 28 29 31 32 35 37 0
2 3 5 6 9 12 15 17 18 19 26 27 28 29 30 32 33 36 38 0
1 3 4 6 7 10 13 16 18 19 20 27 28 29 30 31 33 34 37 0
1 2 4 5 7 8 11 14 17 19 21 28 29 30 31 32 34 35 38 0
1 2 3 5 6 8 9 12 15 18 20 22 29 30 31 32 33 35 36 0
2 5 8 11 12 13 15 17 19 21 22 23 25 26 27 28 29 33 38 0
1 3 6 9 12 13 14 16 18 20 22 23 24 26 27 28 29 30 34 0
2 4 7 10 13 14 15 17 19 21 23 24 25 27 28 29 30 31 35 0
1 3 5 8 11 14 15 16 18 22 24 25 26 28 29 30 31 32 36 0
2 4 6 9 12 15 16 17 19 23 25 26 27 29 30 31 32 33 37 0
1 3 5 7 10 13 16 17 18 24 26 27 28 30 31 32 33 34 38 0
2 4 6 8 11 14 17 18 19 20 25 27 28 29 31 32 33 34 35 0
1 3 5 7 9 12 15 18 19 21 26 28 29 30 32 33 34 35 36 0
1 2 4 6 8 10 13 16 19 22 27 29 30 31 33 34 35 36 37 0
1 2 3 5 7 9 11 14 17 23 28 30 31 32 34 35 36 37 38 0
2 3 4 6 8 10 12 15 18 20 24 29 31 32 33 35 36 37 38 0
3 4 5 7 9 11 13 16 19 20 21 25 30 32 33 34 36 37 38 0
1 4 5 6 8 10 12 14 17 20 21 22 26 31 33 34 35 37 38 0
2 5 6 7 9 11 13 15 18 20 21 22 23 27 32 34 35 36 38 0
3 6 7 8 10 12 14 16 19 20 21 22 23 24 28 33 35 36 37 0
1 4 7 8 9 11 13 15 17 21 22 23 24 25 29 34 36 37 38 0
2 5 8 9 10 12 14 16 18 20 22 23 24 25 26 30 35 37 38 0
3 6 9 10 11 13 15 17 19 20 21 23 24 25 26 27 31 36 38 0
1 4 7 10 11 12 14 16 18 20 21 22 24 25 26 27 28 32 37 0
2 4 6 8 9 10 13 16 19 21 26 30 31 32 33 34 36 37 38 0
1 3 5 7 9 10 11 14 17 20 22 27 31 32 33 34 35 37 38 0
2 4 6 8 10 11 12 15 18 20 21 23 28 32 33 34 35 36 38 0
3 5 7 9 11 12 13 16 19 20 21 22 24 29 33 34 35 36 37 0
1 4 6 8 10 12 13 14 17 21 22 23 25 30 34 35 36 37 38 0
2 5 7 9 11 13 14 15 18 20 22 23 24 26 31 35 36 37 38 0
3 6 8 10 12 14 15 16 19 20 21 23 24 25 27 32 36 37 38 0
1 4 7 9 11 13 15 16 17 20 21 22 24 25 26 28 33 37 38 0
2 5 8 10 12 14 16 17 18 20 21 22 23 25 26 27 29 34 38 0
3 6 9 11 13 15 17 18 19 20 21 22 23 24 26 27 28 30 35 0
1 4 7 10 12 14 16 18 19 21 22 23 24 25 27 28 29 31 36 0
1 2 5 8 11 13 15 17 19 22 23 24 25 26 28 29 30 32 37 0
1 2 3 6 9 12 14 16 18 23 24 25 26 27 29 30 31 33 38 0
2 3 4 7 10 13 15 17 19 20 24 25 26 27 28 30 31 32 34 0
1 3 4 5 8 11 14 16 18 21 25 26 27 28 29 31 32 33 35 0
2 4 5 6 9 12 15 17 19 22 26 27 28 29 30 32 33 34 36 0
1 3 5 6 7 10 13 16 18 23 27 28 29 30 31 33 34 35 37 0
2 4 6 7 8 11 14 17 19 24 28 29 30 31 32 34 35 36 38 0
1 3 5 7 8 9 12 15 18 20 25 29 30 31 32 33 35 36 37 0
2 5 8 11 12 14 15 17 18 19 22 23 25 26 27 28 29 32 38 0
1 3 6 9 12 13 15 16 18 19 20 23 24 26 27 28 29 30 33 0
1 2 4 7 10 13 14 16 17 19 21 24 25 27 28 29 30 31 34 0
1 2 3 5 8 11 14 15 17 18 22 25 26 28 29 30 31 32 35 0
2 3 4 6 9 12 15 16 18 19 23 26 27 29 30 31 32 33 36 0
1 3 4 5 7 10 13 16 17 19 24 27 28 30 31 32 33 34 37 0
1 2 4 5 6 8 11 14 17 18 25 28 29 31 32 33 34 35 38 0
2 3 5 6 7 9 12 15 18 19 20 26 29 30 32 33 34 35 36 0
1 3 4 6 7 8 10 13 16 19 21 27 30 31 33 34 35 36 37 0
1 2 4 5 7 8 9 11 14 17 22 28 31 32 34 35 36 37 38 0
2 3 5 6 8 9 10 12 15 18 20 23 29 32 33 35 36 37 38 0
3 4 6 7 9 10 11 13 16 19 20 21 24 30 33 34 36 37 38 0
1 4 5 7 8 10 11 12 14 17 20 21 22 25 31 34 35 37 38 0
2 5 6 8 9 11 12 13 15 18 20 21 22 23 26 32 35 36 38 0
3 6 7 9 10 12 13 14 16 19 20 21 22 23 24 27 33 36 37 0
1 4 7 8 10 11 13 14 15 17 21 22 23 24 25 28 34 37 38 0
2 5 8 9 11 12 14 15 16 18 20 22 23 24 25 26 29 35 38 0
3 6 9 10 12 13 15 16 17 19 20 21 23 24 25 26 27 30 36 0
1 4 7 10 11 13 14 16 17 18 21 22 24 25 26 27 28 31 37 0
2 3 4 6 7 9 10 13 16 19 21 27 30 31 32 33 34 36 37 0
1 3 4 5 7 8 10 11 14 17 22 28 31 32 33 34 35 37 38 0
2 4 5 6 8 9 11 12 15 18 20 23 29 32 33 34 35 36 38 0
3 5 6 7 9 10 12 13 16 19 20 21 24 30 33 34 35 36 37 0
1 4 6 7 8 10 11 13 14 17 21 22 25 31 34 35 36 37 38 0
2 5 7 8 9 11 12 14 15 18 20 22 23 26 32 35 36 37 38 0
3 6 8 9 10 12 13 15 16 19 20 21 23 24 27 33 36 37 38 0
1 4 7 9 10 11 13 14 16 17 20 21 22 24 25 28 34 37 38 0
2 5 8 10 11 12 14 15 17 18 20 21 22 23 25 26 29 35 38 0
3 6 9 11 12 13 15 16 18 19 20 21 22 23 24 26 27 30 36 0
1 4 7 10 12 13 14 16 17 19 21 22 23 24 25 27 28 31 37 0
1 2 5 8 11 13 14 15 17 18 22 23 24 25 26 28 29 32 38 0
2 3 6 9 12 14 15 16 18 19 20 23 24 25 26 27 29 30 33 0
1 3 4 7 10 13 15 16 17 19 21 24 25 26 27 28 30 31 34 0
1 2 4 5 8 11 14 16 17 18 22 25 26 27 28 29 31 32 35 0
2 3 5 6 9 12 15 17 18 19 23 26 27 28 29 30 32 33 36 0
1 3 4 6 7 10 13 16 18 19 24 27 28 29 30 31 33 34 37 0
1 2 4 5 7 8 11 14 17 19 25 28 29 30 31 32 34 35 38 0
1 2 3 5 6 8 9 12 15 18 20 26 29 30 31 32 33 35 36 0
2 5 8 11 13 14 16 17 18 19 21 22 23 25 26 28 29 31 0
1 3 6 9 12 14 15 17 18 19 22 23 24 26 27 29 30 32 0
1 2 4 7 10 13 15 16 18 19 23 24 25 27 28 30 31 33 0
1 2 3 5 8 11 14 16 17 19 24 25 26 28 29 31 32 34 0
1 2 3 4 6 9 12 15 17 18 25 26 27 29 30 32 33 35 0
2 3 4 5 7 10 13 16 18 19 26 27 28 30 31 33 34 36 0
1 3 4 5 6 8 11 14 17 19 27 28 29 31 32 34 35 37 0
1 2 4 5 6 7 9 12 15 18 28 29 30 32 33 35 36 38 0
2 3 5 6 7 8 10 13 16 19 20 29 30 31 33 34 36 37 0
1 3 4 6 7 8 9 11 14 17 21 30 31 32 34 35 37 38 0
2 4 5 7 8 9 10 12 15 18 20 22 31 32 33 35 36 38 0
3 5 6 8 9 10 11 13 16 19 20 21 23 32 33 34 36 37 0
1 4 6 7 9 10 11 12 14 17 21 22 24 33 34 35 37 38 0
2 5 7 8 10 11 12 13 15 18 20 22 23 25 34 35 36 38 0
3 6 8 9 11 12 13 14 16 19 20 21 23 24 26 35 36 37 0
1 4 7 9 10 12 13 14 15 17 21 22 24 25 27 36 37 38 0
2 5 8 10 11 13 14 15 16 18 20 22 23 25 26 28 37 38 0
3 6 9 11 12 14 15 16 17 19 20 21 23 24 26 27 29 38 0
1 4 7 10 12 13 15 16 17 18 20 21 22 24 25 27 28 30 0
2 3 4 5 7 8 10 13 16 19 28 30 31 33 34 36 37 38 0
1 3 4 5 6 8 9 11 14 17 20 29 31 32 34 35 37 38 0
2 4 5 6 7 9 10 12 15 18 20 21 30 32 33 35 36 38 0
3 5 6 7 8 10 11 13 16 19 20 21 22 31 33 34 36 37 0
1 4 6 7 8 9 11 12 14 17 21 22 23 32 34 35 37 38 0
2 5 7 8 9 10 12 13 15 18 20 22 23 24 33 35 36 38 0
3 6 8 9 10 11 13 14 16 19 20 21 23 24 25 34 36 37 0
1 4 7 9 10 11 12 14 15 17 21 22 24 25 26 35 37 38 0
2 5 8 10 11 12 13 15 16 18 20 22 23 25 26 27 36 38 0
3 6 9 11 12 13 14 16 17 19 20 21 23 24 26 27 28 37 0
1 4 7 10 12 13 14 15 17 18 21 22 24 25 27 28 29 38 0
2 5 8 11 13 14 15 16 18 19 20 22 23 25 26 28 29 30 0
1 3 6 9 12 14 15 16 17 19 21 23 24 26 27 29 30 31 0
1 2 4 7 10 13 15 16 17 18 22 24 25 27 28 30 31 32 0
2 3 5 8 11 14 16 17 18 19 23 25 26 28 29 31 32 33 0
1 3 4 6 9 12 15 17 18 19 24 26 27 29 30 32 33 34 0
1 2 4 5 7 10 13 16 18 19 25 27 28 30 31 33 34 35 0
1 2 3 5 6 8 11 14 17 19 26 28 29 31 32 34 35 36 0
1 2 3 4 6 7 9 12 15 18 27 29 30 32 33 35 36 37 0
2 5 8 10 13 15 16 17 18 19 21 22 23 25 26 28 30 31 0
1 3 6 9 11 14 16 17 18 19 22 23 24 26 27 29 31 32 0
1 2 4 7 10 12 15 17 18 19 23 24 25 27 28 30 32 33 0
1 2 3 5 8 11 13 16 18 19 24 25 26 28 29 31 33 34 0
1 2 3 4 6 9 12 14 17 19 25 26 27 29 30 32 34 35 0
1 2 3 4 5 7 10 13 15 18 26 27 28 30 31 33 35 36 0
2 3 4 5 6 8 11 14 16 19 27 28 29 31 32 34 36 37 0
1 3 4 5 6 7 9 12 15 17 28 29 30 32 33 35 37 38 0
2 4 5 6 7 8 10 13 16 18 20 29 30 31 33 34 36 38 0
3 5 6 7 8 9 11 14 17 19 20 21 30 31 32 34 35 37 0
1 4 6 7 8 9 10 12 15 18 21 22 31 32 33 35 36 38 0
2 5 7 8 9 10 11 13 16 19 20 22 23 32 33 34 36 37 0
1 3 6 8 9 10 11 12 14 17 21 23 24 33 34 35 37 38 0
2 4 7 9 10 11 12 13 15 18 20 22 24 25 34 35 36 38 0
3 5 8 10 11 12 13 14 16 19 20 21 23 25 26 35 36 37 0
1 4 6 9 11 12 13 14 15 17 21 22 24 26 27 36 37 38 0
2 5 7 10 12 13 14 15 16 18 20 22 23 25 27 28 37 38 0
3 6 8 11 13 14 15 16 17 19 20 21 23 24 26 28 29 38 0
1 4 7 9 12 14 15 16 17 18 20 21 22 24 25 27 29 30 0
2 3 4 5 6 8 11 13 16 19 28 29 31 33 34 36 37 38 0
1 3 4 5 6 7 9 12 14 17 20 29 30 32 34 35 37 38 0
2 4 5 6 7 8 10 13 15 18 20 21 30 31 33 35 36 38 0
3 5 6 7 8 9 11 14 16 19 20 21 22 31 32 34 36 37 0
1 4 6 7 8 9 10 12 15 17 21 22 23 32 33 35 37 38 0
2 5 7 8 9 10 11 13 16 18 20 22 23 24 33 34 36 38 0
3 6 8 9 10 11 12 14 17 19 20 21 23 24 25 34 35 37 0
1 4 7 9 10 11 12 13 15 18 21 22 24 25 26 35 36 38 0
2 5 8 10 11 12 13 14 16 19 20 22 23 25 26 27 36 37 0
1 3 6 9 11 12 13 14 15 17 21 23 24 26 27 28 37 38 0
2 4 7 10 12 13 14 15 16 18 20 22 24 25 27 28 29 38 0
3 5 8 11 13 14 15 16 17 19 20 21 23 25 26 28 29 30 0
1 4 6 9 12 14 15 16 17 18 21 22 24 26 27 29 30 31 0
2 5 7 10 13 15 16 17 18 19 22 23 25 27 28 30 31 32 0
1 3 6 8 11 14 16 17 18 19 23 24 26 28 29 31 32 33 0
1 2 4 7 9 12 15 17 18 19 24 25 27 29 30 32 33 34 0
1 2 3 5 8 10 13 16 18 19 25 26 28 30 31 33 34 35 0
1 2 3 4 6 9 11 14 17 19 26 27 29 31 32 34 35 36 0
1 2 3 4 5 7 10 12 15 18 27 28 30 32 33 35 36 37 0
2 5 8 10 12 13 15 16 17 18 19 21 22 23 25 26 28 31 34 0
1 3 6 9 11 13 14 16 17 18 19 22 23 24 26 27 29 32 35 0
1 2 4 7 10 12 14 15 17 18 19 23 24 25 27 28 30 33 36 0
1 2 3 5 8 11 13 15 16 18 19 24 25 26 28 29 31 34 37 0
1 2 3 4 6 9 12 14 16 17 19 25 26 27 29 30 32 35 38 0
1 2 3 4 5 7 10 13 15 17 18 20 26 27 28 30 31 33 36 0
2 3 4 5 6 8 11 14 16 18 19 21 27 28 29 31 32 34 37 0
1 3 4 5 6 7 9 12 15 17 19 22 28 29 30 32 33 35 38 0
1 2 4 5 6 7 8 10 13 16 18 20 23 29 30 31 33 34 36 0
2 3 5 6 7 8 9 11 14 17 19 21 24 30 31 32 34 35 37 0
1 3 4 6 7 8 9 10 12 15 18 22 25 31 32 33 35 36 38 0
2 4 5 7 8 9 10 11 13 16 19 20 23 26 32 33 34 36 37 0
1 3 5 6 8 9 10 11 12 14 17 21 24 27 33 34 35 37 38 0
2 4 6 7 9 10 11 12 13 15 18 20 22 25 28 34 35 36 38 0
3 5 7 8 10 11 12 13 14 16 19 20 21 23 26 29 35 36 37 0
1 4 6 8 9 11 12 13 14 15 17 21 22 24 27 30 36 37 38 0
2 5 7 9 10 12 13 14 15 16 18 20 22 23 25 28 31 37 38 0
3 6 8 10 11 13 14 15 16 17 19 20 21 23 24 26 29 32 38 0
1 4 7 9 11 12 14 15 16 17 18 20 21 22 24 25 27 30 33 0
2 3 4 5 6 8 9 11 13 16 19 25 28 31 33 34 36 37 38 0
1 3 4 5 6 7 9 10 12 14 17 20 26 29 32 34 35 37 38 0
2 4 5 6 7 8 10 11 13 15 18 20 21 27 30 33 35 36 38 0
3 5 6 7 8 9 11 12 14 16 19 20 21 22 28 31 34 36 37 0
1 4 6 7 8 9 10 12 13 15 17 21 22 23 29 32 35 37 38 0
2 5 7 8 9 10 11 13 14 16 18 20 22 23 24 30 33 36 38 0
3 6 8 9 10 11 12 14 15 17 19 20 21 23 24 25 31 34 37 0
1 4 7 9 10 11 12 13 15 16 18 21 22 24 25 26 32 35 38 0
2 5 8 10 11 12 13 14 16 17 19 20 22 23 25 26 27 33 36 0
1 3 6 9 11 12 13 14 15 17 18 21 23 24 26 27 28 34 37 0
2 4 7 10 12 13 14 15 16 18 19 22 24 25 27 28 29 35 38 0
1 3 5 8 11 13 14 15 16 17 19 20 23 25 26 28 29 30 36 0
1 2 4 6 9 12 14 15 16 17 18 21 24 26 27 29 30 31 37 0
2 3 5 7 10 13 15 16 17 18 19 22 25 27 28 30 31 32 38 0
1 3 4 6 8 11 14 16 17 18 19 20 23 26 28 29 31 32 33 0
1 2 4 5 7 9 12 15 17 18 19 21 24 27 29 30 32 33 34 0
1 2 3 5 6 8 10 13 16 18 19 22 25 28 30 31 33 34 35 0
1 2 3 4 6 7 9 11 14 17 19 23 26 29 31 32 34 35 36 0
1 2 3 4 5 7 8 10 12 15 18 24 27 30 32 33 35 36 37 0
2 5 8 10 12 13 15 17 18 19 21 22 23 25 26 27 28 34 0
1 3 6 9 11 13 14 16 18 19 22 23 24 26 27 28 29 35 0
1 2 4 7 10 12 14 15 17 19 23 24 25 27 28 29 30 36 0
1 2 3 5 8 11 13 15 16 18 24 25 26 28 29 30 31 37 0
2 3 4 6 9 12 14 16 17 19 25 26 27 29 30 31 32 38 0
1 3 4 5 7 10 13 15 17 18 20 26 27 28 30 31 32 33 0
2 4 5 6 8 11 14 16 18 19 21 27 28 29 31 32 33 34 0
1 3 5 6 7 9 12 15 17 19 22 28 29 30 32 33 34 35 0
1 2 4 6 7 8 10 13 16 18 23 29 30 31 33 34 35 36 0
2 3 5 7 8 9 11 14 17 19 24 30 31 32 34 35 36 37 0
1 3 4 6 8 9 10 12 15 18 25 31 32 33 35 36 37 38 0
2 4 5 7 9 10 11 13 16 19 20 26 32 33 34 36 37 38 0
1 3 5 6 8 10 11 12 14 17 20 21 27 33 34 35 37 38 0
2 4 6 7 9 11 12 13 15 18 20 21 22 28 34 35 36 38 0
3 5 7 8 10 12 13 14 16 19 20 21 22 23 29 35 36 37 0
1 4 6 8 9 11 13 14 15 17 21 22 23 24 30 36 37 38 0
2 5 7 9 10 12 14 15 16 18 20 22 23 24 25 31 37 38 0
3 6 8 10 11 13 15 16 17 19 20 21 23 24 25 26 32 38 0
1 4 7 9 11 12 14 16 17 18 20 21 22 24 25 26 27 33 0
2 3 4 6 8 9 11 13 16 19 25 31 32 33 34 36 37 38 0
1 3 4 5 7 9 10 12 14 17 20 26 32 33 34 35 37 38 0
2 4 5 6 8 10 11 13 15 18 20 21 27 33 34 35 36 38 0
3 5 6 7 9 11 12 14 16 19 20 21 22 28 34 35 36 37 0
1 4 6 7 8 10 12 13 15 17 21 22 23 29 35 36 37 38 0
2 5 7 8 9 11 13 14 16 18 20 22 23 24 30 36 37 38 0
3 6 8 9 10 12 14 15 17 19 20 21 23 24 25 31 37 38 0
1 4 7 9 10 11 13 15 16 18 20 21 22 24 25 26 32 38 0
2 5 8 10 11 12 14 16 17 19 20 21 22 23 25 26 27 33 0
1 3 6 9 11 12 13 15 17 18 21 22 23 24 26 27 28 34 0
2 4 7 10 12 13 14 16 18 19 22 23 24 25 27 28 29 35 0
1 3 5 8 11 13 14 15 17 19 23 24 25 26 28 29 30 36 0
1 2 4 6 9 12 14 15 16 18 24 25 26 27 29 30 31 37 0
2 3 5 7 10 13 15 16 17 19 25 26 27 28 30 31 32 38 0
1 3 4 6 8 11 14 16 17 18 20 26 27 28 29 31 32 33 0
2 4 5 7 9 12 15 17 18 19 21 27 28 29 30 32 33 34 0
1 3 5 6 8 10 13 16 18 19 22 28 29 30 31 33 34 35 0
1 2 4 6 7 9 11 14 17 19 23 29 30 31 32 34 35 36 0
1 2 3 5 7 8 10 12 15 18 24 30 31 32 33 35 36 37 0
2 4 6 8 10 12 14 15 17 18 19 21 22 27 29 30 38 0
1 3 5 7 9 11 13 15 16 18 19 20 22 23 28 30 31 0
1 2 4 6 8 10 12 14 16 17 19 21 23 24 29 31 32 0
1 2 3 5 7 9 11 13 15 17 18 22 24 25 30 32 33 0
2 3 4 6 8 10 12 14 16 18 19 23 25 26 31 33 34 0
1 3 4 5 7 9 11 13 15 17 19 24 26 27 32 34 35 0
1 2 4 5 6 8 10 12 14 16 18 25 27 28 33 35 36 0
2 3 5 6 7 9 11 13 15 17 19 26 28 29 34 36 37 0
1 3 4 6 7 8 10 12 14 16 18 27 29 30 35 37 38 0
2 4 5 7 8 9 11 13 15 17 19 20 28 30 31 36 38 0
1 3 5 6 8 9 10 12 14 16 18 20 21 29 31 32 37 0
2 4 6 7 9 10 11 13 15 17 19 21 22 30 32 33 38 0
1 3 5 7 8 10 11 12 14 16 18 20 22 23 31 33 34 0
2 4 6 8 9 11 12 13 15 17 19 21 23 24 32 34 35 0
1 3 5 7 9 10 12 13 14 16 18 22 24 25 33 35 36 0
2 4 6 8 10 11 13 14 15 17 19 23 25 26 34 36 37 0
1 3 5 7 9 11 12 14 15 16 18 24 26 27 35 37 38 0
2 4 6 8 10 12 13 15 16 17 19 20 25 27 28 36 38 0
1 3 5 7 9 11 13 14 16 17 18 20 21 26 28 29 37 0
2 3 4 6 7 9 11 13 15 17 19 21 29 30 32 37 38 0
1 3 4 5 7 8 10 12 14 16 18 20 22 30 31 33 38 0
2 4 5 6 8 9 11 13 15 17 19 20 21 23 31 32 34 0
1 3 5 6 7 9 10 12 14 16 18 21 22 24 32 33 35 0
2 4 6 7 8 10 11 13 15 17 19 22 23 25 33 34 36 0
1 3 5 7 8 9 11 12 14 16 18 23 24 26 34 35 37 0
2 4 6 8 9 10 12 13 15 17 19 24 25 27 35 36 38 0
1 3 5 7 9 10 11 13 14 16 18 20 25 26 28 36 37 0
2 4 6 8 10 11 12 14 15 17 19 21 26 27 29 37 38 0
1 3 5 7 9 11 12 13 15 16 18 20 22 27 28 30 38 0
2 4 6 8 10 12 13 14 16 17 19 20 21 23 28 29 31 0
1 3 5 7 9 11 13 14 15 17 18 21 22 24 29 30 32 0
2 4 6 8 10 12 14 15 16 18 19 22 23 25 30 31 33 0
1 3 5 7 9 11 13 15 16 17 19 23 24 26 31 32 34 0
1 2 4 6 8 10 12 14 16 17 18 24 25 27 32 33 35 0
2 3 5 7 9 11 13 15 17 18 19 25 26 28 33 34 36 0
1 3 4 6 8 10 12 14 16 18 19 26 27 29 34 35 37 0
1 2 4 5 7 9 11 13 15 17 19 27 28 30 35 36 38 0
1 2 3 5 6 8 10 12 14 16 18 20 28 29 31 36 37 0
2 4 6 8 10 12 14 16 17 18 19 21 22 26 29 31 34 38 0
1 3 5 7 9 11 13 15 17 18 19 20 22 23 27 30 32 35 0
1 2 4 6 8 10 12 14 16 18 19 21 23 24 28 31 33 36 0
1 2 3 5 7 9 11 13 15 17 19 22 24 25 29 32 34 37 0
1 2 3 4 6 8 10 12 14 16 18 23 25 26 30 33 35 38 0
2 3 4 5 7 9 11 13 15 17 19 20 24 26 27 31 34 36 0
1 3 4 5 6 8 10 12 14 16 18 21 25 27 28 32 35 37 0
2 4 5 6 7 9 11 13 15 17 19 22 26 28 29 33 36 38 0
1 3 5 6 7 8 10 12 14 16 18 20 23 27 29 30 34 37 0
2 4 6 7 8 9 11 13 15 17 19 21 24 28 30 31 35 38 0
1 3 5 7 8 9 10 12 14 16 18 20 22 25 29 31 32 36 0
2 4 6 8 9 10 11 13 15 17 19 21 23 26 30 32 33 37 0
1 3 5 7 9 10 11 12 14 16 18 22 24 27 31 33 34 38 0
2 4 6 8 10 11 12 13 15 17 19 20 23 25 28 32 34 35 0
1 3 5 7 9 11 12 13 14 16 18 21 24 26 29 33 35 36 0
2 4 6 8 10 12 13 14 15 17 19 22 25 27 30 34 36 37 0
1 3 5 7 9 11 13 14 15 16 18 23 26 28 31 35 37 38 0
2 4 6 8 10 12 14 15 16 17 19 20 24 27 29 32 36 38 0
1 3 5 7 9 11 13 15 16 17 18 20 21 25 28 30 33 37 0
2 3 4 5 7 9 11 13 15 17 19 21 25 28 30 33 37 38 0
1 3 4 5 6 8 10 12 14 16 18 20 22 26 29 31 34 38 0
2 4 5 6 7 9 11 13 15 17 19 20 21 23 27 30 32 35 0
1 3 5 6 7 8 10 12 14 16 18 21 22 24 28 31 33 36 0
2 4 6 7 8 9 11 13 15 17 19 22 23 25 29 32 34 37 0
1 3 5 7 8 9 10 12 14 16 18 23 24 26 30 33 35 38 0
2 4 6 8 9 10 11 13 15 17 19 20 24 25 27 31 34 36 0
1 3 5 7 9 10 11 12 14 16 18 21 25 26 28 32 35 37 0
2 4 6 8 10 11 12 13 15 17 19 22 26 27 29 33 36 38 0
1 3 5 7 9 11 12 13 14 16 18 20 23 27 28 30 34 37 0
2 4 6 8 10 12 13 14 15 17 19 21 24 28 29 31 35 38 0
1 3 5 7 9 11 13 14 15 16 18 20 22 25 29 30 32 36 0
2 4 6 8 10 12 14 15 16 17 19 21 23 26 30 31 33 37 0
1 3 5 7 9 11 13 15 16 17 18 22 24 27 31 32 34 38 0
2 4 6 8 10 12 14 16 17 18 19 20 23 25 28 32 33 35 0
1 3 5 7 9 11 13 15 17 18 19 21 24 26 29 33 34 36 0
1 2 4 6 8 10 12 14 16 18 19 22 25 27 30 34 35 37 0
1 2 3 5 7 9 11 13 15 17 19 23 26 28 31 35 36 38 0
1 2 3 4 6 8 10 12 14 16 18 20 24 27 29 32 36 37 0
2 4 6 9 11 12 14 15 17 18 19 22 25 26 27 29 32 38 0
1 3 5 7 10 12 13 15 16 18 19 20 23 26 27 28 30 33 0
1 2 4 6 8 11 13 14 16 17 19 21 24 27 28 29 31 34 0
1 2 3 5 7 9 12 14 15 17 18 22 25 28 29 30 32 35 0
2 3 4 6 8 10 13 15 16 18 19 23 26 29 30 31 33 36 0
1 3 4 5 7 9 11 14 16 17 19 24 27 30 31 32 34 37 0
1 2 4 5 6 8 10 12 15 17 18 25 28 31 32 33 35 38 0
2 3 5 6 7 9 11 13 16 18 19 20 26 29 32 33 34 36 0
1 3 4 6 7 8 10 12 14 17 19 21 27 30 33 34 35 37 0
1 2 4 5 7 8 9 11 13 15 18 22 28 31 34 35 36 38 0
2 3 5 6 8 9 10 12 14 16 19 20 23 29 32 35 36 37 0
1 3 4 6 7 9 10 11 13 15 17 21 24 30 33 36 37 38 0
2 4 5 7 8 10 11 12 14 16 18 20 22 25 31 34 37 38 0
3 5 6 8 9 11 12 13 15 17 19 20 21 23 26 32 35 38 0
1 4 6 7 9 10 12 13 14 16 18 20 21 22 24 27 33 36 0
2 5 7 8 10 11 13 14 15 17 19 21 22 23 25 28 34 37 0
1 3 6 8 9 11 12 14 15 16 18 22 23 24 26 29 35 38 0
2 4 7 9 10 12 13 15 16 17 19 20 23 24 25 27 30 36 0
1 3 5 8 10 11 13 14 16 17 18 21 24 25 26 28 31 37 0
2 3 4 6 7 9 10 12 15 17 19 21 27 30 32 33 34 37 0
1 3 4 5 7 8 10 11 13 16 18 22 28 31 33 34 35 38 0
2 4 5 6 8 9 11 12 14 17 19 20 23 29 32 34 35 36 0
1 3 5 6 7 9 10 12 13 15 18 21 24 30 33 35 36 37 0
2 4 6 7 8 10 11 13 14 16 19 22 25 31 34 36 37 38 0
1 3 5 7 8 9 11 12 14 15 17 20 23 26 32 35 37 38 0
2 4 6 8 9 10 12 13 15 16 18 20 21 24 27 33 36 38 0
3 5 7 9 10 11 13 14 16 17 19 20 21 22 25 28 34 37 0
1 4 6 8 10 11 12 14 15 17 18 21 22 23 26 29 35 38 0
2 5 7 9 11 12 13 15 16 18 19 20 22 23 24 27 30 36 0
1 3 6 8 10 12 13 14 16 17 19 21 23 24 25 28 31 37 0
1 2 4 7 9 11 13 14 15 17 18 22 24 25 26 29 32 38 0
2 3 5 8 10 12 14 15 16 18 19 20 23 25 26 27 30 33 0
1 3 4 6 9 11 13 15 16 17 19 21 24 26 27 28 31 34 0
1 2 4 5 7 10 12 14 16 17 18 22 25 27 28 29 32 35 0
2 3 5 6 8 11 13 15 17 18 19 23 26 28 29 30 33 36 0
1 3 4 6 7 9 12 14 16 18 19 24 27 29 30 31 34 37 0
1 2 4 5 7 8 10 13 15 17 19 25 28 30 31 32 35 38 0
1 2 3 5 6 8 9 11 14 16 18 20 26 29 31 32 33 36 0
2 4 6 9 10 12 13 15 17 18 19 22 25 26 27 32 34 0
1 3 5 7 10 11 13 14 16 18 19 23 26 27 28 33 35 0
1 2 4 6 8 11 12 14 15 17 19 24 27 28 29 34 36 0
1 2 3 5 7 9 12 13 15 16 18 25 28 29 30 35 37 0
2 3 4 6 8 10 13 14 16 17 19 26 29 30 31 36 38 0
1 3 4 5 7 9 11 14 15 17 18 20 27 30 31 32 37 0
2 4 5 6 8 10 12 15 16 18 19 21 28 31 32 33 38 0
1 3 5 6 7 9 11 13 16 17 19 20 22 29 32 33 34 0
1 2 4 6 7 8 10 12 14 17 18 21 23 30 33 34 35 0
2 3 5 7 8 9 11 13 15 18 19 22 24 31 34 35 36 0
1 3 4 6 8 9 10 12 14 16 19 23 25 32 35 36 37 0
1 2 4 5 7 9 10 11 13 15 17 24 26 33 36 37 38 0
2 3 5 6 8 10 11 12 14 16 18 20 25 27 34 37 38 0
3 4 6 7 9 11 12 13 15 17 19 20 21 26 28 35 38 0
1 4 5 7 8 10 12 13 14 16 18 20 21 22 27 29 36 0
2 5 6 8 9 11 13 14 15 17 19 21 22 23 28 30 37 0
1 3 6 7 9 10 12 14 15 16 18 22 23 24 29 31 38 0
2 4 7 8 10 11 13 15 16 17 19 20 23 24 25 30 32 0
1 3 5 8 9 11 12 14 16 17 18 21 24 25 26 31 33 0
2 3 4 6 8 9 11 12 15 17 19 25 27 32 33 34 37 0
1 3 4 5 7 9 10 12 13 16 18 26 28 33 34 35 38 0
2 4 5 6 8 10 11 13 14 17 19 20 27 29 34 35 36 0
1 3 5 6 7 9 11 12 14 15 18 21 28 30 35 36 37 0
2 4 6 7 8 10 12 13 15 16 19 22 29 31 36 37 38 0
1 3 5 7 8 9 11 13 14 16 17 20 23 30 32 37 38 0
2 4 6 8 9 10 12 14 15 17 18 20 21 24 31 33 38 0
3 5 7 9 10 11 13 15 16 18 19 20 21 22 25 32 34 0
1 4 6 8 10 11 12 14 16 17 19 21 22 23 26 33 35 0
1 2 5 7 9 11 12 13 15 17 18 22 23 24 27 34 36 0
2 3 6 8 10 12 13 14 16 18 19 23 24 25 28 35 37 0
1 3 4 7 9 11 13 14 15 17 19 24 25 26 29 36 38 0
1 2 4 5 8 10 12 14 15 16 18 20 25 26 27 30 37 0
2 3 5 6 9 11 13 15 16 17 19 21 26 27 28 31 38 0
1 3 4 6 7 10 12 14 16 17 18 20 22 27 28 29 32 0
2 4 5 7 8 11 13 15 17 18 19 21 23 28 29 30 33 0
1 3 5 6 8 9 12 14 16 18 19 22 24 29 30 31 34 0
1 2 4 6 7 9 10 13 15 17 19 23 25 30 31 32 35 0
1 2 3 5 7 8 10 11 14 16 18 24 26 31 32 33 36 0
2 4 6 8 10 11 16 17 18 19 21 22 25 30 31 34 38 0
1 3 5 7 9 11 12 17 18 19 20 22 23 26 31 32 35 0
1 2 4 6 8 10 12 13 18 19 21 23 24 27 32 33 36 0
1 2 3 5 7 9 11 13 14 19 22 24 25 28 33 34 37 0
1 2 3 4 6 8 10 12 14 15 23 25 26 29 34 35 38 0
2 3 4 5 7 9 11 13 15 16 20 24 26 27 30 35 36 0
3 4 5 6 8 10 12 14 16 17 21 25 27 28 31 36 37 0
4 5 6 7 9 11 13 15 17 18 22 26 28 29 32 37 38 0
5 6 7 8 10 12 14 16 18 19 20 23 27 29 30 33 38 0
1 6 7 8 9 11 13 15 17 19 20 21 24 28 30 31 34 0
1 2 7 8 9 10 12 14 16 18 21 22 25 29 31 32 35 0
2 3 8 9 10 11 13 15 17 19 22 23 26 30 32 33 36 0
1 3 4 9 10 11 12 14 16 18 23 24 27 31 33 34 37 0
2 4 5 10 11 12 13 15 17 19 24 25 28 32 34 35 38 0
1 3 5 6 11 12 13 14 16 18 20 25 26 29 33 35 36 0
2 4 6 7 12 13 14 15 17 19 21 26 27 30 34 36 37 0
1 3 5 7 8 13 14 15 16 18 22 27 28 31 35 37 38 0
2 4 6 8 9 14 15 16 17 19 20 23 28 29 32 36 38 0
1 3 5 7 9 10 15 16 17 18 20 21 24 29 30 33 37 0
2 3 4 5 10 11 13 15 17 19 21 25 28 29 34 37 38 0
1 3 4 5 6 11 12 14 16 18 20 22 26 29 30 35 38 0
2 4 5 6 7 12 13 15 17 19 20 21 23 27 30 31 36 0
1 3 5 6 7 8 13 14 16 18 21 22 24 28 31 32 37 0
2 4 6 7 8 9 14 15 17 19 22 23 25 29 32 33 38 0
1 3 5 7 8 9 10 15 16 18 20 23 24 26 30 33 34 0
2 4 6 8 9 10 11 16 17 19 21 24 25 27 31 34 35 0
1 3 5 7 9 10 11 12 17 18 22 25 26 28 32 35 36 0
2 4 6 8 10 11 12 13 18 19 23 26 27 29 33 36 37 0
1 3 5 7 9 11 12 13 14 19 24 27 28 30 34 37 38 0
1 2 4 6 8 10 12 13 14 15 20 25 28 29 31 35 38 0
2 3 5 7 9 11 13 14 15 16 20 21 26 29 30 32 36 0
3 4 6 8 10 12 14 15 16 17 21 22 27 30 31 33 37 0
4 5 7 9 11 13 15 16 17 18 22 23 28 31 32 34 38 0
5 6 8 10 12 14 16 17 18 19 20 23 24 29 32 33 35 0
1 6 7 9 11 13 15 17 18 19 21 24 25 30 33 34 36 0
1 2 7 8 10 12 14 16 18 19 22 25 26 31 34 35 37 0
1 2 3 8 9 11 13 15 17 19 23 26 27 32 35 36 38 0
1 2 3 4 9 10 12 14 16 18 20 24 27 28 33 36 37 0
2 4 6 8 10 12 14 15 17 19 21 22 27 30 33 38 0
1 3 5 7 9 11 13 15 16 18 20 22 23 28 31 34 0
2 4 6 8 10 12 14 16 17 19 21 23 24 29 32 35 0
1 3 5 7 9 11 13 15 17 18 22 24 25 30 33 36 0
2 4 6 8 10 12 14 16 18 19 23 25 26 31 34 37 0
1 3 5 7 9 11 13 15 17 19 24 26 27 32 35 38 0
1 2 4 6 8 10 12 14 16 18 20 25 27 28 33 36 0
2 3 5 7 9 11 13 15 17 19 21 26 28 29 34 37 0
1 3 4 6 8 10 12 14 16 18 22 27 29 30 35 38 0
2 4 5 7 9 11 13 15 17 19 20 23 28 30 31 36 0
1 3 5 6 8 10 12 14 16 18 21 24 29 31 32 37 0
2 4 6 7 9 11 13 15 17 19 22 25 30 32 33 38 0
1 3 5 7 8 10 12 14 16 18 20 23 26 31 33 34 0
2 4 6 8 9 11 13 15 17 19 21 24 27 32 34 35 0
1 3 5 7 9 10 12 14 16 18 22 25 28 33 35 36 0
2 4 6 8 10 11 13 15 17 19 23 26 29 34 36 37 0
1 3 5 7 9 11 12 14 16 18 24 27 30 35 37 38 0
2 4 6 8 10 12 13 15 17 19 20 25 28 31 36 38 0
1 3 5 7 9 11 13 14 16 18 20 21 26 29 32 37 0
2 4 6 7 9 11 13 15 17 19 21 26 29 32 37 38 0
1 3 5 7 8 10 12 14 16 18 20 22 27 30 33 38 0
2 4 6 8 9 11 13 15 17 19 20 21 23 28 31 34 0
1 3 5 7 9 10 12 14 16 18 21 22 24 29 32 35 0
2 4 6 8 10 11 13 15 17 19 22 23 25 30 33 36 0
1 3 5 7 9 11 12 14 16 18 23 24 26 31 34 37 0
2 4 6 8 10 12 13 15 17 19 24 25 27 32 35 38 0
1 3 5 7 9 11 13 14 16 18 20 25 26 28 33 36 0
2 4 6 8 10 12 14 15 17 19 21 26 27 29 34 37 0
1 3 5 7 9 11 13 15 16 18 22 27 28 30 35 38 0
2 4 6 8 10 12 14 16 17 19 20 23 28 29 31 36 0
1 3 5 7 9 11 13 15 17 18 21 24 29 30 32 37 0
2 4 6 8 10 12 14 16 18 19 22 25 30 31 33 38 0
1 3 5 7 9 11 13 15 17 19 20 23 26 31 32 34 0
1 2 4 6 8 10 12 14 16 18 21 24 27 32 33 35 0
2 3 5 7 9 11 13 15 17 19 22 25 28 33 34 36 0
1 3 4 6 8 10 12 14 16 18 23 26 29 34 35 37 0
2 4 5 7 9 11 13 15 17 19 24 27 30 35 36 38 0
1 3 5 6 8 10 12 14 16 18 20 25 28 31 36 37 0
2 4 6 9 11 14 15 16 18 19 21 22 25 26 27 31 32 33 38 0
1 3 5 7 10 12 15 16 17 19 20 22 23 26 27 28 32 33 34 0
1 2 4 6 8 11 13 16 17 18 21 23 24 27 28 29 33 34 35 0
2 3 5 7 9 12 14 17 18 19 22 24 25 28 29 30 34 35 36 0
1 3 4 6 8 10 13 15 18 19 23 25 26 29 30 31 35 36 37 0
1 2 4 5 7 9 11 14 16 19 24 26 27 30 31 32 36 37 38 0
1 2 3 5 6 8 10 12 15 17 20 25 27 28 31 32 33 37 38 0
2 3 4 6 7 9 11 13 16 18 20 21 26 28 29 32 33 34 38 0
3 4 5 7 8 10 12 14 17 19 20 21 22 27 29 30 33 34 35 0
1 4 5 6 8 9 11 13 15 18 21 22 23 28 30 31 34 35 36 0
2 5 6 7 9 10 12 14 16 19 22 23 24 29 31 32 35 36 37 0
1 3 6 7 8 10 11 13 15 17 23 24 25 30 32 33 36 37 38 0
2 4 7 8 9 11 12 14 16 18 20 24 25 26 31 33 34 37 38 0
3 5 8 9 10 12 13 15 17 19 20 21 25 26 27 32 34 35 38 0
1 4 6 9 10 11 13 14 16 18 20 21 22 26 27 28 33 35 36 0
2 5 7 10 11 12 14 15 17 19 21 22 23 27 28 29 34 36 37 0
1 3 6 8 11 12 13 15 16 18 22 23 24 28 29 30 35 37 38 0
2 4 7 9 12 13 14 16 17 19 20 23 24 25 29 30 31 36 38 0
1 3 5 8 10 13 14 15 17 18 20 21 24 25 26 30 31 32 37 0
2 3 5 6 7 10 12 15 17 19 21 26 27 28 32 33 34 37 38 0
1 3 4 6 7 8 11 13 16 18 20 22 27 28 29 33 34 35 38 0
2 4 5 7 8 9 12 14 17 19 20 21 23 28 29 30 34 35 36 0
1 3 5 6 8 9 10 13 15 18 21 22 24 29 30 31 35 36 37 0
2 4 6 7 9 10 11 14 16 19 22 23 25 30 31 32 36 37 38 0
1 3 5 7 8 10 11 12 15 17 20 23 24 26 31 32 33 37 38 0
2 4 6 8 9 11 12 13 16 18 20 21 24 25 27 32 33 34 38 0
3 5 7 9 10 12 13 14 17 19 20 21 22 25 26 28 33 34 35 0
1 4 6 8 10 11 13 14 15 18 21 22 23 26 27 29 34 35 36 0
2 5 7 9 11 12 14 15 16 19 22 23 24 27 28 30 35 36 37 0
1 3 6 8 10 12 13 15 16 17 23 24 25 28 29 31 36 37 38 0
2 4 7 9 11 13 14 16 17 18 20 24 25 26 29 30 32 37 38 0
3 5 8 10 12 14 15 17 18 19 20 21 25 26 27 30 31 33 38 0
1 4 6 9 11 13 15 16 18 19 20 21 22 26 27 28 31 32 34 0
1 2 5 7 10 12 14 16 17 19 21 22 23 27 28 29 32 33 35 0
1 2 3 6 8 11 13 15 17 18 22 23 24 28 29 30 33 34 36 0
2 3 4 7 9 12 14 16 18 19 23 24 25 29 30 31 34 35 37 0
1 3 4 5 8 10 13 15 17 19 24 25 26 30 31 32 35 36 38 0
1 2 4 5 6 9 11 14 16 18 20 25 26 27 31 32 33 36 37 0
2 4 6 9 10 13 15 16 18 19 21 22 25 26 27 30 31 32 38 0
1 3 5 7 10 11 14 16 17 19 20 22 23 26 27 28 31 32 33 0
1 2 4 6 8 11 12 15 17 18 21 23 24 27 28 29 32 33 34 0
2 3 5 7 9 12 13 16 18 19 22 24 25 28 29 30 33 34 35 0
1 3 4 6 8 10 13 14 17 19 23 25 26 29 30 31 34 35 36 0
1 2 4 5 7 9 11 14 15 18 24 26 27 30 31 32 35 36 37 0
2 3 5 6 8 10 12 15 16 19 25 27 28 31 32 33 36 37 38 0
1 3 4 6 7 9 11 13 16 17 20 26 28 29 32 33 34 37 38 0
2 4 5 7 8 10 12 14 17 18 20 21 27 29 30 33 34 35 38 0
3 5 6 8 9 11 13 15 18 19 20 21 22 28 30 31 34 35 36 0
1 4 6 7 9 10 12 14 16 19 21 22 23 29 31 32 35 36 37 0
1 2 5 7 8 10 11 13 15 17 22 23 24 30 32 33 36 37 38 0
2 3 6 8 9 11 12 14 16 18 20 23 24 25 31 33 34 37 38 0
3 4 7 9 10 12 13 15 17 19 20 21 24 25 26 32 34 35 38 0
1 4 5 8 10 11 13 14 16 18 20 21 22 25 26 27 33 35 36 0
2 5 6 9 11 12 14 15 17 19 21 22 23 26 27 28 34 36 37 0
1 3 6 7 10 12 13 15 16 18 22 23 24 27 28 29 35 37 38 0
2 4 7 8 11 13 14 16 17 19 20 23 24 25 28 29 30 36 38 0
1 3 5 8 9 12 14 15 17 18 20 21 24 25 26 29 30 31 37 0
2 3 5 6 8 11 12 15 17 19 21 27 28 29 32 33 34 37 38 0
1 3 4 6 7 9 12 13 16 18 20 22 28 29 30 33 34 35 38 0
2 4 5 7 8 10 13 14 17 19 20 21 23 29 30 31 34 35 36 0
1 3 5 6 8 9 11 14 15 18 21 22 24 30 31 32 35 36 37 0
2 4 6 7 9 10 12 15 16 19 22 23 25 31 32 33 36 37 38 0
1 3 5 7 8 10 11 13 16 17 20 23 24 26 32 33 34 37 38 0
2 4 6 8 9 11 12 14 17 18 20 21 24 25 27 33 34 35 38 0
3 5 7 9 10 12 13 15 18 19 20 21 22 25 26 28 34 35 36 0
1 4 6 8 10 11 13 14 16 19 21 22 23 26 27 29 35 36 37 0
1 2 5 7 9 11 12 14 15 17 22 23 24 27 28 30 36 37 38 0
2 3 6 8 10 12 13 15 16 18 20 23 24 25 28 29 31 37 38 0
3 4 7 9 11 13 14 16 17 19 20 21 24 25 26 29 30 32 38 0
1 4 5 8 10 12 14 15 17 18 20 21 22 25 26 27 30 31 33 0
2 5 6 9 11 13 15 16 18 19 21 22 23 26 27 28 31 32 34 0
1 3 6 7 10 12 14 16 17 19 22 23 24 27 28 29 32 33 35 0
1 2 4 7 8 11 13 15 17 18 23 24 25 28 29 30 33 34 36 0
2 3 5 8 9 12 14 16 18 19 24 25 26 29 30 31 34 35 37 0
1 3 4 6 9 10 13 15 17 19 25 26 27 30 31 32 35 36 38 0
1 2 4 5 7 10 11 14 16 18 20 26 27 28 31 32 33 36 37 0
2 4 6 8 10 11 12 14 15 16 17 19 21 22 26 31 33 38 0
1 3 5 7 9 11 12 13 15 16 17 18 20 22 23 27 32 34 0
2 4 6 8 10 12 13 14 16 17 18 19 21 23 24 28 33 35 0
1 3 5 7 9 11 13 14 15 17 18 19 22 24 25 29 34 36 0
1 2 4 6 8 10 12 14 15 16 18 19 23 25 26 30 35 37 0
1 2 3 5 7 9 11 13 15 16 17 19 24 26 27 31 36 38 0
1 2 3 4 6 8 10 12 14 16 17 18 20 25 27 28 32 37 0
2 3 4 5 7 9 11 13 15 17 18 19 21 26 28 29 33 38 0
1 3 4 5 6 8 10 12 14 16 18 19 20 22 27 29 30 34 0
1 2 4 5 6 7 9 11 13 15 17 19 21 23 28 30 31 35 0
1 2 3 5 6 7 8 10 12 14 16 18 22 24 29 31 32 36 0
2 3 4 6 7 8 9 11 13 15 17 19 23 25 30 32 33 37 0
1 3 4 5 7 8 9 10 12 14 16 18 24 26 31 33 34 38 0
2 4 5 6 8 9 10 11 13 15 17 19 20 25 27 32 34 35 0
1 3 5 6 7 9 10 11 12 14 16 18 21 26 28 33 35 36 0
2 4 6 7 8 10 11 12 13 15 17 19 22 27 29 34 36 37 0
1 3 5 7 8 9 11 12 13 14 16 18 23 28 30 35 37 38 0
2 4 6 8 9 10 12 13 14 15 17 19 20 24 29 31 36 38 0
1 3 5 7 9 10 11 13 14 15 16 18 20 21 25 30 32 37 0
2 4 5 6 7 9 10 11 13 15 17 19 21 26 28 33 37 38 0
1 3 5 6 7 8 10 11 12 14 16 18 20 22 27 29 34 38 0
2 4 6 7 8 9 11 12 13 15 17 19 20 21 23 28 30 35 0
1 3 5 7 8 9 10 12 13 14 16 18 21 22 24 29 31 36 0
2 4 6 8 9 10 11 13 14 15 17 19 22 23 25 30 32 37 0
1 3 5 7 9 10 11 12 14 15 16 18 23 24 26 31 33 38 0
2 4 6 8 10 11 12 13 15 16 17 19 20 24 25 27 32 34 0
1 3 5 7 9 11 12 13 14 16 17 18 21 25 26 28 33 35 0
2 4 6 8 10 12 13 14 15 17 18 19 22 26 27 29 34 36 0
1 3 5 7 9 11 13 14 15 16 18 19 23 27 28 30 35 37 0
1 2 4 6 8 10 12 14 15 16 17 19 24 28 29 31 36 38 0
1 2 3 5 7 9 11 13 15 16 17 18 20 25 29 30 32 37 0
2 3 4 6 8 10 12 14 16 17 18 19 21 26 30 31 33 38 0
1 3 4 5 7 9 11 13 15 17 18 19 20 22 27 31 32 34 0
1 2 4 5 6 8 10 12 14 16 18 19 21 23 28 32 33 35 0
1 2 3 5 6 7 9 11 13 15 17 19 22 24 29 33 34 36 0
1 2 3 4 6 7 8 10 12 14 16 18 23 25 30 34 35 37 0
2 3 4 5 7 8 9 11 13 15 17 19 24 26 31 35 36 38 0
1 3 4 5 6 8 9 10 12 14 16 18 20 25 27 32 36 37 0
2 5 8 10 11 12 15 17 19 22 23 25 26 27 28 32 33 38 0
1 3 6 9 11 12 13 16 18 20 23 24 26 27 28 29 33 34 0
2 4 7 10 12 13 14 17 19 21 24 25 27 28 29 30 34 35 0
1 3 5 8 11 13 14 15 18 22 25 26 28 29 30 31 35 36 0
2 4 6 9 12 14 15 16 19 23 26 27 29 30 31 32 36 37 0
1 3 5 7 10 13 15 16 17 24 27 28 30 31 32 33 37 38 0
2 4 6 8 11 14 16 17 18 20 25 28 29 31 32 33 34 38 0
3 5 7 9 12 15 17 18 19 20 21 26 29 30 32 33 34 35 0
1 4 6 8 10 13 16 18 19 21 22 27 30 31 33 34 35 36 0
1 2 5 7 9 11 14 17 19 22 23 28 31 32 34 35 36 37 0
1 2 3 6 8 10 12 15 18 23 24 29 32 33 35 36 37 38 0
2 3 4 7 9 11 13 16 19 20 24 25 30 33 34 36 37 38 0
1 3 4 5 8 10 12 14 17 20 21 25 26 31 34 35 37 38 0
2 4 5 6 9 11 13 15 18 20 21 22 26 27 32 35 36 38 0
3 5 6 7 10 12 14 16 19 20 21 22 23 27 28 33 36 37 0
1 4 6 7 8 11 13 15 17 21 22 23 24 28 29 34 37 38 0
2 5 7 8 9 12 14 16 18 20 22 23 24 25 29 30 35 38 0
3 6 8 9 10 13 15 17 19 20 21 23 24 25 26 30 31 36 0
1 4 7 9 10 11 14 16 18 21 22 24 25 26 27 31 32 37 0
2 4 6 9 10 11 13 16 19 21 26 27 31 32 33 34 36 37 0
1 3 5 7 10 11 12 14 17 22 27 28 32 33 34 35 37 38 0
2 4 6 8 11 12 13 15 18 20 23 28 29 33 34 35 36 38 0
3 5 7 9 12 13 14 16 19 20 21 24 29 30 34 35 36 37 0
1 4 6 8 10 13 14 15 17 21 22 25 30 31 35 36 37 38 0
2 5 7 9 11 14 15 16 18 20 22 23 26 31 32 36 37 38 0
3 6 8 10 12 15 16 17 19 20 21 23 24 27 32 33 37 38 0
1 4 7 9 11 13 16 17 18 20 21 22 24 25 28 33 34 38 0
2 5 8 10 12 14 17 18 19 20 21 22 23 25 26 29 34 35 0
1 3 6 9 11 13 15 18 19 21 22 23 24 26 27 30 35 36 0
1 2 4 7 10 12 14 16 19 22 23 24 25 27 28 31 36 37 0
1 2 3 5 8 11 13 15 17 23 24 25 26 28 29 32 37 38 0
2 3 4 6 9 12 14 16 18 20 24 25 26 27 29 30 33 38 0
3 4 5 7 10 13 15 17 19 20 21 25 26 27 28 30 31 34 0
1 4 5 6 8 11 14 16 18 21 22 26 27 28 29 31 32 35 0
2 5 6 7 9 12 15 17 19 22 23 27 28 29 30 32 33 36 0
1 3 6 7 8 10 13 16 18 23 24 28 29 30 31 33 34 37 0
2 4 7 8 9 11 14 17 19 24 25 29 30 31 32 34 35 38 0
1 3 5 8 9 10 12 15 18 20 25 26 30 31 32 33 35 36 0
2 4 6 8 10 12 14 15 17 19 21 22 26 27 33 34 0
1 3 5 7 9 11 13 15 16 18 22 23 27 28 34 35 0
2 4 6 8 10 12 14 16 17 19 23 24 28 29 35 36 0
1 3 5 7 9 11 13 15 17 18 24 25 29 30 36 37 0
2 4 6 8 10 12 14 16 18 19 25 26 30 31 37 38 0
1 3 5 7 9 11 13 15 17 19 20 26 27 31 32 38 0
1 2 4 6 8 10 12 14 16 18 20 21 27 28 32 33 0
2 3 5 7 9 11 13 15 17 19 21 22 28 29 33 34 0
1 3 4 6 8 10 12 14 16 18 22 23 29 30 34 35 0
2 4 5 7 9 11 13 15 17 19 23 24 30 31 35 36 0
1 3 5 6 8 10 12 14 16 18 24 25 31 32 36 37 0
2 4 6 7 9 11 13 15 17 19 25 26 32 33 37 38 0
1 3 5 7 8 10 12 14 16 18 20 26 27 33 34 38 0
2 4 6 8 9 11 13 15 17 19 20 21 27 28 34 35 0
1 3 5 7 9 10 12 14 16 18 21 22 28 29 35 36 0
2 4 6 8 10 11 13 15 17 19 22 23 29 30 36 37 0
1 3 5 7 9 11 12 14 16 18 23 24 30 31 37 38 0
2 4 6 8 10 12 13 15 17 19 20 24 25 31 32 38 0
1 3 5 7 9 11 13 14 16 18 20 21 25 26 32 33 0
2 5 8 10 12 13 15 17 18 19 22 23 25 26 27 28 30 32 0
1 3 6 9 11 13 14 16 18 19 23 24 26 27 28 29 31 33 0
1 2 4 7 10 12 14 15 17 19 24 25 27 28 29 30 32 34 0
1 2 3 5 8 11 13 15 16 18 25 26 28 29 30 31 33 35 0
2 3 4 6 9 12 14 16 17 19 26 27 29 30 31 32 34 36 0
1 3 4 5 7 10 13 15 17 18 27 28 30 31 32 33 35 37 0
2 4 5 6 8 11 14 16 18 19 28 29 31 32 33 34 36 38 0
1 3 5 6 7 9 12 15 17 19 20 29 30 32 33 34 35 37 0
1 2 4 6 7 8 10 13 16 18 21 30 31 33 34 35 36 38 0
2 3 5 7 8 9 11 14 17 19 20 22 31 32 34 35 36 37 0
1 3 4 6 8 9 10 12 15 18 21 23 32 33 35 36 37 38 0
2 4 5 7 9 10 11 13 16 19 20 22 24 33 34 36 37 38 0
1 3 5 6 8 10 11 12 14 17 20 21 23 25 34 35 37 38 0
2 4 6 7 9 11 12 13 15 18 20 21 22 24 26 35 36 38 0
3 5 7 8 10 12 13 14 16 19 20 21 22 23 25 27 36 37 0
1 4 6 8 9 11 13 14 15 17 21 22 23 24 26 28 37 38 0
2 5 7 9 10 12 14 15 16 18 20 22 23 24 25 27 29 38 0
3 6 8 10 11 13 15 16 17 19 20 21 23 24 25 26 28 30 0
1 4 7 9 11 12 14 16 17 18 21 22 24 25 26 27 29 31 0
2 3 4 6 8 9 11 13 16 19 27 29 31 32 33 34 36 37 0
1 3 4 5 7 9 10 12 14 17 28 30 32 33 34 35 37 38 0
2 4 5 6 8 10 11 13 15 18 20 29 31 33 34 35 36 38 0
3 5 6 7 9 11 12 14 16 19 20 21 30 32 34 35 36 37 0
1 4 6 7 8 10 12 13 15 17 21 22 31 33 35 36 37 38 0
2 5 7 8 9 11 13 14 16 18 20 22 23 32 34 36 37 38 0
3 6 8 9 10 12 14 15 17 19 20 21 23 24 33 35 37 38 0
1 4 7 9 10 11 13 15 16 18 20 21 22 24 25 34 36 38 0
2 5 8 10 11 12 14 16 17 19 20 21 22 23 25 26 35 37 0
1 3 6 9 11 12 13 15 17 18 21 22 23 24 26 27 36 38 0
2 4 7 10 12 13 14 16 18 19 20 22 23 24 25 27 28 37 0
1 3 5 8 11 13 14 15 17 19 21 23 24 25 26 28 29 38 0
1 2 4 6 9 12 14 15 16 18 20 22 24 25 26 27 29 30 0
2 3 5 7 10 13 15 16 17 19 21 23 25 26 27 28 30 31 0
1 3 4 6 8 11 14 16 17 18 22 24 26 27 28 29 31 32 0
2 4 5 7 9 12 15 17 18 19 23 25 27 28 29 30 32 33 0
1 3 5 6 8 10 13 16 18 19 24 26 28 29 30 31 33 34 0
1 2 4 6 7 9 11 14 17 19 25 27 29 30 31 32 34 35 0
1 2 3 5 7 8 10 12 15 18 26 28 30 31 32 33 35 36 0
2 4 6 9 10 11 13 15 16 18 19 22 25 26 27 31 32 36 38 0
1 3 5 7 10 11 12 14 16 17 19 20 23 26 27 28 32 33 37 0
1 2 4 6 8 11 12 13 15 17 18 21 24 27 28 29 33 34 38 0
2 3 5 7 9 12 13 14 16 18 19 20 22 25 28 29 30 34 35 0
1 3 4 6 8 10 13 14 15 17 19 21 23 26 29 30 31 35 36 0
1 2 4 5 7 9 11 14 15 16 18 22 24 27 30 31 32 36 37 0
2 3 5 6 8 10 12 15 16 17 19 23 25 28 31 32 33 37 38 0
1 3 4 6 7 9 11 13 16 17 18 20 24 26 29 32 33 34 38 0
2 4 5 7 8 10 12 14 17 18 19 20 21 25 27 30 33 34 35 0
1 3 5 6 8 9 11 13 15 18 19 21 22 26 28 31 34 35 36 0
1 2 4 6 7 9 10 12 14 16 19 22 23 27 29 32 35 36 37 0
1 2 3 5 7 8 10 11 13 15 17 23 24 28 30 33 36 37 38 0
2 3 4 6 8 9 11 12 14 16 18 20 24 25 29 31 34 37 38 0
3 4 5 7 9 10 12 13 15 17 19 20 21 25 26 30 32 35 38 0
1 4 5 6 8 10 11 13 14 16 18 20 21 22 26 27 31 33 36 0
2 5 6 7 9 11 12 14 15 17 19 21 22 23 27 28 32 34 37 0
1 3 6 7 8 10 12 13 15 16 18 22 23 24 28 29 33 35 38 0
2 4 7 8 9 11 13 14 16 17 19 20 23 24 25 29 30 34 36 0
1 3 5 8 9 10 12 14 15 17 18 21 24 25 26 30 31 35 37 0
2 3 5 6 8 10 11 12 15 17 19 21 23 27 28 32 33 34 37 0
1 3 4 6 7 9 11 12 13 16 18 22 24 28 29 33 34 35 38 0
2 4 5 7 8 10 12 13 14 17 19 20 23 25 29 30 34 35 36 0
1 3 5 6 8 9 11 13 14 15 18 21 24 26 30 31 35 36 37 0
2 4 6 7 9 10 12 14 15 16 19 22 25 27 31 32 36 37 38 0
1 3 5 7 8 10 11 13 15 16 17 20 23 26 28 32 33 37 38 0
2 4 6 8 9 11 12 14 16 17 18 20 21 24 27 29 33 34 38 0
3 5 7 9 10 12 13 15 17 18 19 20 21 22 25 28 30 34 35 0
1 4 6 8 10 11 13 14 16 18 19 21 22 23 26 29 31 35 36 0
1 2 5 7 9 11 12 14 15 17 19 22 23 24 27 30 32 36 37 0
1 2 3 6 8 10 12 13 15 16 18 23 24 25 28 31 33 37 38 0
2 3 4 7 9 11 13 14 16 17 19 20 24 25 26 29 32 34 38 0
1 3 4 5 8 10 12 14 15 17 18 20 21 25 26 27 30 33 35 0
2 4 5 6 9 11 13 15 16 18 19 21 22 26 27 28 31 34 36 0
1 3 5 6 7 10 12 14 16 17 19 22 23 27 28 29 32 35 37 0
1 2 4 6 7 8 11 13 15 17 18 23 24 28 29 30 33 36 38 0
2 3 5 7 8 9 12 14 16 18 19 20 24 25 29 30 31 34 37 0
1 3 4 6 8 9 10 13 15 17 19 21 25 26 30 31 32 35 38 0
1 2 4 5 7 9 10 11 14 16 18 20 22 26 27 31 32 33 36 0
2 4 6 8 10 12 13 15 16 18 19 22 25 26 31 34 36 38 0
1 3 5 7 9 11 13 14 16 17 19 20 23 26 27 32 35 37 0
1 2 4 6 8 10 12 14 15 17 18 21 24 27 28 33 36 38 0
2 3 5 7 9 11 13 15 16 18 19 20 22 25 28 29 34 37 0
1 3 4 6 8 10 12 14 16 17 19 21 23 26 29 30 35 38 0
1 2 4 5 7 9 11 13 15 17 18 20 22 24 27 30 31 36 0
2 3 5 6 8 10 12 14 16 18 19 21 23 25 28 31 32 37 0
1 3 4 6 7 9 11 13 15 17 19 22 24 26 29 32 33 38 0
1 2 4 5 7 8 10 12 14 16 18 20 23 25 27 30 33 34 0
2 3 5 6 8 9 11 13 15 17 19 21 24 26 28 31 34 35 0
1 3 4 6 7 9 10 12 14 16 18 22 25 27 29 32 35 36 0
2 4 5 7 8 10 11 13 15 17 19 23 26 28 30 33 36 37 0
1 3 5 6 8 9 11 12 14 16 18 24 27 29 31 34 37 38 0
2 4 6 7 9 10 12 13 15 17 19 20 25 28 30 32 35 38 0
1 3 5 7 8 10 11 13 14 16 18 20 21 26 29 31 33 36 0
2 4 6 8 9 11 12 14 15 17 19 21 22 27 30 32 34 37 0
1 3 5 7 9 10 12 13 15 16 18 22 23 28 31 33 35 38 0
2 4 6 8 10 11 13 14 16 17 19 20 23 24 29 32 34 36 0
1 3 5 7 9 11 12 14 15 17 18 21 24 25 30 33 35 37 0
2 3 5 6 8 9 11 13 15 17 19 21 23 25 28 33 34 37 0
1 3 4 6 7 9 10 12 14 16 18 22 24 26 29 34 35 38 0
2 4 5 7 8 10 11 13 15 17 19 20 23 25 27 30 35 36 0
1 3 5 6 8 9 11 12 14 16 18 21 24 26 28 31 36 37 0
2 4 6 7 9 10 12 13 15 17 19 22 25 27 29 32 37 38 0
1 3 5 7 8 10 11 13 14 16 18 20 23 26 28 30 33 38 0
2 4 6 8 9 11 12 14 15 17 19 20 21 24 27 29 31 34 0
1 3 5 7 9 10 12 13 15 16 18 21 22 25 28 30 32 35 0
2 4 6 8 10 11 13 14 16 17 19 22 23 26 29 31 33 36 0
1 3 5 7 9 11 12 14 15 17 18 23 24 27 30 32 34 37 0
2 4 6 8 10 12 13 15 16 18 19 24 25 28 31 33 35 38 0
1 3 5 7 9 11 13 14 16 17 19 20 25 26 29 32 34 36 0
1 2 4 6 8 10 12 14 15 17 18 21 26 27 30 33 35 37 0
2 3 5 7 9 11 13 15 16 18 19 22 27 28 31 34 36 38 0
1 3 4 6 8 10 12 14 16 17 19 20 23 28 29 32 35 37 0
1 2 4 5 7 9 11 13 15 17 18 21 24 29 30 33 36 38 0
2 3 5 6 8 10 12 14 16 18 19 20 22 25 30 31 34 37 0
1 3 4 6 7 9 11 13 15 17 19 21 23 26 31 32 35 38 0
1 2 4 5 7 8 10 12 14 16 18 20 22 24 27 32 33 36 0
2 4 6 8 10 13 15 16 18 19 22 25 30 31 36 38 0
1 3 5 7 9 11 14 16 17 19 20 23 26 31 32 37 0
1 2 4 6 8 10 12 15 17 18 21 24 27 32 33 38 0
2 3 5 7 9 11 13 16 18 19 20 22 25 28 33 34 0
1 3 4 6 8 10 12 14 17 19 21 23 26 29 34 35 0
1 2 4 5 7 9 11 13 15 18 22 24 27 30 35 36 0
2 3 5 6 8 10 12 14 16 19 23 25 28 31 36 37 0
1 3 4 6 7 9 11 13 15 17 24 26 29 32 37 38 0
2 4 5 7 8 10 12 14 16 18 20 25 27 30 33 38 0
3 5 6 8 9 11 13 15 17 19 20 21 26 28 31 34 0
1 4 6 7 9 10 12 14 16 18 21 22 27 29 32 35 0
2 5 7 8 10 11 13 15 17 19 22 23 28 30 33 36 0
1 3 6 8 9 11 12 14 16 18 23 24 29 31 34 37 0
2 4 7 9 10 12 13 15 17 19 24 25 30 32 35 38 0
1 3 5 8 10 11 13 14 16 18 20 25 26 31 33 36 0
2 4 6 9 11 12 14 15 17 19 21 26 27 32 34 37 0
1 3 5 7 10 12 13 15 16 18 22 27 28 33 35 38 0
2 4 6 8 11 13 14 16 17 19 20 23 28 29 34 36 0
1 3 5 7 9 12 14 15 17 18 21 24 29 30 35 37 0
2 3 5 6 8 11 13 15 17 19 21 23 28 29 34 37 0
1 3 4 6 7 9 12 14 16 18 22 24 29 30 35 38 0
2 4 5 7 8 10 13 15 17 19 20 23 25 30 31 36 0
1 3 5 6 8 9 11 14 16 18 21 24 26 31 32 37 0
2 4 6 7 9 10 12 15 17 19 22 25 27 32 33 38 0
1 3 5 7 8 10 11 13 16 18 20 23 26 28 33 34 0
2 4 6 8 9 11 12 14 17 19 21 24 27 29 34 35 0
1 3 5 7 9 10 12 13 15 18 22 25 28 30 35 36 0
2 4 6 8 10 11 13 14 16 19 23 26 29 31 36 37 0
1 3 5 7 9 11 12 14 15 17 24 27 30 32 37 38 0
2 4 6 8 10 12 13 15 16 18 20 25 28 31 33 38 0
3 5 7 9 11 13 14 16 17 19 20 21 26 29 32 34 0
1 4 6 8 10 12 14 15 17 18 21 22 27 30 33 35 0
2 5 7 9 11 13 15 16 18 19 22 23 28 31 34 36 0
1 3 6 8 10 12 14 16 17 19 23 24 29 32 35 37 0
1 2 4 7 9 11 13 15 17 18 24 25 30 33 36 38 0
2 3 5 8 10 12 14 16 18 19 20 25 26 31 34 37 0
1 3 4 6 9 11 13 15 17 19 21 26 27 32 35 38 0
1 2 4 5 7 10 12 14 16 18 20 22 27 28 33 36 0
2 4 6 9 10 12 13 15 17 18 19 22 25 26 27 30 32 38 0
1 3 5 7 10 11 13 14 16 18 19 20 23 26 27 28 31 33 0
1 2 4 6 8 11 12 14 15 17 19 21 24 27 28 29 32 34 0
1 2 3 5 7 9 12 13 15 16 18 22 25 28 29 30 33 35 0
2 3 4 6 8 10 13 14 16 17 19 23 26 29 30 31 34 36 0
1 3 4 5 7 9 11 14 15 17 18 24 27 30 31 32 35 37 0
2 4 5 6 8 10 12 15 16 18 19 25 28 31 32 33 36 38 0
1 3 5 6 7 9 11 13 16 17 19 20 26 29 32 33 34 37 0
1 2 4 6 7 8 10 12 14 17 18 21 27 30 33 34 35 38 0
2 3 5 7 8 9 11 13 15 18 19 20 22 28 31 34 35 36 0
1 3 4 6 8 9 10 12 14 16 19 21 23 29 32 35 36 37 0
1 2 4 5 7 9 10 11 13 15 17 22 24 30 33 36 37 38 0
2 3 5 6 8 10 11 12 14 16 18 20 23 25 31 34 37 38 0
3 4 6 7 9 11 12 13 15 17 19 20 21 24 26 32 35 38 0
1 4 5 7 8 10 12 13 14 16 18 20 21 22 25 27 33 36 0
2 5 6 8 9 11 13 14 15 17 19 21 22 23 26 28 34 37 0
1 3 6 7 9 10 12 14 15 16 18 22 23 24 27 29 35 38 0
2 4 7 8 10 11 13 15 16 17 19 20 23 24 25 28 30 36 0
1 3 5 8 9 11 12 14 16 17 18 21 24 25 26 29 31 37 0
2 3 4 6 8 9 11 12 15 17 19 21 27 29 32 33 34 37 0
1 3 4 5 7 9 10 12 13 16 18 22 28 30 33 34 35 38 0
2 4 5 6 8 10 11 13 14 17 19 20 23 29 31 34 35 36 0
1 3 5 6 7 9 11 12 14 15 18 21 24 30 32 35 36 37 0
2 4 6 7 8 10 12 13 15 16 19 22 25 31 33 36 37 38 0
1 3 5 7 8 9 11 13 14 16 17 20 23 26 32 34 37 38 0
2 4 6 8 9 10 12 14 15 17 18 20 21 24 27 33 35 38 0
3 5 7 9 10 11 13 15 16 18 19 20 21 22 25 28 34 36 0
1 4 6 8 10 11 12 14 16 17 19 21 22 23 26 29 35 37 0
1 2 5 7 9 11 12 13 15 17 18 22 23 24 27 30 36 38 0
2 3 6 8 10 12 13 14 16 18 19 20 23 24 25 28 31 37 0
1 3 4 7 9 11 13 14 15 17 19 21 24 25 26 29 32 38 0
1 2 4 5 8 10 12 14 15 16 18 20 22 25 26 27 30 33 0
2 3 5 6 9 11 13 15 16 17 19 21 23 26 27 28 31 34 0
1 3 4 6 7 10 12 14 16 17 18 22 24 27 28 29 32 35 0
2 4 5 7 8 11 13 15 17 18 19 23 25 28 29 30 33 36 0
1 3 5 6 8 9 12 14 16 18 19 24 26 29 30 31 34 37 0
1 2 4 6 7 9 10 13 15 17 19 25 27 30 31 32 35 38 0
1 2 3 5 7 8 10 11 14 16 18 20 26 28 31 32 33 36 0
2 4 6 8 10 12 13 15 17 18 19 22 25 27 30 36 38 0
1 3 5 7 9 11 13 14 16 18 19 20 23 26 28 31 37 0
1 2 4 6 8 10 12 14 15 17 19 21 24 27 29 32 38 0
1 2 3 5 7 9 11 13 15 16 18 20 22 25 28 30 33 0
2 3 4 6 8 10 12 14 16 17 19 21 23 26 29 31 34 0
1 3 4 5 7 9 11 13 15 17 18 22 24 27 30 32 35 0
2 4 5 6 8 10 12 14 16 18 19 23 25 28 31 33 36 0
1 3 5 6 7 9 11 13 15 17 19 24 26 29 32 34 37 0
1 2 4 6 7 8 10 12 14 16 18 25 27 30 33 35 38 0
2 3 5 7 8 9 11 13 15 17 19 20 26 28 31 34 36 0
1 3 4 6 8 9 10 12 14 16 18 21 27 29 32 35 37 0
2 4 5 7 9 10 11 13 15 17 19 22 28 30 33 36 38 0
1 3 5 6 8 10 11 12 14 16 18 20 23 29 31 34 37 0
2 4 6 7 9 11 12 13 15 17 19 21 24 30 32 35 38 0
1 3 5 7 8 10 12 13 14 16 18 20 22 25 31 33 36 0
2 4 6 8 9 11 13 14 15 17 19 21 23 26 32 34 37 0
1 3 5 7 9 10 12 14 15 16 18 22 24 27 33 35 38 0
2 4 6 8 10 11 13 15 16 17 19 20 23 25 28 34 36 0
1 3 5 7 9 11 12 14 16 17 18 21 24 26 29 35 37 0
2 3 4 6 8 9 11 13 15 17 19 21 23 29 32 34 37 0
1 3 4 5 7 9 10 12 14 16 18 22 24 30 33 35 38 0
2 4 5 6 8 10 11 13 15 17 19 20 23 25 31 34 36 0
1 3 5 6 7 9 11 12 14 16 18 21 24 26 32 35 37 0
2 4 6 7 8 10 12 13 15 17 19 22 25 27 33 36 38 0
1 3 5 7 8 9 11 13 14 16 18 20 23 26 28 34 37 0
2 4 6 8 9 10 12 14 15 17 19 21 24 27 29 35 38 0
1 3 5 7 9 10 11 13 15 16 18 20 22 25 28 30 36 0
2 4 6 8 10 11 12 14 16 17 19 21 23 26 29 31 37 0
1 3 5 7 9 11 12 13 15 17 18 22 24 27 30 32 38 0
2 4 6 8 10 12 13 14 16 18 19 20 23 25 28 31 33 0
1 3 5 7 9 11 13 14 15 17 19 21 24 26 29 32 34 0
1 2 4 6 8 10 12 14 15 16 18 22 25 27 30 33 35 0
2 3 5 7 9 11 13 15 16 17 19 23 26 28 31 34 36 0
1 3 4 6 8 10 12 14 16 17 18 24 27 29 32 35 37 0
2 4 5 7 9 11 13 15 17 18 19 25 28 30 33 36 38 0
1 3 5 6 8 10 12 14 16 18 19 20 26 29 31 34 37 0
1 2 4 6 7 9 11 13 15 17 19 21 27 30 32 35 38 0
1 2 3 5 7 8 10 12 14 16 18 20 22 28 31 33 36 0
2 4 6 8 10 12 14 15 17 19 21 25 26 27 34 37 0
1 3 5 7 9 11 13 15 16 18 22 26 27 28 35 38 0
2 4 6 8 10 12 14 16 17 19 20 23 27 28 29 36 0
1 3 5 7 9 11 13 15 17 18 21 24 28 29 30 37 0
2 4 6 8 10 12 14 16 18 19 22 25 29 30 31 38 0
1 3 5 7 9 11 13 15 17 19 20 23 26 30 31 32 0
1 2 4 6 8 10 12 14 16 18 21 24 27 31 32 33 0
2 3 5 7 9 11 13 15 17 19 22 25 28 32 33 34 0
1 3 4 6 8 10 12 14 16 18 23 26 29 33 34 35 0
2 4 5 7 9 11 13 15 17 19 24 27 30 34 35 36 0
1 3 5 6 8 10 12 14 16 18 25 28 31 35 36 37 0
2 4 6 7 9 11 13 15 17 19 26 29 32 36 37 38 0
1 3 5 7 8 10 12 14 16 18 20 27 30 33 37 38 0
2 4 6 8 9 11 13 15 17 19 20 21 28 31 34 38 0
1 3 5 7 9 10 12 14 16 18 20 21 22 29 32 35 0
2 4 6 8 10 11 13 15 17 19 21 22 23 30 33 36 0
1 3 5 7 9 11 12 14 16 18 22 23 24 31 34 37 0
2 4 6 8 10 12 13 15 17 19 23 24 25 32 35 38 0
1 3 5 7 9 11 13 14 16 18 20 24 25 26 33 36 0
2 4 6 7 9 11 13 15 17 19 22 25 32 33 34 38 0
1 3 5 7 8 10 12 14 16 18 20 23 26 33 34 35 0
2 4 6 8 9 11 13 15 17 19 21 24 27 34 35 36 0
1 3 5 7 9 10 12 14 16 18 22 25 28 35 36 37 0
2 4 6 8 10 11 13 15 17 19 23 26 29 36 37 38 0
1 3 5 7 9 11 12 14 16 18 20 24 27 30 37 38 0
2 4 6 8 10 12 13 15 17 19 20 21 25 28 31 38 0
1 3 5 7 9 11 13 14 16 18 20 21 22 26 29 32 0
2 4 6 8 10 12 14 15 17 19 21 22 23 27 30 33 0
1 3 5 7 9 11 13 15 16 18 22 23 24 28 31 34 0
2 4 6 8 10 12 14 16 17 19 23 24 25 29 32 35 0
1 3 5 7 9 11 13 15 17 18 24 25 26 30 33 36 0
2 4 6 8 10 12 14 16 18 19 25 26 27 31 34 37 0
1 3 5 7 9 11 13 15 17 19 26 27 28 32 35 38 0
1 2 4 6 8 10 12 14 16 18 20 27 28 29 33 36 0
2 3 5 7 9 11 13 15 17 19 21 28 29 30 34 37 0
1 3 4 6 8 10 12 14 16 18 22 29 30 31 35 38 0
2 4 5 7 9 11 13 15 17 19 20 23 30 31 32 36 0
1 3 5 6 8 10 12 14 16 18 21 24 31 32 33 37 0
2 5 8 10 11 12 14 15 17 19 22 23 25 26 27 28 32 37 38 0
1 3 6 9 11 12 13 15 16 18 20 23 24 26 27 28 29 33 38 0
2 4 7 10 12 13 14 16 17 19 20 21 24 25 27 28 29 30 34 0
1 3 5 8 11 13 14 15 17 18 21 22 25 26 28 29 30 31 35 0
2 4 6 9 12 14 15 16 18 19 22 23 26 27 29 30 31 32 36 0
1 3 5 7 10 13 15 16 17 19 23 24 27 28 30 31 32 33 37 0
1 2 4 6 8 11 14 16 17 18 24 25 28 29 31 32 33 34 38 0
2 3 5 7 9 12 15 17 18 19 20 25 26 29 30 32 33 34 35 0
1 3 4 6 8 10 13 16 18 19 21 26 27 30 31 33 34 35 36 0
1 2 4 5 7 9 11 14 17 19 22 27 28 31 32 34 35 36 37 0
1 2 3 5 6 8 10 12 15 18 23 28 29 32 33 35 36 37 38 0
2 3 4 6 7 9 11 13 16 19 20 24 29 30 33 34 36 37 38 0
1 3 4 5 7 8 10 12 14 17 20 21 25 30 31 34 35 37 38 0
2 4 5 6 8 9 11 13 15 18 20 21 22 26 31 32 35 36 38 0
3 5 6 7 9 10 12 14 16 19 20 21 22 23 27 32 33 36 37 0
1 4 6 7 8 10 11 13 15 17 21 22 23 24 28 33 34 37 38 0
2 5 7 8 9 11 12 14 16 18 20 22 23 24 25 29 34 35 38 0
3 6 8 9 10 12 13 15 17 19 20 21 23 24 25 26 30 35 36 0
1 4 7 9 10 11 13 14 16 18 21 22 24 25 26 27 31 36 37 0
2 4 6 7 9 10 11 13 16 19 21 22 27 31 32 33 34 36 37 0
1 3 5 7 8 10 11 12 14 17 22 23 28 32 33 34 35 37 38 0
2 4 6 8 9 11 12 13 15 18 20 23 24 29 33 34 35 36 38 0
3 5 7 9 10 12 13 14 16 19 20 21 24 25 30 34 35 36 37 0
1 4 6 8 10 11 13 14 15 17 21 22 25 26 31 35 36 37 38 0
2 5 7 9 11 12 14 15 16 18 20 22 23 26 27 32 36 37 38 0
3 6 8 10 12 13 15 16 17 19 20 21 23 24 27 28 33 37 38 0
1 4 7 9 11 13 14 16 17 18 20 21 22 24 25 28 29 34 38 0
2 5 8 10 12 14 15 17 18 19 20 21 22 23 25 26 29 30 35 0
1 3 6 9 11 13 15 16 18 19 21 22 23 24 26 27 30 31 36 0
1 2 4 7 10 12 14 16 17 19 22 23 24 25 27 28 31 32 37 0
1 2 3 5 8 11 13 15 17 18 23 24 25 26 28 29 32 33 38 0
2 3 4 6 9 12 14 16 18 19 20 24 25 26 27 29 30 33 34 0
1 3 4 5 7 10 13 15 17 19 21 25 26 27 28 30 31 34 35 0
1 2 4 5 6 8 11 14 16 18 22 26 27 28 29 31 32 35 36 0
2 3 5 6 7 9 12 15 17 19 23 27 28 29 30 32 33 36 37 0
1 3 4 6 7 8 10 13 16 18 24 28 29 30 31 33 34 37 38 0
2 4 5 7 8 9 11 14 17 19 20 25 29 30 31 32 34 35 38 0
1 3 5 6 8 9 10 12 15 18 20 21 26 30 31 32 33 35 36 0
2 4 6 9 10 11 12 14 15 17 19 25 26 27 32 37 38 0
1 3 5 7 10 11 12 13 15 16 18 20 26 27 28 33 38 0
2 4 6 8 11 12 13 14 16 17 19 20 21 27 28 29 34 0
1 3 5 7 9 12 13 14 15 17 18 21 22 28 29 30 35 0
2 4 6 8 10 13 14 15 16 18 19 22 23 29 30 31 36 0
1 3 5 7 9 11 14 15 16 17 19 23 24 30 31 32 37 0
1 2 4 6 8 10 12 15 16 17 18 24 25 31 32 33 38 0
2 3 5 7 9 11 13 16 17 18 19 20 25 26 32 33 34 0
1 3 4 6 8 10 12 14 17 18 19 21 26 27 33 34 35 0
1 2 4 5 7 9 11 13 15 18 19 22 27 28 34 35 36 0
1 2 3 5 6 8 10 12 14 16 19 23 28 29 35 36 37 0
1 2 3 4 6 7 9 11 13 15 17 24 29 30 36 37 38 0
2 3 4 5 7 8 10 12 14 16 18 20 25 30 31 37 38 0
3 4 5 6 8 9 11 13 15 17 19 20 21 26 31 32 38 0
1 4 5 6 7 9 10 12 14 16 18 20 21 22 27 32 33 0
2 5 6 7 8 10 11 13 15 17 19 21 22 23 28 33 34 0
1 3 6 7 8 9 11 12 14 16 18 22 23 24 29 34 35 0
2 4 7 8 9 10 12 13 15 17 19 23 24 25 30 35 36 0
1 3 5 8 9 10 11 13 14 16 18 24 25 26 31 36 37 0
2 4 6 7 9 10 11 12 15 17 19 21 22 27 32 33 34 0
1 3 5 7 8 10 11 12 13 16 18 22 23 28 33 34 35 0
2 4 6 8 9 11 12 13 14 17 19 23 24 29 34 35 36 0
1 3 5 7 9 10 12 13 14 15 18 24 25 30 35 36 37 0
2 4 6 8 10 11 13 14 15 16 19 25 26 31 36 37 38 0
1 3 5 7 9 11 12 14 15 16 17 20 26 27 32 37 38 0
2 4 6 8 10 12 13 15 16 17 18 20 21 27 28 33 38 0
3 5 7 9 11 13 14 16 17 18 19 20 21 22 28 29 34 0
1 4 6 8 10 12 14 15 17 18 19 21 22 23 29 30 35 0
1 2 5 7 9 11 13 15 16 18 19 22 23 24 30 31 36 0
1 2 3 6 8 10 12 14 16 17 19 23 24 25 31 32 37 0
1 2 3 4 7 9 11 13 15 17 18 24 25 26 32 33 38 0
2 3 4 5 8 10 12 14 16 18 19 20 25 26 27 33 34 0
1 3 4 5 6 9 11 13 15 17 19 21 26 27 28 34 35 0
1 2 4 5 6 7 10 12 14 16 18 22 27 28 29 35 36 0
2 3 5 6 7 8 11 13 15 17 19 23 28 29 30 36 37 0
1 3 4 6 7 8 9 12 14 16 18 24 29 30 31 37 38 0
2 4 5 7 8 9 10 13 15 17 19 20 25 30 31 32 38 0
1 3 5 6 8 9 10 11 14 16 18 20 21 26 31 32 33 0
2 5 8 10 11 12 14 15 17 19 22 23 25 26 27 28 36 37 38 0
1 3 6 9 11 12 13 15 16 18 20 23 24 26 27 28 29 37 38 0
2 4 7 10 12 13 14 16 17 19 20 21 24 25 27 28 29 30 38 0
1 3 5 8 11 13 14 15 17 18 20 21 22 25 26 28 29 30 31 0
2 4 6 9 12 14 15 16 18 19 21 22 23 26 27 29 30 31 32 0
1 3 5 7 10 13 15 16 17 19 22 23 24 27 28 30 31 32 33 0
1 2 4 6 8 11 14 16 17 18 23 24 25 28 29 31 32 33 34 0
2 3 5 7 9 12 15 17 18 19 24 25 26 29 30 32 33 34 35 0
1 3 4 6 8 10 13 16 18 19 25 26 27 30 31 33 34 35 36 0
1 2 4 5 7 9 11 14 17 19 26 27 28 31 32 34 35 36 37 0
1 2 3 5 6 8 10 12 15 18 27 28 29 32 33 35 36 37 38 0
2 3 4 6 7 9 11 13 16 19 20 28 29 30 33 34 36 37 38 0
1 3 4 5 7 8 10 12 14 17 20 21 29 30 31 34 35 37 38 0
2 4 5 6 8 9 11 13 15 18 20 21 22 30 31 32 35 36 38 0
3 5 6 7 9 10 12 14 16 19 20 21 22 23 31 32 33 36 37 0
1 4 6 7 8 10 11 13 15 17 21 22 23 24 32 33 34 37 38 0
2 5 7 8 9 11 12 14 16 18 20 22 23 24 25 33 34 35 38 0
3 6 8 9 10 12 13 15 17 19 20 21 23 24 25 26 34 35 36 0
1 4 7 9 10 11 13 14 16 18 21 22 24 25 26 27 35 36 37 0
2 4 6 7 9 10 11 13 16 19 21 22 23 31 32 33 34 36 37 0
1 3 5 7 8 10 11 12 14 17 22 23 24 32 33 34 35 37 38 0
2 4 6 8 9 11 12 13 15 18 20 23 24 25 33 34 35 36 38 0
3 5 7 9 10 12 13 14 16 19 20 21 24 25 26 34 35 36 37 0
1 4 6 8 10 11 13 14 15 17 21 22 25 26 27 35 36 37 38 0
2 5 7 9 11 12 14 15 16 18 20 22 23 26 27 28 36 37 38 0
3 6 8 10 12 13 15 16 17 19 20 21 23 24 27 28 29 37 38 0
1 4 7 9 11 13 14 16 17 18 20 21 22 24 25 28 29 30 38 0
2 5 8 10 12 14 15 17 18 19 20 21 22 23 25 26 29 30 31 0
1 3 6 9 11 13 15 16 18 19 21 22 23 24 26 27 30 31 32 0
1 2 4 7 10 12 14 16 17 19 22 23 24 25 27 28 31 32 33 0
1 2 3 5 8 11 13 15 17 18 23 24 25 26 28 29 32 33 34 0
2 3 4 6 9 12 14 16 18 19 24 25 26 27 29 30 33 34 35 0
1 3 4 5 7 10 13 15 17 19 25 26 27 28 30 31 34 35 36 0
1 2 4 5 6 8 11 14 16 18 26 27 28 29 31 32 35 36 37 0
2 3 5 6 7 9 12 15 17 19 27 28 29 30 32 33 36 37 38 0
1 3 4 6 7 8 10 13 16 18 20 28 29 30 31 33 34 37 38 0
2 4 5 7 8 9 11 14 17 19 20 21 29 30 31 32 34 35 38 0
1 3 5 6 8 9 10 12 15 18 20 21 22 30 31 32 33 35 36 0
2 5 8 10 11 12 13 15 17 18 19 22 23 25 26 27 28 36 38 0
1 3 6 9 11 12 13 14 16 18 19 20 23 24 26 27 28 29 37 0
1 2 4 7 10 12 13 14 15 17 19 21 24 25 27 28 29 30 38 0
1 2 3 5 8 11 13 14 15 16 18 20 22 25 26 28 29 30 31 0
2 3 4 6 9 12 14 15 16 17 19 21 23 26 27 29 30 31 32 0
1 3 4 5 7 10 13 15 16 17 18 22 24 27 28 30 31 32 33 0
2 4 5 6 8 11 14 16 17 18 19 23 25 28 29 31 32 33 34 0
1 3 5 6 7 9 12 15 17 18 19 24 26 29 30 32 33 34 35 0
1 2 4 6 7 8 10 13 16 18 19 25 27 30 31 33 34 35 36 0
1 2 3 5 7 8 9 11 14 17 19 26 28 31 32 34 35 36 37 0
1 2 3 4 6 8 9 10 12 15 18 27 29 32 33 35 36 37 38 0
2 3 4 5 7 9 10 11 13 16 19 20 28 30 33 34 36 37 38 0
1 3 4 5 6 8 10 11 12 14 17 20 21 29 31 34 35 37 38 0
2 4 5 6 7 9 11 12 13 15 18 20 21 22 30 32 35 36 38 0
3 5 6 7 8 10 12 13 14 16 19 20 21 22 23 31 33 36 37 0
1 4 6 7 8 9 11 13 14 15 17 21 22 23 24 32 34 37 38 0
2 5 7 8 9 10 12 14 15 16 18 20 22 23 24 25 33 35 38 0
3 6 8 9 10 11 13 15 16 17 19 20 21 23 24 25 26 34 36 0
1 4 7 9 10 11 12 14 16 17 18 21 22 24 25 26 27 35 37 0
2 3 4 6 8 9 10 11 13 16 19 21 23 31 32 33 34 36 37 0
1 3 4 5 7 9 10 11 12 14 17 22 24 32 33 34 35 37 38 0
2 4 5 6 8 10 11 12 13 15 18 20 23 25 33 34 35 36 38 0
3 5 6 7 9 11 12 13 14 16 19 20 21 24 26 34 35 36 37 0
1 4 6 7 8 10 12 13 14 15 17 21 22 25 27 35 36 37 38 0
2 5 7 8 9 11 13 14 15 16 18 20 22 23 26 28 36 37 38 0
3 6 8 9 10 12 14 15 16 17 19 20 21 23 24 27 29 37 38 0
1 4 7 9 10 11 13 15 16 17 18 20 21 22 24 25 28 30 38 0
2 5 8 10 11 12 14 16 17 18 19 20 21 22 23 25 26 29 31 0
1 3 6 9 11 12 13 15 17 18 19 21 22 23 24 26 27 30 32 0
1 2 4 7 10 12 13 14 16 18 19 22 23 24 25 27 28 31 33 0
1 2 3 5 8 11 13 14 15 17 19 23 24 25 26 28 29 32 34 0
1 2 3 4 6 9 12 14 15 16 18 24 25 26 27 29 30 33 35 0
2 3 4 5 7 10 13 15 16 17 19 25 26 27 28 30 31 34 36 0
1 3 4 5 6 8 11 14 16 17 18 26 27 28 29 31 32 35 37 0
2 4 5 6 7 9 12 15 17 18 19 27 28 29 30 32 33 36 38 0
1 3 5 6 7 8 10 13 16 18 19 20 28 29 30 31 33 34 37 0
1 2 4 6 7 8 9 11 14 17 19 21 29 30 31 32 34 35 38 0
1 2 3 5 7 8 9 10 12 15 18 20 22 30 31 32 33 35 36 0
2 4 6 8 10 11 13 14 15 16 18 19 22 26 29 31 36 38 0
1 3 5 7 9 11 12 14 15 16 17 19 20 23 27 30 32 37 0
1 2 4 6 8 10 12 13 15 16 17 18 21 24 28 31 33 38 0
2 3 5 7 9 11 13 14 16 17 18 19 20 22 25 29 32 34 0
1 3 4 6 8 10 12 14 15 17 18 19 21 23 26 30 33 35 0
1 2 4 5 7 9 11 13 15 16 18 19 22 24 27 31 34 36 0
1 2 3 5 6 8 10 12 14 16 17 19 23 25 28 32 35 37 0
1 2 3 4 6 7 9 11 13 15 17 18 24 26 29 33 36 38 0
2 3 4 5 7 8 10 12 14 16 18 19 20 25 27 30 34 37 0
1 3 4 5 6 8 9 11 13 15 17 19 21 26 28 31 35 38 0
1 2 4 5 6 7 9 10 12 14 16 18 20 22 27 29 32 36 0
2 3 5 6 7 8 10 11 13 15 17 19 21 23 28 30 33 37 0
1 3 4 6 7 8 9 11 12 14 16 18 22 24 29 31 34 38 0
2 4 5 7 8 9 10 12 13 15 17 19 20 23 25 30 32 35 0
1 3 5 6 8 9 10 11 13 14 16 18 21 24 26 31 33 36 0
2 4 6 7 9 10 11 12 14 15 17 19 22 25 27 32 34 37 0
1 3 5 7 8 10 11 12 13 15 16 18 23 26 28 33 35 38 0
2 4 6 8 9 11 12 13 14 16 17 19 20 24 27 29 34 36 0
1 3 5 7 9 10 12 13 14 15 17 18 21 25 28 30 35 37 0
2 4 6 8 10 13 15 16 18 19 22 25 27 30 31 34 36 0
1 3 5 7 9 11 14 16 17 19 23 26 28 31 32 35 37 0
1 2 4 6 8 10 12 15 17 18 24 27 29 32 33 36 38 0
2 3 5 7 9 11 13 16 18 19 20 25 28 30 33 34 37 0
1 3 4 6 8 10 12 14 17 19 21 26 29 31 34 35 38 0
1 2 4 5 7 9 11 13 15 18 20 22 27 30 32 35 36 0
2 3 5 6 8 10 12 14 16 19 21 23 28 31 33 36 37 0
1 3 4 6 7 9 11 13 15 17 22 24 29 32 34 37 38 0
2 4 5 7 8 10 12 14 16 18 20 23 25 30 33 35 38 0
3 5 6 8 9 11 13 15 17 19 20 21 24 26 31 34 36 0
1 4 6 7 9 10 12 14 16 18 21 22 25 27 32 35 37 0
2 5 7 8 10 11 13 15 17 19 22 23 26 28 33 36 38 0
1 3 6 8 9 11 12 14 16 18 20 23 24 27 29 34 37 0
2 4 7 9 10 12 13 15 17 19 21 24 25 28 30 35 38 0
1 3 5 8 10 11 13 14 16 18 20 22 25 26 29 31 36 0
2 4 6 9 11 12 14 15 17 19 21 23 26 27 30 32 37 0
1 3 5 7 10 12 13 15 16 18 22 24 27 28 31 33 38 0
2 4 6 8 11 13 14 16 17 19 20 23 25 28 29 32 34 0
1 3 5 7 9 12 14 15 17 18 21 24 26 29 30 33 35 0
2 3 5 6 8 11 13 15 17 19 23 25 28 29 32 34 37 0
1 3 4 6 7 9 12 14 16 18 24 26 29 30 33 35 38 0
2 4 5 7 8 10 13 15 17 19 20 25 27 30 31 34 36 0
1 3 5 6 8 9 11 14 16 18 21 26 28 31 32 35 37 0
2 4 6 7 9 10 12 15 17 19 22 27 29 32 33 36 38 0
1 3 5 7 8 10 11 13 16 18 20 23 28 30 33 34 37 0
2 4 6 8 9 11 12 14 17 19 21 24 29 31 34 35 38 0
1 3 5 7 9 10 12 13 15 18 20 22 25 30 32 35 36 0
2 4 6 8 10 11 13 14 16 19 21 23 26 31 33 36 37 0
1 3 5 7 9 11 12 14 15 17 22 24 27 32 34 37 38 0
2 4 6 8 10 12 13 15 16 18 20 23 25 28 33 35 38 0
3 5 7 9 11 13 14 16 17 19 20 21 24 26 29 34 36 0
1 4 6 8 10 12 14 15 17 18 21 22 25 27 30 35 37 0
2 5 7 9 11 13 15 16 18 19 22 23 26 28 31 36 38 0
1 3 6 8 10 12 14 16 17 19 20 23 24 27 29 32 37 0
1 2 4 7 9 11 13 15 17 18 21 24 25 28 30 33 38 0
2 3 5 8 10 12 14 16 18 19 20 22 25 26 29 31 34 0
1 3 4 6 9 11 13 15 17 19 21 23 26 27 30 32 35 0
1 2 4 5 7 10 12 14 16 18 22 24 27 28 31 33 36 0
2 4 6 8 10 13 14 15 16 19 23 25 26 30 31 36 37 0
1 3 5 7 9 11 14 15 16 17 24 26 27 31 32 37 38 0
2 4 6 8 10 12 15 16 17 18 20 25 27 28 32 33 38 0
3 5 7 9 11 13 16 17 18 19 20 21 26 28 29 33 34 0
1 4 6 8 10 12 14 17 18 19 21 22 27 29 30 34 35 0
1 2 5 7 9 11 13 15 18 19 22 23 28 30 31 35 36 0
1 2 3 6 8 10 12 14 16 19 23 24 29 31 32 36 37 0
1 2 3 4 7 9 11 13 15 17 24 25 30 32 33 37 38 0
2 3 4 5 8 10 12 14 16 18 20 25 26 31 33 34 38 0
3 4 5 6 9 11 13 15 17 19 20 21 26 27 32 34 35 0
1 4 5 6 7 10 12 14 16 18 21 22 27 28 33 35 36 0
2 5 6 7 8 11 13 15 17 19 22 23 28 29 34 36 37 0
1 3 6 7 8 9 12 14 16 18 23 24 29 30 35 37 38 0
2 4 7 8 9 10 13 15 17 19 20 24 25 30 31 36 38 0
1 3 5 8 9 10 11 14 16 18 20 21 25 26 31 32 37 0
2 4 6 9 10 11 12 15 17 19 21 22 26 27 32 33 38 0
1 3 5 7 10 11 12 13 16 18 20 22 23 27 28 33 34 0
2 4 6 8 11 12 13 14 17 19 21 23 24 28 29 34 35 0
1 3 5 7 9 12 13 14 15 18 22 24 25 29 30 35 36 0
2 5 6 7 8 11 13 15 17 19 22 23 28 29 33 34 36 0
1 3 6 7 8 9 12 14 16 18 23 24 29 30 34 35 37 0
2 4 7 8 9 10 13 15 17 19 24 25 30 31 35 36 38 0
1 3 5 8 9 10 11 14 16 18 20 25 26 31 32 36 37 0
2 4 6 9 10 11 12 15 17 19 21 26 27 32 33 37 38 0
1 3 5 7 10 11 12 13 16 18 20 22 27 28 33 34 38 0
2 4 6 8 11 12 13 14 17 19 20 21 23 28 29 34 35 0
1 3 5 7 9 12 13 14 15 18 21 22 24 29 30 35 36 0
2 4 6 8 10 13 14 15 16 19 22 23 25 30 31 36 37 0
1 3 5 7 9 11 14 15 16 17 23 24 26 31 32 37 38 0
2 4 6 8 10 12 15 16 17 18 20 24 25 27 32 33 38 0
3 5 7 9 11 13 16 17 18 19 20 21 25 26 28 33 34 0
1 4 6 8 10 12 14 17 18 19 21 22 26 27 29 34 35 0
1 2 5 7 9 11 13 15 18 19 22 23 27 28 30 35 36 0
1 2 3 6 8 10 12 14 16 19 23 24 28 29 31 36 37 0
1 2 3 4 7 9 11 13 15 17 24 25 29 30 32 37 38 0
2 3 4 5 8 10 12 14 16 18 20 25 26 30 31 33 38 0
3 4 5 6 9 11 13 15 17 19 20 21 26 27 31 32 34 0
1 4 5 6 7 10 12 14 16 18 21 22 27 28 32 33 35 0
2 4 6 9 10 11 14 16 19 23 25 26 27 31 32 36 37 0
1 3 5 7 10 11 12 15 17 24 26 27 28 32 33 37 38 0
2 4 6 8 11 12 13 16 18 20 25 27 28 29 33 34 38 0
3 5 7 9 12 13 14 17 19 20 21 26 28 29 30 34 35 0
1 4 6 8 10 13 14 15 18 21 22 27 29 30 31 35 36 0
2 5 7 9 11 14 15 16 19 22 23 28 30 31 32 36 37 0
1 3 6 8 10 12 15 16 17 23 24 29 31 32 33 37 38 0
2 4 7 9 11 13 16 17 18 20 24 25 30 32 33 34 38 0
3 5 8 10 12 14 17 18 19 20 21 25 26 31 33 34 35 0
1 4 6 9 11 13 15 18 19 21 22 26 27 32 34 35 36 0
1 2 5 7 10 12 14 16 19 22 23 27 28 33 35 36 37 0
1 2 3 6 8 11 13 15 17 23 24 28 29 34 36 37 38 0
2 3 4 7 9 12 14 16 18 20 24 25 29 30 35 37 38 0
3 4 5 8 10 13 15 17 19 20 21 25 26 30 31 36 38 0
1 4 5 6 9 11 14 16 18 20 21 22 26 27 31 32 37 0
2 5 6 7 10 12 15 17 19 21 22 23 27 28 32 33 38 0
1 3 6 7 8 11 13 16 18 20 22 23 24 28 29 33 34 0
2 4 7 8 9 12 14 17 19 21 23 24 25 29 30 34 35 0
1 3 5 8 9 10 13 15 18 22 24 25 26 30 31 35 36 0
2 5 7 10 11 12 15 17 19 22 23 27 28 32 33 34 36 0
1 3 6 8 11 12 13 16 18 23 24 28 29 33 34 35 37 0
2 4 7 9 12 13 14 17 19 24 25 29 30 34 35 36 38 0
1 3 5 8 10 13 14 15 18 20 25 26 30 31 35 36 37 0
2 4 6 9 11 14 15 16 19 21 26 27 31 32 36 37 38 0
1 3 5 7 10 12 15 16 17 20 22 27 28 32 33 37 38 0
2 4 6 8 11 13 16 17 18 20 21 23 28 29 33 34 38 0
3 5 7 9 12 14 17 18 19 20 21 22 24 29 30 34 35 0
1 4 6 8 10 13 15 18 19 21 22 23 25 30 31 35 36 0
1 2 5 7 9 11 14 16 19 22 23 24 26 31 32 36 37 0
1 2 3 6 8 10 12 15 17 23 24 25 27 32 33 37 38 0
2 3 4 7 9 11 13 16 18 20 24 25 26 28 33 34 38 0
3 4 5 8 10 12 14 17 19 20 21 25 26 27 29 34 35 0
1 4 5 6 9 11 13 15 18 21 22 26 27 28 30 35 36 0
2 5 6 7 10 12 14 16 19 22 23 27 28 29 31 36 37 0
1 3 6 7 8 11 13 15 17 23 24 28 29 30 32 37 38 0
2 4 7 8 9 12 14 16 18 20 24 25 29 30 31 33 38 0
3 5 8 9 10 13 15 17 19 20 21 25 26 30 31 32 34 0
1 4 6 9 10 11 14 16 18 21 22 26 27 31 32 33 35 0
2 4 6 9 10 13 15 16 18 19 22 23 25 26 27 30 31 32 36 0
1 3 5 7 10 11 14 16 17 19 23 24 26 27 28 31 32 33 37 0
1 2 4 6 8 11 12 15 17 18 24 25 27 28 29 32 33 34 38 0
2 3 5 7 9 12 13 16 18 19 20 25 26 28 29 30 33 34 35 0
1 3 4 6 8 10 13 14 17 19 21 26 27 29 30 31 34 35 36 0
1 2 4 5 7 9 11 14 15 18 22 27 28 30 31 32 35 36 37 0
2 3 5 6 8 10 12 15 16 19 23 28 29 31 32 33 36 37 38 0
1 3 4 6 7 9 11 13 16 17 20 24 29 30 32 33 34 37 38 0
2 4 5 7 8 10 12 14 17 18 20 21 25 30 31 33 34 35 38 0
3 5 6 8 9 11 13 15 18 19 20 21 22 26 31 32 34 35 36 0
1 4 6 7 9 10 12 14 16 19 21 22 23 27 32 33 35 36 37 0
1 2 5 7 8 10 11 13 15 17 22 23 24 28 33 34 36 37 38 0
2 3 6 8 9 11 12 14 16 18 20 23 24 25 29 34 35 37 38 0
3 4 7 9 10 12 13 15 17 19 20 21 24 25 26 30 35 36 38 0
1 4 5 8 10 11 13 14 16 18 20 21 22 25 26 27 31 36 37 0
2 5 6 9 11 12 14 15 17 19 21 22 23 26 27 28 32 37 38 0
1 3 6 7 10 12 13 15 16 18 20 22 23 24 27 28 29 33 38 0
2 4 7 8 11 13 14 16 17 19 20 21 23 24 25 28 29 30 34 0
1 3 5 8 9 12 14 15 17 18 21 22 24 25 26 29 30 31 35 0
2 3 5 6 8 11 12 15 17 19 23 27 28 29 32 33 34 36 37 0
1 3 4 6 7 9 12 13 16 18 24 28 29 30 33 34 35 37 38 0
2 4 5 7 8 10 13 14 17 19 20 25 29 30 31 34 35 36 38 0
1 3 5 6 8 9 11 14 15 18 20 21 26 30 31 32 35 36 37 0
2 4 6 7 9 10 12 15 16 19 21 22 27 31 32 33 36 37 38 0
1 3 5 7 8 10 11 13 16 17 20 22 23 28 32 33 34 37 38 0
2 4 6 8 9 11 12 14 17 18 20 21 23 24 29 33 34 35 38 0
3 5 7 9 10 12 13 15 18 19 20 21 22 24 25 30 34 35 36 0
1 4 6 8 10 11 13 14 16 19 21 22 23 25 26 31 35 36 37 0
1 2 5 7 9 11 12 14 15 17 22 23 24 26 27 32 36 37 38 0
2 3 6 8 10 12 13 15 16 18 20 23 24 25 27 28 33 37 38 0
3 4 7 9 11 13 14 16 17 19 20 21 24 25 26 28 29 34 38 0
1 4 5 8 10 12 14 15 17 18 20 21 22 25 26 27 29 30 35 0
2 5 6 9 11 13 15 16 18 19 21 22 23 26 27 28 30 31 36 0
1 3 6 7 10 12 14 16 17 19 22 23 24 27 28 29 31 32 37 0
1 2 4 7 8 11 13 15 17 18 23 24 25 28 29 30 32 33 38 0
2 3 5 8 9 12 14 16 18 19 20 24 25 26 29 30 31 33 34 0
1 3 4 6 9 10 13 15 17 19 21 25 26 27 30 31 32 34 35 0
1 2 4 5 7 10 11 14 16 18 22 26 27 28 31 32 33 35 36 0
2 4 6 9 11 14 16 18 19 22 23 26 27 29 31 32 36 0
1 3 5 7 10 12 15 17 19 23 24 27 28 30 32 33 37 0
1 2 4 6 8 11 13 16 18 24 25 28 29 31 33 34 38 0
2 3 5 7 9 12 14 17 19 20 25 26 29 30 32 34 35 0
1 3 4 6 8 10 13 15 18 21 26 27 30 31 33 35 36 0
2 4 5 7 9 11 14 16 19 22 27 28 31 32 34 36 37 0
1 3 5 6 8 10 12 15 17 23 28 29 32 33 35 37 38 0
2 4 6 7 9 11 13 16 18 20 24 29 30 33 34 36 38 0
3 5 7 8 10 12 14 17 19 20 21 25 30 31 34 35 37 0
1 4 6 8 9 11 13 15 18 21 22 26 31 32 35 36 38 0
2 5 7 9 10 12 14 16 19 20 22 23 27 32 33 36 37 0
1 3 6 8 10 11 13 15 17 21 23 24 28 33 34 37 38 0
2 4 7 9 11 12 14 16 18 20 22 24 25 29 34 35 38 0
3 5 8 10 12 13 15 17 19 20 21 23 25 26 30 35 36 0
1 4 6 9 11 13 14 16 18 21 22 24 26 27 31 36 37 0
2 5 7 10 12 14 15 17 19 22 23 25 27 28 32 37 38 0
1 3 6 8 11 13 15 16 18 20 23 24 26 28 29 33 38 0
2 4 7 9 12 14 16 17 19 20 21 24 25 27 29 30 34 0
1 3 5 8 10 13 15 17 18 21 22 25 26 28 30 31 35 0
2 3 5 7 10 12 15 17 19 23 27 28 30 32 33 36 37 0
1 3 4 6 8 11 13 16 18 24 28 29 31 33 34 37 38 0
2 4 5 7 9 12 14 17 19 20 25 29 30 32 34 35 38 0
1 3 5 6 8 10 13 15 18 20 21 26 30 31 33 35 36 0
2 4 6 7 9 11 14 16 19 21 22 27 31 32 34 36 37 0
1 3 5 7 8 10 12 15 17 22 23 28 32 33 35 37 38 0
2 4 6 8 9 11 13 16 18 20 23 24 29 33 34 36 38 0
3 5 7 9 10 12 14 17 19 20 21 24 25 30 34 35 37 0
1 4 6 8 10 11 13 15 18 21 22 25 26 31 35 36 38 0
2 5 7 9 11 12 14 16 19 20 22 23 26 27 32 36 37 0
1 3 6 8 10 12 13 15 17 21 23 24 27 28 33 37 38 0
2 4 7 9 11 13 14 16 18 20 22 24 25 28 29 34 38 0
3 5 8 10 12 14 15 17 19 20 21 23 25 26 29 30 35 0
1 4 6 9 11 13 15 16 18 21 22 24 26 27 30 31 36 0
2 5 7 10 12 14 16 17 19 22 23 25 27 28 31 32 37 0
1 3 6 8 11 13 15 17 18 23 24 26 28 29 32 33 38 0
2 4 7 9 12 14 16 18 19 20 24 25 27 29 30 33 34 0
1 3 5 8 10 13 15 17 19 21 25 26 28 30 31 34 35 0
1 2 4 6 9 11 14 16 18 22 26 27 29 31 32 35 36 0
2 4 6 9 11 14 16 18 19 21 22 23 26 27 29 31 32 0
1 3 5 7 10 12 15 17 19 22 23 24 27 28 30 32 33 0
1 2 4 6 8 11 13 16 18 23 24 25 28 29 31 33 34 0
2 3 5 7 9 12 14 17 19 24 25 26 29 30 32 34 35 0
1 3 4 6 8 10 13 15 18 25 26 27 30 31 33 35 36 0
2 4 5 7 9 11 14 16 19 26 27 28 31 32 34 36 37 0
1 3 5 6 8 10 12 15 17 27 28 29 32 33 35 37 38 0
2 4 6 7 9 11 13 16 18 20 28 29 30 33 34 36 38 0
3 5 7 8 10 12 14 17 19 20 21 29 30 31 34 35 37 0
1 4 6 8 9 11 13 15 18 21 22 30 31 32 35 36 38 0
2 5 7 9 10 12 14 16 19 20 22 23 31 32 33 36 37 0
1 3 6 8 10 11 13 15 17 21 23 24 32 33 34 37 38 0
2 4 7 9 11 12 14 16 18 20 22 24 25 33 34 35 38 0
3 5 8 10 12 13 15 17 19 20 21 23 25 26 34 35 36 0
1 4 6 9 11 13 14 16 18 21 22 24 26 27 35 36 37 0
2 5 7 10 12 14 15 17 19 22 23 25 27 28 36 37 38 0
1 3 6 8 11 13 15 16 18 20 23 24 26 28 29 37 38 0
2 4 7 9 12 14 16 17 19 20 21 24 25 27 29 30 38 0
1 3 5 8 10 13 15 17 18 20 21 22 25 26 28 30 31 0
2 3 5 7 10 12 15 17 19 27 28 30 32 33 36 37 38 0
1 3 4 6 8 11 13 16 18 20 28 29 31 33 34 37 38 0
2 4 5 7 9 12 14 17 19 20 21 29 30 32 34 35 38 0
1 3 5 6 8 10 13 15 18 20 21 22 30 31 33 35 36 0
2 4 6 7 9 11 14 16 19 21 22 23 31 32 34 36 37 0
1 3 5 7 8 10 12 15 17 22 23 24 32 33 35 37 38 0
2 4 6 8 9 11 13 16 18 20 23 24 25 33 34 36 38 0
3 5 7 9 10 12 14 17 19 20 21 24 25 26 34 35 37 0
1 4 6 8 10 11 13 15 18 21 22 25 26 27 35 36 38 0
2 5 7 9 11 12 14 16 19 20 22 23 26 27 28 36 37 0
1 3 6 8 10 12 13 15 17 21 23 24 27 28 29 37 38 0
2 4 7 9 11 13 14 16 18 20 22 24 25 28 29 30 38 0
3 5 8 10 12 14 15 17 19 20 21 23 25 26 29 30 31 0
1 4 6 9 11 13 15 16 18 21 22 24 26 27 30 31 32 0
2 5 7 10 12 14 16 17 19 22 23 25 27 28 31 32 33 0
1 3 6 8 11 13 15 17 18 23 24 26 28 29 32 33 34 0
2 4 7 9 12 14 16 18 19 24 25 27 29 30 33 34 35 0
1 3 5 8 10 13 15 17 19 25 26 28 30 31 34 35 36 0
1 2 4 6 9 11 14 16 18 26 27 29 31 32 35 36 37 0
2 4 6 9 11 14 16 18 19 21 23 25 26 27 31 32 33 37 0
1 3 5 7 10 12 15 17 19 22 24 26 27 28 32 33 34 38 0
1 2 4 6 8 11 13 16 18 20 23 25 27 28 29 33 34 35 0
2 3 5 7 9 12 14 17 19 21 24 26 28 29 30 34 35 36 0
1 3 4 6 8 10 13 15 18 22 25 27 29 30 31 35 36 37 0
2 4 5 7 9 11 14 16 19 23 26 28 30 31 32 36 37 38 0
1 3 5 6 8 10 12 15 17 20 24 27 29 31 32 33 37 38 0
2 4 6 7 9 11 13 16 18 20 21 25 28 30 32 33 34 38 0
3 5 7 8 10 12 14 17 19 20 21 22 26 29 31 33 34 35 0
1 4 6 8 9 11 13 15 18 21 22 23 27 30 32 34 35 36 0
2 5 7 9 10 12 14 16 19 22 23 24 28 31 33 35 36 37 0
1 3 6 8 10 11 13 15 17 23 24 25 29 32 34 36 37 38 0
2 4 7 9 11 12 14 16 18 20 24 25 26 30 33 35 37 38 0
3 5 8 10 12 13 15 17 19 20 21 25 26 27 31 34 36 38 0
1 4 6 9 11 13 14 16 18 20 21 22 26 27 28 32 35 37 0
2 5 7 10 12 14 15 17 19 21 22 23 27 28 29 33 36 38 0
1 3 6 8 11 13 15 16 18 20 22 23 24 28 29 30 34 37 0
2 4 7 9 12 14 16 17 19 21 23 24 25 29 30 31 35 38 0
1 3 5 8 10 13 15 17 18 20 22 24 25 26 30 31 32 36 0
2 3 5 7 10 12 15 17 19 22 26 27 28 32 33 34 36 38 0
1 3 4 6 8 11 13 16 18 20 23 27 28 29 33 34 35 37 0
2 4 5 7 9 12 14 17 19 21 24 28 29 30 34 35 36 38 0
1 3 5 6 8 10 13 15 18 20 22 25 29 30 31 35 36 37 0
2 4 6 7 9 11 14 16 19 21 23 26 30 31 32 36 37 38 0
1 3 5 7 8 10 12 15 17 20 22 24 27 31 32 33 37 38 0
2 4 6 8 9 11 13 16 18 20 21 23 25 28 32 33 34 38 0
3 5 7 9 10 12 14 17 19 20 21 22 24 26 29 33 34 35 0
1 4 6 8 10 11 13 15 18 21 22 23 25 27 30 34 35 36 0
2 5 7 9 11 12 14 16 19 22 23 24 26 28 31 35 36 37 0
1 3 6 8 10 12 13 15 17 23 24 25 27 29 32 36 37 38 0
2 4 7 9 11 13 14 16 18 20 24 25 26 28 30 33 37 38 0
3 5 8 10 12 14 15 17 19 20 21 25 26 27 29 31 34 38 0
1 4 6 9 11 13 15 16 18 20 21 22 26 27 28 30 32 35 0
2 5 7 10 12 14 16 17 19 21 22 23 27 28 29 31 33 36 0
1 3 6 8 11 13 15 17 18 22 23 24 28 29 30 32 34 37 0
2 4 7 9 12 14 16 18 19 23 24 25 29 30 31 33 35 38 0
1 3 5 8 10 13 15 17 19 20 24 25 26 30 31 32 34 36 0
1 2 4 6 9 11 14 16 18 21 25 26 27 31 32 33 35 37 0
2 4 6 9 11 14 16 18 19 22 23 25 26 27 31 32 33 36 0
1 3 5 7 10 12 15 17 19 23 24 26 27 28 32 33 34 37 0
1 2 4 6 8 11 13 16 18 24 25 27 28 29 33 34 35 38 0
2 3 5 7 9 12 14 17 19 20 25 26 28 29 30 34 35 36 0
1 3 4 6 8 10 13 15 18 21 26 27 29 30 31 35 36 37 0
2 4 5 7 9 11 14 16 19 22 27 28 30 31 32 36 37 38 0
1 3 5 6 8 10 12 15 17 20 23 28 29 31 32 33 37 38 0
2 4 6 7 9 11 13 16 18 20 21 24 29 30 32 33 34 38 0
3 5 7 8 10 12 14 17 19 20 21 22 25 30 31 33 34 35 0
1 4 6 8 9 11 13 15 18 21 22 23 26 31 32 34 35 36 0
2 5 7 9 10 12 14 16 19 22 23 24 27 32 33 35 36 37 0
1 3 6 8 10 11 13 15 17 23 24 25 28 33 34 36 37 38 0
2 4 7 9 11 12 14 16 18 20 24 25 26 29 34 35 37 38 0
3 5 8 10 12 13 15 17 19 20 21 25 26 27 30 35 36 38 0
1 4 6 9 11 13 14 16 18 20 21 22 26 27 28 31 36 37 0
2 5 7 10 12 14 15 17 19 21 22 23 27 28 29 32 37 38 0
1 3 6 8 11 13 15 16 18 20 22 23 24 28 29 30 33 38 0
2 4 7 9 12 14 16 17 19 20 21 23 24 25 29 30 31 34 0
1 3 5 8 10 13 15 17 18 21 22 24 25 26 30 31 32 35 0
2 3 5 7 10 12 15 17 19 23 26 27 28 32 33 34 36 37 0
1 3 4 6 8 11 13 16 18 24 27 28 29 33 34 35 37 38 0
2 4 5 7 9 12 14 17 19 20 25 28 29 30 34 35 36 38 0
1 3 5 6 8 10 13 15 18 20 21 26 29 30 31 35 36 37 0
2 4 6 7 9 11 14 16 19 21 22 27 30 31 32 36 37 38 0
1 3 5 7 8 10 12 15 17 20 22 23 28 31 32 33 37 38 0
2 4 6 8 9 11 13 16 18 20 21 23 24 29 32 33 34 38 0
3 5 7 9 10 12 14 17 19 20 21 22 24 25 30 33 34 35 0
1 4 6 8 10 11 13 15 18 21 22 23 25 26 31 34 35 36 0
2 5 7 9 11 12 14 16 19 22 23 24 26 27 32 35 36 37 0
1 3 6 8 10 12 13 15 17 23 24 25 27 28 33 36 37 38 0
2 4 7 9 11 13 14 16 18 20 24 25 26 28 29 34 37 38 0
3 5 8 10 12 14 15 17 19 20 21 25 26 27 29 30 35 38 0
1 4 6 9 11 13 15 16 18 20 21 22 26 27 28 30 31 36 0
2 5 7 10 12 14 16 17 19 21 22 23 27 28 29 31 32 37 0
1 3 6 8 11 13 15 17 18 22 23 24 28 29 30 32 33 38 0
2 4 7 9 12 14 16 18 19 20 23 24 25 29 30 31 33 34 0
1 3 5 8 10 13 15 17 19 21 24 25 26 30 31 32 34 35 0
1 2 4 6 9 11 14 16 18 22 25 26 27 31 32 33 35 36 0
2 5 8 10 11 13 14 16 17 19 21 22 23 25 26 28 31 37 0
1 3 6 9 11 12 14 15 17 18 22 23 24 26 27 29 32 38 0
2 4 7 10 12 13 15 16 18 19 20 23 24 25 27 28 30 33 0
1 3 5 8 11 13 14 16 17 19 21 24 25 26 28 29 31 34 0
1 2 4 6 9 12 14 15 17 18 22 25 26 27 29 30 32 35 0
2 3 5 7 10 13 15 16 18 19 23 26 27 28 30 31 33 36 0
1 3 4 6 8 11 14 16 17 19 24 27 28 29 31 32 34 37 0
1 2 4 5 7 9 12 15 17 18 25 28 29 30 32 33 35 38 0
2 3 5 6 8 10 13 16 18 19 20 26 29 30 31 33 34 36 0
1 3 4 6 7 9 11 14 17 19 21 27 30 31 32 34 35 37 0
1 2 4 5 7 8 10 12 15 18 22 28 31 32 33 35 36 38 0
2 3 5 6 8 9 11 13 16 19 20 23 29 32 33 34 36 37 0
1 3 4 6 7 9 10 12 14 17 21 24 30 33 34 35 37 38 0
2 4 5 7 8 10 11 13 15 18 20 22 25 31 34 35 36 38 0
3 5 6 8 9 11 12 14 16 19 20 21 23 26 32 35 36 37 0
1 4 6 7 9 10 12 13 15 17 21 22 24 27 33 36 37 38 0
2 5 7 8 10 11 13 14 16 18 20 22 23 25 28 34 37 38 0
3 6 8 9 11 12 14 15 17 19 20 21 23 24 26 29 35 38 0
1 4 7 9 10 12 13 15 16 18 20 21 22 24 25 27 30 36 0
2 4 5 7 8 10 11 13 16 19 22 28 31 33 34 36 37 38 0
1 3 5 6 8 9 11 12 14 17 20 23 29 32 34 35 37 38 0
2 4 6 7 9 10 12 13 15 18 20 21 24 30 33 35 36 38 0
3 5 7 8 10 11 13 14 16 19 20 21 22 25 31 34 36 37 0
1 4 6 8 9 11 12 14 15 17 21 22 23 26 32 35 37 38 0
2 5 7 9 10 12 13 15 16 18 20 22 23 24 27 33 36 38 0
3 6 8 10 11 13 14 16 17 19 20 21 23 24 25 28 34 37 0
1 4 7 9 11 12 14 15 17 18 21 22 24 25 26 29 35 38 0
2 5 8 10 12 13 15 16 18 19 20 22 23 25 26 27 30 36 0
1 3 6 9 11 13 14 16 17 19 21 23 24 26 27 28 31 37 0
1 2 4 7 10 12 14 15 17 18 22 24 25 27 28 29 32 38 0
2 3 5 8 11 13 15 16 18 19 20 23 25 26 28 29 30 33 0
1 3 4 6 9 12 14 16 17 19 21 24 26 27 29 30 31 34 0
1 2 4 5 7 10 13 15 17 18 22 25 27 28 30 31 32 35 0
2 3 5 6 8 11 14 16 18 19 23 26 28 29 31 32 33 36 0
1 3 4 6 7 9 12 15 17 19 24 27 29 30 32 33 34 37 0
1 2 4 5 7 8 10 13 16 18 25 28 30 31 33 34 35 38 0
2 3 5 6 8 9 11 14 17 19 20 26 29 31 32 34 35 36 0
1 3 4 6 7 9 10 12 15 18 21 27 30 32 33 35 36 37 0
2 5 8 10 11 12 18 19 22 23 25 26 27 28 32 36 0
1 3 6 9 11 12 13 19 23 24 26 27 28 29 33 37 0
1 2 4 7 10 12 13 14 24 25 27 28 29 30 34 38 0
2 3 5 8 11 13 14 15 20 25 26 28 29 30 31 35 0
3 4 6 9 12 14 15 16 21 26 27 29 30 31 32 36 0
4 5 7 10 13 15 16 17 22 27 28 30 31 32 33 37 0
5 6 8 11 14 16 17 18 23 28 29 31 32 33 34 38 0
6 7 9 12 15 17 18 19 20 24 29 30 32 33 34 35 0
1 7 8 10 13 16 18 19 21 25 30 31 33 34 35 36 0
1 2 8 9 11 14 17 19 22 26 31 32 34 35 36 37 0
1 2 3 9 10 12 15 18 23 27 32 33 35 36 37 38 0
2 3 4 10 11 13 16 19 20 24 28 33 34 36 37 38 0
1 3 4 5 11 12 14 17 20 21 25 29 34 35 37 38 0
2 4 5 6 12 13 15 18 20 21 22 26 30 35 36 38 0
3 5 6 7 13 14 16 19 20 21 22 23 27 31 36 37 0
1 4 6 7 8 14 15 17 21 22 23 24 28 32 37 38 0
2 5 7 8 9 15 16 18 20 22 23 24 25 29 33 38 0
3 6 8 9 10 16 17 19 20 21 23 24 25 26 30 34 0
1 4 7 9 10 11 17 18 21 22 24 25 26 27 31 35 0
2 3 9 10 11 13 16 19 23 27 31 32 33 34 36 37 0
1 3 4 10 11 12 14 17 24 28 32 33 34 35 37 38 0
2 4 5 11 12 13 15 18 20 25 29 33 34 35 36 38 0
3 5 6 12 13 14 16 19 20 21 26 30 34 35 36 37 0
1 4 6 7 13 14 15 17 21 22 27 31 35 36 37 38 0
2 5 7 8 14 15 16 18 20 22 23 28 32 36 37 38 0
3 6 8 9 15 16 17 19 20 21 23 24 29 33 37 38 0
1 4 7 9 10 16 17 18 20 21 22 24 25 30 34 38 0
2 5 8 10 11 17 18 19 20 21 22 23 25 26 31 35 0
1 3 6 9 11 12 18 19 21 22 23 24 26 27 32 36 0
1 2 4 7 10 12 13 19 22 23 24 25 27 28 33 37 0
1 2 3 5 8 11 13 14 23 24 25 26 28 29 34 38 0
2 3 4 6 9 12 14 15 20 24 25 26 27 29 30 35 0
3 4 5 7 10 13 15 16 21 25 26 27 28 30 31 36 0
4 5 6 8 11 14 16 17 22 26 27 28 29 31 32 37 0
5 6 7 9 12 15 17 18 23 27 28 29 30 32 33 38 0
6 7 8 10 13 16 18 19 20 24 28 29 30 31 33 34 0
1 7 8 9 11 14 17 19 21 25 29 30 31 32 34 35 0
1 2 8 9 10 12 15 18 22 26 30 31 32 33 35 36 0
2 5 8 11 12 14 15 17 18 19 22 23 25 26 27 28 29 30 36 0
1 3 6 9 12 13 15 16 18 19 23 24 26 27 28 29 30 31 37 0
1 2 4 7 10 13 14 16 17 19 24 25 27 28 29 30 31 32 38 0
1 2 3 5 8 11 14 15 17 18 20 25 26 28 29 30 31 32 33 0
2 3 4 6 9 12 15 16 18 19 21 26 27 29 30 31 32 33 34 0
1 3 4 5 7 10 13 16 17 19 22 27 28 30 31 32 33 34 35 0
1 2 4 5 6 8 11 14 17 18 23 28 29 31 32 33 34 35 36 0
2 3 5 6 7 9 12 15 18 19 24 29 30 32 33 34 35 36 37 0
1 3 4 6 7 8 10 13 16 19 25 30 31 33 34 35 36 37 38 0
1 2 4 5 7 8 9 11 14 17 20 26 31 32 34 35 36 37 38 0
2 3 5 6 8 9 10 12 15 18 20 21 27 32 33 35 36 37 38 0
3 4 6 7 9 10 11 13 16 19 20 21 22 28 33 34 36 37 38 0
1 4 5 7 8 10 11 12 14 17 20 21 22 23 29 34 35 37 38 0
2 5 6 8 9 11 12 13 15 18 20 21 22 23 24 30 35 36 38 0
3 6 7 9 10 12 13 14 16 19 20 21 22 23 24 25 31 36 37 0
1 4 7 8 10 11 13 14 15 17 21 22 23 24 25 26 32 37 38 0
2 5 8 9 11 12 14 15 16 18 20 22 23 24 25 26 27 33 38 0
3 6 9 10 12 13 15 16 17 19 20 21 23 24 25 26 27 28 34 0
1 4 7 10 11 13 14 16 17 18 21 22 24 25 26 27 28 29 35 0
2 3 4 6 7 9 10 13 16 19 23 29 30 31 32 33 34 36 37 0
1 3 4 5 7 8 10 11 14 17 24 30 31 32 33 34 35 37 38 0
2 4 5 6 8 9 11 12 15 18 20 25 31 32 33 34 35 36 38 0
3 5 6 7 9 10 12 13 16 19 20 21 26 32 33 34 35 36 37 0
1 4 6 7 8 10 11 13 14 17 21 22 27 33 34 35 36 37 38 0
2 5 7 8 9 11 12 14 15 18 20 22 23 28 34 35 36 37 38 0
3 6 8 9 10 12 13 15 16 19 20 21 23 24 29 35 36 37 38 0
1 4 7 9 10 11 13 14 16 17 20 21 22 24 25 30 36 37 38 0
2 5 8 10 11 12 14 15 17 18 20 21 22 23 25 26 31 37 38 0
3 6 9 11 12 13 15 16 18 19 20 21 22 23 24 26 27 32 38 0
1 4 7 10 12 13 14 16 17 19 20 21 22 23 24 25 27 28 33 0
1 2 5 8 11 13 14 15 17 18 21 22 23 24 25 26 28 29 34 0
2 3 6 9 12 14 15 16 18 19 22 23 24 25 26 27 29 30 35 0
1 3 4 7 10 13 15 16 17 19 23 24 25 26 27 28 30 31 36 0
1 2 4 5 8 11 14 16 17 18 24 25 26 27 28 29 31 32 37 0
2 3 5 6 9 12 15 17 18 19 25 26 27 28 29 30 32 33 38 0
1 3 4 6 7 10 13 16 18 19 20 26 27 28 29 30 31 33 34 0
1 2 4 5 7 8 11 14 17 19 21 27 28 29 30 31 32 34 35 0
1 2 3 5 6 8 9 12 15 18 22 28 29 30 31 32 33 35 36 0
2 5 7 8 9 18 19 22 23 25 28 29 36 37 0
1 3 6 8 9 10 19 23 24 26 29 30 37 38 0
1 2 4 7 9 10 11 20 24 25 27 30 31 38 0
2 3 5 8 10 11 12 20 21 25 26 28 31 32 0
3 4 6 9 11 12 13 21 22 26 27 29 32 33 0
4 5 7 10 12 13 14 22 23 27 28 30 33 34 0
5 6 8 11 13 14 15 23 24 28 29 31 34 35 0
6 7 9 12 14 15 16 24 25 29 30 32 35 36 0
7 8 10 13 15 16 17 25 26 30 31 33 36 37 0
8 9 11 14 16 17 18 26 27 31 32 34 37 38 0
9 10 12 15 17 18 19 20 27 28 32 33 35 38 0
1 10 11 13 16 18 19 20 21 28 29 33 34 36 0
1 2 11 12 14 17 19 21 22 29 30 34 35 37 0
1 2 3 12 13 15 18 22 23 30 31 35 36 38 0
2 3 4 13 14 16 19 20 23 24 31 32 36 37 0
1 3 4 5 14 15 17 21 24 25 32 33 37 38 0
2 4 5 6 15 16 18 20 22 25 26 33 34 38 0
3 5 6 7 16 17 19 20 21 23 26 27 34 35 0
1 4 6 7 8 17 18 21 22 24 27 28 35 36 0
2 3 12 13 14 16 19 22 23 30 31 34 36 37 0
1 3 4 13 14 15 17 23 24 31 32 35 37 38 0
2 4 5 14 15 16 18 20 24 25 32 33 36 38 0
3 5 6 15 16 17 19 20 21 25 26 33 34 37 0
1 4 6 7 16 17 18 21 22 26 27 34 35 38 0
2 5 7 8 17 18 19 20 22 23 27 28 35 36 0
1 3 6 8 9 18 19 21 23 24 28 29 36 37 0
1 2 4 7 9 10 19 22 24 25 29 30 37 38 0
1 2 3 5 8 10 11 20 23 25 26 30 31 38 0
2 3 4 6 9 11 12 20 21 24 26 27 31 32 0
3 4 5 7 10 12 13 21 22 25 27 28 32 33 0
4 5 6 8 11 13 14 22 23 26 28 29 33 34 0
5 6 7 9 12 14 15 23 24 27 29 30 34 35 0
6 7 8 10 13 15 16 24 25 28 30 31 35 36 0
7 8 9 11 14 16 17 25 26 29 31 32 36 37 0
8 9 10 12 15 17 18 26 27 30 32 33 37 38 0
9 10 11 13 16 18 19 20 27 28 31 33 34 38 0
1 10 11 12 14 17 19 20 21 28 29 32 34 35 0
1 2 11 12 13 15 18 21 22 29 30 33 35 36 0
2 5 8 11 12 19 21 22 23 25 26 27 28 29 32 37 0
1 3 6 9 12 13 22 23 24 26 27 28 29 30 33 38 0
2 4 7 10 13 14 20 23 24 25 27 28 29 30 31 34 0
3 5 8 11 14 15 21 24 25 26 28 29 30 31 32 35 0
4 6 9 12 15 16 22 25 26 27 29 30 31 32 33 36 0
5 7 10 13 16 17 23 26 27 28 30 31 32 33 34 37 0
6 8 11 14 17 18 24 27 28 29 31 32 33 34 35 38 0
7 9 12 15 18 19 20 25 28 29 30 32 33 34 35 36 0
1 8 10 13 16 19 21 26 29 30 31 33 34 35 36 37 0
1 2 9 11 14 17 22 27 30 31 32 34 35 36 37 38 0
2 3 10 12 15 18 20 23 28 31 32 33 35 36 37 38 0
3 4 11 13 16 19 20 21 24 29 32 33 34 36 37 38 0
1 4 5 12 14 17 20 21 22 25 30 33 34 35 37 38 0
2 5 6 13 15 18 20 21 22 23 26 31 34 35 36 38 0
3 6 7 14 16 19 20 21 22 23 24 27 32 35 36 37 0
1 4 7 8 15 17 21 22 23 24 25 28 33 36 37 38 0
2 5 8 9 16 18 20 22 23 24 25 26 29 34 37 38 0
3 6 9 10 17 19 20 21 23 24 25 26 27 30 35 38 0
1 4 7 10 11 18 20 21 22 24 25 26 27 28 31 36 0
2 9 10 13 16 19 22 27 30 31 32 33 34 36 37 38 0
1 3 10 11 14 17 20 23 28 31 32 33 34 35 37 38 0
2 4 11 12 15 18 20 21 24 29 32 33 34 35 36 38 0
3 5 12 13 16 19 20 21 22 25 30 33 34 35 36 37 0
1 4 6 13 14 17 21 22 23 26 31 34 35 36 37 38 0
2 5 7 14 15 18 20 22 23 24 27 32 35 36 37 38 0
3 6 8 15 16 19 20 21 23 24 25 28 33 36 37 38 0
1 4 7 9 16 17 20 21 22 24 25 26 29 34 37 38 0
2 5 8 10 17 18 20 21 22 23 25 26 27 30 35 38 0
3 6 9 11 18 19 20 21 22 23 24 26 27 28 31 36 0
1 4 7 10 12 19 21 22 23 24 25 27 28 29 32 37 0
1 2 5 8 11 13 22 23 24 25 26 28 29 30 33 38 0
2 3 6 9 12 14 20 23 24 25 26 27 29 30 31 34 0
3 4 7 10 13 15 21 24 25 26 27 28 30 31 32 35 0
4 5 8 11 14 16 22 25 26 27 28 29 31 32 33 36 0
5 6 9 12 15 17 23 26 27 28 29 30 32 33 34 37 0
6 7 10 13 16 18 24 27 28 29 30 31 33 34 35 38 0
7 8 11 14 17 19 20 25 28 29 30 31 32 34 35 36 0
1 8 9 12 15 18 21 26 29 30 31 32 33 35 36 37 0
2 4 6 9 12 14 15 17 18 19 22 23 26 27 29 30 32 36 0
1 3 5 7 10 13 15 16 18 19 23 24 27 28 30 31 33 37 0
1 2 4 6 8 11 14 16 17 19 24 25 28 29 31 32 34 38 0
1 2 3 5 7 9 12 15 17 18 20 25 26 29 30 32 33 35 0
2 3 4 6 8 10 13 16 18 19 21 26 27 30 31 33 34 36 0
1 3 4 5 7 9 11 14 17 19 22 27 28 31 32 34 35 37 0
1 2 4 5 6 8 10 12 15 18 23 28 29 32 33 35 36 38 0
2 3 5 6 7 9 11 13 16 19 20 24 29 30 33 34 36 37 0
1 3 4 6 7 8 10 12 14 17 21 25 30 31 34 35 37 38 0
2 4 5 7 8 9 11 13 15 18 20 22 26 31 32 35 36 38 0
3 5 6 8 9 10 12 14 16 19 20 21 23 27 32 33 36 37 0
1 4 6 7 9 10 11 13 15 17 21 22 24 28 33 34 37 38 0
2 5 7 8 10 11 12 14 16 18 20 22 23 25 29 34 35 38 0
3 6 8 9 11 12 13 15 17 19 20 21 23 24 26 30 35 36 0
1 4 7 9 10 12 13 14 16 18 21 22 24 25 27 31 36 37 0
2 5 8 10 11 13 14 15 17 19 22 23 25 26 28 32 37 38 0
1 3 6 9 11 12 14 15 16 18 20 23 24 26 27 29 33 38 0
2 4 7 10 12 13 15 16 17 19 20 21 24 25 27 28 30 34 0
1 3 5 8 11 13 14 16 17 18 21 22 25 26 28 29 31 35 0
2 3 4 6 7 9 12 15 17 19 23 27 29 30 32 33 36 37 0
1 3 4 5 7 8 10 13 16 18 24 28 30 31 33 34 37 38 0
2 4 5 6 8 9 11 14 17 19 20 25 29 31 32 34 35 38 0
1 3 5 6 7 9 10 12 15 18 20 21 26 30 32 33 35 36 0
2 4 6 7 8 10 11 13 16 19 21 22 27 31 33 34 36 37 0
1 3 5 7 8 9 11 12 14 17 22 23 28 32 34 35 37 38 0
2 4 6 8 9 10 12 13 15 18 20 23 24 29 33 35 36 38 0
3 5 7 9 10 11 13 14 16 19 20 21 24 25 30 34 36 37 0
1 4 6 8 10 11 12 14 15 17 21 22 25 26 31 35 37 38 0
2 5 7 9 11 12 13 15 16 18 20 22 23 26 27 32 36 38 0
3 6 8 10 12 13 14 16 17 19 20 21 23 24 27 28 33 37 0
1 4 7 9 11 13 14 15 17 18 21 22 24 25 28 29 34 38 0
2 5 8 10 12 14 15 16 18 19 20 22 23 25 26 29 30 35 0
1 3 6 9 11 13 15 16 17 19 21 23 24 26 27 30 31 36 0
1 2 4 7 10 12 14 16 17 18 22 24 25 27 28 31 32 37 0
2 3 5 8 11 13 15 17 18 19 23 25 26 28 29 32 33 38 0
1 3 4 6 9 12 14 16 18 19 20 24 26 27 29 30 33 34 0
1 2 4 5 7 10 13 15 17 19 21 25 27 28 30 31 34 35 0
1 2 3 5 6 8 11 14 16 18 22 26 28 29 31 32 35 36 0
2 4 6 9 11 12 18 19 23 26 27 29 32 36 37 0
1 3 5 7 10 12 13 19 24 27 28 30 33 37 38 0
1 2 4 6 8 11 13 14 20 25 28 29 31 34 38 0
2 3 5 7 9 12 14 15 20 21 26 29 30 32 35 0
3 4 6 8 10 13 15 16 21 22 27 30 31 33 36 0
4 5 7 9 11 14 16 17 22 23 28 31 32 34 37 0
5 6 8 10 12 15 17 18 23 24 29 32 33 35 38 0
6 7 9 11 13 16 18 19 20 24 25 30 33 34 36 0
1 7 8 10 12 14 17 19 21 25 26 31 34 35 37 0
1 2 8 9 11 13 15 18 22 26 27 32 35 36 38 0
2 3 9 10 12 14 16 19 20 23 27 28 33 36 37 0
1 3 4 10 11 13 15 17 21 24 28 29 34 37 38 0
2 4 5 11 12 14 16 18 20 22 25 29 30 35 38 0
3 5 6 12 13 15 17 19 20 21 23 26 30 31 36 0
1 4 6 7 13 14 16 18 21 22 24 27 31 32 37 0
2 5 7 8 14 15 17 19 22 23 25 28 32 33 38 0
1 3 6 8 9 15 16 18 20 23 24 26 29 33 34 0
2 4 7 9 10 16 17 19 21 24 25 27 30 34 35 0
1 3 5 8 10 11 17 18 22 25 26 28 31 35 36 0
2 3 9 10 12 15 17 19 22 23 27 30 32 33 36 0
1 3 4 10 11 13 16 18 23 24 28 31 33 34 37 0
2 4 5 11 12 14 17 19 24 25 29 32 34 35 38 0
1 3 5 6 12 13 15 18 20 25 26 30 33 35 36 0
2 4 6 7 13 14 16 19 21 26 27 31 34 36 37 0
1 3 5 7 8 14 15 17 22 27 28 32 35 37 38 0
2 4 6 8 9 15 16 18 20 23 28 29 33 36 38 0
3 5 7 9 10 16 17 19 20 21 24 29 30 34 37 0
1 4 6 8 10 11 17 18 21 22 25 30 31 35 38 0
2 5 7 9 11 12 18 19 20 22 23 26 31 32 36 0
1 3 6 8 10 12 13 19 21 23 24 27 32 33 37 0
1 2 4 7 9 11 13 14 22 24 25 28 33 34 38 0
2 3 5 8 10 12 14 15 20 23 25 26 29 34 35 0
3 4 6 9 11 13 15 16 21 24 26 27 30 35 36 0
4 5 7 10 12 14 16 17 22 25 27 28 31 36 37 0
5 6 8 11 13 15 17 18 23 26 28 29 32 37 38 0
6 7 9 12 14 16 18 19 20 24 27 29 30 33 38 0
1 7 8 10 13 15 17 19 20 21 25 28 30 31 34 0
1 2 8 9 11 14 16 18 21 22 26 29 31 32 35 0
2 4 6 9 11 12 13 18 19 23 25 26 27 32 33 36 37 0
1 3 5 7 10 12 13 14 19 24 26 27 28 33 34 37 38 0
1 2 4 6 8 11 13 14 15 20 25 27 28 29 34 35 38 0
2 3 5 7 9 12 14 15 16 20 21 26 28 29 30 35 36 0
3 4 6 8 10 13 15 16 17 21 22 27 29 30 31 36 37 0
4 5 7 9 11 14 16 17 18 22 23 28 30 31 32 37 38 0
5 6 8 10 12 15 17 18 19 20 23 24 29 31 32 33 38 0
1 6 7 9 11 13 16 18 19 20 21 24 25 30 32 33 34 0
1 2 7 8 10 12 14 17 19 21 22 25 26 31 33 34 35 0
1 2 3 8 9 11 13 15 18 22 23 26 27 32 34 35 36 0
2 3 4 9 10 12 14 16 19 23 24 27 28 33 35 36 37 0
1 3 4 5 10 11 13 15 17 24 25 28 29 34 36 37 38 0
2 4 5 6 11 12 14 16 18 20 25 26 29 30 35 37 38 0
3 5 6 7 12 13 15 17 19 20 21 26 27 30 31 36 38 0
1 4 6 7 8 13 14 16 18 20 21 22 27 28 31 32 37 0
2 5 7 8 9 14 15 17 19 21 22 23 28 29 32 33 38 0
1 3 6 8 9 10 15 16 18 20 22 23 24 29 30 33 34 0
2 4 7 9 10 11 16 17 19 21 23 24 25 30 31 34 35 0
1 3 5 8 10 11 12 17 18 22 24 25 26 31 32 35 36 0
2 3 8 9 10 12 15 17 19 22 23 26 27 32 33 34 36 0
1 3 4 9 10 11 13 16 18 23 24 27 28 33 34 35 37 0
2 4 5 10 11 12 14 17 19 24 25 28 29 34 35 36 38 0
1 3 5 6 11 12 13 15 18 20 25 26 29 30 35 36 37 0
2 4 6 7 12 13 14 16 19 21 26 27 30 31 36 37 38 0
1 3 5 7 8 13 14 15 17 20 22 27 28 31 32 37 38 0
2 4 6 8 9 14 15 16 18 20 21 23 28 29 32 33 38 0
3 5 7 9 10 15 16 17 19 20 21 22 24 29 30 33 34 0
1 4 6 8 10 11 16 17 18 21 22 23 25 30 31 34 35 0
2 5 7 9 11 12 17 18 19 22 23 24 26 31 32 35 36 0
1 3 6 8 10 12 13 18 19 23 24 25 27 32 33 36 37 0
1 2 4 7 9 11 13 14 19 24 25 26 28 33 34 37 38 0
1 2 3 5 8 10 12 14 15 20 25 26 27 29 34 35 38 0
2 3 4 6 9 11 13 15 16 20 21 26 27 28 30 35 36 0
3 4 5 7 10 12 14 16 17 21 22 27 28 29 31 36 37 0
4 5 6 8 11 13 15 17 18 22 23 28 29 30 32 37 38 0
5 6 7 9 12 14 16 18 19 20 23 24 29 30 31 33 38 0
1 6 7 8 10 13 15 17 19 20 21 24 25 30 31 32 34 0
1 2 7 8 9 11 14 16 18 21 22 25 26 31 32 33 35 0
2 5 8 10 11 12 13 18 19 22 23 25 26 27 28 33 36 0
1 3 6 9 11 12 13 14 19 23 24 26 27 28 29 34 37 0
1 2 4 7 10 12 13 14 15 24 25 27 28 29 30 35 38 0
2 3 5 8 11 13 14 15 16 20 25 26 28 29 30 31 36 0
3 4 6 9 12 14 15 16 17 21 26 27 29 30 31 32 37 0
4 5 7 10 13 15 16 17 18 22 27 28 30 31 32 33 38 0
5 6 8 11 14 16 17 18 19 20 23 28 29 31 32 33 34 0
1 6 7 9 12 15 17 18 19 21 24 29 30 32 33 34 35 0
1 2 7 8 10 13 16 18 19 22 25 30 31 33 34 35 36 0
1 2 3 8 9 11 14 17 19 23 26 31 32 34 35 36 37 0
1 2 3 4 9 10 12 15 18 24 27 32 33 35 36 37 38 0
2 3 4 5 10 11 13 16 19 20 25 28 33 34 36 37 38 0
1 3 4 5 6 11 12 14 17 20 21 26 29 34 35 37 38 0
2 4 5 6 7 12 13 15 18 20 21 22 27 30 35 36 38 0
3 5 6 7 8 13 14 16 19 20 21 22 23 28 31 36 37 0
1 4 6 7 8 9 14 15 17 21 22 23 24 29 32 37 38 0
2 5 7 8 9 10 15 16 18 20 22 23 24 25 30 33 38 0
3 6 8 9 10 11 16 17 19 20 21 23 24 25 26 31 34 0
1 4 7 9 10 11 12 17 18 21 22 24 25 26 27 32 35 0
2 3 8 9 10 11 13 16 19 23 26 31 32 33 34 36 37 0
1 3 4 9 10 11 12 14 17 24 27 32 33 34 35 37 38 0
2 4 5 10 11 12 13 15 18 20 25 28 33 34 35 36 38 0
3 5 6 11 12 13 14 16 19 20 21 26 29 34 35 36 37 0
1 4 6 7 12 13 14 15 17 21 22 27 30 35 36 37 38 0
2 5 7 8 13 14 15 16 18 20 22 23 28 31 36 37 38 0
3 6 8 9 14 15 16 17 19 20 21 23 24 29 32 37 38 0
1 4 7 9 10 15 16 17 18 20 21 22 24 25 30 33 38 0
2 5 8 10 11 16 17 18 19 20 21 22 23 25 26 31 34 0
1 3 6 9 11 12 17 18 19 21 22 23 24 26 27 32 35 0
1 2 4 7 10 12 13 18 19 22 23 24 25 27 28 33 36 0
1 2 3 5 8 11 13 14 19 23 24 25 26 28 29 34 37 0
1 2 3 4 6 9 12 14 15 24 25 26 27 29 30 35 38 0
2 3 4 5 7 10 13 15 16 20 25 26 27 28 30 31 36 0
3 4 5 6 8 11 14 16 17 21 26 27 28 29 31 32 37 0
4 5 6 7 9 12 15 17 18 22 27 28 29 30 32 33 38 0
5 6 7 8 10 13 16 18 19 20 23 28 29 30 31 33 34 0
1 6 7 8 9 11 14 17 19 21 24 29 30 31 32 34 35 0
1 2 7 8 9 10 12 15 18 22 25 30 31 32 33 35 36 0
2 4 6 8 10 15 17 19 21 23 26 30 33 37 0
1 3 5 7 9 11 16 18 22 24 27 31 34 38 0
2 4 6 8 10 12 17 19 20 23 25 28 32 35 0
1 3 5 7 9 11 13 18 21 24 26 29 33 36 0
2 4 6 8 10 12 14 19 22 25 27 30 34 37 0
1 3 5 7 9 11 13 15 23 26 28 31 35 38 0
2 4 6 8 10 12 14 16 20 24 27 29 32 36 0
3 5 7 9 11 13 15 17 21 25 28 30 33 37 0
4 6 8 10 12 14 16 18 22 26 29 31 34 38 0
5 7 9 11 13 15 17 19 20 23 27 30 32 35 0
1 6 8 10 12 14 16 18 21 24 28 31 33 36 0
2 7 9 11 13 15 17 19 22 25 29 32 34 37 0
1 3 8 10 12 14 16 18 23 26 30 33 35 38 0
2 4 9 11 13 15 17 19 20 24 27 31 34 36 0
1 3 5 10 12 14 16 18 21 25 28 32 35 37 0
2 4 6 11 13 15 17 19 22 26 29 33 36 38 0
1 3 5 7 12 14 16 18 20 23 27 30 34 37 0
2 4 6 8 13 15 17 19 21 24 28 31 35 38 0
1 3 5 7 9 14 16 18 20 22 25 29 32 36 0
2 4 6 8 9 11 13 15 17 19 22 23 25 30 32 33 0
1 3 5 7 9 10 12 14 16 18 23 24 26 31 33 34 0
2 4 6 8 10 11 13 15 17 19 24 25 27 32 34 35 0
1 3 5 7 9 11 12 14 16 18 25 26 28 33 35 36 0
2 4 6 8 10 12 13 15 17 19 26 27 29 34 36 37 0
1 3 5 7 9 11 13 14 16 18 27 28 30 35 37 38 0
2 4 6 8 10 12 14 15 17 19 20 28 29 31 36 38 0
1 3 5 7 9 11 13 15 16 18 20 21 29 30 32 37 0
2 4 6 8 10 12 14 16 17 19 21 22 30 31 33 38 0
1 3 5 7 9 11 13 15 17 18 20 22 23 31 32 34 0
2 4 6 8 10 12 14 16 18 19 21 23 24 32 33 35 0
1 3 5 7 9 11 13 15 17 19 22 24 25 33 34 36 0
1 2 4 6 8 10 12 14 16 18 23 25 26 34 35 37 0
2 3 5 7 9 11 13 15 17 19 24 26 27 35 36 38 0
1 3 4 6 8 10 12 14 16 18 20 25 27 28 36 37 0
2 4 5 7 9 11 13 15 17 19 21 26 28 29 37 38 0
1 3 5 6 8 10 12 14 16 18 20 22 27 29 30 38 0
2 4 6 7 9 11 13 15 17 19 20 21 23 28 30 31 0
1 3 5 7 8 10 12 14 16 18 21 22 24 29 31 32 0
2 4 6 8 9 11 13 18 19 23 26 29 32 33 36 37 0
1 3 5 7 9 10 12 14 19 24 27 30 33 34 37 38 0
1 2 4 6 8 10 11 13 15 20 25 28 31 34 35 38 0
2 3 5 7 9 11 12 14 16 20 21 26 29 32 35 36 0
3 4 6 8 10 12 13 15 17 21 22 27 30 33 36 37 0
4 5 7 9 11 13 14 16 18 22 23 28 31 34 37 38 0
5 6 8 10 12 14 15 17 19 20 23 24 29 32 35 38 0
1 6 7 9 11 13 15 16 18 20 21 24 25 30 33 36 0
2 7 8 10 12 14 16 17 19 21 22 25 26 31 34 37 0
1 3 8 9 11 13 15 17 18 22 23 26 27 32 35 38 0
2 4 9 10 12 14 16 18 19 20 23 24 27 28 33 36 0
1 3 5 10 11 13 15 17 19 21 24 25 28 29 34 37 0
1 2 4 6 11 12 14 16 18 22 25 26 29 30 35 38 0
2 3 5 7 12 13 15 17 19 20 23 26 27 30 31 36 0
1 3 4 6 8 13 14 16 18 21 24 27 28 31 32 37 0
2 4 5 7 9 14 15 17 19 22 25 28 29 32 33 38 0
1 3 5 6 8 10 15 16 18 20 23 26 29 30 33 34 0
2 4 6 7 9 11 16 17 19 21 24 27 30 31 34 35 0
1 3 5 7 8 10 12 17 18 22 25 28 31 32 35 36 0
2 3 8 10 12 13 15 17 19 22 23 26 27 30 33 36 0
1 3 4 9 11 13 14 16 18 23 24 27 28 31 34 37 0
2 4 5 10 12 14 15 17 19 24 25 28 29 32 35 38 0
1 3 5 6 11 13 15 16 18 20 25 26 29 30 33 36 0
2 4 6 7 12 14 16 17 19 21 26 27 30 31 34 37 0
1 3 5 7 8 13 15 17 18 22 27 28 31 32 35 38 0
2 4 6 8 9 14 16 18 19 20 23 28 29 32 33 36 0
1 3 5 7 9 10 15 17 19 21 24 29 30 33 34 37 0
1 2 4 6 8 10 11 16 18 22 25 30 31 34 35 38 0
2 3 5 7 9 11 12 17 19 20 23 26 31 32 35 36 0
1 3 4 6 8 10 12 13 18 21 24 27 32 33 36 37 0
2 4 5 7 9 11 13 14 19 22 25 28 33 34 37 38 0
1 3 5 6 8 10 12 14 15 20 23 26 29 34 35 38 0
2 4 6 7 9 11 13 15 16 20 21 24 27 30 35 36 0
3 5 7 8 10 12 14 16 17 21 22 25 28 31 36 37 0
4 6 8 9 11 13 15 17 18 22 23 26 29 32 37 38 0
5 7 9 10 12 14 16 18 19 20 23 24 27 30 33 38 0
1 6 8 10 11 13 15 17 19 20 21 24 25 28 31 34 0
1 2 7 9 11 12 14 16 18 21 22 25 26 29 32 35 0
2 5 8 10 11 13 18 19 22 23 25 26 28 33 36 0
1 3 6 9 11 12 14 19 23 24 26 27 29 34 37 0
1 2 4 7 10 12 13 15 24 25 27 28 30 35 38 0
2 3 5 8 11 13 14 16 20 25 26 28 29 31 36 0
3 4 6 9 12 14 15 17 21 26 27 29 30 32 37 0
4 5 7 10 13 15 16 18 22 27 28 30 31 33 38 0
5 6 8 11 14 16 17 19 20 23 28 29 31 32 34 0
1 6 7 9 12 15 17 18 21 24 29 30 32 33 35 0
2 7 8 10 13 16 18 19 22 25 30 31 33 34 36 0
1 3 8 9 11 14 17 19 23 26 31 32 34 35 37 0
1 2 4 9 10 12 15 18 24 27 32 33 35 36 38 0
2 3 5 10 11 13 16 19 20 25 28 33 34 36 37 0
1 3 4 6 11 12 14 17 21 26 29 34 35 37 38 0
2 4 5 7 12 13 15 18 20 22 27 30 35 36 38 0
3 5 6 8 13 14 16 19 20 21 23 28 31 36 37 0
1 4 6 7 9 14 15 17 21 22 24 29 32 37 38 0
2 5 7 8 10 15 16 18 20 22 23 25 30 33 38 0
3 6 8 9 11 16 17 19 20 21 23 24 26 31 34 0
1 4 7 9 10 12 17 18 21 22 24 25 27 32 35 0
2 3 8 10 11 13 16 19 23 26 31 33 34 36 37 0
1 3 4 9 11 12 14 17 24 27 32 34 35 37 38 0
2 4 5 10 12 13 15 18 20 25 28 33 35 36 38 0
3 5 6 11 13 14 16 19 20 21 26 29 34 36 37 0
1 4 6 7 12 14 15 17 21 22 27 30 35 37 38 0
2 5 7 8 13 15 16 18 20 22 23 28 31 36 38 0
3 6 8 9 14 16 17 19 20 21 23 24 29 32 37 0
1 4 7 9 10 15 17 18 21 22 24 25 30 33 38 0
2 5 8 10 11 16 18 19 20 22 23 25 26 31 34 0
1 3 6 9 11 12 17 19 21 23 24 26 27 32 35 0
1 2 4 7 10 12 13 18 22 24 25 27 28 33 36 0
2 3 5 8 11 13 14 19 23 25 26 28 29 34 37 0
1 3 4 6 9 12 14 15 24 26 27 29 30 35 38 0
2 4 5 7 10 13 15 16 20 25 27 28 30 31 36 0
3 5 6 8 11 14 16 17 21 26 28 29 31 32 37 0
4 6 7 9 12 15 17 18 22 27 29 30 32 33 38 0
5 7 8 10 13 16 18 19 20 23 28 30 31 33 34 0
1 6 8 9 11 14 17 19 21 24 29 31 32 34 35 0
1 2 7 9 10 12 15 18 22 25 30 32 33 35 36 0
2 5 8 11 13 19 21 22 23 25 26 28 29 32 33 37 0
1 3 6 9 12 14 22 23 24 26 27 29 30 33 34 38 0
2 4 7 10 13 15 20 23 24 25 27 28 30 31 34 35 0
3 5 8 11 14 16 21 24 25 26 28 29 31 32 35 36 0
4 6 9 12 15 17 22 25 26 27 29 30 32 33 36 37 0
5 7 10 13 16 18 23 26 27 28 30 31 33 34 37 38 0
6 8 11 14 17 19 20 24 27 28 29 31 32 34 35 38 0
1 7 9 12 15 18 20 21 25 28 29 30 32 33 35 36 0
2 8 10 13 16 19 21 22 26 29 30 31 33 34 36 37 0
1 3 9 11 14 17 22 23 27 30 31 32 34 35 37 38 0
2 4 10 12 15 18 20 23 24 28 31 32 33 35 36 38 0
3 5 11 13 16 19 20 21 24 25 29 32 33 34 36 37 0
1 4 6 12 14 17 21 22 25 26 30 33 34 35 37 38 0
2 5 7 13 15 18 20 22 23 26 27 31 34 35 36 38 0
3 6 8 14 16 19 20 21 23 24 27 28 32 35 36 37 0
1 4 7 9 15 17 21 22 24 25 28 29 33 36 37 38 0
2 5 8 10 16 18 20 22 23 25 26 29 30 34 37 38 0
3 6 9 11 17 19 20 21 23 24 26 27 30 31 35 38 0
1 4 7 10 12 18 20 21 22 24 25 27 28 31 32 36 0
2 8 10 13 16 19 22 26 27 30 31 33 34 36 37 38 0
1 3 9 11 14 17 20 23 27 28 31 32 34 35 37 38 0
2 4 10 12 15 18 20 21 24 28 29 32 33 35 36 38 0
3 5 11 13 16 19 20 21 22 25 29 30 33 34 36 37 0
1 4 6 12 14 17 21 22 23 26 30 31 34 35 37 38 0
2 5 7 13 15 18 20 22 23 24 27 31 32 35 36 38 0
3 6 8 14 16 19 20 21 23 24 25 28 32 33 36 37 0
1 4 7 9 15 17 21 22 24 25 26 29 33 34 37 38 0
2 5 8 10 16 18 20 22 23 25 26 27 30 34 35 38 0
3 6 9 11 17 19 20 21 23 24 26 27 28 31 35 36 0
1 4 7 10 12 18 21 22 24 25 27 28 29 32 36 37 0
2 5 8 11 13 19 22 23 25 26 28 29 30 33 37 38 0
1 3 6 9 12 14 20 23 24 26 27 29 30 31 34 38 0
2 4 7 10 13 15 20 21 24 25 27 28 30 31 32 35 0
3 5 8 11 14 16 21 22 25 26 28 29 31 32 33 36 0
4 6 9 12 15 17 22 23 26 27 29 30 32 33 34 37 0
5 7 10 13 16 18 23 24 27 28 30 31 33 34 35 38 0
6 8 11 14 17 19 20 24 25 28 29 31 32 34 35 36 0
1 7 9 12 15 18 21 25 26 29 30 32 33 35 36 37 0
2 4 6 8 9 10 13 15 16 18 19 22 23 25 30 31 32 36 0
1 3 5 7 9 10 11 14 16 17 19 23 24 26 31 32 33 37 0
1 2 4 6 8 10 11 12 15 17 18 24 25 27 32 33 34 38 0
2 3 5 7 9 11 12 13 16 18 19 20 25 26 28 33 34 35 0
1 3 4 6 8 10 12 13 14 17 19 21 26 27 29 34 35 36 0
1 2 4 5 7 9 11 13 14 15 18 22 27 28 30 35 36 37 0
2 3 5 6 8 10 12 14 15 16 19 23 28 29 31 36 37 38 0
1 3 4 6 7 9 11 13 15 16 17 20 24 29 30 32 37 38 0
2 4 5 7 8 10 12 14 16 17 18 20 21 25 30 31 33 38 0
3 5 6 8 9 11 13 15 17 18 19 20 21 22 26 31 32 34 0
1 4 6 7 9 10 12 14 16 18 19 21 22 23 27 32 33 35 0
1 2 5 7 8 10 11 13 15 17 19 22 23 24 28 33 34 36 0
1 2 3 6 8 9 11 12 14 16 18 23 24 25 29 34 35 37 0
2 3 4 7 9 10 12 13 15 17 19 24 25 26 30 35 36 38 0
1 3 4 5 8 10 11 13 14 16 18 20 25 26 27 31 36 37 0
2 4 5 6 9 11 12 14 15 17 19 21 26 27 28 32 37 38 0
1 3 5 6 7 10 12 13 15 16 18 20 22 27 28 29 33 38 0
2 4 6 7 8 11 13 14 16 17 19 20 21 23 28 29 30 34 0
1 3 5 7 8 9 12 14 15 17 18 21 22 24 29 30 31 35 0
2 3 5 6 8 11 12 13 15 17 19 23 27 28 29 34 36 37 0
1 3 4 6 7 9 12 13 14 16 18 24 28 29 30 35 37 38 0
2 4 5 7 8 10 13 14 15 17 19 20 25 29 30 31 36 38 0
1 3 5 6 8 9 11 14 15 16 18 20 21 26 30 31 32 37 0
2 4 6 7 9 10 12 15 16 17 19 21 22 27 31 32 33 38 0
1 3 5 7 8 10 11 13 16 17 18 20 22 23 28 32 33 34 0
2 4 6 8 9 11 12 14 17 18 19 21 23 24 29 33 34 35 0
1 3 5 7 9 10 12 13 15 18 19 22 24 25 30 34 35 36 0
1 2 4 6 8 10 11 13 14 16 19 23 25 26 31 35 36 37 0
1 2 3 5 7 9 11 12 14 15 17 24 26 27 32 36 37 38 0
2 3 4 6 8 10 12 13 15 16 18 20 25 27 28 33 37 38 0
3 4 5 7 9 11 13 14 16 17 19 20 21 26 28 29 34 38 0
1 4 5 6 8 10 12 14 15 17 18 20 21 22 27 29 30 35 0
2 5 6 7 9 11 13 15 16 18 19 21 22 23 28 30 31 36 0
1 3 6 7 8 10 12 14 16 17 19 22 23 24 29 31 32 37 0
1 2 4 7 8 9 11 13 15 17 18 23 24 25 30 32 33 38 0
2 3 5 8 9 10 12 14 16 18 19 20 24 25 26 31 33 34 0
1 3 4 6 9 10 11 13 15 17 19 21 25 26 27 32 34 35 0
1 2 4 5 7 10 11 12 14 16 18 22 26 27 28 33 35 36 0
2 5 8 11 13 14 15 17 18 19 22 23 25 26 28 29 32 34 0
1 3 6 9 12 14 15 16 18 19 23 24 26 27 29 30 33 35 0
1 2 4 7 10 13 15 16 17 19 24 25 27 28 30 31 34 36 0
1 2 3 5 8 11 14 16 17 18 25 26 28 29 31 32 35 37 0
2 3 4 6 9 12 15 17 18 19 26 27 29 30 32 33 36 38 0
1 3 4 5 7 10 13 16 18 19 20 27 28 30 31 33 34 37 0
1 2 4 5 6 8 11 14 17 19 21 28 29 31 32 34 35 38 0
1 2 3 5 6 7 9 12 15 18 20 22 29 30 32 33 35 36 0
2 3 4 6 7 8 10 13 16 19 21 23 30 31 33 34 36 37 0
1 3 4 5 7 8 9 11 14 17 22 24 31 32 34 35 37 38 0
2 4 5 6 8 9 10 12 15 18 20 23 25 32 33 35 36 38 0
3 5 6 7 9 10 11 13 16 19 20 21 24 26 33 34 36 37 0
1 4 6 7 8 10 11 12 14 17 21 22 25 27 34 35 37 38 0
2 5 7 8 9 11 12 13 15 18 20 22 23 26 28 35 36 38 0
3 6 8 9 10 12 13 14 16 19 20 21 23 24 27 29 36 37 0
1 4 7 9 10 11 13 14 15 17 21 22 24 25 28 30 37 38 0
2 5 8 10 11 12 14 15 16 18 20 22 23 25 26 29 31 38 0
3 6 9 11 12 13 15 16 17 19 20 21 23 24 26 27 30 32 0
1 4 7 10 12 13 14 16 17 18 21 22 24 25 27 28 31 33 0
2 3 4 6 7 8 10 13 16 19 25 27 30 31 33 34 36 37 0
1 3 4 5 7 8 9 11 14 17 26 28 31 32 34 35 37 38 0
2 4 5 6 8 9 10 12 15 18 20 27 29 32 33 35 36 38 0
3 5 6 7 9 10 11 13 16 19 20 21 28 30 33 34 36 37 0
1 4 6 7 8 10 11 12 14 17 21 22 29 31 34 35 37 38 0
2 5 7 8 9 11 12 13 15 18 20 22 23 30 32 35 36 38 0
3 6 8 9 10 12 13 14 16 19 20 21 23 24 31 33 36 37 0
1 4 7 9 10 11 13 14 15 17 21 22 24 25 32 34 37 38 0
2 5 8 10 11 12 14 15 16 18 20 22 23 25 26 33 35 38 0
3 6 9 11 12 13 15 16 17 19 20 21 23 24 26 27 34 36 0
1 4 7 10 12 13 14 16 17 18 21 22 24 25 27 28 35 37 0
2 5 8 11 13 14 15 17 18 19 22 23 25 26 28 29 36 38 0
1 3 6 9 12 14 15 16 18 19 20 23 24 26 27 29 30 37 0
1 2 4 7 10 13 15 16 17 19 21 24 25 27 28 30 31 38 0
1 2 3 5 8 11 14 16 17 18 20 22 25 26 28 29 31 32 0
2 3 4 6 9 12 15 17 18 19 21 23 26 27 29 30 32 33 0
1 3 4 5 7 10 13 16 18 19 22 24 27 28 30 31 33 34 0
1 2 4 5 6 8 11 14 17 19 23 25 28 29 31 32 34 35 0
1 2 3 5 6 7 9 12 15 18 24 26 29 30 32 33 35 36 0
2 5 8 11 13 14 15 17 18 19 22 23 25 26 28 29 34 36 0
1 3 6 9 12 14 15 16 18 19 23 24 26 27 29 30 35 37 0
1 2 4 7 10 13 15 16 17 19 24 25 27 28 30 31 36 38 0
1 2 3 5 8 11 14 16 17 18 20 25 26 28 29 31 32 37 0
2 3 4 6 9 12 15 17 18 19 21 26 27 29 30 32 33 38 0
1 3 4 5 7 10 13 16 18 19 20 22 27 28 30 31 33 34 0
1 2 4 5 6 8 11 14 17 19 21 23 28 29 31 32 34 35 0
1 2 3 5 6 7 9 12 15 18 22 24 29 30 32 33 35 36 0
2 3 4 6 7 8 10 13 16 19 23 25 30 31 33 34 36 37 0
1 3 4 5 7 8 9 11 14 17 24 26 31 32 34 35 37 38 0
2 4 5 6 8 9 10 12 15 18 20 25 27 32 33 35 36 38 0
3 5 6 7 9 10 11 13 16 19 20 21 26 28 33 34 36 37 0
1 4 6 7 8 10 11 12 14 17 21 22 27 29 34 35 37 38 0
2 5 7 8 9 11 12 13 15 18 20 22 23 28 30 35 36 38 0
3 6 8 9 10 12 13 14 16 19 20 21 23 24 29 31 36 37 0
1 4 7 9 10 11 13 14 15 17 21 22 24 25 30 32 37 38 0
2 5 8 10 11 12 14 15 16 18 20 22 23 25 26 31 33 38 0
3 6 9 11 12 13 15 16 17 19 20 21 23 24 26 27 32 34 0
1 4 7 10 12 13 14 16 17 18 21 22 24 25 27 28 33 35 0
2 5 8 10 11 13 15 17 18 19 22 23 25 26 28 34 36 0
1 3 6 9 11 12 14 16 18 19 23 24 26 27 29 35 37 0
1 2 4 7 10 12 13 15 17 19 24 25 27 28 30 36 38 0
1 2 3 5 8 11 13 14 16 18 20 25 26 28 29 31 37 0
2 3 4 6 9 12 14 15 17 19 21 26 27 29 30 32 38 0
1 3 4 5 7 10 13 15 16 18 20 22 27 28 30 31 33 0
2 4 5 6 8 11 14 16 17 19 21 23 28 29 31 32 34 0
1 3 5 6 7 9 12 15 17 18 22 24 29 30 32 33 35 0
2 4 6 7 8 10 13 16 18 19 23 25 30 31 33 34 36 0
1 3 5 7 8 9 11 14 17 19 24 26 31 32 34 35 37 0
1 2 4 6 8 9 10 12 15 18 25 27 32 33 35 36 38 0
2 3 5 7 9 10 11 13 16 19 20 26 28 33 34 36 37 0
1 3 4 6 8 10 11 12 14 17 21 27 29 34 35 37 38 0
2 4 5 7 9 11 12 13 15 18 20 22 28 30 35 36 38 0
3 5 6 8 10 12 13 14 16 19 20 21 23 29 31 36 37 0
1 4 6 7 9 11 13 14 15 17 21 22 24 30 32 37 38 0
2 5 7 8 10 12 14 15 16 18 20 22 23 25 31 33 38 0
3 6 8 9 11 13 15 16 17 19 20 21 23 24 26 32 34 0
1 4 7 9 10 12 14 16 17 18 21 22 24 25 27 33 35 0
2 3 4 6 8 10 11 13 16 19 23 25 31 33 34 36 37 0
1 3 4 5 7 9 11 12 14 17 24 26 32 34 35 37 38 0
2 4 5 6 8 10 12 13 15 18 20 25 27 33 35 36 38 0
3 5 6 7 9 11 13 14 16 19 20 21 26 28 34 36 37 0
1 4 6 7 8 10 12 14 15 17 21 22 27 29 35 37 38 0
2 5 7 8 9 11 13 15 16 18 20 22 23 28 30 36 38 0
3 6 8 9 10 12 14 16 17 19 20 21 23 24 29 31 37 0
1 4 7 9 10 11 13 15 17 18 21 22 24 25 30 32 38 0
2 5 8 10 11 12 14 16 18 19 20 22 23 25 26 31 33 0
1 3 6 9 11 12 13 15 17 19 21 23 24 26 27 32 34 0
1 2 4 7 10 12 13 14 16 18 22 24 25 27 28 33 35 0
2 3 5 8 11 13 14 15 17 19 23 25 26 28 29 34 36 0
1 3 4 6 9 12 14 15 16 18 24 26 27 29 30 35 37 0
2 4 5 7 10 13 15 16 17 19 25 27 28 30 31 36 38 0
1 3 5 6 8 11 14 16 17 18 20 26 28 29 31 32 37 0
2 4 6 7 9 12 15 17 18 19 21 27 29 30 32 33 38 0
1 3 5 7 8 10 13 16 18 19 20 22 28 30 31 33 34 0
1 2 4 6 8 9 11 14 17 19 21 23 29 31 32 34 35 0
1 2 3 5 7 9 10 12 15 18 22 24 30 32 33 35 36 0
2 4 6 8 9 11 13 14 15 17 18 19 22 23 29 30 32 36 0
1 3 5 7 9 10 12 14 15 16 18 19 23 24 30 31 33 37 0
1 2 4 6 8 10 11 13 15 16 17 19 24 25 31 32 34 38 0
1 2 3 5 7 9 11 12 14 16 17 18 20 25 26 32 33 35 0
2 3 4 6 8 10 12 13 15 17 18 19 21 26 27 33 34 36 0
1 3 4 5 7 9 11 13 14 16 18 19 22 27 28 34 35 37 0
1 2 4 5 6 8 10 12 14 15 17 19 23 28 29 35 36 38 0
1 2 3 5 6 7 9 11 13 15 16 18 20 24 29 30 36 37 0
2 3 4 6 7 8 10 12 14 16 17 19 21 25 30 31 37 38 0
1 3 4 5 7 8 9 11 13 15 17 18 20 22 26 31 32 38 0
2 4 5 6 8 9 10 12 14 16 18 19 20 21 23 27 32 33 0
1 3 5 6 7 9 10 11 13 15 17 19 21 22 24 28 33 34 0
1 2 4 6 7 8 10 11 12 14 16 18 22 23 25 29 34 35 0
2 3 5 7 8 9 11 12 13 15 17 19 23 24 26 30 35 36 0
1 3 4 6 8 9 10 12 13 14 16 18 24 25 27 31 36 37 0
2 4 5 7 9 10 11 13 14 15 17 19 25 26 28 32 37 38 0
1 3 5 6 8 10 11 12 14 15 16 18 20 26 27 29 33 38 0
2 4 6 7 9 11 12 13 15 16 17 19 20 21 27 28 30 34 0
1 3 5 7 8 10 12 13 14 16 17 18 21 22 28 29 31 35 0
2 3 4 6 7 8 10 12 13 15 17 19 23 27 29 30 36 37 0
1 3 4 5 7 8 9 11 13 14 16 18 24 28 30 31 37 38 0
2 4 5 6 8 9 10 12 14 15 17 19 20 25 29 31 32 38 0
1 3 5 6 7 9 10 11 13 15 16 18 20 21 26 30 32 33 0
2 4 6 7 8 10 11 12 14 16 17 19 21 22 27 31 33 34 0
1 3 5 7 8 9 11 12 13 15 17 18 22 23 28 32 34 35 0
2 4 6 8 9 10 12 13 14 16 18 19 23 24 29 33 35 36 0
1 3 5 7 9 10 11 13 14 15 17 19 24 25 30 34 36 37 0
1 2 4 6 8 10 11 12 14 15 16 18 25 26 31 35 37 38 0
2 3 5 7 9 11 12 13 15 16 17 19 20 26 27 32 36 38 0
1 3 4 6 8 10 12 13 14 16 17 18 20 21 27 28 33 37 0
2 4 5 7 9 11 13 14 15 17 18 19 21 22 28 29 34 38 0
1 3 5 6 8 10 12 14 15 16 18 19 20 22 23 29 30 35 0
1 2 4 6 7 9 11 13 15 16 17 19 21 23 24 30 31 36 0
1 2 3 5 7 8 10 12 14 16 17 18 22 24 25 31 32 37 0
2 3 4 6 8 9 11 13 15 17 18 19 23 25 26 32 33 38 0
1 3 4 5 7 9 10 12 14 16 18 19 20 24 26 27 33 34 0
1 2 4 5 6 8 10 11 13 15 17 19 21 25 27 28 34 35 0
1 2 3 5 6 7 9 11 12 14 16 18 22 26 28 29 35 36 0
2 4 6 8 9 11 13 14 15 17 18 19 22 23 26 29 32 36 38 0
1 3 5 7 9 10 12 14 15 16 18 19 20 23 24 27 30 33 37 0
1 2 4 6 8 10 11 13 15 16 17 19 21 24 25 28 31 34 38 0
1 2 3 5 7 9 11 12 14 16 17 18 20 22 25 26 29 32 35 0
2 3 4 6 8 10 12 13 15 17 18 19 21 23 26 27 30 33 36 0
1 3 4 5 7 9 11 13 14 16 18 19 22 24 27 28 31 34 37 0
1 2 4 5 6 8 10 12 14 15 17 19 23 25 28 29 32 35 38 0
1 2 3 5 6 7 9 11 13 15 16 18 20 24 26 29 30 33 36 0
2 3 4 6 7 8 10 12 14 16 17 19 21 25 27 30 31 34 37 0
1 3 4 5 7 8 9 11 13 15 17 18 22 26 28 31 32 35 38 0
2 4 5 6 8 9 10 12 14 16 18 19 20 23 27 29 32 33 36 0
1 3 5 6 7 9 10 11 13 15 17 19 21 24 28 30 33 34 37 0
1 2 4 6 7 8 10 11 12 14 16 18 22 25 29 31 34 35 38 0
2 3 5 7 8 9 11 12 13 15 17 19 20 23 26 30 32 35 36 0
1 3 4 6 8 9 10 12 13 14 16 18 21 24 27 31 33 36 37 0
2 4 5 7 9 10 11 13 14 15 17 19 22 25 28 32 34 37 38 0
1 3 5 6 8 10 11 12 14 15 16 18 20 23 26 29 33 35 38 0
2 4 6 7 9 11 12 13 15 16 17 19 20 21 24 27 30 34 36 0
1 3 5 7 8 10 12 13 14 16 17 18 21 22 25 28 31 35 37 0
2 3 4 6 7 8 10 12 13 15 17 19 21 23 27 30 33 36 37 0
1 3 4 5 7 8 9 11 13 14 16 18 22 24 28 31 34 37 38 0
2 4 5 6 8 9 10 12 14 15 17 19 20 23 25 29 32 35 38 0
1 3 5 6 7 9 10 11 13 15 16 18 20 21 24 26 30 33 36 0
2 4 6 7 8 10 11 12 14 16 17 19 21 22 25 27 31 34 37 0
1 3 5 7 8 9 11 12 13 15 17 18 22 23 26 28 32 35 38 0
2 4 6 8 9 10 12 13 14 16 18 19 20 23 24 27 29 33 36 0
1 3 5 7 9 10 11 13 14 15 17 19 21 24 25 28 30 34 37 0
1 2 4 6 8 10 11 12 14 15 16 18 22 25 26 29 31 35 38 0
2 3 5 7 9 11 12 13 15 16 17 19 20 23 26 27 30 32 36 0
1 3 4 6 8 10 12 13 14 16 17 18 21 24 27 28 31 33 37 0
2 4 5 7 9 11 13 14 15 17 18 19 22 25 28 29 32 34 38 0
1 3 5 6 8 10 12 14 15 16 18 19 20 23 26 29 30 33 35 0
1 2 4 6 7 9 11 13 15 16 17 19 21 24 27 30 31 34 36 0
1 2 3 5 7 8 10 12 14 16 17 18 22 25 28 31 32 35 37 0
2 3 4 6 8 9 11 13 15 17 18 19 23 26 29 32 33 36 38 0
1 3 4 5 7 9 10 12 14 16 18 19 20 24 27 30 33 34 37 0
1 2 4 5 6 8 10 11 13 15 17 19 21 25 28 31 34 35 38 0
1 2 3 5 6 7 9 11 12 14 16 18 20 22 26 29 32 35 36 0
2 5 8 11 13 14 15 17 18 19 22 23 25 26 28 29 32 38 0
1 3 6 9 12 14 15 16 18 19 20 23 24 26 27 29 30 33 0
1 2 4 7 10 13 15 16 17 19 21 24 25 27 28 30 31 34 0
1 2 3 5 8 11 14 16 17 18 22 25 26 28 29 31 32 35 0
2 3 4 6 9 12 15 17 18 19 23 26 27 29 30 32 33 36 0
1 3 4 5 7 10 13 16 18 19 24 27 28 30 31 33 34 37 0
1 2 4 5 6 8 11 14 17 19 25 28 29 31 32 34 35 38 0
1 2 3 5 6 7 9 12 15 18 20 26 29 30 32 33 35 36 0
2 3 4 6 7 8 10 13 16 19 21 27 30 31 33 34 36 37 0
1 3 4 5 7 8 9 11 14 17 22 28 31 32 34 35 37 38 0
2 4 5 6 8 9 10 12 15 18 20 23 29 32 33 35 36 38 0
3 5 6 7 9 10 11 13 16 19 20 21 24 30 33 34 36 37 0
1 4 6 7 8 10 11 12 14 17 21 22 25 31 34 35 37 38 0
2 5 7 8 9 11 12 13 15 18 20 22 23 26 32 35 36 38 0
3 6 8 9 10 12 13 14 16 19 20 21 23 24 27 33 36 37 0
1 4 7 9 10 11 13 14 15 17 21 22 24 25 28 34 37 38 0
2 5 8 10 11 12 14 15 16 18 20 22 23 25 26 29 35 38 0
3 6 9 11 12 13 15 16 17 19 20 21 23 24 26 27 30 36 0
1 4 7 10 12 13 14 16 17 18 21 22 24 25 27 28 31 37 0
2 4 6 8 9 11 13 14 15 17 18 19 22 23 25 29 30 32 0
1 3 5 7 9 10 12 14 15 16 18 19 23 24 26 30 31 33 0
1 2 4 6 8 10 11 13 15 16 17 19 24 25 27 31 32 34 0
1 2 3 5 7 9 11 12 14 16 17 18 25 26 28 32 33 35 0
2 3 4 6 8 10 12 13 15 17 18 19 26 27 29 33 34 36 0
1 3 4 5 7 9 11 13 14 16 18 19 27 28 30 34 35 37 0
1 2 4 5 6 8 10 12 14 15 17 19 28 29 31 35 36 38 0
1 2 3 5 6 7 9 11 13 15 16 18 20 29 30 32 36 37 0
2 3 4 6 7 8 10 12 14 16 17 19 21 30 31 33 37 38 0
1 3 4 5 7 8 9 11 13 15 17 18 20 22 31 32 34 38 0
2 4 5 6 8 9 10 12 14 16 18 19 20 21 23 32 33 35 0
1 3 5 6 7 9 10 11 13 15 17 19 21 22 24 33 34 36 0
1 2 4 6 7 8 10 11 12 14 16 18 22 23 25 34 35 37 0
2 3 5 7 8 9 11 12 13 15 17 19 23 24 26 35 36 38 0
1 3 4 6 8 9 10 12 13 14 16 18 20 24 25 27 36 37 0
2 4 5 7 9 10 11 13 14 15 17 19 21 25 26 28 37 38 0
1 3 5 6 8 10 11 12 14 15 16 18 20 22 26 27 29 38 0
2 4 6 7 9 11 12 13 15 16 17 19 20 21 23 27 28 30 0
1 3 5 7 8 10 12 13 14 16 17 18 21 22 24 28 29 31 0
2 3 4 6 7 8 10 12 13 15 17 19 27 29 30 34 36 37 0
1 3 4 5 7 8 9 11 13 14 16 18 28 30 31 35 37 38 0
2 4 5 6 8 9 10 12 14 15 17 19 20 29 31 32 36 38 0
1 3 5 6 7 9 10 11 13 15 16 18 20 21 30 32 33 37 0
2 4 6 7 8 10 11 12 14 16 17 19 21 22 31 33 34 38 0
1 3 5 7 8 9 11 12 13 15 17 18 20 22 23 32 34 35 0
2 4 6 8 9 10 12 13 14 16 18 19 21 23 24 33 35 36 0
1 3 5 7 9 10 11 13 14 15 17 19 22 24 25 34 36 37 0
1 2 4 6 8 10 11 12 14 15 16 18 23 25 26 35 37 38 0
2 3 5 7 9 11 12 13 15 16 17 19 20 24 26 27 36 38 0
1 3 4 6 8 10 12 13 14 16 17 18 20 21 25 27 28 37 0
2 4 5 7 9 11 13 14 15 17 18 19 21 22 26 28 29 38 0
1 3 5 6 8 10 12 14 15 16 18 19 20 22 23 27 29 30 0
1 2 4 6 7 9 11 13 15 16 17 19 21 23 24 28 30 31 0
1 2 3 5 7 8 10 12 14 16 17 18 22 24 25 29 31 32 0
2 3 4 6 8 9 11 13 15 17 18 19 23 25 26 30 32 33 0
1 3 4 5 7 9 10 12 14 16 18 19 24 26 27 31 33 34 0
1 2 4 5 6 8 10 11 13 15 17 19 25 27 28 32 34 35 0
1 2 3 5 6 7 9 11 12 14 16 18 26 28 29 33 35 36 0
2 4 6 8 10 11 13 14 15 17 18 19 22 23 29 30 36 0
1 3 5 7 9 11 12 14 15 16 18 19 23 24 30 31 37 0
1 2 4 6 8 10 12 13 15 16 17 19 24 25 31 32 38 0
1 2 3 5 7 9 11 13 14 16 17 18 20 25 26 32 33 0
2 3 4 6 8 10 12 14 15 17 18 19 21 26 27 33 34 0
1 3 4 5 7 9 11 13 15 16 18 19 22 27 28 34 35 0
1 2 4 5 6 8 10 12 14 16 17 19 23 28 29 35 36 0
1 2 3 5 6 7 9 11 13 15 17 18 24 29 30 36 37 0
2 3 4 6 7 8 10 12 14 16 18 19 25 30 31 37 38 0
1 3 4 5 7 8 9 11 13 15 17 19 20 26 31 32 38 0
1 2 4 5 6 8 9 10 12 14 16 18 20 21 27 32 33 0
2 3 5 6 7 9 10 11 13 15 17 19 21 22 28 33 34 0
1 3 4 6 7 8 10 11 12 14 16 18 22 23 29 34 35 0
2 4 5 7 8 9 11 12 13 15 17 19 23 24 30 35 36 0
1 3 5 6 8 9 10 12 13 14 16 18 24 25 31 36 37 0
2 4 6 7 9 10 11 13 14 15 17 19 25 26 32 37 38 0
1 3 5 7 8 10 11 12 14 15 16 18 20 26 27 33 38 0
2 4 6 8 9 11 12 13 15 16 17 19 20 21 27 28 34 0
1 3 5 7 9 10 12 13 14 16 17 18 21 22 28 29 35 0
2 3 4 6 7 8 10 11 13 15 17 19 23 29 30 36 37 0
1 3 4 5 7 8 9 11 12 14 16 18 24 30 31 37 38 0
2 4 5 6 8 9 10 12 13 15 17 19 20 25 31 32 38 0
1 3 5 6 7 9 10 11 13 14 16 18 20 21 26 32 33 0
2 4 6 7 8 10 11 12 14 15 17 19 21 22 27 33 34 0
1 3 5 7 8 9 11 12 13 15 16 18 22 23 28 34 35 0
2 4 6 8 9 10 12 13 14 16 17 19 23 24 29 35 36 0
1 3 5 7 9 10 11 13 14 15 17 18 24 25 30 36 37 0
2 4 6 8 10 11 12 14 15 16 18 19 25 26 31 37 38 0
1 3 5 7 9 11 12 13 15 16 17 19 20 26 27 32 38 0
1 2 4 6 8 10 12 13 14 16 17 18 20 21 27 28 33 0
2 3 5 7 9 11 13 14 15 17 18 19 21 22 28 29 34 0
1 3 4 6 8 10 12 14 15 16 18 19 22 23 29 30 35 0
1 2 4 5 7 9 11 13 15 16 17 19 23 24 30 31 36 0
1 2 3 5 6 8 10 12 14 16 17 18 24 25 31 32 37 0
2 3 4 6 7 9 11 13 15 17 18 19 25 26 32 33 38 0
1 3 4 5 7 8 10 12 14 16 18 19 20 26 27 33 34 0
1 2 4 5 6 8 9 11 13 15 17 19 21 27 28 34 35 0
1 2 3 5 6 7 9 10 12 14 16 18 22 28 29 35 36 0
2 4 6 8 10 19 23 25 26 29 30 37 38 0
1 3 5 7 9 11 20 24 26 27 30 31 38 0
2 4 6 8 10 12 20 21 25 27 28 31 32 0
3 5 7 9 11 13 21 22 26 28 29 32 33 0
4 6 8 10 12 14 22 23 27 29 30 33 34 0
5 7 9 11 13 15 23 24 28 30 31 34 35 0
6 8 10 12 14 16 24 25 29 31 32 35 36 0
7 9 11 13 15 17 25 26 30 32 33 36 37 0
8 10 12 14 16 18 26 27 31 33 34 37 38 0
9 11 13 15 17 19 20 27 28 32 34 35 38 0
1 10 12 14 16 18 20 21 28 29 33 35 36 0
2 11 13 15 17 19 21 22 29 30 34 36 37 0
1 3 12 14 16 18 22 23 30 31 35 37 38 0
2 4 13 15 17 19 20 23 24 31 32 36 38 0
1 3 5 14 16 18 20 21 24 25 32 33 37 0
2 4 6 15 17 19 21 22 25 26 33 34 38 0
1 3 5 7 16 18 20 22 23 26 27 34 35 0
2 4 6 8 17 19 21 23 24 27 28 35 36 0
1 3 5 7 9 18 22 24 25 28 29 36 37 0
2 11 13 15 17 19 21 22 29 30 33 34 36 0
1 3 12 14 16 18 22 23 30 31 34 35 37 0
2 4 13 15 17 19 23 24 31 32 35 36 38 0
1 3 5 14 16 18 20 24 25 32 33 36 37 0
2 4 6 15 17 19 21 25 26 33 34 37 38 0
1 3 5 7 16 18 20 22 26 27 34 35 38 0
2 4 6 8 17 19 20 21 23 27 28 35 36 0
1 3 5 7 9 18 21 22 24 28 29 36 37 0
2 4 6 8 10 19 22 23 25 29 30 37 38 0
1 3 5 7 9 11 20 23 24 26 30 31 38 0
2 4 6 8 10 12 20 21 24 25 27 31 32 0
3 5 7 9 11 13 21 22 25 26 28 32 33 0
4 6 8 10 12 14 22 23 26 27 29 33 34 0
5 7 9 11 13 15 23 24 27 28 30 34 35 0
6 8 10 12 14 16 24 25 28 29 31 35 36 0
7 9 11 13 15 17 25 26 29 30 32 36 37 0
8 10 12 14 16 18 26 27 30 31 33 37 38 0
9 11 13 15 17 19 20 27 28 31 32 34 38 0
1 10 12 14 16 18 20 21 28 29 32 33 35 0
2 5 8 10 11 13 15 17 18 19 22 23 25 26 28 32 38 0
1 3 6 9 11 12 14 16 18 19 20 23 24 26 27 29 33 0
1 2 4 7 10 12 13 15 17 19 21 24 25 27 28 30 34 0
1 2 3 5 8 11 13 14 16 18 22 25 26 28 29 31 35 0
2 3 4 6 9 12 14 15 17 19 23 26 27 29 30 32 36 0
1 3 4 5 7 10 13 15 16 18 24 27 28 30 31 33 37 0
2 4 5 6 8 11 14 16 17 19 25 28 29 31 32 34 38 0
1 3 5 6 7 9 12 15 17 18 20 26 29 30 32 33 35 0
2 4 6 7 8 10 13 16 18 19 21 27 30 31 33 34 36 0
1 3 5 7 8 9 11 14 17 19 22 28 31 32 34 35 37 0
1 2 4 6 8 9 10 12 15 18 23 29 32 33 35 36 38 0
2 3 5 7 9 10 11 13 16 19 20 24 30 33 34 36 37 0
1 3 4 6 8 10 11 12 14 17 21 25 31 34 35 37 38 0
2 4 5 7 9 11 12 13 15 18 20 22 26 32 35 36 38 0
3 5 6 8 10 12 13 14 16 19 20 21 23 27 33 36 37 0
1 4 6 7 9 11 13 14 15 17 21 22 24 28 34 37 38 0
2 5 7 8 10 12 14 15 16 18 20 22 23 25 29 35 38 0
3 6 8 9 11 13 15 16 17 19 20 21 23 24 26 30 36 0
1 4 7 9 10 12 14 16 17 18 21 22 24 25 27 31 37 0
2 3 4 6 8 10 11 13 16 19 21 27 31 33 34 36 37 0
1 3 4 5 7 9 11 12 14 17 22 28 32 34 35 37 38 0
2 4 5 6 8 10 12 13 15 18 20 23 29 33 35 36 38 0
3 5 6 7 9 11 13 14 16 19 20 21 24 30 34 36 37 0
1 4 6 7 8 10 12 14 15 17 21 22 25 31 35 37 38 0
2 5 7 8 9 11 13 15 16 18 20 22 23 26 32 36 38 0
3 6 8 9 10 12 14 16 17 19 20 21 23 24 27 33 37 0
1 4 7 9 10 11 13 15 17 18 21 22 24 25 28 34 38 0
2 5 8 10 11 12 14 16 18 19 20 22 23 25 26 29 35 0
1 3 6 9 11 12 13 15 17 19 21 23 24 26 27 30 36 0
1 2 4 7 10 12 13 14 16 18 22 24 25 27 28 31 37 0
2 3 5 8 11 13 14 15 17 19 23 25 26 28 29 32 38 0
1 3 4 6 9 12 14 15 16 18 20 24 26 27 29 30 33 0
2 4 5 7 10 13 15 16 17 19 21 25 27 28 30 31 34 0
1 3 5 6 8 11 14 16 17 18 22 26 28 29 31 32 35 0
2 4 6 7 9 12 15 17 18 19 23 27 29 30 32 33 36 0
1 3 5 7 8 10 13 16 18 19 24 28 30 31 33 34 37 0
1 2 4 6 8 9 11 14 17 19 25 29 31 32 34 35 38 0
1 2 3 5 7 9 10 12 15 18 20 26 30 32 33 35 36 0
2 4 6 8 9 10 11 13 15 17 18 19 22 23 25 30 32 0
1 3 5 7 9 10 11 12 14 16 18 19 23 24 26 31 33 0
1 2 4 6 8 10 11 12 13 15 17 19 24 25 27 32 34 0
1 2 3 5 7 9 11 12 13 14 16 18 25 26 28 33 35 0
2 3 4 6 8 10 12 13 14 15 17 19 26 27 29 34 36 0
1 3 4 5 7 9 11 13 14 15 16 18 27 28 30 35 37 0
2 4 5 6 8 10 12 14 15 16 17 19 28 29 31 36 38 0
1 3 5 6 7 9 11 13 15 16 17 18 20 29 30 32 37 0
2 4 6 7 8 10 12 14 16 17 18 19 21 30 31 33 38 0
1 3 5 7 8 9 11 13 15 17 18 19 20 22 31 32 34 0
1 2 4 6 8 9 10 12 14 16 18 19 21 23 32 33 35 0
1 2 3 5 7 9 10 11 13 15 17 19 22 24 33 34 36 0
1 2 3 4 6 8 10 11 12 14 16 18 23 25 34 35 37 0
2 3 4 5 7 9 11 12 13 15 17 19 24 26 35 36 38 0
1 3 4 5 6 8 10 12 13 14 16 18 20 25 27 36 37 0
2 4 5 6 7 9 11 13 14 15 17 19 21 26 28 37 38 0
1 3 5 6 7 8 10 12 14 15 16 18 20 22 27 29 38 0
2 4 6 7 8 9 11 13 15 16 17 19 20 21 23 28 30 0
1 3 5 7 8 9 10 12 14 16 17 18 21 22 24 29 31 0
2 3 4 6 8 10 11 12 13 15 17 19 27 29 34 36 37 0
1 3 4 5 7 9 11 12 13 14 16 18 28 30 35 37 38 0
2 4 5 6 8 10 12 13 14 15 17 19 20 29 31 36 38 0
1 3 5 6 7 9 11 13 14 15 16 18 20 21 30 32 37 0
2 4 6 7 8 10 12 14 15 16 17 19 21 22 31 33 38 0
1 3 5 7 8 9 11 13 15 16 17 18 20 22 23 32 34 0
2 4 6 8 9 10 12 14 16 17 18 19 21 23 24 33 35 0
1 3 5 7 9 10 11 13 15 17 18 19 22 24 25 34 36 0
1 2 4 6 8 10 11 12 14 16 18 19 23 25 26 35 37 0
1 2 3 5 7 9 11 12 13 15 17 19 24 26 27 36 38 0
1 2 3 4 6 8 10 12 13 14 16 18 20 25 27 28 37 0
2 3 4 5 7 9 11 13 14 15 17 19 21 26 28 29 38 0
1 3 4 5 6 8 10 12 14 15 16 18 20 22 27 29 30 0
2 4 5 6 7 9 11 13 15 16 17 19 21 23 28 30 31 0
1 3 5 6 7 8 10 12 14 16 17 18 22 24 29 31 32 0
2 4 6 7 8 9 11 13 15 17 18 19 23 25 30 32 33 0
1 3 5 7 8 9 10 12 14 16 18 19 24 26 31 33 34 0
1 2 4 6 8 9 10 11 13 15 17 19 25 27 32 34 35 0
1 2 3 5 7 9 10 11 12 14 16 18 26 28 33 35 36 0
2 5 8 11 12 13 19 22 23 25 26 27 28 29 33 37 0
1 3 6 9 12 13 14 23 24 26 27 28 29 30 34 38 0
2 4 7 10 13 14 15 20 24 25 27 28 29 30 31 35 0
3 5 8 11 14 15 16 21 25 26 28 29 30 31 32 36 0
4 6 9 12 15 16 17 22 26 27 29 30 31 32 33 37 0
5 7 10 13 16 17 18 23 27 28 30 31 32 33 34 38 0
6 8 11 14 17 18 19 20 24 28 29 31 32 33 34 35 0
1 7 9 12 15 18 19 21 25 29 30 32 33 34 35 36 0
1 2 8 10 13 16 19 22 26 30 31 33 34 35 36 37 0
1 2 3 9 11 14 17 23 27 31 32 34 35 36 37 38 0
2 3 4 10 12 15 18 20 24 28 32 33 35 36 37 38 0
3 4 5 11 13 16 19 20 21 25 29 33 34 36 37 38 0
1 4 5 6 12 14 17 20 21 22 26 30 34 35 37 38 0
2 5 6 7 13 15 18 20 21 22 23 27 31 35 36 38 0
3 6 7 8 14 16 19 20 21 22 23 24 28 32 36 37 0
1 4 7 8 9 15 17 21 22 23 24 25 29 33 37 38 0
2 5 8 9 10 16 18 20 22 23 24 25 26 30 34 38 0
3 6 9 10 11 17 19 20 21 23 24 25 26 27 31 35 0
1 4 7 10 11 12 18 21 22 24 25 26 27 28 32 36 0
2 8 9 10 13 16 19 22 26 30 31 32 33 34 36 37 0
1 3 9 10 11 14 17 23 27 31 32 33 34 35 37 38 0
2 4 10 11 12 15 18 20 24 28 32 33 34 35 36 38 0
3 5 11 12 13 16 19 20 21 25 29 33 34 35 36 37 0
1 4 6 12 13 14 17 21 22 26 30 34 35 36 37 38 0
2 5 7 13 14 15 18 20 22 23 27 31 35 36 37 38 0
3 6 8 14 15 16 19 20 21 23 24 28 32 36 37 38 0
1 4 7 9 15 16 17 20 21 22 24 25 29 33 37 38 0
2 5 8 10 16 17 18 20 21 22 23 25 26 30 34 38 0
3 6 9 11 17 18 19 20 21 22 23 24 26 27 31 35 0
1 4 7 10 12 18 19 21 22 23 24 25 27 28 32 36 0
1 2 5 8 11 13 19 22 23 24 25 26 28 29 33 37 0
1 2 3 6 9 12 14 23 24 25 26 27 29 30 34 38 0
2 3 4 7 10 13 15 20 24 25 26 27 28 30 31 35 0
3 4 5 8 11 14 16 21 25 26 27 28 29 31 32 36 0
4 5 6 9 12 15 17 22 26 27 28 29 30 32 33 37 0
5 6 7 10 13 16 18 23 27 28 29 30 31 33 34 38 0
6 7 8 11 14 17 19 20 24 28 29 30 31 32 34 35 0
1 7 8 9 12 15 18 21 25 29 30 31 32 33 35 36 0
2 5 7 10 12 13 14 16 17 19 21 22 23 27 28 29 31 37 0
1 3 6 8 11 13 14 15 17 18 22 23 24 28 29 30 32 38 0
2 4 7 9 12 14 15 16 18 19 20 23 24 25 29 30 31 33 0
1 3 5 8 10 13 15 16 17 19 21 24 25 26 30 31 32 34 0
1 2 4 6 9 11 14 16 17 18 22 25 26 27 31 32 33 35 0
2 3 5 7 10 12 15 17 18 19 23 26 27 28 32 33 34 36 0
1 3 4 6 8 11 13 16 18 19 24 27 28 29 33 34 35 37 0
1 2 4 5 7 9 12 14 17 19 25 28 29 30 34 35 36 38 0
1 2 3 5 6 8 10 13 15 18 20 26 29 30 31 35 36 37 0
2 3 4 6 7 9 11 14 16 19 21 27 30 31 32 36 37 38 0
1 3 4 5 7 8 10 12 15 17 20 22 28 31 32 33 37 38 0
2 4 5 6 8 9 11 13 16 18 20 21 23 29 32 33 34 38 0
3 5 6 7 9 10 12 14 17 19 20 21 22 24 30 33 34 35 0
1 4 6 7 8 10 11 13 15 18 21 22 23 25 31 34 35 36 0
2 5 7 8 9 11 12 14 16 19 22 23 24 26 32 35 36 37 0
1 3 6 8 9 10 12 13 15 17 23 24 25 27 33 36 37 38 0
2 4 7 9 10 11 13 14 16 18 20 24 25 26 28 34 37 38 0
3 5 8 10 11 12 14 15 17 19 20 21 25 26 27 29 35 38 0
1 4 6 9 11 12 13 15 16 18 20 21 22 26 27 28 30 36 0
2 4 5 7 8 9 11 14 16 19 22 28 30 31 32 36 37 38 0
1 3 5 6 8 9 10 12 15 17 20 23 29 31 32 33 37 38 0
2 4 6 7 9 10 11 13 16 18 20 21 24 30 32 33 34 38 0
3 5 7 8 10 11 12 14 17 19 20 21 22 25 31 33 34 35 0
1 4 6 8 9 11 12 13 15 18 21 22 23 26 32 34 35 36 0
2 5 7 9 10 12 13 14 16 19 22 23 24 27 33 35 36 37 0
1 3 6 8 10 11 13 14 15 17 23 24 25 28 34 36 37 38 0
2 4 7 9 11 12 14 15 16 18 20 24 25 26 29 35 37 38 0
3 5 8 10 12 13 15 16 17 19 20 21 25 26 27 30 36 38 0
1 4 6 9 11 13 14 16 17 18 20 21 22 26 27 28 31 37 0
2 5 7 10 12 14 15 17 18 19 21 22 23 27 28 29 32 38 0
1 3 6 8 11 13 15 16 18 19 20 22 23 24 28 29 30 33 0
1 2 4 7 9 12 14 16 17 19 21 23 24 25 29 30 31 34 0
1 2 3 5 8 10 13 15 17 18 22 24 25 26 30 31 32 35 0
2 3 4 6 9 11 14 16 18 19 23 25 26 27 31 32 33 36 0
1 3 4 5 7 10 12 15 17 19 24 26 27 28 32 33 34 37 0
1 2 4 5 6 8 11 13 16 18 25 27 28 29 33 34 35 38 0
2 3 5 6 7 9 12 14 17 19 20 26 28 29 30 34 35 36 0
1 3 4 6 7 8 10 13 15 18 21 27 29 30 31 35 36 37 0
2 4 6 7 9 10 12 14 16 18 19 21 22 23 31 32 33 0
1 3 5 7 8 10 11 13 15 17 19 22 23 24 32 33 34 0
1 2 4 6 8 9 11 12 14 16 18 23 24 25 33 34 35 0
2 3 5 7 9 10 12 13 15 17 19 24 25 26 34 35 36 0
1 3 4 6 8 10 11 13 14 16 18 25 26 27 35 36 37 0
2 4 5 7 9 11 12 14 15 17 19 26 27 28 36 37 38 0
1 3 5 6 8 10 12 13 15 16 18 20 27 28 29 37 38 0
2 4 6 7 9 11 13 14 16 17 19 20 21 28 29 30 38 0
1 3 5 7 8 10 12 14 15 17 18 20 21 22 29 30 31 0
2 4 6 8 9 11 13 15 16 18 19 21 22 23 30 31 32 0
1 3 5 7 9 10 12 14 16 17 19 22 23 24 31 32 33 0
1 2 4 6 8 10 11 13 15 17 18 23 24 25 32 33 34 0
2 3 5 7 9 11 12 14 16 18 19 24 25 26 33 34 35 0
1 3 4 6 8 10 12 13 15 17 19 25 26 27 34 35 36 0
1 2 4 5 7 9 11 13 14 16 18 26 27 28 35 36 37 0
2 3 5 6 8 10 12 14 15 17 19 27 28 29 36 37 38 0
1 3 4 6 7 9 11 13 15 16 18 20 28 29 30 37 38 0
2 4 5 7 8 10 12 14 16 17 19 20 21 29 30 31 38 0
1 3 5 6 8 9 11 13 15 17 18 20 21 22 30 31 32 0
2 3 5 7 9 11 12 14 15 17 19 26 27 28 36 37 38 0
1 3 4 6 8 10 12 13 15 16 18 20 27 28 29 37 38 0
2 4 5 7 9 11 13 14 16 17 19 20 21 28 29 30 38 0
1 3 5 6 8 10 12 14 15 17 18 20 21 22 29 30 31 0
2 4 6 7 9 11 13 15 16 18 19 21 22 23 30 31 32 0
1 3 5 7 8 10 12 14 16 17 19 22 23 24 31 32 33 0
1 2 4 6 8 9 11 13 15 17 18 23 24 25 32 33 34 0
2 3 5 7 9 10 12 14 16 18 19 24 25 26 33 34 35 0
1 3 4 6 8 10 11 13 15 17 19 25 26 27 34 35 36 0
1 2 4 5 7 9 11 12 14 16 18 26 27 28 35 36 37 0
2 3 5 6 8 10 12 13 15 17 19 27 28 29 36 37 38 0
1 3 4 6 7 9 11 13 14 16 18 20 28 29 30 37 38 0
2 4 5 7 8 10 12 14 15 17 19 20 21 29 30 31 38 0
1 3 5 6 8 9 11 13 15 16 18 20 21 22 30 31 32 0
2 4 6 7 9 10 12 14 16 17 19 21 22 23 31 32 33 0
1 3 5 7 8 10 11 13 15 17 18 22 23 24 32 33 34 0
2 4 6 8 9 11 12 14 16 18 19 23 24 25 33 34 35 0
1 3 5 7 9 10 12 13 15 17 19 24 25 26 34 35 36 0
1 2 4 6 8 10 11 13 14 16 18 25 26 27 35 36 37 0
2 4 6 7 8 10 12 13 14 16 19 22 23 29 31 36 37 0
1 3 5 7 8 9 11 13 14 15 17 23 24 30 32 37 38 0
2 4 6 8 9 10 12 14 15 16 18 20 24 25 31 33 38 0
3 5 7 9 10 11 13 15 16 17 19 20 21 25 26 32 34 0
1 4 6 8 10 11 12 14 16 17 18 21 22 26 27 33 35 0
2 5 7 9 11 12 13 15 17 18 19 22 23 27 28 34 36 0
1 3 6 8 10 12 13 14 16 18 19 23 24 28 29 35 37 0
1 2 4 7 9 11 13 14 15 17 19 24 25 29 30 36 38 0
1 2 3 5 8 10 12 14 15 16 18 20 25 26 30 31 37 0
2 3 4 6 9 11 13 15 16 17 19 21 26 27 31 32 38 0
1 3 4 5 7 10 12 14 16 17 18 20 22 27 28 32 33 0
2 4 5 6 8 11 13 15 17 18 19 21 23 28 29 33 34 0
1 3 5 6 7 9 12 14 16 18 19 22 24 29 30 34 35 0
1 2 4 6 7 8 10 13 15 17 19 23 25 30 31 35 36 0
1 2 3 5 7 8 9 11 14 16 18 24 26 31 32 36 37 0
2 3 4 6 8 9 10 12 15 17 19 25 27 32 33 37 38 0
1 3 4 5 7 9 10 11 13 16 18 20 26 28 33 34 38 0
2 4 5 6 8 10 11 12 14 17 19 20 21 27 29 34 35 0
1 3 5 6 7 9 11 12 13 15 18 21 22 28 30 35 36 0
2 5 7 8 9 11 13 14 15 17 19 22 23 28 30 36 37 0
1 3 6 8 9 10 12 14 15 16 18 23 24 29 31 37 38 0
2 4 7 9 10 11 13 15 16 17 19 20 24 25 30 32 38 0
1 3 5 8 10 11 12 14 16 17 18 20 21 25 26 31 33 0
2 4 6 9 11 12 13 15 17 18 19 21 22 26 27 32 34 0
1 3 5 7 10 12 13 14 16 18 19 22 23 27 28 33 35 0
1 2 4 6 8 11 13 14 15 17 19 23 24 28 29 34 36 0
1 2 3 5 7 9 12 14 15 16 18 24 25 29 30 35 37 0
2 3 4 6 8 10 13 15 16 17 19 25 26 30 31 36 38 0
1 3 4 5 7 9 11 14 16 17 18 20 26 27 31 32 37 0
2 4 5 6 8 10 12 15 17 18 19 21 27 28 32 33 38 0
1 3 5 6 7 9 11 13 16 18 19 20 22 28 29 33 34 0
1 2 4 6 7 8 10 12 14 17 19 21 23 29 30 34 35 0
1 2 3 5 7 8 9 11 13 15 18 22 24 30 31 35 36 0
2 3 4 6 8 9 10 12 14 16 19 23 25 31 32 36 37 0
1 3 4 5 7 9 10 11 13 15 17 24 26 32 33 37 38 0
2 4 5 6 8 10 11 12 14 16 18 20 25 27 33 34 38 0
3 5 6 7 9 11 12 13 15 17 19 20 21 26 28 34 35 0
1 4 6 7 8 10 12 13 14 16 18 21 22 27 29 35 36 0
2 4 6 7 9 10 12 13 18 19 22 23 27 29 32 33 36 0
1 3 5 7 8 10 11 13 14 19 23 24 28 30 33 34 37 0
1 2 4 6 8 9 11 12 14 15 24 25 29 31 34 35 38 0
2 3 5 7 9 10 12 13 15 16 20 25 26 30 32 35 36 0
3 4 6 8 10 11 13 14 16 17 21 26 27 31 33 36 37 0
4 5 7 9 11 12 14 15 17 18 22 27 28 32 34 37 38 0
5 6 8 10 12 13 15 16 18 19 20 23 28 29 33 35 38 0
1 6 7 9 11 13 14 16 17 19 20 21 24 29 30 34 36 0
1 2 7 8 10 12 14 15 17 18 21 22 25 30 31 35 37 0
2 3 8 9 11 13 15 16 18 19 22 23 26 31 32 36 38 0
1 3 4 9 10 12 14 16 17 19 20 23 24 27 32 33 37 0
1 2 4 5 10 11 13 15 17 18 21 24 25 28 33 34 38 0
2 3 5 6 11 12 14 16 18 19 20 22 25 26 29 34 35 0
1 3 4 6 7 12 13 15 17 19 21 23 26 27 30 35 36 0
1 2 4 5 7 8 13 14 16 18 22 24 27 28 31 36 37 0
2 3 5 6 8 9 14 15 17 19 23 25 28 29 32 37 38 0
1 3 4 6 7 9 10 15 16 18 20 24 26 29 30 33 38 0
2 4 5 7 8 10 11 16 17 19 20 21 25 27 30 31 34 0
1 3 5 6 8 9 11 12 17 18 21 22 26 28 31 32 35 0
2 3 8 9 11 12 14 15 17 19 23 26 27 30 32 36 37 0
1 3 4 9 10 12 13 15 16 18 24 27 28 31 33 37 38 0
2 4 5 10 11 13 14 16 17 19 20 25 28 29 32 34 38 0
1 3 5 6 11 12 14 15 17 18 20 21 26 29 30 33 35 0
2 4 6 7 12 13 15 16 18 19 21 22 27 30 31 34 36 0
1 3 5 7 8 13 14 16 17 19 22 23 28 31 32 35 37 0
1 2 4 6 8 9 14 15 17 18 23 24 29 32 33 36 38 0
2 3 5 7 9 10 15 16 18 19 20 24 25 30 33 34 37 0
1 3 4 6 8 10 11 16 17 19 21 25 26 31 34 35 38 0
1 2 4 5 7 9 11 12 17 18 20 22 26 27 32 35 36 0
2 3 5 6 8 10 12 13 18 19 21 23 27 28 33 36 37 0
1 3 4 6 7 9 11 13 14 19 22 24 28 29 34 37 38 0
1 2 4 5 7 8 10 12 14 15 20 23 25 29 30 35 38 0
2 3 5 6 8 9 11 13 15 16 20 21 24 26 30 31 36 0
3 4 6 7 9 10 12 14 16 17 21 22 25 27 31 32 37 0
4 5 7 8 10 11 13 15 17 18 22 23 26 28 32 33 38 0
5 6 8 9 11 12 14 16 18 19 20 23 24 27 29 33 34 0
1 6 7 9 10 12 13 15 17 19 21 24 25 28 30 34 35 0
1 2 7 8 10 11 13 14 16 18 22 25 26 29 31 35 36 0
2 5 7 10 12 13 15 17 19 21 22 23 27 28 29 37 38 0
1 3 6 8 11 13 14 16 18 20 22 23 24 28 29 30 38 0
2 4 7 9 12 14 15 17 19 20 21 23 24 25 29 30 31 0
1 3 5 8 10 13 15 16 18 21 22 24 25 26 30 31 32 0
2 4 6 9 11 14 16 17 19 22 23 25 26 27 31 32 33 0
1 3 5 7 10 12 15 17 18 23 24 26 27 28 32 33 34 0
2 4 6 8 11 13 16 18 19 24 25 27 28 29 33 34 35 0
1 3 5 7 9 12 14 17 19 25 26 28 29 30 34 35 36 0
1 2 4 6 8 10 13 15 18 26 27 29 30 31 35 36 37 0
2 3 5 7 9 11 14 16 19 27 28 30 31 32 36 37 38 0
1 3 4 6 8 10 12 15 17 20 28 29 31 32 33 37 38 0
2 4 5 7 9 11 13 16 18 20 21 29 30 32 33 34 38 0
3 5 6 8 10 12 14 17 19 20 21 22 30 31 33 34 35 0
1 4 6 7 9 11 13 15 18 21 22 23 31 32 34 35 36 0
2 5 7 8 10 12 14 16 19 22 23 24 32 33 35 36 37 0
1 3 6 8 9 11 13 15 17 23 24 25 33 34 36 37 38 0
2 4 7 9 10 12 14 16 18 20 24 25 26 34 35 37 38 0
3 5 8 10 11 13 15 17 19 20 21 25 26 27 35 36 38 0
1 4 6 9 11 12 14 16 18 20 21 22 26 27 28 36 37 0
2 4 6 8 9 11 14 16 19 21 22 30 31 32 36 37 38 0
1 3 5 7 9 10 12 15 17 20 22 23 31 32 33 37 38 0
2 4 6 8 10 11 13 16 18 20 21 23 24 32 33 34 38 0
3 5 7 9 11 12 14 17 19 20 21 22 24 25 33 34 35 0
1 4 6 8 10 12 13 15 18 21 22 23 25 26 34 35 36 0
2 5 7 9 11 13 14 16 19 22 23 24 26 27 35 36 37 0
1 3 6 8 10 12 14 15 17 23 24 25 27 28 36 37 38 0
2 4 7 9 11 13 15 16 18 20 24 25 26 28 29 37 38 0
3 5 8 10 12 14 16 17 19 20 21 25 26 27 29 30 38 0
1 4 6 9 11 13 15 17 18 20 21 22 26 27 28 30 31 0
2 5 7 10 12 14 16 18 19 21 22 23 27 28 29 31 32 0
1 3 6 8 11 13 15 17 19 22 23 24 28 29 30 32 33 0
1 2 4 7 9 12 14 16 18 23 24 25 29 30 31 33 34 0
2 3 5 8 10 13 15 17 19 24 25 26 30 31 32 34 35 0
1 3 4 6 9 11 14 16 18 25 26 27 31 32 33 35 36 0
2 4 5 7 10 12 15 17 19 26 27 28 32 33 34 36 37 0
1 3 5 6 8 11 13 16 18 27 28 29 33 34 35 37 38 0
2 4 6 7 9 12 14 17 19 20 28 29 30 34 35 36 38 0
1 3 5 7 8 10 13 15 18 20 21 29 30 31 35 36 37 0
2 4 6 7 9 10 12 14 15 16 18 19 22 27 29 31 32 36 38 0
1 3 5 7 8 10 11 13 15 16 17 19 20 23 28 30 32 33 37 0
1 2 4 6 8 9 11 12 14 16 17 18 21 24 29 31 33 34 38 0
2 3 5 7 9 10 12 13 15 17 18 19 20 22 25 30 32 34 35 0
1 3 4 6 8 10 11 13 14 16 18 19 21 23 26 31 33 35 36 0
1 2 4 5 7 9 11 12 14 15 17 19 22 24 27 32 34 36 37 0
1 2 3 5 6 8 10 12 13 15 16 18 23 25 28 33 35 37 38 0
2 3 4 6 7 9 11 13 14 16 17 19 20 24 26 29 34 36 38 0
1 3 4 5 7 8 10 12 14 15 17 18 20 21 25 27 30 35 37 0
2 4 5 6 8 9 11 13 15 16 18 19 21 22 26 28 31 36 38 0
1 3 5 6 7 9 10 12 14 16 17 19 20 22 23 27 29 32 37 0
1 2 4 6 7 8 10 11 13 15 17 18 21 23 24 28 30 33 38 0
2 3 5 7 8 9 11 12 14 16 18 19 20 22 24 25 29 31 34 0
1 3 4 6 8 9 10 12 13 15 17 19 21 23 25 26 30 32 35 0
1 2 4 5 7 9 10 11 13 14 16 18 22 24 26 27 31 33 36 0
2 3 5 6 8 10 11 12 14 15 17 19 23 25 27 28 32 34 37 0
1 3 4 6 7 9 11 12 13 15 16 18 24 26 28 29 33 35 38 0
2 4 5 7 8 10 12 13 14 16 17 19 20 25 27 29 30 34 36 0
1 3 5 6 8 9 11 13 14 15 17 18 21 26 28 30 31 35 37 0
2 3 5 6 7 9 11 12 14 15 17 19 21 23 27 28 30 32 37 0
1 3 4 6 7 8 10 12 13 15 16 18 22 24 28 29 31 33 38 0
2 4 5 7 8 9 11 13 14 16 17 19 20 23 25 29 30 32 34 0
1 3 5 6 8 9 10 12 14 15 17 18 21 24 26 30 31 33 35 0
2 4 6 7 9 10 11 13 15 16 18 19 22 25 27 31 32 34 36 0
1 3 5 7 8 10 11 12 14 16 17 19 23 26 28 32 33 35 37 0
1 2 4 6 8 9 11 12 13 15 17 18 24 27 29 33 34 36 38 0
2 3 5 7 9 10 12 13 14 16 18 19 20 25 28 30 34 35 37 0
1 3 4 6 8 10 11 13 14 15 17 19 21 26 29 31 35 36 38 0
1 2 4 5 7 9 11 12 14 15 16 18 20 22 27 30 32 36 37 0
2 3 5 6 8 10 12 13 15 16 17 19 21 23 28 31 33 37 38 0
1 3 4 6 7 9 11 13 14 16 17 18 20 22 24 29 32 34 38 0
2 4 5 7 8 10 12 14 15 17 18 19 20 21 23 25 30 33 35 0
1 3 5 6 8 9 11 13 15 16 18 19 21 22 24 26 31 34 36 0
1 2 4 6 7 9 10 12 14 16 17 19 22 23 25 27 32 35 37 0
1 2 3 5 7 8 10 11 13 15 17 18 23 24 26 28 33 36 38 0
2 3 4 6 8 9 11 12 14 16 18 19 20 24 25 27 29 34 37 0
1 3 4 5 7 9 10 12 13 15 17 19 21 25 26 28 30 35 38 0
1 2 4 5 6 8 10 11 13 14 16 18 20 22 26 27 29 31 36 0
2 5 7 10 12 13 15 16 18 19 22 23 25 27 28 31 38 0
1 3 6 8 11 13 14 16 17 19 20 23 24 26 28 29 32 0
1 2 4 7 9 12 14 15 17 18 21 24 25 27 29 30 33 0
2 3 5 8 10 13 15 16 18 19 22 25 26 28 30 31 34 0
1 3 4 6 9 11 14 16 17 19 23 26 27 29 31 32 35 0
1 2 4 5 7 10 12 15 17 18 24 27 28 30 32 33 36 0
2 3 5 6 8 11 13 16 18 19 25 28 29 31 33 34 37 0
1 3 4 6 7 9 12 14 17 19 26 29 30 32 34 35 38 0
1 2 4 5 7 8 10 13 15 18 20 27 30 31 33 35 36 0
2 3 5 6 8 9 11 14 16 19 21 28 31 32 34 36 37 0
1 3 4 6 7 9 10 12 15 17 22 29 32 33 35 37 38 0
2 4 5 7 8 10 11 13 16 18 20 23 30 33 34 36 38 0
3 5 6 8 9 11 12 14 17 19 20 21 24 31 34 35 37 0
1 4 6 7 9 10 12 13 15 18 21 22 25 32 35 36 38 0
2 5 7 8 10 11 13 14 16 19 20 22 23 26 33 36 37 0
1 3 6 8 9 11 12 14 15 17 21 23 24 27 34 37 38 0
2 4 7 9 10 12 13 15 16 18 20 22 24 25 28 35 38 0
3 5 8 10 11 13 14 16 17 19 20 21 23 25 26 29 36 0
1 4 6 9 11 12 14 15 17 18 21 22 24 26 27 30 37 0
2 4 6 7 8 10 11 13 14 16 18 19 22 29 31 34 36 38 0
1 3 5 7 8 9 11 12 14 15 17 19 20 23 30 32 35 37 0
1 2 4 6 8 9 10 12 13 15 16 18 21 24 31 33 36 38 0
2 3 5 7 9 10 11 13 14 16 17 19 20 22 25 32 34 37 0
1 3 4 6 8 10 11 12 14 15 17 18 21 23 26 33 35 38 0
2 4 5 7 9 11 12 13 15 16 18 19 20 22 24 27 34 36 0
1 3 5 6 8 10 12 13 14 16 17 19 21 23 25 28 35 37 0
1 2 4 6 7 9 11 13 14 15 17 18 22 24 26 29 36 38 0
2 3 5 7 8 10 12 14 15 16 18 19 20 23 25 27 30 37 0
1 3 4 6 8 9 11 13 15 16 17 19 21 24 26 28 31 38 0
1 2 4 5 7 9 10 12 14 16 17 18 20 22 25 27 29 32 0
2 3 5 6 8 10 11 13 15 17 18 19 21 23 26 28 30 33 0
1 3 4 6 7 9 11 12 14 16 18 19 22 24 27 29 31 34 0
1 2 4 5 7 8 10 12 13 15 17 19 23 25 28 30 32 35 0
1 2 3 5 6 8 9 11 13 14 16 18 24 26 29 31 33 36 0
2 3 4 6 7 9 10 12 14 15 17 19 25 27 30 32 34 37 0
1 3 4 5 7 8 10 11 13 15 16 18 26 28 31 33 35 38 0
2 4 5 6 8 9 11 12 14 16 17 19 20 27 29 32 34 36 0
1 3 5 6 7 9 10 12 13 15 17 18 21 28 30 33 35 37 0
2 3 5 7 8 10 11 13 14 15 17 19 21 23 25 28 30 37 0
1 3 4 6 8 9 11 12 14 15 16 18 22 24 26 29 31 38 0
2 4 5 7 9 10 12 13 15 16 17 19 20 23 25 27 30 32 0
1 3 5 6 8 10 11 13 14 16 17 18 21 24 26 28 31 33 0
2 4 6 7 9 11 12 14 15 17 18 19 22 25 27 29 32 34 0
1 3 5 7 8 10 12 13 15 16 18 19 23 26 28 30 33 35 0
1 2 4 6 8 9 11 13 14 16 17 19 24 27 29 31 34 36 0
1 2 3 5 7 9 10 12 14 15 17 18 25 28 30 32 35 37 0
2 3 4 6 8 10 11 13 15 16 18 19 26 29 31 33 36 38 0
1 3 4 5 7 9 11 12 14 16 17 19 20 27 30 32 34 37 0
1 2 4 5 6 8 10 12 13 15 17 18 21 28 31 33 35 38 0
2 3 5 6 7 9 11 13 14 16 18 19 20 22 29 32 34 36 0
1 3 4 6 7 8 10 12 14 15 17 19 21 23 30 33 35 37 0
1 2 4 5 7 8 9 11 13 15 16 18 22 24 31 34 36 38 0
2 3 5 6 8 9 10 12 14 16 17 19 20 23 25 32 35 37 0
1 3 4 6 7 9 10 11 13 15 17 18 21 24 26 33 36 38 0
2 4 5 7 8 10 11 12 14 16 18 19 20 22 25 27 34 37 0
1 3 5 6 8 9 11 12 13 15 17 19 21 23 26 28 35 38 0
1 2 4 6 7 9 10 12 13 14 16 18 20 22 24 27 29 36 0
2 5 6 7 8 13 14 15 16 19 21 22 23 28 31 36 37 38 0
1 3 6 7 8 9 14 15 16 17 20 22 23 24 29 32 37 38 0
2 4 7 8 9 10 15 16 17 18 20 21 23 24 25 30 33 38 0
3 5 8 9 10 11 16 17 18 19 20 21 22 24 25 26 31 34 0
1 4 6 9 10 11 12 17 18 19 21 22 23 25 26 27 32 35 0
1 2 5 7 10 11 12 13 18 19 22 23 24 26 27 28 33 36 0
1 2 3 6 8 11 12 13 14 19 23 24 25 27 28 29 34 37 0
1 2 3 4 7 9 12 13 14 15 24 25 26 28 29 30 35 38 0
2 3 4 5 8 10 13 14 15 16 20 25 26 27 29 30 31 36 0
3 4 5 6 9 11 14 15 16 17 21 26 27 28 30 31 32 37 0
4 5 6 7 10 12 15 16 17 18 22 27 28 29 31 32 33 38 0
5 6 7 8 11 13 16 17 18 19 20 23 28 29 30 32 33 34 0
1 6 7 8 9 12 14 17 18 19 21 24 29 30 31 33 34 35 0
1 2 7 8 9 10 13 15 18 19 22 25 30 31 32 34 35 36 0
1 2 3 8 9 10 11 14 16 19 23 26 31 32 33 35 36 37 0
1 2 3 4 9 10 11 12 15 17 24 27 32 33 34 36 37 38 0
2 3 4 5 10 11 12 13 16 18 20 25 28 33 34 35 37 38 0
3 4 5 6 11 12 13 14 17 19 20 21 26 29 34 35 36 38 0
1 4 5 6 7 12 13 14 15 18 20 21 22 27 30 35 36 37 0
2 5 6 8 9 11 13 15 17 18 19 21 22 23 28 30 0
1 3 6 7 9 10 12 14 16 18 19 22 23 24 29 31 0
1 2 4 7 8 10 11 13 15 17 19 23 24 25 30 32 0
1 2 3 5 8 9 11 12 14 16 18 24 25 26 31 33 0
2 3 4 6 9 10 12 13 15 17 19 25 26 27 32 34 0
1 3 4 5 7 10 11 13 14 16 18 26 27 28 33 35 0
2 4 5 6 8 11 12 14 15 17 19 27 28 29 34 36 0
1 3 5 6 7 9 12 13 15 16 18 28 29 30 35 37 0
2 4 6 7 8 10 13 14 16 17 19 29 30 31 36 38 0
1 3 5 7 8 9 11 14 15 17 18 20 30 31 32 37 0
2 4 6 8 9 10 12 15 16 18 19 21 31 32 33 38 0
1 3 5 7 9 10 11 13 16 17 19 20 22 32 33 34 0
1 2 4 6 8 10 11 12 14 17 18 21 23 33 34 35 0
2 3 5 7 9 11 12 13 15 18 19 22 24 34 35 36 0
1 3 4 6 8 10 12 13 14 16 19 23 25 35 36 37 0
1 2 4 5 7 9 11 13 14 15 17 24 26 36 37 38 0
2 3 5 6 8 10 12 14 15 16 18 20 25 27 37 38 0
3 4 6 7 9 11 13 15 16 17 19 20 21 26 28 38 0
1 4 5 7 8 10 12 14 16 17 18 20 21 22 27 29 0
2 3 4 6 8 10 12 13 15 16 19 29 31 36 37 38 0
1 3 4 5 7 9 11 13 14 16 17 20 30 32 37 38 0
2 4 5 6 8 10 12 14 15 17 18 20 21 31 33 38 0
3 5 6 7 9 11 13 15 16 18 19 20 21 22 32 34 0
1 4 6 7 8 10 12 14 16 17 19 21 22 23 33 35 0
1 2 5 7 8 9 11 13 15 17 18 22 23 24 34 36 0
2 3 6 8 9 10 12 14 16 18 19 23 24 25 35 37 0
1 3 4 7 9 10 11 13 15 17 19 24 25 26 36 38 0
1 2 4 5 8 10 11 12 14 16 18 20 25 26 27 37 0
2 3 5 6 9 11 12 13 15 17 19 21 26 27 28 38 0
1 3 4 6 7 10 12 13 14 16 18 20 22 27 28 29 0
2 4 5 7 8 11 13 14 15 17 19 21 23 28 29 30 0
1 3 5 6 8 9 12 14 15 16 18 22 24 29 30 31 0
2 4 6 7 9 10 13 15 16 17 19 23 25 30 31 32 0
1 3 5 7 8 10 11 14 16 17 18 24 26 31 32 33 0
2 4 6 8 9 11 12 15 17 18 19 25 27 32 33 34 0
1 3 5 7 9 10 12 13 16 18 19 26 28 33 34 35 0
1 2 4 6 8 10 11 13 14 17 19 27 29 34 35 36 0
1 2 3 5 7 9 11 12 14 15 18 28 30 35 36 37 0
2 5 6 9 11 14 16 19 21 22 23 26 27 28 31 32 36 37 0
1 3 6 7 10 12 15 17 22 23 24 27 28 29 32 33 37 38 0
2 4 7 8 11 13 16 18 20 23 24 25 28 29 30 33 34 38 0
3 5 8 9 12 14 17 19 20 21 24 25 26 29 30 31 34 35 0
1 4 6 9 10 13 15 18 21 22 25 26 27 30 31 32 35 36 0
2 5 7 10 11 14 16 19 22 23 26 27 28 31 32 33 36 37 0
1 3 6 8 11 12 15 17 23 24 27 28 29 32 33 34 37 38 0
2 4 7 9 12 13 16 18 20 24 25 28 29 30 33 34 35 38 0
3 5 8 10 13 14 17 19 20 21 25 26 29 30 31 34 35 36 0
1 4 6 9 11 14 15 18 21 22 26 27 30 31 32 35 36 37 0
2 5 7 10 12 15 16 19 22 23 27 28 31 32 33 36 37 38 0
1 3 6 8 11 13 16 17 20 23 24 28 29 32 33 34 37 38 0
2 4 7 9 12 14 17 18 20 21 24 25 29 30 33 34 35 38 0
3 5 8 10 13 15 18 19 20 21 22 25 26 30 31 34 35 36 0
1 4 6 9 11 14 16 19 21 22 23 26 27 31 32 35 36 37 0
1 2 5 7 10 12 15 17 22 23 24 27 28 32 33 36 37 38 0
2 3 6 8 11 13 16 18 20 23 24 25 28 29 33 34 37 38 0
3 4 7 9 12 14 17 19 20 21 24 25 26 29 30 34 35 38 0
1 4 5 8 10 13 15 18 20 21 22 25 26 27 30 31 35 36 0
3 4 5 8 10 11 12 21 25 26 27 28 32 0
4 5 6 9 11 12 13 22 26 27 28 29 33 0
5 6 7 10 12 13 14 23 27 28 29 30 34 0
6 7 8 11 13 14 15 24 28 29 30 31 35 0
7 8 9 12 14 15 16 25 29 30 31 32 36 0
8 9 10 13 15 16 17 26 30 31 32 33 37 0
9 10 11 14 16 17 18 27 31 32 33 34 38 0
10 11 12 15 17 18 19 20 28 32 33 34 35 0
1 11 12 13 16 18 19 21 29 33 34 35 36 0
1 2 12 13 14 17 19 22 30 34 35 36 37 0
1 2 3 13 14 15 18 23 31 35 36 37 38 0
2 3 4 14 15 16 19 20 24 32 36 37 38 0
1 3 4 5 15 16 17 20 21 25 33 37 38 0
2 4 5 6 16 17 18 20 21 22 26 34 38 0
3 5 6 7 17 18 19 20 21 22 23 27 35 0
1 4 6 7 8 18 19 21 22 23 24 28 36 0
1 2 5 7 8 9 19 22 23 24 25 29 37 0
1 2 3 6 8 9 10 23 24 25 26 30 38 0
2 3 4 7 9 10 11 20 24 25 26 27 31 0
9 10 11 13 16 17 18 27 31 32 33 34 38 0
10 11 12 14 17 18 19 20 28 32 33 34 35 0
1 11 12 13 15 18 19 21 29 33 34 35 36 0
1 2 12 13 14 16 19 22 30 34 35 36 37 0
1 2 3 13 14 15 17 23 31 35 36 37 38 0
2 3 4 14 15 16 18 20 24 32 36 37 38 0
3 4 5 15 16 17 19 20 21 25 33 37 38 0
1 4 5 6 16 17 18 20 21 22 26 34 38 0
2 5 6 7 17 18 19 20 21 22 23 27 35 0
1 3 6 7 8 18 19 21 22 23 24 28 36 0
1 2 4 7 8 9 19 22 23 24 25 29 37 0
1 2 3 5 8 9 10 23 24 25 26 30 38 0
2 3 4 6 9 10 11 20 24 25 26 27 31 0
3 4 5 7 10 11 12 21 25 26 27 28 32 0
4 5 6 8 11 12 13 22 26 27 28 29 33 0
5 6 7 9 12 13 14 23 27 28 29 30 34 0
6 7 8 10 13 14 15 24 28 29 30 31 35 0
7 8 9 11 14 15 16 25 29 30 31 32 36 0
8 9 10 12 15 16 17 26 30 31 32 33 37 0
3 4 5 8 11 13 15 16 17 21 25 26 27 28 29 30 31 37 0
4 5 6 9 12 14 16 17 18 22 26 27 28 29 30 31 32 38 0
5 6 7 10 13 15 17 18 19 20 23 27 28 29 30 31 32 33 0
1 6 7 8 11 14 16 18 19 21 24 28 29 30 31 32 33 34 0
1 2 7 8 9 12 15 17 19 22 25 29 30 31 32 33 34 35 0
1 2 3 8 9 10 13 16 18 23 26 30 31 32 33 34 35 36 0
2 3 4 9 10 11 14 17 19 24 27 31 32 33 34 35 36 37 0
1 3 4 5 10 11 12 15 18 25 28 32 33 34 35 36 37 38 0
2 4 5 6 11 12 13 16 19 20 26 29 33 34 35 36 37 38 0
1 3 5 6 7 12 13 14 17 20 21 27 30 34 35 36 37 38 0
2 4 6 7 8 13 14 15 18 20 21 22 28 31 35 36 37 38 0
3 5 7 8 9 14 15 16 19 20 21 22 23 29 32 36 37 38 0
1 4 6 8 9 10 15 16 17 20 21 22 23 24 30 33 37 38 0
2 5 7 9 10 11 16 17 18 20 21 22 23 24 25 31 34 38 0
3 6 8 10 11 12 17 18 19 20 21 22 23 24 25 26 32 35 0
1 4 7 9 11 12 13 18 19 21 22 23 24 25 26 27 33 36 0
1 2 5 8 10 12 13 14 19 22 23 24 25 26 27 28 34 37 0
1 2 3 6 9 11 13 14 15 23 24 25 26 27 28 29 35 38 0
2 3 4 7 10 12 14 15 16 20 24 25 26 27 28 29 30 36 0
4 5 6 8 10 13 16 17 18 22 28 29 30 31 32 33 34 38 0
5 6 7 9 11 14 17 18 19 20 23 29 30 31 32 33 34 35 0
1 6 7 8 10 12 15 18 19 21 24 30 31 32 33 34 35 36 0
1 2 7 8 9 11 13 16 19 22 25 31 32 33 34 35 36 37 0
1 2 3 8 9 10 12 14 17 23 26 32 33 34 35 36 37 38 0
2 3 4 9 10 11 13 15 18 20 24 27 33 34 35 36 37 38 0
3 4 5 10 11 12 14 16 19 20 21 25 28 34 35 36 37 38 0
1 4 5 6 11 12 13 15 17 20 21 22 26 29 35 36 37 38 0
2 5 6 7 12 13 14 16 18 20 21 22 23 27 30 36 37 38 0
3 6 7 8 13 14 15 17 19 20 21 22 23 24 28 31 37 38 0
1 4 7 8 9 14 15 16 18 20 21 22 23 24 25 29 32 38 0
2 5 8 9 10 15 16 17 19 20 21 22 23 24 25 26 30 33 0
1 3 6 9 10 11 16 17 18 21 22 23 24 25 26 27 31 34 0
2 4 7 10 11 12 17 18 19 22 23 24 25 26 27 28 32 35 0
1 3 5 8 11 12 13 18 19 23 24 25 26 27 28 29 33 36 0
1 2 4 6 9 12 13 14 19 24 25 26 27 28 29 30 34 37 0
1 2 3 5 7 10 13 14 15 25 26 27 28 29 30 31 35 38 0
2 3 4 6 8 11 14 15 16 20 26 27 28 29 30 31 32 36 0
3 4 5 7 9 12 15 16 17 21 27 28 29 30 31 32 33 37 0
3 4 5 7 10 12 14 15 17 21 27 28 29 30 36 37 0
4 5 6 8 11 13 15 16 18 22 28 29 30 31 37 38 0
5 6 7 9 12 14 16 17 19 20 23 29 30 31 32 38 0
1 6 7 8 10 13 15 17 18 20 21 24 30 31 32 33 0
2 7 8 9 11 14 16 18 19 21 22 25 31 32 33 34 0
1 3 8 9 10 12 15 17 19 22 23 26 32 33 34 35 0
1 2 4 9 10 11 13 16 18 23 24 27 33 34 35 36 0
2 3 5 10 11 12 14 17 19 24 25 28 34 35 36 37 0
1 3 4 6 11 12 13 15 18 25 26 29 35 36 37 38 0
2 4 5 7 12 13 14 16 19 20 26 27 30 36 37 38 0
1 3 5 6 8 13 14 15 17 20 21 27 28 31 37 38 0
2 4 6 7 9 14 15 16 18 20 21 22 28 29 32 38 0
3 5 7 8 10 15 16 17 19 20 21 22 23 29 30 33 0
1 4 6 8 9 11 16 17 18 21 22 23 24 30 31 34 0
2 5 7 9 10 12 17 18 19 22 23 24 25 31 32 35 0
1 3 6 8 10 11 13 18 19 23 24 25 26 32 33 36 0
1 2 4 7 9 11 12 14 19 24 25 26 27 33 34 37 0
1 2 3 5 8 10 12 13 15 25 26 27 28 34 35 38 0
2 3 4 6 9 11 13 14 16 20 26 27 28 29 35 36 0
4 6 7 9 11 14 16 17 18 22 23 29 30 31 32 38 0
5 7 8 10 12 15 17 18 19 20 23 24 30 31 32 33 0
1 6 8 9 11 13 16 18 19 21 24 25 31 32 33 34 0
1 2 7 9 10 12 14 17 19 22 25 26 32 33 34 35 0
1 2 3 8 10 11 13 15 18 23 26 27 33 34 35 36 0
2 3 4 9 11 12 14 16 19 24 27 28 34 35 36 37 0
1 3 4 5 10 12 13 15 17 25 28 29 35 36 37 38 0
2 4 5 6 11 13 14 16 18 20 26 29 30 36 37 38 0
3 5 6 7 12 14 15 17 19 20 21 27 30 31 37 38 0
1 4 6 7 8 13 15 16 18 20 21 22 28 31 32 38 0
2 5 7 8 9 14 16 17 19 20 21 22 23 29 32 33 0
1 3 6 8 9 10 15 17 18 21 22 23 24 30 33 34 0
2 4 7 9 10 11 16 18 19 22 23 24 25 31 34 35 0
1 3 5 8 10 11 12 17 19 23 24 25 26 32 35 36 0
1 2 4 6 9 11 12 13 18 24 25 26 27 33 36 37 0
2 3 5 7 10 12 13 14 19 25 26 27 28 34 37 38 0
1 3 4 6 8 11 13 14 15 20 26 27 28 29 35 38 0
2 4 5 7 9 12 14 15 16 20 21 27 28 29 30 36 0
3 5 6 8 10 13 15 16 17 21 22 28 29 30 31 37 0
2 4 5 7 9 10 11 13 15 17 18 19 22 25 28 34 36 38 0
1 3 5 6 8 10 11 12 14 16 18 19 20 23 26 29 35 37 0
1 2 4 6 7 9 11 12 13 15 17 19 21 24 27 30 36 38 0
1 2 3 5 7 8 10 12 13 14 16 18 20 22 25 28 31 37 0
2 3 4 6 8 9 11 13 14 15 17 19 21 23 26 29 32 38 0
1 3 4 5 7 9 10 12 14 15 16 18 20 22 24 27 30 33 0
2 4 5 6 8 10 11 13 15 16 17 19 21 23 25 28 31 34 0
1 3 5 6 7 9 11 12 14 16 17 18 22 24 26 29 32 35 0
2 4 6 7 8 10 12 13 15 17 18 19 23 25 27 30 33 36 0
1 3 5 7 8 9 11 13 14 16 18 19 24 26 28 31 34 37 0
1 2 4 6 8 9 10 12 14 15 17 19 25 27 29 32 35 38 0
1 2 3 5 7 9 10 11 13 15 16 18 20 26 28 30 33 36 0
2 3 4 6 8 10 11 12 14 16 17 19 21 27 29 31 34 37 0
1 3 4 5 7 9 11 12 13 15 17 18 22 28 30 32 35 38 0
2 4 5 6 8 10 12 13 14 16 18 19 20 23 29 31 33 36 0
1 3 5 6 7 9 11 13 14 15 17 19 21 24 30 32 34 37 0
1 2 4 6 7 8 10 12 14 15 16 18 22 25 31 33 35 38 0
2 3 5 7 8 9 11 13 15 16 17 19 20 23 26 32 34 36 0
1 3 4 6 8 9 10 12 14 16 17 18 21 24 27 33 35 37 0
2 3 4 6 8 10 11 12 14 16 17 19 21 23 25 31 34 37 0
1 3 4 5 7 9 11 12 13 15 17 18 22 24 26 32 35 38 0
2 4 5 6 8 10 12 13 14 16 18 19 20 23 25 27 33 36 0
1 3 5 6 7 9 11 13 14 15 17 19 21 24 26 28 34 37 0
1 2 4 6 7 8 10 12 14 15 16 18 22 25 27 29 35 38 0
2 3 5 7 8 9 11 13 15 16 17 19 20 23 26 28 30 36 0
1 3 4 6 8 9 10 12 14 16 17 18 21 24 27 29 31 37 0
2 4 5 7 9 10 11 13 15 17 18 19 22 25 28 30 32 38 0
1 3 5 6 8 10 11 12 14 16 18 19 20 23 26 29 31 33 0
1 2 4 6 7 9 11 12 13 15 17 19 21 24 27 30 32 34 0
1 2 3 5 7 8 10 12 13 14 16 18 22 25 28 31 33 35 0
2 3 4 6 8 9 11 13 14 15 17 19 23 26 29 32 34 36 0
1 3 4 5 7 9 10 12 14 15 16 18 24 27 30 33 35 37 0
2 4 5 6 8 10 11 13 15 16 17 19 25 28 31 34 36 38 0
1 3 5 6 7 9 11 12 14 16 17 18 20 26 29 32 35 37 0
2 4 6 7 8 10 12 13 15 17 18 19 21 27 30 33 36 38 0
1 3 5 7 8 9 11 13 14 16 18 19 20 22 28 31 34 37 0
1 2 4 6 8 9 10 12 14 15 17 19 21 23 29 32 35 38 0
1 2 3 5 7 9 10 11 13 15 16 18 20 22 24 30 33 36 0
2 4 6 7 9 11 13 14 15 17 18 19 22 29 32 34 36 38 0
1 3 5 7 8 10 12 14 15 16 18 19 20 23 30 33 35 37 0
1 2 4 6 8 9 11 13 15 16 17 19 21 24 31 34 36 38 0
1 2 3 5 7 9 10 12 14 16 17 18 20 22 25 32 35 37 0
2 3 4 6 8 10 11 13 15 17 18 19 21 23 26 33 36 38 0
1 3 4 5 7 9 11 12 14 16 18 19 20 22 24 27 34 37 0
1 2 4 5 6 8 10 12 13 15 17 19 21 23 25 28 35 38 0
1 2 3 5 6 7 9 11 13 14 16 18 20 22 24 26 29 36 0
2 3 4 6 7 8 10 12 14 15 17 19 21 23 25 27 30 37 0
1 3 4 5 7 8 9 11 13 15 16 18 22 24 26 28 31 38 0
2 4 5 6 8 9 10 12 14 16 17 19 20 23 25 27 29 32 0
1 3 5 6 7 9 10 11 13 15 17 18 21 24 26 28 30 33 0
2 4 6 7 8 10 11 12 14 16 18 19 22 25 27 29 31 34 0
1 3 5 7 8 9 11 12 13 15 17 19 23 26 28 30 32 35 0
1 2 4 6 8 9 10 12 13 14 16 18 24 27 29 31 33 36 0
2 3 5 7 9 10 11 13 14 15 17 19 25 28 30 32 34 37 0
1 3 4 6 8 10 11 12 14 15 16 18 26 29 31 33 35 38 0
2 4 5 7 9 11 12 13 15 16 17 19 20 27 30 32 34 36 0
1 3 5 6 8 10 12 13 14 16 17 18 21 28 31 33 35 37 0
2 8 9 11 14 16 19 21 22 26 29 31 32 34 36 37 0
1 3 9 10 12 15 17 22 23 27 30 32 33 35 37 38 0
2 4 10 11 13 16 18 20 23 24 28 31 33 34 36 38 0
3 5 11 12 14 17 19 20 21 24 25 29 32 34 35 37 0
1 4 6 12 13 15 18 21 22 25 26 30 33 35 36 38 0
2 5 7 13 14 16 19 20 22 23 26 27 31 34 36 37 0
1 3 6 8 14 15 17 21 23 24 27 28 32 35 37 38 0
2 4 7 9 15 16 18 20 22 24 25 28 29 33 36 38 0
3 5 8 10 16 17 19 20 21 23 25 26 29 30 34 37 0
1 4 6 9 11 17 18 21 22 24 26 27 30 31 35 38 0
2 5 7 10 12 18 19 20 22 23 25 27 28 31 32 36 0
1 3 6 8 11 13 19 21 23 24 26 28 29 32 33 37 0
1 2 4 7 9 12 14 22 24 25 27 29 30 33 34 38 0
2 3 5 8 10 13 15 20 23 25 26 28 30 31 34 35 0
3 4 6 9 11 14 16 21 24 26 27 29 31 32 35 36 0
4 5 7 10 12 15 17 22 25 27 28 30 32 33 36 37 0
5 6 8 11 13 16 18 23 26 28 29 31 33 34 37 38 0
6 7 9 12 14 17 19 20 24 27 29 30 32 34 35 38 0
1 7 8 10 13 15 18 20 21 25 28 30 31 33 35 36 0
2 5 7 10 12 13 19 22 23 25 27 28 30 33 37 38 0
1 3 6 8 11 13 14 20 23 24 26 28 29 31 34 38 0
2 4 7 9 12 14 15 20 21 24 25 27 29 30 32 35 0
3 5 8 10 13 15 16 21 22 25 26 28 30 31 33 36 0
4 6 9 11 14 16 17 22 23 26 27 29 31 32 34 37 0
5 7 10 12 15 17 18 23 24 27 28 30 32 33 35 38 0
6 8 11 13 16 18 19 20 24 25 28 29 31 33 34 36 0
1 7 9 12 14 17 19 21 25 26 29 30 32 34 35 37 0
1 2 8 10 13 15 18 22 26 27 30 31 33 35 36 38 0
2 3 9 11 14 16 19 20 23 27 28 31 32 34 36 37 0
1 3 4 10 12 15 17 21 24 28 29 32 33 35 37 38 0
2 4 5 11 13 16 18 20 22 25 29 30 33 34 36 38 0
3 5 6 12 14 17 19 20 21 23 26 30 31 34 35 37 0
1 4 6 7 13 15 18 21 22 24 27 31 32 35 36 38 0
2 5 7 8 14 16 19 20 22 23 25 28 32 33 36 37 0
1 3 6 8 9 15 17 21 23 24 26 29 33 34 37 38 0
2 4 7 9 10 16 18 20 22 24 25 27 30 34 35 38 0
3 5 8 10 11 17 19 20 21 23 25 26 28 31 35 36 0
1 4 6 9 11 12 18 21 22 24 26 27 29 32 36 37 0
2 4 6 7 9 12 14 15 17 19 27 29 30 32 36 38 0
1 3 5 7 8 10 13 15 16 18 20 28 30 31 33 37 0
2 4 6 8 9 11 14 16 17 19 21 29 31 32 34 38 0
1 3 5 7 9 10 12 15 17 18 20 22 30 32 33 35 0
2 4 6 8 10 11 13 16 18 19 21 23 31 33 34 36 0
1 3 5 7 9 11 12 14 17 19 22 24 32 34 35 37 0
1 2 4 6 8 10 12 13 15 18 23 25 33 35 36 38 0
2 3 5 7 9 11 13 14 16 19 20 24 26 34 36 37 0
1 3 4 6 8 10 12 14 15 17 21 25 27 35 37 38 0
2 4 5 7 9 11 13 15 16 18 20 22 26 28 36 38 0
3 5 6 8 10 12 14 16 17 19 20 21 23 27 29 37 0
1 4 6 7 9 11 13 15 17 18 21 22 24 28 30 38 0
2 5 7 8 10 12 14 16 18 19 20 22 23 25 29 31 0
1 3 6 8 9 11 13 15 17 19 21 23 24 26 30 32 0
1 2 4 7 9 10 12 14 16 18 22 24 25 27 31 33 0
2 3 5 8 10 11 13 15 17 19 23 25 26 28 32 34 0
1 3 4 6 9 11 12 14 16 18 24 26 27 29 33 35 0
2 4 5 7 10 12 13 15 17 19 25 27 28 30 34 36 0
1 3 5 6 8 11 13 14 16 18 26 28 29 31 35 37 0
2 4 6 7 9 12 14 15 17 19 21 23 27 29 30 32 0
1 3 5 7 8 10 13 15 16 18 22 24 28 30 31 33 0
2 4 6 8 9 11 14 16 17 19 23 25 29 31 32 34 0
1 3 5 7 9 10 12 15 17 18 24 26 30 32 33 35 0
2 4 6 8 10 11 13 16 18 19 25 27 31 33 34 36 0
1 3 5 7 9 11 12 14 17 19 26 28 32 34 35 37 0
1 2 4 6 8 10 12 13 15 18 27 29 33 35 36 38 0
2 3 5 7 9 11 13 14 16 19 20 28 30 34 36 37 0
1 3 4 6 8 10 12 14 15 17 21 29 31 35 37 38 0
2 4 5 7 9 11 13 15 16 18 20 22 30 32 36 38 0
3 5 6 8 10 12 14 16 17 19 20 21 23 31 33 37 0
1 4 6 7 9 11 13 15 17 18 21 22 24 32 34 38 0
2 5 7 8 10 12 14 16 18 19 20 22 23 25 33 35 0
1 3 6 8 9 11 13 15 17 19 21 23 24 26 34 36 0
1 2 4 7 9 10 12 14 16 18 22 24 25 27 35 37 0
2 3 5 8 10 11 13 15 17 19 23 25 26 28 36 38 0
1 3 4 6 9 11 12 14 16 18 20 24 26 27 29 37 0
2 4 5 7 10 12 13 15 17 19 21 25 27 28 30 38 0
1 3 5 6 8 11 13 14 16 18 20 22 26 28 29 31 0
2 3 5 7 8 11 14 16 18 19 21 26 28 29 31 32 33 34 0
1 3 4 6 8 9 12 15 17 19 22 27 29 30 32 33 34 35 0
1 2 4 5 7 9 10 13 16 18 23 28 30 31 33 34 35 36 0
2 3 5 6 8 10 11 14 17 19 24 29 31 32 34 35 36 37 0
1 3 4 6 7 9 11 12 15 18 25 30 32 33 35 36 37 38 0
2 4 5 7 8 10 12 13 16 19 20 26 31 33 34 36 37 38 0
1 3 5 6 8 9 11 13 14 17 20 21 27 32 34 35 37 38 0
2 4 6 7 9 10 12 14 15 18 20 21 22 28 33 35 36 38 0
3 5 7 8 10 11 13 15 16 19 20 21 22 23 29 34 36 37 0
1 4 6 8 9 11 12 14 16 17 21 22 23 24 30 35 37 38 0
2 5 7 9 10 12 13 15 17 18 20 22 23 24 25 31 36 38 0
3 6 8 10 11 13 14 16 18 19 20 21 23 24 25 26 32 37 0
1 4 7 9 11 12 14 15 17 19 21 22 24 25 26 27 33 38 0
1 2 5 8 10 12 13 15 16 18 20 22 23 25 26 27 28 34 0
2 3 6 9 11 13 14 16 17 19 21 23 24 26 27 28 29 35 0
1 3 4 7 10 12 14 15 17 18 22 24 25 27 28 29 30 36 0
2 4 5 8 11 13 15 16 18 19 23 25 26 28 29 30 31 37 0
1 3 5 6 9 12 14 16 17 19 24 26 27 29 30 31 32 38 0
1 2 4 6 7 10 13 15 17 18 20 25 27 28 30 31 32 33 0
2 3 5 7 10 13 14 16 18 19 25 26 27 28 30 31 33 38 0
1 3 4 6 8 11 14 15 17 19 20 26 27 28 29 31 32 34 0
1 2 4 5 7 9 12 15 16 18 21 27 28 29 30 32 33 35 0
2 3 5 6 8 10 13 16 17 19 22 28 29 30 31 33 34 36 0
1 3 4 6 7 9 11 14 17 18 23 29 30 31 32 34 35 37 0
2 4 5 7 8 10 12 15 18 19 24 30 31 32 33 35 36 38 0
1 3 5 6 8 9 11 13 16 19 20 25 31 32 33 34 36 37 0
1 2 4 6 7 9 10 12 14 17 21 26 32 33 34 35 37 38 0
2 3 5 7 8 10 11 13 15 18 20 22 27 33 34 35 36 38 0
3 4 6 8 9 11 12 14 16 19 20 21 23 28 34 35 36 37 0
1 4 5 7 9 10 12 13 15 17 21 22 24 29 35 36 37 38 0
2 5 6 8 10 11 13 14 16 18 20 22 23 25 30 36 37 38 0
3 6 7 9 11 12 14 15 17 19 20 21 23 24 26 31 37 38 0
1 4 7 8 10 12 13 15 16 18 20 21 22 24 25 27 32 38 0
2 5 8 9 11 13 14 16 17 19 20 21 22 23 25 26 28 33 0
1 3 6 9 10 12 14 15 17 18 21 22 23 24 26 27 29 34 0
2 4 7 10 11 13 15 16 18 19 22 23 24 25 27 28 30 35 0
1 3 5 8 11 12 14 16 17 19 23 24 25 26 28 29 31 36 0
1 2 4 6 9 12 13 15 17 18 24 25 26 27 29 30 32 37 0
5 6 9 11 14 16 17 23 26 27 28 29 31 32 34 37 0
6 7 10 12 15 17 18 24 27 28 29 30 32 33 35 38 0
7 8 11 13 16 18 19 20 25 28 29 30 31 33 34 36 0
1 8 9 12 14 17 19 21 26 29 30 31 32 34 35 37 0
1 2 9 10 13 15 18 22 27 30 31 32 33 35 36 38 0
2 3 10 11 14 16 19 20 23 28 31 32 33 34 36 37 0
1 3 4 11 12 15 17 21 24 29 32 33 34 35 37 38 0
2 4 5 12 13 16 18 20 22 25 30 33 34 35 36 38 0
3 5 6 13 14 17 19 20 21 23 26 31 34 35 36 37 0
1 4 6 7 14 15 18 21 22 24 27 32 35 36 37 38 0
2 5 7 8 15 16 19 20 22 23 25 28 33 36 37 38 0
1 3 6 8 9 16 17 20 21 23 24 26 29 34 37 38 0
2 4 7 9 10 17 18 20 21 22 24 25 27 30 35 38 0
3 5 8 10 11 18 19 20 21 22 23 25 26 28 31 36 0
1 4 6 9 11 12 19 21 22 23 24 26 27 29 32 37 0
1 2 5 7 10 12 13 22 23 24 25 27 28 30 33 38 0
2 3 6 8 11 13 14 20 23 24 25 26 28 29 31 34 0
3 4 7 9 12 14 15 21 24 25 26 27 29 30 32 35 0
4 5 8 10 13 15 16 22 25 26 27 28 30 31 33 36 0
4 5 7 10 12 15 16 22 25 27 28 30 31 32 33 36 0
5 6 8 11 13 16 17 23 26 28 29 31 32 33 34 37 0
6 7 9 12 14 17 18 24 27 29 30 32 33 34 35 38 0
7 8 10 13 15 18 19 20 25 28 30 31 33 34 35 36 0
1 8 9 11 14 16 19 21 26 29 31 32 34 35 36 37 0
1 2 9 10 12 15 17 22 27 30 32 33 35 36 37 38 0
2 3 10 11 13 16 18 20 23 28 31 33 34 36 37 38 0
3 4 11 12 14 17 19 20 21 24 29 32 34 35 37 38 0
1 4 5 12 13 15 18 20 21 22 25 30 33 35 36 38 0
2 5 6 13 14 16 19 20 21 22 23 26 31 34 36 37 0
1 3 6 7 14 15 17 21 22 23 24 27 32 35 37 38 0
2 4 7 8 15 16 18 20 22 23 24 25 28 33 36 38 0
3 5 8 9 16 17 19 20 21 23 24 25 26 29 34 37 0
1 4 6 9 10 17 18 21 22 24 25 26 27 30 35 38 0
2 5 7 10 11 18 19 20 22 23 25 26 27 28 31 36 0
1 3 6 8 11 12 19 21 23 24 26 27 28 29 32 37 0
1 2 4 7 9 12 13 22 24 25 27 28 29 30 33 38 0
2 3 5 8 10 13 14 20 23 25 26 28 29 30 31 34 0
3 4 6 9 11 14 15 21 24 26 27 29 30 31 32 35 0
3 5 7 10 12 14 16 18 21 26 27 28 29 31 33 34 36 38 0
4 6 8 11 13 15 17 19 20 22 27 28 29 30 32 34 35 37 0
1 5 7 9 12 14 16 18 21 23 28 29 30 31 33 35 36 38 0
2 6 8 10 13 15 17 19 20 22 24 29 30 31 32 34 36 37 0
1 3 7 9 11 14 16 18 21 23 25 30 31 32 33 35 37 38 0
2 4 8 10 12 15 17 19 20 22 24 26 31 32 33 34 36 38 0
1 3 5 9 11 13 16 18 20 21 23 25 27 32 33 34 35 37 0
2 4 6 10 12 14 17 19 21 22 24 26 28 33 34 35 36 38 0
1 3 5 7 11 13 15 18 20 22 23 25 27 29 34 35 36 37 0
2 4 6 8 12 14 16 19 21 23 24 26 28 30 35 36 37 38 0
1 3 5 7 9 13 15 17 20 22 24 25 27 29 31 36 37 38 0
2 4 6 8 10 14 16 18 20 21 23 25 26 28 30 32 37 38 0
3 5 7 9 11 15 17 19 20 21 22 24 26 27 29 31 33 38 0
1 4 6 8 10 12 16 18 20 21 22 23 25 27 28 30 32 34 0
2 5 7 9 11 13 17 19 21 22 23 24 26 28 29 31 33 35 0
1 3 6 8 10 12 14 18 22 23 24 25 27 29 30 32 34 36 0
2 4 7 9 11 13 15 19 23 24 25 26 28 30 31 33 35 37 0
1 3 5 8 10 12 14 16 24 25 26 27 29 31 32 34 36 38 0
2 4 6 9 11 13 15 17 20 25 26 27 28 30 32 33 35 37 0
3 5 7 9 11 14 16 18 21 23 25 26 28 30 31 32 33 38 0
4 6 8 10 12 15 17 19 20 22 24 26 27 29 31 32 33 34 0
1 5 7 9 11 13 16 18 21 23 25 27 28 30 32 33 34 35 0
2 6 8 10 12 14 17 19 22 24 26 28 29 31 33 34 35 36 0
1 3 7 9 11 13 15 18 23 25 27 29 30 32 34 35 36 37 0
2 4 8 10 12 14 16 19 24 26 28 30 31 33 35 36 37 38 0
1 3 5 9 11 13 15 17 20 25 27 29 31 32 34 36 37 38 0
2 4 6 10 12 14 16 18 20 21 26 28 30 32 33 35 37 38 0
3 5 7 11 13 15 17 19 20 21 22 27 29 31 33 34 36 38 0
1 4 6 8 12 14 16 18 20 21 22 23 28 30 32 34 35 37 0
2 5 7 9 13 15 17 19 21 22 23 24 29 31 33 35 36 38 0
1 3 6 8 10 14 16 18 20 22 23 24 25 30 32 34 36 37 0
2 4 7 9 11 15 17 19 21 23 24 25 26 31 33 35 37 38 0
1 3 5 8 10 12 16 18 20 22 24 25 26 27 32 34 36 38 0
2 4 6 9 11 13 17 19 20 21 23 25 26 27 28 33 35 37 0
1 3 5 7 10 12 14 18 21 22 24 26 27 28 29 34 36 38 0
2 4 6 8 11 13 15 19 20 22 23 25 27 28 29 30 35 37 0
1 3 5 7 9 12 14 16 21 23 24 26 28 29 30 31 36 38 0
2 4 6 8 10 13 15 17 20 22 24 25 27 29 30 31 32 37 0
3 5 7 10 12 14 15 17 18 21 26 27 28 29 34 36 37 38 0
4 6 8 11 13 15 16 18 19 20 22 27 28 29 30 35 37 38 0
1 5 7 9 12 14 16 17 19 20 21 23 28 29 30 31 36 38 0
1 2 6 8 10 13 15 17 18 20 21 22 24 29 30 31 32 37 0
2 3 7 9 11 14 16 18 19 21 22 23 25 30 31 32 33 38 0
1 3 4 8 10 12 15 17 19 20 22 23 24 26 31 32 33 34 0
1 2 4 5 9 11 13 16 18 21 23 24 25 27 32 33 34 35 0
2 3 5 6 10 12 14 17 19 22 24 25 26 28 33 34 35 36 0
1 3 4 6 7 11 13 15 18 23 25 26 27 29 34 35 36 37 0
2 4 5 7 8 12 14 16 19 24 26 27 28 30 35 36 37 38 0
1 3 5 6 8 9 13 15 17 20 25 27 28 29 31 36 37 38 0
2 4 6 7 9 10 14 16 18 20 21 26 28 29 30 32 37 38 0
3 5 7 8 10 11 15 17 19 20 21 22 27 29 30 31 33 38 0
1 4 6 8 9 11 12 16 18 20 21 22 23 28 30 31 32 34 0
2 5 7 9 10 12 13 17 19 21 22 23 24 29 31 32 33 35 0
1 3 6 8 10 11 13 14 18 22 23 24 25 30 32 33 34 36 0
2 4 7 9 11 12 14 15 19 23 24 25 26 31 33 34 35 37 0
1 3 5 8 10 12 13 15 16 24 25 26 27 32 34 35 36 38 0
2 4 6 9 11 13 14 16 17 20 25 26 27 28 33 35 36 37 0
3 4 6 7 9 11 14 16 18 21 22 23 25 30 31 32 33 38 0
4 5 7 8 10 12 15 17 19 20 22 23 24 26 31 32 33 34 0
1 5 6 8 9 11 13 16 18 21 23 24 25 27 32 33 34 35 0
2 6 7 9 10 12 14 17 19 22 24 25 26 28 33 34 35 36 0
1 3 7 8 10 11 13 15 18 23 25 26 27 29 34 35 36 37 0
2 4 8 9 11 12 14 16 19 24 26 27 28 30 35 36 37 38 0
1 3 5 9 10 12 13 15 17 20 25 27 28 29 31 36 37 38 0
2 4 6 10 11 13 14 16 18 20 21 26 28 29 30 32 37 38 0
3 5 7 11 12 14 15 17 19 20 21 22 27 29 30 31 33 38 0
1 4 6 8 12 13 15 16 18 20 21 22 23 28 30 31 32 34 0
2 5 7 9 13 14 16 17 19 21 22 23 24 29 31 32 33 35 0
1 3 6 8 10 14 15 17 18 22 23 24 25 30 32 33 34 36 0
2 4 7 9 11 15 16 18 19 23 24 25 26 31 33 34 35 37 0
1 3 5 8 10 12 16 17 19 24 25 26 27 32 34 35 36 38 0
1 2 4 6 9 11 13 17 18 20 25 26 27 28 33 35 36 37 0
2 3 5 7 10 12 14 18 19 21 26 27 28 29 34 36 37 38 0
1 3 4 6 8 11 13 15 19 20 22 27 28 29 30 35 37 38 0
1 2 4 5 7 9 12 14 16 20 21 23 28 29 30 31 36 38 0
2 3 5 6 8 10 13 15 17 20 21 22 24 29 30 31 32 37 0
3 5 7 8 11 13 15 17 18 21 23 28 29 30 37 38 0
4 6 8 9 12 14 16 18 19 20 22 24 29 30 31 38 0
1 5 7 9 10 13 15 17 19 20 21 23 25 30 31 32 0
1 2 6 8 10 11 14 16 18 21 22 24 26 31 32 33 0
2 3 7 9 11 12 15 17 19 22 23 25 27 32 33 34 0
1 3 4 8 10 12 13 16 18 23 24 26 28 33 34 35 0
2 4 5 9 11 13 14 17 19 24 25 27 29 34 35 36 0
1 3 5 6 10 12 14 15 18 25 26 28 30 35 36 37 0
2 4 6 7 11 13 15 16 19 26 27 29 31 36 37 38 0
1 3 5 7 8 12 14 16 17 20 27 28 30 32 37 38 0
2 4 6 8 9 13 15 17 18 20 21 28 29 31 33 38 0
3 5 7 9 10 14 16 18 19 20 21 22 29 30 32 34 0
1 4 6 8 10 11 15 17 19 21 22 23 30 31 33 35 0
1 2 5 7 9 11 12 16 18 22 23 24 31 32 34 36 0
2 3 6 8 10 12 13 17 19 23 24 25 32 33 35 37 0
1 3 4 7 9 11 13 14 18 24 25 26 33 34 36 38 0
2 4 5 8 10 12 14 15 19 20 25 26 27 34 35 37 0
1 3 5 6 9 11 13 15 16 21 26 27 28 35 36 38 0
2 4 6 7 10 12 14 16 17 20 22 27 28 29 36 37 0
3 4 6 8 10 13 14 16 18 21 22 29 30 31 36 38 0
4 5 7 9 11 14 15 17 19 20 22 23 30 31 32 37 0
1 5 6 8 10 12 15 16 18 21 23 24 31 32 33 38 0
2 6 7 9 11 13 16 17 19 20 22 24 25 32 33 34 0
1 3 7 8 10 12 14 17 18 21 23 25 26 33 34 35 0
2 4 8 9 11 13 15 18 19 22 24 26 27 34 35 36 0
1 3 5 9 10 12 14 16 19 23 25 27 28 35 36 37 0
1 2 4 6 10 11 13 15 17 24 26 28 29 36 37 38 0
2 3 5 7 11 12 14 16 18 20 25 27 29 30 37 38 0
3 4 6 8 12 13 15 17 19 20 21 26 28 30 31 38 0
1 4 5 7 9 13 14 16 18 20 21 22 27 29 31 32 0
2 5 6 8 10 14 15 17 19 21 22 23 28 30 32 33 0
1 3 6 7 9 11 15 16 18 22 23 24 29 31 33 34 0
2 4 7 8 10 12 16 17 19 23 24 25 30 32 34 35 0
1 3 5 8 9 11 13 17 18 24 25 26 31 33 35 36 0
2 4 6 9 10 12 14 18 19 25 26 27 32 34 36 37 0
1 3 5 7 10 11 13 15 19 26 27 28 33 35 37 38 0
1 2 4 6 8 11 12 14 16 20 27 28 29 34 36 38 0
2 3 5 7 9 12 13 15 17 20 21 28 29 30 35 37 0
3 4 5 7 8 11 13 16 18 21 28 29 30 31 33 34 36 37 38 0
4 5 6 8 9 12 14 17 19 20 22 29 30 31 32 34 35 37 38 0
1 5 6 7 9 10 13 15 18 20 21 23 30 31 32 33 35 36 38 0
2 6 7 8 10 11 14 16 19 20 21 22 24 31 32 33 34 36 37 0
1 3 7 8 9 11 12 15 17 21 22 23 25 32 33 34 35 37 38 0
2 4 8 9 10 12 13 16 18 20 22 23 24 26 33 34 35 36 38 0
3 5 9 10 11 13 14 17 19 20 21 23 24 25 27 34 35 36 37 0
1 4 6 10 11 12 14 15 18 21 22 24 25 26 28 35 36 37 38 0
2 5 7 11 12 13 15 16 19 20 22 23 25 26 27 29 36 37 38 0
1 3 6 8 12 13 14 16 17 20 21 23 24 26 27 28 30 37 38 0
2 4 7 9 13 14 15 17 18 20 21 22 24 25 27 28 29 31 38 0
3 5 8 10 14 15 16 18 19 20 21 22 23 25 26 28 29 30 32 0
1 4 6 9 11 15 16 17 19 21 22 23 24 26 27 29 30 31 33 0
1 2 5 7 10 12 16 17 18 22 23 24 25 27 28 30 31 32 34 0
2 3 6 8 11 13 17 18 19 23 24 25 26 28 29 31 32 33 35 0
1 3 4 7 9 12 14 18 19 24 25 26 27 29 30 32 33 34 36 0
1 2 4 5 8 10 13 15 19 25 26 27 28 30 31 33 34 35 37 0
1 2 3 5 6 9 11 14 16 26 27 28 29 31 32 34 35 36 38 0
2 3 4 6 7 10 12 15 17 20 27 28 29 30 32 33 35 36 37 0
3 5 8 10 13 14 16 17 18 21 22 23 25 26 28 29 30 31 38 0
4 6 9 11 14 15 17 18 19 20 22 23 24 26 27 29 30 31 32 0
1 5 7 10 12 15 16 18 19 21 23 24 25 27 28 30 31 32 33 0
1 2 6 8 11 13 16 17 19 22 24 25 26 28 29 31 32 33 34 0
1 2 3 7 9 12 14 17 18 23 25 26 27 29 30 32 33 34 35 0
2 3 4 8 10 13 15 18 19 24 26 27 28 30 31 33 34 35 36 0
1 3 4 5 9 11 14 16 19 25 27 28 29 31 32 34 35 36 37 0
1 2 4 5 6 10 12 15 17 26 28 29 30 32 33 35 36 37 38 0
2 3 5 6 7 11 13 16 18 20 27 29 30 31 33 34 36 37 38 0
3 4 6 7 8 12 14 17 19 20 21 28 30 31 32 34 35 37 38 0
1 4 5 7 8 9 13 15 18 20 21 22 29 31 32 33 35 36 38 0
2 5 6 8 9 10 14 16 19 20 21 22 23 30 32 33 34 36 37 0
1 3 6 7 9 10 11 15 17 21 22 23 24 31 33 34 35 37 38 0
2 4 7 8 10 11 12 16 18 20 22 23 24 25 32 34 35 36 38 0
3 5 8 9 11 12 13 17 19 20 21 23 24 25 26 33 35 36 37 0
1 4 6 9 10 12 13 14 18 21 22 24 25 26 27 34 36 37 38 0
2 5 7 10 11 13 14 15 19 20 22 23 25 26 27 28 35 37 38 0
1 3 6 8 11 12 14 15 16 20 21 23 24 26 27 28 29 36 38 0
2 4 7 9 12 13 15 16 17 20 21 22 24 25 27 28 29 30 37 0
3 4 5 7 9 11 13 15 17 18 21 28 29 30 37 38 0
4 5 6 8 10 12 14 16 18 19 20 22 29 30 31 38 0
1 5 6 7 9 11 13 15 17 19 20 21 23 30 31 32 0
1 2 6 7 8 10 12 14 16 18 21 22 24 31 32 33 0
2 3 7 8 9 11 13 15 17 19 22 23 25 32 33 34 0
1 3 4 8 9 10 12 14 16 18 23 24 26 33 34 35 0
2 4 5 9 10 11 13 15 17 19 24 25 27 34 35 36 0
1 3 5 6 10 11 12 14 16 18 25 26 28 35 36 37 0
2 4 6 7 11 12 13 15 17 19 26 27 29 36 37 38 0
1 3 5 7 8 12 13 14 16 18 20 27 28 30 37 38 0
2 4 6 8 9 13 14 15 17 19 20 21 28 29 31 38 0
1 3 5 7 9 10 14 15 16 18 20 21 22 29 30 32 0
2 4 6 8 10 11 15 16 17 19 21 22 23 30 31 33 0
1 3 5 7 9 11 12 16 17 18 22 23 24 31 32 34 0
2 4 6 8 10 12 13 17 18 19 23 24 25 32 33 35 0
1 3 5 7 9 11 13 14 18 19 24 25 26 33 34 36 0
1 2 4 6 8 10 12 14 15 19 25 26 27 34 35 37 0
1 2 3 5 7 9 11 13 15 16 26 27 28 35 36 38 0
2 3 4 6 8 10 12 14 16 17 20 27 28 29 36 37 0
3 4 6 8 10 12 14 16 17 18 21 22 29 30 31 38 0
4 5 7 9 11 13 15 17 18 19 20 22 23 30 31 32 0
1 5 6 8 10 12 14 16 18 19 21 23 24 31 32 33 0
1 2 6 7 9 11 13 15 17 19 22 24 25 32 33 34 0
1 2 3 7 8 10 12 14 16 18 23 25 26 33 34 35 0
2 3 4 8 9 11 13 15 17 19 24 26 27 34 35 36 0
1 3 4 5 9 10 12 14 16 18 25 27 28 35 36 37 0
2 4 5 6 10 11 13 15 17 19 26 28 29 36 37 38 0
1 3 5 6 7 11 12 14 16 18 20 27 29 30 37 38 0
2 4 6 7 8 12 13 15 17 19 20 21 28 30 31 38 0
1 3 5 7 8 9 13 14 16 18 20 21 22 29 31 32 0
2 4 6 8 9 10 14 15 17 19 21 22 23 30 32 33 0
1 3 5 7 9 10 11 15 16 18 22 23 24 31 33 34 0
2 4 6 8 10 11 12 16 17 19 23 24 25 32 34 35 0
1 3 5 7 9 11 12 13 17 18 24 25 26 33 35 36 0
2 4 6 8 10 12 13 14 18 19 25 26 27 34 36 37 0
1 3 5 7 9 11 13 14 15 19 26 27 28 35 37 38 0
1 2 4 6 8 10 12 14 15 16 20 27 28 29 36 38 0
2 3 5 7 9 11 13 15 16 17 20 21 28 29 30 37 0
3 5 7 9 12 14 16 17 21 23 28 29 30 31 34 36 37 0
4 6 8 10 13 15 17 18 22 24 29 30 31 32 35 37 38 0
5 7 9 11 14 16 18 19 20 23 25 30 31 32 33 36 38 0
1 6 8 10 12 15 17 19 20 21 24 26 31 32 33 34 37 0
1 2 7 9 11 13 16 18 21 22 25 27 32 33 34 35 38 0
2 3 8 10 12 14 17 19 20 22 23 26 28 33 34 35 36 0
1 3 4 9 11 13 15 18 21 23 24 27 29 34 35 36 37 0
2 4 5 10 12 14 16 19 22 24 25 28 30 35 36 37 38 0
1 3 5 6 11 13 15 17 20 23 25 26 29 31 36 37 38 0
2 4 6 7 12 14 16 18 20 21 24 26 27 30 32 37 38 0
3 5 7 8 13 15 17 19 20 21 22 25 27 28 31 33 38 0
1 4 6 8 9 14 16 18 20 21 22 23 26 28 29 32 34 0
2 5 7 9 10 15 17 19 21 22 23 24 27 29 30 33 35 0
1 3 6 8 10 11 16 18 22 23 24 25 28 30 31 34 36 0
2 4 7 9 11 12 17 19 23 24 25 26 29 31 32 35 37 0
1 3 5 8 10 12 13 18 24 25 26 27 30 32 33 36 38 0
2 4 6 9 11 13 14 19 20 25 26 27 28 31 33 34 37 0
1 3 5 7 10 12 14 15 21 26 27 28 29 32 34 35 38 0
2 4 6 8 11 13 15 16 20 22 27 28 29 30 33 35 36 0
4 5 7 9 12 14 16 18 22 23 25 28 29 30 31 36 38 0
5 6 8 10 13 15 17 19 20 23 24 26 29 30 31 32 37 0
1 6 7 9 11 14 16 18 21 24 25 27 30 31 32 33 38 0
2 7 8 10 12 15 17 19 20 22 25 26 28 31 32 33 34 0
1 3 8 9 11 13 16 18 21 23 26 27 29 32 33 34 35 0
2 4 9 10 12 14 17 19 22 24 27 28 30 33 34 35 36 0
1 3 5 10 11 13 15 18 23 25 28 29 31 34 35 36 37 0
2 4 6 11 12 14 16 19 24 26 29 30 32 35 36 37 38 0
1 3 5 7 12 13 15 17 20 25 27 30 31 33 36 37 38 0
2 4 6 8 13 14 16 18 20 21 26 28 31 32 34 37 38 0
3 5 7 9 14 15 17 19 20 21 22 27 29 32 33 35 38 0
1 4 6 8 10 15 16 18 20 21 22 23 28 30 33 34 36 0
2 5 7 9 11 16 17 19 21 22 23 24 29 31 34 35 37 0
1 3 6 8 10 12 17 18 22 23 24 25 30 32 35 36 38 0
2 4 7 9 11 13 18 19 20 23 24 25 26 31 33 36 37 0
1 3 5 8 10 12 14 19 21 24 25 26 27 32 34 37 38 0
1 2 4 6 9 11 13 15 20 22 25 26 27 28 33 35 38 0
2 3 5 7 10 12 14 16 20 21 23 26 27 28 29 34 36 0
3 4 6 8 11 13 15 17 21 22 24 27 28 29 30 35 37 0
3 5 7 9 12 14 16 18 21 23 26 28 29 30 31 33 36 38 0
4 6 8 10 13 15 17 19 20 22 24 27 29 30 31 32 34 37 0
1 5 7 9 11 14 16 18 21 23 25 28 30 31 32 33 35 38 0
2 6 8 10 12 15 17 19 20 22 24 26 29 31 32 33 34 36 0
1 3 7 9 11 13 16 18 21 23 25 27 30 32 33 34 35 37 0
2 4 8 10 12 14 17 19 22 24 26 28 31 33 34 35 36 38 0
1 3 5 9 11 13 15 18 20 23 25 27 29 32 34 35 36 37 0
2 4 6 10 12 14 16 19 21 24 26 28 30 33 35 36 37 38 0
1 3 5 7 11 13 15 17 20 22 25 27 29 31 34 36 37 38 0
2 4 6 8 12 14 16 18 20 21 23 26 28 30 32 35 37 38 0
3 5 7 9 13 15 17 19 20 21 22 24 27 29 31 33 36 38 0
1 4 6 8 10 14 16 18 20 21 22 23 25 28 30 32 34 37 0
2 5 7 9 11 15 17 19 21 22 23 24 26 29 31 33 35 38 0
1 3 6 8 10 12 16 18 20 22 23 24 25 27 30 32 34 36 0
2 4 7 9 11 13 17 19 21 23 24 25 26 28 31 33 35 37 0
1 3 5 8 10 12 14 18 22 24 25 26 27 29 32 34 36 38 0
2 4 6 9 11 13 15 19 20 23 25 26 27 28 30 33 35 37 0
1 3 5 7 10 12 14 16 21 24 26 27 28 29 31 34 36 38 0
2 4 6 8 11 13 15 17 20 22 25 27 28 29 30 32 35 37 0
3 5 8 11 12 14 15 17 18 21 22 25 26 27 28 29 36 38 0
4 6 9 12 13 15 16 18 19 20 22 23 26 27 28 29 30 37 0
1 5 7 10 13 14 16 17 19 21 23 24 27 28 29 30 31 38 0
1 2 6 8 11 14 15 17 18 20 22 24 25 28 29 30 31 32 0
2 3 7 9 12 15 16 18 19 21 23 25 26 29 30 31 32 33 0
1 3 4 8 10 13 16 17 19 22 24 26 27 30 31 32 33 34 0
1 2 4 5 9 11 14 17 18 23 25 27 28 31 32 33 34 35 0
2 3 5 6 10 12 15 18 19 24 26 28 29 32 33 34 35 36 0
1 3 4 6 7 11 13 16 19 25 27 29 30 33 34 35 36 37 0
1 2 4 5 7 8 12 14 17 26 28 30 31 34 35 36 37 38 0
2 3 5 6 8 9 13 15 18 20 27 29 31 32 35 36 37 38 0
3 4 6 7 9 10 14 16 19 20 21 28 30 32 33 36 37 38 0
1 4 5 7 8 10 11 15 17 20 21 22 29 31 33 34 37 38 0
2 5 6 8 9 11 12 16 18 20 21 22 23 30 32 34 35 38 0
3 6 7 9 10 12 13 17 19 20 21 22 23 24 31 33 35 36 0
1 4 7 8 10 11 13 14 18 21 22 23 24 25 32 34 36 37 0
2 5 8 9 11 12 14 15 19 22 23 24 25 26 33 35 37 38 0
1 3 6 9 10 12 13 15 16 20 23 24 25 26 27 34 36 38 0
2 4 7 10 11 13 14 16 17 20 21 24 25 26 27 28 35 37 0
3 4 6 7 9 10 13 16 18 21 23 30 31 32 33 34 37 38 0
4 5 7 8 10 11 14 17 19 20 22 24 31 32 33 34 35 38 0
1 5 6 8 9 11 12 15 18 20 21 23 25 32 33 34 35 36 0
2 6 7 9 10 12 13 16 19 21 22 24 26 33 34 35 36 37 0
1 3 7 8 10 11 13 14 17 22 23 25 27 34 35 36 37 38 0
2 4 8 9 11 12 14 15 18 20 23 24 26 28 35 36 37 38 0
3 5 9 10 12 13 15 16 19 20 21 24 25 27 29 36 37 38 0
1 4 6 10 11 13 14 16 17 20 21 22 25 26 28 30 37 38 0
2 5 7 11 12 14 15 17 18 20 21 22 23 26 27 29 31 38 0
3 6 8 12 13 15 16 18 19 20 21 22 23 24 27 28 30 32 0
1 4 7 9 13 14 16 17 19 21 22 23 24 25 28 29 31 33 0
1 2 5 8 10 14 15 17 18 22 23 24 25 26 29 30 32 34 0
2 3 6 9 11 15 16 18 19 23 24 25 26 27 30 31 33 35 0
1 3 4 7 10 12 16 17 19 24 25 26 27 28 31 32 34 36 0
1 2 4 5 8 11 13 17 18 25 26 27 28 29 32 33 35 37 0
2 3 5 6 9 12 14 18 19 26 27 28 29 30 33 34 36 38 0
1 3 4 6 7 10 13 15 19 20 27 28 29 30 31 34 35 37 0
1 2 4 5 7 8 11 14 16 21 28 29 30 31 32 35 36 38 0
2 3 5 6 8 9 12 15 17 20 22 29 30 31 32 33 36 37 0
3 5 8 11 13 15 17 21 23 25 26 28 29 34 37 0
4 6 9 12 14 16 18 22 24 26 27 29 30 35 38 0
5 7 10 13 15 17 19 20 23 25 27 28 30 31 36 0
1 6 8 11 14 16 18 21 24 26 28 29 31 32 37 0
2 7 9 12 15 17 19 22 25 27 29 30 32 33 38 0
1 3 8 10 13 16 18 20 23 26 28 30 31 33 34 0
2 4 9 11 14 17 19 21 24 27 29 31 32 34 35 0
1 3 5 10 12 15 18 22 25 28 30 32 33 35 36 0
2 4 6 11 13 16 19 23 26 29 31 33 34 36 37 0
1 3 5 7 12 14 17 24 27 30 32 34 35 37 38 0
2 4 6 8 13 15 18 20 25 28 31 33 35 36 38 0
3 5 7 9 14 16 19 20 21 26 29 32 34 36 37 0
1 4 6 8 10 15 17 21 22 27 30 33 35 37 38 0
2 5 7 9 11 16 18 20 22 23 28 31 34 36 38 0
3 6 8 10 12 17 19 20 21 23 24 29 32 35 37 0
1 4 7 9 11 13 18 21 22 24 25 30 33 36 38 0
2 5 8 10 12 14 19 20 22 23 25 26 31 34 37 0
1 3 6 9 11 13 15 21 23 24 26 27 32 35 38 0
2 4 7 10 12 14 16 20 22 24 25 27 28 33 36 0
4 6 8 10 13 16 18 22 25 30 31 33 34 36 38 0
5 7 9 11 14 17 19 20 23 26 31 32 34 35 37 0
1 6 8 10 12 15 18 21 24 27 32 33 35 36 38 0
2 7 9 11 13 16 19 20 22 25 28 33 34 36 37 0
1 3 8 10 12 14 17 21 23 26 29 34 35 37 38 0
2 4 9 11 13 15 18 20 22 24 27 30 35 36 38 0
3 5 10 12 14 16 19 20 21 23 25 28 31 36 37 0
1 4 6 11 13 15 17 21 22 24 26 29 32 37 38 0
2 5 7 12 14 16 18 20 22 23 25 27 30 33 38 0
3 6 8 13 15 17 19 20 21 23 24 26 28 31 34 0
1 4 7 9 14 16 18 21 22 24 25 27 29 32 35 0
2 5 8 10 15 17 19 22 23 25 26 28 30 33 36 0
1 3 6 9 11 16 18 23 24 26 27 29 31 34 37 0
2 4 7 10 12 17 19 24 25 27 28 30 32 35 38 0
1 3 5 8 11 13 18 20 25 26 28 29 31 33 36 0
2 4 6 9 12 14 19 21 26 27 29 30 32 34 37 0
1 3 5 7 10 13 15 22 27 28 30 31 33 35 38 0
2 4 6 8 11 14 16 20 23 28 29 31 32 34 36 0
3 5 7 9 12 15 17 21 24 29 30 32 33 35 37 0
4 5 8 11 13 15 16 17 22 23 25 26 28 29 31 34 36 37 0
5 6 9 12 14 16 17 18 23 24 26 27 29 30 32 35 37 38 0
6 7 10 13 15 17 18 19 20 24 25 27 28 30 31 33 36 38 0
1 7 8 11 14 16 18 19 20 21 25 26 28 29 31 32 34 37 0
1 2 8 9 12 15 17 19 21 22 26 27 29 30 32 33 35 38 0
1 2 3 9 10 13 16 18 20 22 23 27 28 30 31 33 34 36 0
2 3 4 10 11 14 17 19 21 23 24 28 29 31 32 34 35 37 0
1 3 4 5 11 12 15 18 22 24 25 29 30 32 33 35 36 38 0
2 4 5 6 12 13 16 19 20 23 25 26 30 31 33 34 36 37 0
1 3 5 6 7 13 14 17 21 24 26 27 31 32 34 35 37 38 0
2 4 6 7 8 14 15 18 20 22 25 27 28 32 33 35 36 38 0
3 5 7 8 9 15 16 19 20 21 23 26 28 29 33 34 36 37 0
1 4 6 8 9 10 16 17 21 22 24 27 29 30 34 35 37 38 0
2 5 7 9 10 11 17 18 20 22 23 25 28 30 31 35 36 38 0
3 6 8 10 11 12 18 19 20 21 23 24 26 29 31 32 36 37 0
1 4 7 9 11 12 13 19 21 22 24 25 27 30 32 33 37 38 0
1 2 5 8 10 12 13 14 20 22 23 25 26 28 31 33 34 38 0
2 3 6 9 11 13 14 15 20 21 23 24 26 27 29 32 34 35 0
3 4 7 10 12 14 15 16 21 22 24 25 27 28 30 33 35 36 0
4 5 6 8 10 13 16 17 22 23 25 28 30 31 33 34 36 37 0
5 6 7 9 11 14 17 18 23 24 26 29 31 32 34 35 37 38 0
6 7 8 10 12 15 18 19 20 24 25 27 30 32 33 35 36 38 0
1 7 8 9 11 13 16 19 20 21 25 26 28 31 33 34 36 37 0
1 2 8 9 10 12 14 17 21 22 26 27 29 32 34 35 37 38 0
2 3 9 10 11 13 15 18 20 22 23 27 28 30 33 35 36 38 0
3 4 10 11 12 14 16 19 20 21 23 24 28 29 31 34 36 37 0
1 4 5 11 12 13 15 17 21 22 24 25 29 30 32 35 37 38 0
2 5 6 12 13 14 16 18 20 22 23 25 26 30 31 33 36 38 0
3 6 7 13 14 15 17 19 20 21 23 24 26 27 31 32 34 37 0
1 4 7 8 14 15 16 18 21 22 24 25 27 28 32 33 35 38 0
2 5 8 9 15 16 17 19 20 22 23 25 26 28 29 33 34 36 0
1 3 6 9 10 16 17 18 21 23 24 26 27 29 30 34 35 37 0
2 4 7 10 11 17 18 19 22 24 25 27 28 30 31 35 36 38 0
1 3 5 8 11 12 18 19 20 23 25 26 28 29 31 32 36 37 0
1 2 4 6 9 12 13 19 21 24 26 27 29 30 32 33 37 38 0
1 2 3 5 7 10 13 14 20 22 25 27 28 30 31 33 34 38 0
2 3 4 6 8 11 14 15 20 21 23 26 28 29 31 32 34 35 0
3 4 5 7 9 12 15 16 21 22 24 27 29 30 32 33 35 36 0
3 5 8 11 13 14 16 21 23 25 26 28 29 31 34 36 0
4 6 9 12 14 15 17 22 24 26 27 29 30 32 35 37 0
5 7 10 13 15 16 18 23 25 27 28 30 31 33 36 38 0
6 8 11 14 16 17 19 20 24 26 28 29 31 32 34 37 0
1 7 9 12 15 17 18 21 25 27 29 30 32 33 35 38 0
2 8 10 13 16 18 19 20 22 26 28 30 31 33 34 36 0
1 3 9 11 14 17 19 21 23 27 29 31 32 34 35 37 0
1 2 4 10 12 15 18 22 24 28 30 32 33 35 36 38 0
2 3 5 11 13 16 19 20 23 25 29 31 33 34 36 37 0
1 3 4 6 12 14 17 21 24 26 30 32 34 35 37 38 0
2 4 5 7 13 15 18 20 22 25 27 31 33 35 36 38 0
3 5 6 8 14 16 19 20 21 23 26 28 32 34 36 37 0
1 4 6 7 9 15 17 21 22 24 27 29 33 35 37 38 0
2 5 7 8 10 16 18 20 22 23 25 28 30 34 36 38 0
3 6 8 9 11 17 19 20 21 23 24 26 29 31 35 37 0
1 4 7 9 10 12 18 21 22 24 25 27 30 32 36 38 0
2 5 8 10 11 13 19 20 22 23 25 26 28 31 33 37 0
1 3 6 9 11 12 14 21 23 24 26 27 29 32 34 38 0
2 4 7 10 12 13 15 20 22 24 25 27 28 30 33 35 0
5 7 8 10 13 16 18 23 25 28 30 31 33 34 36 38 0
6 8 9 11 14 17 19 20 24 26 29 31 32 34 35 37 0
1 7 9 10 12 15 18 21 25 27 30 32 33 35 36 38 0
2 8 10 11 13 16 19 20 22 26 28 31 33 34 36 37 0
1 3 9 11 12 14 17 21 23 27 29 32 34 35 37 38 0
2 4 10 12 13 15 18 20 22 24 28 30 33 35 36 38 0
3 5 11 13 14 16 19 20 21 23 25 29 31 34 36 37 0
1 4 6 12 14 15 17 21 22 24 26 30 32 35 37 38 0
2 5 7 13 15 16 18 20 22 23 25 27 31 33 36 38 0
3 6 8 14 16 17 19 20 21 23 24 26 28 32 34 37 0
1 4 7 9 15 17 18 21 22 24 25 27 29 33 35 38 0
2 5 8 10 16 18 19 20 22 23 25 26 28 30 34 36 0
1 3 6 9 11 17 19 21 23 24 26 27 29 31 35 37 0
1 2 4 7 10 12 18 22 24 25 27 28 30 32 36 38 0
2 3 5 8 11 13 19 20 23 25 26 28 29 31 33 37 0
1 3 4 6 9 12 14 21 24 26 27 29 30 32 34 38 0
2 4 5 7 10 13 15 20 22 25 27 28 30 31 33 35 0
3 5 6 8 11 14 16 21 23 26 28 29 31 32 34 36 0
4 6 7 9 12 15 17 22 24 27 29 30 32 33 35 37 0
3 5 8 11 13 14 15 17 18 21 22 23 25 26 28 29 38 0
4 6 9 12 14 15 16 18 19 20 22 23 24 26 27 29 30 0
1 5 7 10 13 15 16 17 19 21 23 24 25 27 28 30 31 0
1 2 6 8 11 14 16 17 18 22 24 25 26 28 29 31 32 0
2 3 7 9 12 15 17 18 19 23 25 26 27 29 30 32 33 0
1 3 4 8 10 13 16 18 19 24 26 27 28 30 31 33 34 0
1 2 4 5 9 11 14 17 19 25 27 28 29 31 32 34 35 0
1 2 3 5 6 10 12 15 18 26 28 29 30 32 33 35 36 0
2 3 4 6 7 11 13 16 19 27 29 30 31 33 34 36 37 0
1 3 4 5 7 8 12 14 17 28 30 31 32 34 35 37 38 0
2 4 5 6 8 9 13 15 18 20 29 31 32 33 35 36 38 0
3 5 6 7 9 10 14 16 19 20 21 30 32 33 34 36 37 0
1 4 6 7 8 10 11 15 17 21 22 31 33 34 35 37 38 0
2 5 7 8 9 11 12 16 18 20 22 23 32 34 35 36 38 0
3 6 8 9 10 12 13 17 19 20 21 23 24 33 35 36 37 0
1 4 7 9 10 11 13 14 18 21 22 24 25 34 36 37 38 0
2 5 8 10 11 12 14 15 19 20 22 23 25 26 35 37 38 0
1 3 6 9 11 12 13 15 16 20 21 23 24 26 27 36 38 0
2 4 7 10 12 13 14 16 17 20 21 22 24 25 27 28 37 0
3 4 6 7 8 10 13 16 18 21 30 31 33 34 36 37 38 0
4 5 7 8 9 11 14 17 19 20 22 31 32 34 35 37 38 0
1 5 6 8 9 10 12 15 18 20 21 23 32 33 35 36 38 0
2 6 7 9 10 11 13 16 19 20 21 22 24 33 34 36 37 0
1 3 7 8 10 11 12 14 17 21 22 23 25 34 35 37 38 0
2 4 8 9 11 12 13 15 18 20 22 23 24 26 35 36 38 0
3 5 9 10 12 13 14 16 19 20 21 23 24 25 27 36 37 0
1 4 6 10 11 13 14 15 17 21 22 24 25 26 28 37 38 0
2 5 7 11 12 14 15 16 18 20 22 23 25 26 27 29 38 0
3 6 8 12 13 15 16 17 19 20 21 23 24 26 27 28 30 0
1 4 7 9 13 14 16 17 18 21 22 24 25 27 28 29 31 0
2 5 8 10 14 15 17 18 19 22 23 25 26 28 29 30 32 0
1 3 6 9 11 15 16 18 19 23 24 26 27 29 30 31 33 0
1 2 4 7 10 12 16 17 19 24 25 27 28 30 31 32 34 0
1 2 3 5 8 11 13 17 18 25 26 28 29 31 32 33 35 0
2 3 4 6 9 12 14 18 19 26 27 29 30 32 33 34 36 0
1 3 4 5 7 10 13 15 19 27 28 30 31 33 34 35 37 0
1 2 4 5 6 8 11 14 16 28 29 31 32 34 35 36 38 0
2 3 5 6 7 9 12 15 17 20 29 30 32 33 35 36 37 0
3 4 5 7 9 11 13 15 17 18 21 26 28 29 33 38 0
4 5 6 8 10 12 14 16 18 19 20 22 27 29 30 34 0
1 5 6 7 9 11 13 15 17 19 21 23 28 30 31 35 0
1 2 6 7 8 10 12 14 16 18 22 24 29 31 32 36 0
2 3 7 8 9 11 13 15 17 19 23 25 30 32 33 37 0
1 3 4 8 9 10 12 14 16 18 24 26 31 33 34 38 0
2 4 5 9 10 11 13 15 17 19 20 25 27 32 34 35 0
1 3 5 6 10 11 12 14 16 18 21 26 28 33 35 36 0
2 4 6 7 11 12 13 15 17 19 22 27 29 34 36 37 0
1 3 5 7 8 12 13 14 16 18 23 28 30 35 37 38 0
2 4 6 8 9 13 14 15 17 19 20 24 29 31 36 38 0
1 3 5 7 9 10 14 15 16 18 20 21 25 30 32 37 0
2 4 6 8 10 11 15 16 17 19 21 22 26 31 33 38 0
1 3 5 7 9 11 12 16 17 18 20 22 23 27 32 34 0
2 4 6 8 10 12 13 17 18 19 21 23 24 28 33 35 0
1 3 5 7 9 11 13 14 18 19 22 24 25 29 34 36 0
1 2 4 6 8 10 12 14 15 19 23 25 26 30 35 37 0
1 2 3 5 7 9 11 13 15 16 24 26 27 31 36 38 0
2 3 4 6 8 10 12 14 16 17 20 25 27 28 32 37 0
3 4 6 8 10 12 14 16 17 18 21 26 30 31 33 38 0
4 5 7 9 11 13 15 17 18 19 20 22 27 31 32 34 0
1 5 6 8 10 12 14 16 18 19 21 23 28 32 33 35 0
1 2 6 7 9 11 13 15 17 19 22 24 29 33 34 36 0
1 2 3 7 8 10 12 14 16 18 23 25 30 34 35 37 0
2 3 4 8 9 11 13 15 17 19 24 26 31 35 36 38 0
1 3 4 5 9 10 12 14 16 18 20 25 27 32 36 37 0
2 4 5 6 10 11 13 15 17 19 21 26 28 33 37 38 0
1 3 5 6 7 11 12 14 16 18 20 22 27 29 34 38 0
2 4 6 7 8 12 13 15 17 19 20 21 23 28 30 35 0
1 3 5 7 8 9 13 14 16 18 21 22 24 29 31 36 0
2 4 6 8 9 10 14 15 17 19 22 23 25 30 32 37 0
1 3 5 7 9 10 11 15 16 18 23 24 26 31 33 38 0
2 4 6 8 10 11 12 16 17 19 20 24 25 27 32 34 0
1 3 5 7 9 11 12 13 17 18 21 25 26 28 33 35 0
2 4 6 8 10 12 13 14 18 19 22 26 27 29 34 36 0
1 3 5 7 9 11 13 14 15 19 23 27 28 30 35 37 0
1 2 4 6 8 10 12 14 15 16 24 28 29 31 36 38 0
2 3 5 7 9 11 13 15 16 17 20 25 29 30 32 37 0
4 5 7 9 11 13 15 17 18 22 25 28 33 34 36 38 0
5 6 8 10 12 14 16 18 19 20 23 26 29 34 35 37 0
1 6 7 9 11 13 15 17 19 21 24 27 30 35 36 38 0
1 2 7 8 10 12 14 16 18 20 22 25 28 31 36 37 0
2 3 8 9 11 13 15 17 19 21 23 26 29 32 37 38 0
1 3 4 9 10 12 14 16 18 20 22 24 27 30 33 38 0
2 4 5 10 11 13 15 17 19 20 21 23 25 28 31 34 0
1 3 5 6 11 12 14 16 18 21 22 24 26 29 32 35 0
2 4 6 7 12 13 15 17 19 22 23 25 27 30 33 36 0
1 3 5 7 8 13 14 16 18 23 24 26 28 31 34 37 0
2 4 6 8 9 14 15 17 19 24 25 27 29 32 35 38 0
1 3 5 7 9 10 15 16 18 20 25 26 28 30 33 36 0
2 4 6 8 10 11 16 17 19 21 26 27 29 31 34 37 0
1 3 5 7 9 11 12 17 18 22 27 28 30 32 35 38 0
2 4 6 8 10 12 13 18 19 20 23 28 29 31 33 36 0
1 3 5 7 9 11 13 14 19 21 24 29 30 32 34 37 0
1 2 4 6 8 10 12 14 15 22 25 30 31 33 35 38 0
2 3 5 7 9 11 13 15 16 20 23 26 31 32 34 36 0
3 4 6 8 10 12 14 16 17 21 24 27 32 33 35 37 0
3 4 6 8 10 12 14 16 17 21 23 25 26 31 34 37 0
4 5 7 9 11 13 15 17 18 22 24 26 27 32 35 38 0
5 6 8 10 12 14 16 18 19 20 23 25 27 28 33 36 0
1 6 7 9 11 13 15 17 19 21 24 26 28 29 34 37 0
1 2 7 8 10 12 14 16 18 22 25 27 29 30 35 38 0
2 3 8 9 11 13 15 17 19 20 23 26 28 30 31 36 0
1 3 4 9 10 12 14 16 18 21 24 27 29 31 32 37 0
2 4 5 10 11 13 15 17 19 22 25 28 30 32 33 38 0
1 3 5 6 11 12 14 16 18 20 23 26 29 31 33 34 0
2 4 6 7 12 13 15 17 19 21 24 27 30 32 34 35 0
1 3 5 7 8 13 14 16 18 22 25 28 31 33 35 36 0
2 4 6 8 9 14 15 17 19 23 26 29 32 34 36 37 0
1 3 5 7 9 10 15 16 18 24 27 30 33 35 37 38 0
2 4 6 8 10 11 16 17 19 20 25 28 31 34 36 38 0
1 3 5 7 9 11 12 17 18 20 21 26 29 32 35 37 0
2 4 6 8 10 12 13 18 19 21 22 27 30 33 36 38 0
1 3 5 7 9 11 13 14 19 20 22 23 28 31 34 37 0
1 2 4 6 8 10 12 14 15 21 23 24 29 32 35 38 0
2 3 5 7 9 11 13 15 16 20 22 24 25 30 33 36 0
4 5 8 11 12 14 15 17 18 22 25 26 27 28 29 36 38 0
5 6 9 12 13 15 16 18 19 20 23 26 27 28 29 30 37 0
1 6 7 10 13 14 16 17 19 21 24 27 28 29 30 31 38 0
1 2 7 8 11 14 15 17 18 20 22 25 28 29 30 31 32 0
2 3 8 9 12 15 16 18 19 21 23 26 29 30 31 32 33 0
1 3 4 9 10 13 16 17 19 22 24 27 30 31 32 33 34 0
1 2 4 5 10 11 14 17 18 23 25 28 31 32 33 34 35 0
2 3 5 6 11 12 15 18 19 24 26 29 32 33 34 35 36 0
1 3 4 6 7 12 13 16 19 25 27 30 33 34 35 36 37 0
1 2 4 5 7 8 13 14 17 26 28 31 34 35 36 37 38 0
2 3 5 6 8 9 14 15 18 20 27 29 32 35 36 37 38 0
3 4 6 7 9 10 15 16 19 20 21 28 30 33 36 37 38 0
1 4 5 7 8 10 11 16 17 20 21 22 29 31 34 37 38 0
2 5 6 8 9 11 12 17 18 20 21 22 23 30 32 35 38 0
3 6 7 9 10 12 13 18 19 20 21 22 23 24 31 33 36 0
1 4 7 8 10 11 13 14 19 21 22 23 24 25 32 34 37 0
1 2 5 8 9 11 12 14 15 22 23 24 25 26 33 35 38 0
2 3 6 9 10 12 13 15 16 20 23 24 25 26 27 34 36 0
3 4 7 10 11 13 14 16 17 21 24 25 26 27 28 35 37 0
3 4 6 7 9 10 13 16 17 21 23 30 31 32 33 34 37 0
4 5 7 8 10 11 14 17 18 22 24 31 32 33 34 35 38 0
5 6 8 9 11 12 15 18 19 20 23 25 32 33 34 35 36 0
1 6 7 9 10 12 13 16 19 21 24 26 33 34 35 36 37 0
1 2 7 8 10 11 13 14 17 22 25 27 34 35 36 37 38 0
2 3 8 9 11 12 14 15 18 20 23 26 28 35 36 37 38 0
3 4 9 10 12 13 15 16 19 20 21 24 27 29 36 37 38 0
1 4 5 10 11 13 14 16 17 20 21 22 25 28 30 37 38 0
2 5 6 11 12 14 15 17 18 20 21 22 23 26 29 31 38 0
3 6 7 12 13 15 16 18 19 20 21 22 23 24 27 30 32 0
1 4 7 8 13 14 16 17 19 21 22 23 24 25 28 31 33 0
1 2 5 8 9 14 15 17 18 22 23 24 25 26 29 32 34 0
2 3 6 9 10 15 16 18 19 23 24 25 26 27 30 33 35 0
1 3 4 7 10 11 16 17 19 24 25 26 27 28 31 34 36 0
1 2 4 5 8 11 12 17 18 25 26 27 28 29 32 35 37 0
2 3 5 6 9 12 13 18 19 26 27 28 29 30 33 36 38 0
1 3 4 6 7 10 13 14 19 20 27 28 29 30 31 34 37 0
1 2 4 5 7 8 11 14 15 21 28 29 30 31 32 35 38 0
2 3 5 6 8 9 12 15 16 20 22 29 30 31 32 33 36 0
7 8 10 13 15 16 18 25 26 27 29 30 31 36 37 38 0
8 9 11 14 16 17 19 20 26 27 28 30 31 32 37 38 0
1 9 10 12 15 17 18 20 21 27 28 29 31 32 33 38 0
2 10 11 13 16 18 19 20 21 22 28 29 30 32 33 34 0
1 3 11 12 14 17 19 21 22 23 29 30 31 33 34 35 0
1 2 4 12 13 15 18 22 23 24 30 31 32 34 35 36 0
2 3 5 13 14 16 19 23 24 25 31 32 33 35 36 37 0
1 3 4 6 14 15 17 24 25 26 32 33 34 36 37 38 0
2 4 5 7 15 16 18 20 25 26 27 33 34 35 37 38 0
3 5 6 8 16 17 19 20 21 26 27 28 34 35 36 38 0
1 4 6 7 9 17 18 20 21 22 27 28 29 35 36 37 0
2 5 7 8 10 18 19 21 22 23 28 29 30 36 37 38 0
1 3 6 8 9 11 19 20 22 23 24 29 30 31 37 38 0
1 2 4 7 9 10 12 20 21 23 24 25 30 31 32 38 0
2 3 5 8 10 11 13 20 21 22 24 25 26 31 32 33 0
3 4 6 9 11 12 14 21 22 23 25 26 27 32 33 34 0
4 5 7 10 12 13 15 22 23 24 26 27 28 33 34 35 0
5 6 8 11 13 14 16 23 24 25 27 28 29 34 35 36 0
6 7 9 12 14 15 17 24 25 26 28 29 30 35 36 37 0
3 5 6 8 11 13 14 21 22 23 28 29 30 32 33 34 0
4 6 7 9 12 14 15 22 23 24 29 30 31 33 34 35 0
5 7 8 10 13 15 16 23 24 25 30 31 32 34 35 36 0
6 8 9 11 14 16 17 24 25 26 31 32 33 35 36 37 0
7 9 10 12 15 17 18 25 26 27 32 33 34 36 37 38 0
8 10 11 13 16 18 19 20 26 27 28 33 34 35 37 38 0
1 9 11 12 14 17 19 20 21 27 28 29 34 35 36 38 0
1 2 10 12 13 15 18 20 21 22 28 29 30 35 36 37 0
2 3 11 13 14 16 19 21 22 23 29 30 31 36 37 38 0
1 3 4 12 14 15 17 20 22 23 24 30 31 32 37 38 0
2 4 5 13 15 16 18 20 21 23 24 25 31 32 33 38 0
3 5 6 14 16 17 19 20 21 22 24 25 26 32 33 34 0
1 4 6 7 15 17 18 21 22 23 25 26 27 33 34 35 0
2 5 7 8 16 18 19 22 23 24 26 27 28 34 35 36 0
1 3 6 8 9 17 19 23 24 25 27 28 29 35 36 37 0
1 2 4 7 9 10 18 24 25 26 28 29 30 36 37 38 0
2 3 5 8 10 11 19 20 25 26 27 29 30 31 37 38 0
1 3 4 6 9 11 12 20 21 26 27 28 30 31 32 38 0
2 4 5 7 10 12 13 20 21 22 27 28 29 31 32 33 0
7 8 10 13 16 18 25 27 30 31 33 34 36 38 0
8 9 11 14 17 19 20 26 28 31 32 34 35 37 0
1 9 10 12 15 18 21 27 29 32 33 35 36 38 0
2 10 11 13 16 19 20 22 28 30 33 34 36 37 0
1 3 11 12 14 17 21 23 29 31 34 35 37 38 0
2 4 12 13 15 18 20 22 24 30 32 35 36 38 0
3 5 13 14 16 19 20 21 23 25 31 33 36 37 0
1 4 6 14 15 17 21 22 24 26 32 34 37 38 0
2 5 7 15 16 18 20 22 23 25 27 33 35 38 0
3 6 8 16 17 19 20 21 23 24 26 28 34 36 0
1 4 7 9 17 18 21 22 24 25 27 29 35 37 0
2 5 8 10 18 19 22 23 25 26 28 30 36 38 0
1 3 6 9 11 19 20 23 24 26 27 29 31 37 0
1 2 4 7 10 12 21 24 25 27 28 30 32 38 0
2 3 5 8 11 13 20 22 25 26 28 29 31 33 0
3 4 6 9 12 14 21 23 26 27 29 30 32 34 0
4 5 7 10 13 15 22 24 27 28 30 31 33 35 0
5 6 8 11 14 16 23 25 28 29 31 32 34 36 0
6 7 9 12 15 17 24 26 29 30 32 33 35 37 0
3 5 8 11 13 14 21 23 25 26 28 29 32 34 0
4 6 9 12 14 15 22 24 26 27 29 30 33 35 0
5 7 10 13 15 16 23 25 27 28 30 31 34 36 0
6 8 11 14 16 17 24 26 28 29 31 32 35 37 0
7 9 12 15 17 18 25 27 29 30 32 33 36 38 0
8 10 13 16 18 19 20 26 28 30 31 33 34 37 0
1 9 11 14 17 19 21 27 29 31 32 34 35 38 0
1 2 10 12 15 18 20 22 28 30 32 33 35 36 0
2 3 11 13 16 19 21 23 29 31 33 34 36 37 0
1 3 4 12 14 17 22 24 30 32 34 35 37 38 0
2 4 5 13 15 18 20 23 25 31 33 35 36 38 0
3 5 6 14 16 19 20 21 24 26 32 34 36 37 0
1 4 6 7 15 17 21 22 25 27 33 35 37 38 0
2 5 7 8 16 18 20 22 23 26 28 34 36 38 0
3 6 8 9 17 19 20 21 23 24 27 29 35 37 0
1 4 7 9 10 18 21 22 24 25 28 30 36 38 0
2 5 8 10 11 19 20 22 23 25 26 29 31 37 0
1 3 6 9 11 12 21 23 24 26 27 30 32 38 0
2 4 7 10 12 13 20 22 24 25 27 28 31 33 0
7 8 10 12 13 15 17 18 25 26 27 33 34 36 37 38 0
8 9 11 13 14 16 18 19 20 26 27 28 34 35 37 38 0
1 9 10 12 14 15 17 19 20 21 27 28 29 35 36 38 0
1 2 10 11 13 15 16 18 20 21 22 28 29 30 36 37 0
2 3 11 12 14 16 17 19 21 22 23 29 30 31 37 38 0
1 3 4 12 13 15 17 18 20 22 23 24 30 31 32 38 0
2 4 5 13 14 16 18 19 20 21 23 24 25 31 32 33 0
1 3 5 6 14 15 17 19 21 22 24 25 26 32 33 34 0
1 2 4 6 7 15 16 18 22 23 25 26 27 33 34 35 0
2 3 5 7 8 16 17 19 23 24 26 27 28 34 35 36 0
1 3 4 6 8 9 17 18 24 25 27 28 29 35 36 37 0
2 4 5 7 9 10 18 19 25 26 28 29 30 36 37 38 0
1 3 5 6 8 10 11 19 20 26 27 29 30 31 37 38 0
1 2 4 6 7 9 11 12 20 21 27 28 30 31 32 38 0
2 3 5 7 8 10 12 13 20 21 22 28 29 31 32 33 0
3 4 6 8 9 11 13 14 21 22 23 29 30 32 33 34 0
4 5 7 9 10 12 14 15 22 23 24 30 31 33 34 35 0
5 6 8 10 11 13 15 16 23 24 25 31 32 34 35 36 0
6 7 9 11 12 14 16 17 24 25 26 32 33 35 36 37 0
3 4 6 8 9 11 13 14 21 22 23 25 26 32 33 34 0
4 5 7 9 10 12 14 15 22 23 24 26 27 33 34 35 0
5 6 8 10 11 13 15 16 23 24 25 27 28 34 35 36 0
6 7 9 11 12 14 16 17 24 25 26 28 29 35 36 37 0
7 8 10 12 13 15 17 18 25 26 27 29 30 36 37 38 0
8 9 11 13 14 16 18 19 20 26 27 28 30 31 37 38 0
1 9 10 12 14 15 17 19 20 21 27 28 29 31 32 38 0
1 2 10 11 13 15 16 18 20 21 22 28 29 30 32 33 0
2 3 11 12 14 16 17 19 21 22 23 29 30 31 33 34 0
1 3 4 12 13 15 17 18 22 23 24 30 31 32 34 35 0
2 4 5 13 14 16 18 19 23 24 25 31 32 33 35 36 0
1 3 5 6 14 15 17 19 24 25 26 32 33 34 36 37 0
1 2 4 6 7 15 16 18 25 26 27 33 34 35 37 38 0
2 3 5 7 8 16 17 19 20 26 27 28 34 35 36 38 0
1 3 4 6 8 9 17 18 20 21 27 28 29 35 36 37 0
2 4 5 7 9 10 18 19 21 22 28 29 30 36 37 38 0
1 3 5 6 8 10 11 19 20 22 23 29 30 31 37 38 0
1 2 4 6 7 9 11 12 20 21 23 24 30 31 32 38 0
2 3 5 7 8 10 12 13 20 21 22 24 25 31 32 33 0
5 8 11 13 15 16 18 23 25 26 28 29 31 36 37 38 0
6 9 12 14 16 17 19 20 24 26 27 29 30 32 37 38 0
1 7 10 13 15 17 18 20 21 25 27 28 30 31 33 38 0
2 8 11 14 16 18 19 20 21 22 26 28 29 31 32 34 0
1 3 9 12 15 17 19 21 22 23 27 29 30 32 33 35 0
1 2 4 10 13 16 18 22 23 24 28 30 31 33 34 36 0
2 3 5 11 14 17 19 23 24 25 29 31 32 34 35 37 0
1 3 4 6 12 15 18 24 25 26 30 32 33 35 36 38 0
2 4 5 7 13 16 19 20 25 26 27 31 33 34 36 37 0
1 3 5 6 8 14 17 21 26 27 28 32 34 35 37 38 0
2 4 6 7 9 15 18 20 22 27 28 29 33 35 36 38 0
3 5 7 8 10 16 19 20 21 23 28 29 30 34 36 37 0
1 4 6 8 9 11 17 21 22 24 29 30 31 35 37 38 0
2 5 7 9 10 12 18 20 22 23 25 30 31 32 36 38 0
3 6 8 10 11 13 19 20 21 23 24 26 31 32 33 37 0
1 4 7 9 11 12 14 21 22 24 25 27 32 33 34 38 0
2 5 8 10 12 13 15 20 22 23 25 26 28 33 34 35 0
3 6 9 11 13 14 16 21 23 24 26 27 29 34 35 36 0
4 7 10 12 14 15 17 22 24 25 27 28 30 35 36 37 0
3 5 6 8 10 13 16 21 22 23 28 30 31 33 34 36 0
4 6 7 9 11 14 17 22 23 24 29 31 32 34 35 37 0
5 7 8 10 12 15 18 23 24 25 30 32 33 35 36 38 0
6 8 9 11 13 16 19 20 24 25 26 31 33 34 36 37 0
1 7 9 10 12 14 17 21 25 26 27 32 34 35 37 38 0
2 8 10 11 13 15 18 20 22 26 27 28 33 35 36 38 0
3 9 11 12 14 16 19 20 21 23 27 28 29 34 36 37 0
1 4 10 12 13 15 17 21 22 24 28 29 30 35 37 38 0
2 5 11 13 14 16 18 20 22 23 25 29 30 31 36 38 0
3 6 12 14 15 17 19 20 21 23 24 26 30 31 32 37 0
1 4 7 13 15 16 18 21 22 24 25 27 31 32 33 38 0
2 5 8 14 16 17 19 20 22 23 25 26 28 32 33 34 0
1 3 6 9 15 17 18 21 23 24 26 27 29 33 34 35 0
2 4 7 10 16 18 19 22 24 25 27 28 30 34 35 36 0
1 3 5 8 11 17 19 23 25 26 28 29 31 35 36 37 0
1 2 4 6 9 12 18 24 26 27 29 30 32 36 37 38 0
2 3 5 7 10 13 19 20 25 27 28 30 31 33 37 38 0
1 3 4 6 8 11 14 20 21 26 28 29 31 32 34 38 0
2 4 5 7 9 12 15 20 21 22 27 29 30 32 33 35 0
4 5 8 11 13 15 17 18 22 23 25 26 28 29 36 37 38 0
5 6 9 12 14 16 18 19 20 23 24 26 27 29 30 37 38 0
1 6 7 10 13 15 17 19 20 21 24 25 27 28 30 31 38 0
1 2 7 8 11 14 16 18 20 21 22 25 26 28 29 31 32 0
2 3 8 9 12 15 17 19 21 22 23 26 27 29 30 32 33 0
1 3 4 9 10 13 16 18 22 23 24 27 28 30 31 33 34 0
2 4 5 10 11 14 17 19 23 24 25 28 29 31 32 34 35 0
1 3 5 6 11 12 15 18 24 25 26 29 30 32 33 35 36 0
2 4 6 7 12 13 16 19 25 26 27 30 31 33 34 36 37 0
1 3 5 7 8 13 14 17 26 27 28 31 32 34 35 37 38 0
2 4 6 8 9 14 15 18 20 27 28 29 32 33 35 36 38 0
3 5 7 9 10 15 16 19 20 21 28 29 30 33 34 36 37 0
1 4 6 8 10 11 16 17 21 22 29 30 31 34 35 37 38 0
2 5 7 9 11 12 17 18 20 22 23 30 31 32 35 36 38 0
3 6 8 10 12 13 18 19 20 21 23 24 31 32 33 36 37 0
1 4 7 9 11 13 14 19 21 22 24 25 32 33 34 37 38 0
1 2 5 8 10 12 14 15 20 22 23 25 26 33 34 35 38 0
2 3 6 9 11 13 15 16 20 21 23 24 26 27 34 35 36 0
3 4 7 10 12 14 16 17 21 22 24 25 27 28 35 36 37 0
3 4 6 8 10 13 16 17 21 22 23 30 31 33 34 36 37 0
4 5 7 9 11 14 17 18 22 23 24 31 32 34 35 37 38 0
5 6 8 10 12 15 18 19 20 23 24 25 32 33 35 36 38 0
1 6 7 9 11 13 16 19 20 21 24 25 26 33 34 36 37 0
1 2 7 8 10 12 14 17 21 22 25 26 27 34 35 37 38 0
2 3 8 9 11 13 15 18 20 22 23 26 27 28 35 36 38 0
3 4 9 10 12 14 16 19 20 21 23 24 27 28 29 36 37 0
1 4 5 10 11 13 15 17 21 22 24 25 28 29 30 37 38 0
2 5 6 11 12 14 16 18 20 22 23 25 26 29 30 31 38 0
3 6 7 12 13 15 17 19 20 21 23 24 26 27 30 31 32 0
1 4 7 8 13 14 16 18 21 22 24 25 27 28 31 32 33 0
2 5 8 9 14 15 17 19 22 23 25 26 28 29 32 33 34 0
1 3 6 9 10 15 16 18 23 24 26 27 29 30 33 34 35 0
2 4 7 10 11 16 17 19 24 25 27 28 30 31 34 35 36 0
1 3 5 8 11 12 17 18 25 26 28 29 31 32 35 36 37 0
2 4 6 9 12 13 18 19 26 27 29 30 32 33 36 37 38 0
1 3 5 7 10 13 14 19 20 27 28 30 31 33 34 37 38 0
1 2 4 6 8 11 14 15 20 21 28 29 31 32 34 35 38 0
2 3 5 7 9 12 15 16 20 21 22 29 30 32 33 35 36 0
5 8 11 13 15 17 18 23 25 26 28 29 36 37 38 0
6 9 12 14 16 18 19 20 24 26 27 29 30 37 38 0
1 7 10 13 15 17 19 20 21 25 27 28 30 31 38 0
1 2 8 11 14 16 18 20 21 22 26 28 29 31 32 0
2 3 9 12 15 17 19 21 22 23 27 29 30 32 33 0
1 3 4 10 13 16 18 22 23 24 28 30 31 33 34 0
2 4 5 11 14 17 19 23 24 25 29 31 32 34 35 0
1 3 5 6 12 15 18 24 25 26 30 32 33 35 36 0
2 4 6 7 13 16 19 25 26 27 31 33 34 36 37 0
1 3 5 7 8 14 17 26 27 28 32 34 35 37 38 0
2 4 6 8 9 15 18 20 27 28 29 33 35 36 38 0
3 5 7 9 10 16 19 20 21 28 29 30 34 36 37 0
1 4 6 8 10 11 17 21 22 29 30 31 35 37 38 0
2 5 7 9 11 12 18 20 22 23 30 31 32 36 38 0
3 6 8 10 12 13 19 20 21 23 24 31 32 33 37 0
1 4 7 9 11 13 14 21 22 24 25 32 33 34 38 0
2 5 8 10 12 14 15 20 22 23 25 26 33 34 35 0
3 6 9 11 13 15 16 21 23 24 26 27 34 35 36 0
4 7 10 12 14 16 17 22 24 25 27 28 35 36 37 0
3 4 6 8 10 13 16 21 22 23 30 31 33 34 36 0
4 5 7 9 11 14 17 22 23 24 31 32 34 35 37 0
5 6 8 10 12 15 18 23 24 25 32 33 35 36 38 0
6 7 9 11 13 16 19 20 24 25 26 33 34 36 37 0
1 7 8 10 12 14 17 21 25 26 27 34 35 37 38 0
2 8 9 11 13 15 18 20 22 26 27 28 35 36 38 0
3 9 10 12 14 16 19 20 21 23 27 28 29 36 37 0
1 4 10 11 13 15 17 21 22 24 28 29 30 37 38 0
2 5 11 12 14 16 18 20 22 23 25 29 30 31 38 0
3 6 12 13 15 17 19 20 21 23 24 26 30 31 32 0
1 4 7 13 14 16 18 21 22 24 25 27 31 32 33 0
2 5 8 14 15 17 19 22 23 25 26 28 32 33 34 0
1 3 6 9 15 16 18 23 24 26 27 29 33 34 35 0
2 4 7 10 16 17 19 24 25 27 28 30 34 35 36 0
1 3 5 8 11 17 18 25 26 28 29 31 35 36 37 0
2 4 6 9 12 18 19 26 27 29 30 32 36 37 38 0
1 3 5 7 10 13 19 20 27 28 30 31 33 37 38 0
1 2 4 6 8 11 14 20 21 28 29 31 32 34 38 0
2 3 5 7 9 12 15 20 21 22 29 30 32 33 35 0
5 6 8 11 13 16 18 23 25 28 29 31 33 34 36 38 0
6 7 9 12 14 17 19 20 24 26 29 30 32 34 35 37 0
1 7 8 10 13 15 18 21 25 27 30 31 33 35 36 38 0
2 8 9 11 14 16 19 20 22 26 28 31 32 34 36 37 0
1 3 9 10 12 15 17 21 23 27 29 32 33 35 37 38 0
2 4 10 11 13 16 18 20 22 24 28 30 33 34 36 38 0
3 5 11 12 14 17 19 20 21 23 25 29 31 34 35 37 0
1 4 6 12 13 15 18 21 22 24 26 30 32 35 36 38 0
2 5 7 13 14 16 19 20 22 23 25 27 31 33 36 37 0
1 3 6 8 14 15 17 21 23 24 26 28 32 34 37 38 0
2 4 7 9 15 16 18 20 22 24 25 27 29 33 35 38 0
3 5 8 10 16 17 19 20 21 23 25 26 28 30 34 36 0
1 4 6 9 11 17 18 21 22 24 26 27 29 31 35 37 0
2 5 7 10 12 18 19 22 23 25 27 28 30 32 36 38 0
1 3 6 8 11 13 19 20 23 24 26 28 29 31 33 37 0
1 2 4 7 9 12 14 21 24 25 27 29 30 32 34 38 0
2 3 5 8 10 13 15 20 22 25 26 28 30 31 33 35 0
3 4 6 9 11 14 16 21 23 26 27 29 31 32 34 36 0
4 5 7 10 12 15 17 22 24 27 28 30 32 33 35 37 0
3 5 8 10 13 15 16 21 23 25 26 28 30 31 34 36 0
4 6 9 11 14 16 17 22 24 26 27 29 31 32 35 37 0
5 7 10 12 15 17 18 23 25 27 28 30 32 33 36 38 0
6 8 11 13 16 18 19 20 24 26 28 29 31 33 34 37 0
1 7 9 12 14 17 19 21 25 27 29 30 32 34 35 38 0
1 2 8 10 13 15 18 20 22 26 28 30 31 33 35 36 0
2 3 9 11 14 16 19 21 23 27 29 31 32 34 36 37 0
1 3 4 10 12 15 17 22 24 28 30 32 33 35 37 38 0
2 4 5 11 13 16 18 20 23 25 29 31 33 34 36 38 0
3 5 6 12 14 17 19 20 21 24 26 30 32 34 35 37 0
1 4 6 7 13 15 18 21 22 25 27 31 33 35 36 38 0
2 5 7 8 14 16 19 20 22 23 26 28 32 34 36 37 0
1 3 6 8 9 15 17 21 23 24 27 29 33 35 37 38 0
2 4 7 9 10 16 18 20 22 24 25 28 30 34 36 38 0
3 5 8 10 11 17 19 20 21 23 25 26 29 31 35 37 0
1 4 6 9 11 12 18 21 22 24 26 27 30 32 36 38 0
2 5 7 10 12 13 19 20 22 23 25 27 28 31 33 37 0
1 3 6 8 11 13 14 21 23 24 26 28 29 32 34 38 0
2 4 7 9 12 14 15 20 22 24 25 27 29 30 33 35 0
5 8 11 13 16 17 23 25 26 28 29 31 33 34 36 37 0
6 9 12 14 17 18 24 26 27 29 30 32 34 35 37 38 0
7 10 13 15 18 19 20 25 27 28 30 31 33 35 36 38 0
1 8 11 14 16 19 20 21 26 28 29 31 32 34 36 37 0
1 2 9 12 15 17 21 22 27 29 30 32 33 35 37 38 0
2 3 10 13 16 18 20 22 23 28 30 31 33 34 36 38 0
3 4 11 14 17 19 20 21 23 24 29 31 32 34 35 37 0
1 4 5 12 15 18 21 22 24 25 30 32 33 35 36 38 0
2 5 6 13 16 19 20 22 23 25 26 31 33 34 36 37 0
1 3 6 7 14 17 21 23 24 26 27 32 34 35 37 38 0
2 4 7 8 15 18 20 22 24 25 27 28 33 35 36 38 0
3 5 8 9 16 19 20 21 23 25 26 28 29 34 36 37 0
1 4 6 9 10 17 21 22 24 26 27 29 30 35 37 38 0
2 5 7 10 11 18 20 22 23 25 27 28 30 31 36 38 0
3 6 8 11 12 19 20 21 23 24 26 28 29 31 32 37 0
1 4 7 9 12 13 21 22 24 25 27 29 30 32 33 38 0
2 5 8 10 13 14 20 22 23 25 26 28 30 31 33 34 0
3 6 9 11 14 15 21 23 24 26 27 29 31 32 34 35 0
4 7 10 12 15 16 22 24 25 27 28 30 32 33 35 36 0
4 5 8 10 13 16 22 23 25 26 28 30 31 33 34 36 0
5 6 9 11 14 17 23 24 26 27 29 31 32 34 35 37 0
6 7 10 12 15 18 24 25 27 28 30 32 33 35 36 38 0
7 8 11 13 16 19 20 25 26 28 29 31 33 34 36 37 0
1 8 9 12 14 17 21 26 27 29 30 32 34 35 37 38 0
2 9 10 13 15 18 20 22 27 28 30 31 33 35 36 38 0
3 10 11 14 16 19 20 21 23 28 29 31 32 34 36 37 0
1 4 11 12 15 17 21 22 24 29 30 32 33 35 37 38 0
2 5 12 13 16 18 20 22 23 25 30 31 33 34 36 38 0
3 6 13 14 17 19 20 21 23 24 26 31 32 34 35 37 0
1 4 7 14 15 18 21 22 24 25 27 32 33 35 36 38 0
2 5 8 15 16 19 20 22 23 25 26 28 33 34 36 37 0
1 3 6 9 16 17 21 23 24 26 27 29 34 35 37 38 0
2 4 7 10 17 18 20 22 24 25 27 28 30 35 36 38 0
3 5 8 11 18 19 20 21 23 25 26 28 29 31 36 37 0
1 4 6 9 12 19 21 22 24 26 27 29 30 32 37 38 0
1 2 5 7 10 13 20 22 23 25 27 28 30 31 33 38 0
2 3 6 8 11 14 20 21 23 24 26 28 29 31 32 34 0
3 4 7 9 12 15 21 22 24 25 27 29 30 32 33 35 0
3 4 6 8 10 12 13 16 18 21 26 31 33 34 36 38 0
4 5 7 9 11 13 14 17 19 20 22 27 32 34 35 37 0
1 5 6 8 10 12 14 15 18 21 23 28 33 35 36 38 0
2 6 7 9 11 13 15 16 19 20 22 24 29 34 36 37 0
1 3 7 8 10 12 14 16 17 21 23 25 30 35 37 38 0
2 4 8 9 11 13 15 17 18 20 22 24 26 31 36 38 0
3 5 9 10 12 14 16 18 19 20 21 23 25 27 32 37 0
1 4 6 10 11 13 15 17 19 21 22 24 26 28 33 38 0
1 2 5 7 11 12 14 16 18 20 22 23 25 27 29 34 0
2 3 6 8 12 13 15 17 19 21 23 24 26 28 30 35 0
1 3 4 7 9 13 14 16 18 22 24 25 27 29 31 36 0
2 4 5 8 10 14 15 17 19 23 25 26 28 30 32 37 0
1 3 5 6 9 11 15 16 18 24 26 27 29 31 33 38 0
2 4 6 7 10 12 16 17 19 20 25 27 28 30 32 34 0
1 3 5 7 8 11 13 17 18 21 26 28 29 31 33 35 0
2 4 6 8 9 12 14 18 19 22 27 29 30 32 34 36 0
1 3 5 7 9 10 13 15 19 23 28 30 31 33 35 37 0
1 2 4 6 8 10 11 14 16 24 29 31 32 34 36 38 0
2 3 5 7 9 11 12 15 17 20 25 30 32 33 35 37 0
3 5 8 9 11 13 15 17 18 21 23 25 26 28 33 38 0
4 6 9 10 12 14 16 18 19 20 22 24 26 27 29 34 0
1 5 7 10 11 13 15 17 19 21 23 25 27 28 30 35 0
1 2 6 8 11 12 14 16 18 22 24 26 28 29 31 36 0
2 3 7 9 12 13 15 17 19 23 25 27 29 30 32 37 0
1 3 4 8 10 13 14 16 18 24 26 28 30 31 33 38 0
2 4 5 9 11 14 15 17 19 20 25 27 29 31 32 34 0
1 3 5 6 10 12 15 16 18 21 26 28 30 32 33 35 0
2 4 6 7 11 13 16 17 19 22 27 29 31 33 34 36 0
1 3 5 7 8 12 14 17 18 23 28 30 32 34 35 37 0
2 4 6 8 9 13 15 18 19 24 29 31 33 35 36 38 0
1 3 5 7 9 10 14 16 19 20 25 30 32 34 36 37 0
1 2 4 6 8 10 11 15 17 21 26 31 33 35 37 38 0
2 3 5 7 9 11 12 16 18 20 22 27 32 34 36 38 0
3 4 6 8 10 12 13 17 19 20 21 23 28 33 35 37 0
1 4 5 7 9 11 13 14 18 21 22 24 29 34 36 38 0
2 5 6 8 10 12 14 15 19 20 22 23 25 30 35 37 0
1 3 6 7 9 11 13 15 16 21 23 24 26 31 36 38 0
2 4 7 8 10 12 14 16 17 20 22 24 25 27 32 37 0
3 4 6 8 10 12 13 15 17 18 21 26 27 33 34 36 38 0
4 5 7 9 11 13 14 16 18 19 20 22 27 28 34 35 37 0
1 5 6 8 10 12 14 15 17 19 21 23 28 29 35 36 38 0
1 2 6 7 9 11 13 15 16 18 20 22 24 29 30 36 37 0
2 3 7 8 10 12 14 16 17 19 21 23 25 30 31 37 38 0
1 3 4 8 9 11 13 15 17 18 20 22 24 26 31 32 38 0
2 4 5 9 10 12 14 16 18 19 20 21 23 25 27 32 33 0
1 3 5 6 10 11 13 15 17 19 21 22 24 26 28 33 34 0
1 2 4 6 7 11 12 14 16 18 22 23 25 27 29 34 35 0
2 3 5 7 8 12 13 15 17 19 23 24 26 28 30 35 36 0
1 3 4 6 8 9 13 14 16 18 24 25 27 29 31 36 37 0
2 4 5 7 9 10 14 15 17 19 25 26 28 30 32 37 38 0
1 3 5 6 8 10 11 15 16 18 20 26 27 29 31 33 38 0
2 4 6 7 9 11 12 16 17 19 20 21 27 28 30 32 34 0
1 3 5 7 8 10 12 13 17 18 21 22 28 29 31 33 35 0
2 4 6 8 9 11 13 14 18 19 22 23 29 30 32 34 36 0
1 3 5 7 9 10 12 14 15 19 23 24 30 31 33 35 37 0
1 2 4 6 8 10 11 13 15 16 24 25 31 32 34 36 38 0
2 3 5 7 9 11 12 14 16 17 20 25 26 32 33 35 37 0
3 4 6 8 9 11 13 15 17 18 21 23 25 26 32 33 38 0
4 5 7 9 10 12 14 16 18 19 20 22 24 26 27 33 34 0
1 5 6 8 10 11 13 15 17 19 21 23 25 27 28 34 35 0
1 2 6 7 9 11 12 14 16 18 22 24 26 28 29 35 36 0
2 3 7 8 10 12 13 15 17 19 23 25 27 29 30 36 37 0
1 3 4 8 9 11 13 14 16 18 24 26 28 30 31 37 38 0
2 4 5 9 10 12 14 15 17 19 20 25 27 29 31 32 38 0
1 3 5 6 10 11 13 15 16 18 20 21 26 28 30 32 33 0
2 4 6 7 11 12 14 16 17 19 21 22 27 29 31 33 34 0
1 3 5 7 8 12 13 15 17 18 22 23 28 30 32 34 35 0
2 4 6 8 9 13 14 16 18 19 23 24 29 31 33 35 36 0
1 3 5 7 9 10 14 15 17 19 24 25 30 32 34 36 37 0
1 2 4 6 8 10 11 15 16 18 25 26 31 33 35 37 38 0
2 3 5 7 9 11 12 16 17 19 20 26 27 32 34 36 38 0
1 3 4 6 8 10 12 13 17 18 20 21 27 28 33 35 37 0
2 4 5 7 9 11 13 14 18 19 21 22 28 29 34 36 38 0
1 3 5 6 8 10 12 14 15 19 20 22 23 29 30 35 37 0
1 2 4 6 7 9 11 13 15 16 21 23 24 30 31 36 38 0
2 3 5 7 8 10 12 14 16 17 20 22 24 25 31 32 37 0
3 4 6 8 10 12 14 15 17 18 21 26 27 33 34 38 0
4 5 7 9 11 13 15 16 18 19 20 22 27 28 34 35 0
1 5 6 8 10 12 14 16 17 19 21 23 28 29 35 36 0
1 2 6 7 9 11 13 15 17 18 22 24 29 30 36 37 0
2 3 7 8 10 12 14 16 18 19 23 25 30 31 37 38 0
1 3 4 8 9 11 13 15 17 19 20 24 26 31 32 38 0
1 2 4 5 9 10 12 14 16 18 20 21 25 27 32 33 0
2 3 5 6 10 11 13 15 17 19 21 22 26 28 33 34 0
1 3 4 6 7 11 12 14 16 18 22 23 27 29 34 35 0
2 4 5 7 8 12 13 15 17 19 23 24 28 30 35 36 0
1 3 5 6 8 9 13 14 16 18 24 25 29 31 36 37 0
2 4 6 7 9 10 14 15 17 19 25 26 30 32 37 38 0
1 3 5 7 8 10 11 15 16 18 20 26 27 31 33 38 0
2 4 6 8 9 11 12 16 17 19 20 21 27 28 32 34 0
1 3 5 7 9 10 12 13 17 18 21 22 28 29 33 35 0
2 4 6 8 10 11 13 14 18 19 22 23 29 30 34 36 0
1 3 5 7 9 11 12 14 15 19 23 24 30 31 35 37 0
1 2 4 6 8 10 12 13 15 16 24 25 31 32 36 38 0
2 3 5 7 9 11 13 14 16 17 20 25 26 32 33 37 0
3 4 6 7 9 11 13 15 17 18 21 25 26 32 33 38 0
4 5 7 8 10 12 14 16 18 19 20 22 26 27 33 34 0
1 5 6 8 9 11 13 15 17 19 21 23 27 28 34 35 0
1 2 6 7 9 10 12 14 16 18 22 24 28 29 35 36 0
2 3 7 8 10 11 13 15 17 19 23 25 29 30 36 37 0
1 3 4 8 9 11 12 14 16 18 24 26 30 31 37 38 0
2 4 5 9 10 12 13 15 17 19 20 25 27 31 32 38 0
1 3 5 6 10 11 13 14 16 18 20 21 26 28 32 33 0
2 4 6 7 11 12 14 15 17 19 21 22 27 29 33 34 0
1 3 5 7 8 12 13 15 16 18 22 23 28 30 34 35 0
2 4 6 8 9 13 14 16 17 19 23 24 29 31 35 36 0
1 3 5 7 9 10 14 15 17 18 24 25 30 32 36 37 0
2 4 6 8 10 11 15 16 18 19 25 26 31 33 37 38 0
1 3 5 7 9 11 12 16 17 19 20 26 27 32 34 38 0
1 2 4 6 8 10 12 13 17 18 20 21 27 28 33 35 0
2 3 5 7 9 11 13 14 18 19 21 22 28 29 34 36 0
1 3 4 6 8 10 12 14 15 19 22 23 29 30 35 37 0
1 2 4 5 7 9 11 13 15 16 23 24 30 31 36 38 0
2 3 5 6 8 10 12 14 16 17 20 24 25 31 32 37 0
3 4 6 8 10 13 14 16 21 23 26 29 30 31 34 36 0
4 5 7 9 11 14 15 17 22 24 27 30 31 32 35 37 0
5 6 8 10 12 15 16 18 23 25 28 31 32 33 36 38 0
6 7 9 11 13 16 17 19 20 24 26 29 32 33 34 37 0
1 7 8 10 12 14 17 18 21 25 27 30 33 34 35 38 0
2 8 9 11 13 15 18 19 20 22 26 28 31 34 35 36 0
1 3 9 10 12 14 16 19 21 23 27 29 32 35 36 37 0
1 2 4 10 11 13 15 17 22 24 28 30 33 36 37 38 0
2 3 5 11 12 14 16 18 20 23 25 29 31 34 37 38 0
3 4 6 12 13 15 17 19 20 21 24 26 30 32 35 38 0
1 4 5 7 13 14 16 18 20 21 22 25 27 31 33 36 0
2 5 6 8 14 15 17 19 21 22 23 26 28 32 34 37 0
1 3 6 7 9 15 16 18 22 23 24 27 29 33 35 38 0
2 4 7 8 10 16 17 19 20 23 24 25 28 30 34 36 0
1 3 5 8 9 11 17 18 21 24 25 26 29 31 35 37 0
2 4 6 9 10 12 18 19 22 25 26 27 30 32 36 38 0
1 3 5 7 10 11 13 19 20 23 26 27 28 31 33 37 0
1 2 4 6 8 11 12 14 21 24 27 28 29 32 34 38 0
2 3 5 7 9 12 13 15 20 22 25 28 29 30 33 35 0
5 7 8 11 13 15 17 18 23 25 28 29 30 33 36 38 0
6 8 9 12 14 16 18 19 20 24 26 29 30 31 34 37 0
1 7 9 10 13 15 17 19 21 25 27 30 31 32 35 38 0
1 2 8 10 11 14 16 18 20 22 26 28 31 32 33 36 0
2 3 9 11 12 15 17 19 21 23 27 29 32 33 34 37 0
1 3 4 10 12 13 16 18 22 24 28 30 33 34 35 38 0
2 4 5 11 13 14 17 19 20 23 25 29 31 34 35 36 0
1 3 5 6 12 14 15 18 21 24 26 30 32 35 36 37 0
2 4 6 7 13 15 16 19 22 25 27 31 33 36 37 38 0
1 3 5 7 8 14 16 17 20 23 26 28 32 34 37 38 0
2 4 6 8 9 15 17 18 20 21 24 27 29 33 35 38 0
3 5 7 9 10 16 18 19 20 21 22 25 28 30 34 36 0
1 4 6 8 10 11 17 19 21 22 23 26 29 31 35 37 0
1 2 5 7 9 11 12 18 22 23 24 27 30 32 36 38 0
2 3 6 8 10 12 13 19 20 23 24 25 28 31 33 37 0
1 3 4 7 9 11 13 14 21 24 25 26 29 32 34 38 0
2 4 5 8 10 12 14 15 20 22 25 26 27 30 33 35 0
3 5 6 9 11 13 15 16 21 23 26 27 28 31 34 36 0
4 6 7 10 12 14 16 17 22 24 27 28 29 32 35 37 0
3 4 6 8 10 12 13 15 17 21 23 26 27 33 34 36 37 0
4 5 7 9 11 13 14 16 18 22 24 27 28 34 35 37 38 0
5 6 8 10 12 14 15 17 19 20 23 25 28 29 35 36 38 0
1 6 7 9 11 13 15 16 18 20 21 24 26 29 30 36 37 0
2 7 8 10 12 14 16 17 19 21 22 25 27 30 31 37 38 0
1 3 8 9 11 13 15 17 18 20 22 23 26 28 31 32 38 0
2 4 9 10 12 14 16 18 19 20 21 23 24 27 29 32 33 0
1 3 5 10 11 13 15 17 19 21 22 24 25 28 30 33 34 0
1 2 4 6 11 12 14 16 18 22 23 25 26 29 31 34 35 0
2 3 5 7 12 13 15 17 19 23 24 26 27 30 32 35 36 0
1 3 4 6 8 13 14 16 18 24 25 27 28 31 33 36 37 0
2 4 5 7 9 14 15 17 19 25 26 28 29 32 34 37 38 0
1 3 5 6 8 10 15 16 18 20 26 27 29 30 33 35 38 0
2 4 6 7 9 11 16 17 19 20 21 27 28 30 31 34 36 0
1 3 5 7 8 10 12 17 18 21 22 28 29 31 32 35 37 0
2 4 6 8 9 11 13 18 19 22 23 29 30 32 33 36 38 0
1 3 5 7 9 10 12 14 19 20 23 24 30 31 33 34 37 0
1 2 4 6 8 10 11 13 15 21 24 25 31 32 34 35 38 0
2 3 5 7 9 11 12 14 16 20 22 25 26 32 33 35 36 0
4 6 8 9 11 13 15 17 18 22 23 25 26 32 33 36 38 0
5 7 9 10 12 14 16 18 19 20 23 24 26 27 33 34 37 0
1 6 8 10 11 13 15 17 19 21 24 25 27 28 34 35 38 0
1 2 7 9 11 12 14 16 18 20 22 25 26 28 29 35 36 0
2 3 8 10 12 13 15 17 19 21 23 26 27 29 30 36 37 0
1 3 4 9 11 13 14 16 18 22 24 27 28 30 31 37 38 0
2 4 5 10 12 14 15 17 19 20 23 25 28 29 31 32 38 0
1 3 5 6 11 13 15 16 18 20 21 24 26 29 30 32 33 0
2 4 6 7 12 14 16 17 19 21 22 25 27 30 31 33 34 0
1 3 5 7 8 13 15 17 18 22 23 26 28 31 32 34 35 0
2 4 6 8 9 14 16 18 19 23 24 27 29 32 33 35 36 0
1 3 5 7 9 10 15 17 19 24 25 28 30 33 34 36 37 0
1 2 4 6 8 10 11 16 18 25 26 29 31 34 35 37 38 0
2 3 5 7 9 11 12 17 19 20 26 27 30 32 35 36 38 0
1 3 4 6 8 10 12 13 18 20 21 27 28 31 33 36 37 0
2 4 5 7 9 11 13 14 19 21 22 28 29 32 34 37 38 0
1 3 5 6 8 10 12 14 15 20 22 23 29 30 33 35 38 0
2 4 6 7 9 11 13 15 16 20 21 23 24 30 31 34 36 0
3 5 7 8 10 12 14 16 17 21 22 24 25 31 32 35 37 0
3 4 6 8 10 12 13 15 17 21 23 26 27 29 34 36 37 0
4 5 7 9 11 13 14 16 18 22 24 27 28 30 35 37 38 0
5 6 8 10 12 14 15 17 19 20 23 25 28 29 31 36 38 0
1 6 7 9 11 13 15 16 18 20 21 24 26 29 30 32 37 0
2 7 8 10 12 14 16 17 19 21 22 25 27 30 31 33 38 0
1 3 8 9 11 13 15 17 18 20 22 23 26 28 31 32 34 0
2 4 9 10 12 14 16 18 19 21 23 24 27 29 32 33 35 0
1 3 5 10 11 13 15 17 19 22 24 25 28 30 33 34 36 0
1 2 4 6 11 12 14 16 18 23 25 26 29 31 34 35 37 0
2 3 5 7 12 13 15 17 19 24 26 27 30 32 35 36 38 0
1 3 4 6 8 13 14 16 18 20 25 27 28 31 33 36 37 0
2 4 5 7 9 14 15 17 19 21 26 28 29 32 34 37 38 0
1 3 5 6 8 10 15 16 18 20 22 27 29 30 33 35 38 0
2 4 6 7 9 11 16 17 19 20 21 23 28 30 31 34 36 0
1 3 5 7 8 10 12 17 18 21 22 24 29 31 32 35 37 0
2 4 6 8 9 11 13 18 19 22 23 25 30 32 33 36 38 0
1 3 5 7 9 10 12 14 19 20 23 24 26 31 33 34 37 0
1 2 4 6 8 10 11 13 15 21 24 25 27 32 34 35 38 0
2 3 5 7 9 11 12 14 16 20 22 25 26 28 33 35 36 0
4 6 8 9 11 13 15 17 18 22 23 25 30 32 33 36 38 0
5 7 9 10 12 14 16 18 19 20 23 24 26 31 33 34 37 0
1 6 8 10 11 13 15 17 19 21 24 25 27 32 34 35 38 0
1 2 7 9 11 12 14 16 18 20 22 25 26 28 33 35 36 0
2 3 8 10 12 13 15 17 19 21 23 26 27 29 34 36 37 0
1 3 4 9 11 13 14 16 18 22 24 27 28 30 35 37 38 0
2 4 5 10 12 14 15 17 19 20 23 25 28 29 31 36 38 0
1 3 5 6 11 13 15 16 18 20 21 24 26 29 30 32 37 0
2 4 6 7 12 14 16 17 19 21 22 25 27 30 31 33 38 0
1 3 5 7 8 13 15 17 18 20 22 23 26 28 31 32 34 0
2 4 6 8 9 14 16 18 19 21 23 24 27 29 32 33 35 0
1 3 5 7 9 10 15 17 19 22 24 25 28 30 33 34 36 0
1 2 4 6 8 10 11 16 18 23 25 26 29 31 34 35 37 0
2 3 5 7 9 11 12 17 19 24 26 27 30 32 35 36 38 0
1 3 4 6 8 10 12 13 18 20 25 27 28 31 33 36 37 0
2 4 5 7 9 11 13 14 19 21 26 28 29 32 34 37 38 0
1 3 5 6 8 10 12 14 15 20 22 27 29 30 33 35 38 0
2 4 6 7 9 11 13 15 16 20 21 23 28 30 31 34 36 0
3 5 7 8 10 12 14 16 17 21 22 24 29 31 32 35 37 0
4 6 8 10 13 15 16 17 22 23 25 29 30 31 34 36 37 0
5 7 9 11 14 16 17 18 23 24 26 30 31 32 35 37 38 0
6 8 10 12 15 17 18 19 20 24 25 27 31 32 33 36 38 0
1 7 9 11 13 16 18 19 20 21 25 26 28 32 33 34 37 0
1 2 8 10 12 14 17 19 21 22 26 27 29 33 34 35 38 0
1 2 3 9 11 13 15 18 20 22 23 27 28 30 34 35 36 0
2 3 4 10 12 14 16 19 21 23 24 28 29 31 35 36 37 0
1 3 4 5 11 13 15 17 22 24 25 29 30 32 36 37 38 0
2 4 5 6 12 14 16 18 20 23 25 26 30 31 33 37 38 0
3 5 6 7 13 15 17 19 20 21 24 26 27 31 32 34 38 0
1 4 6 7 8 14 16 18 20 21 22 25 27 28 32 33 35 0
2 5 7 8 9 15 17 19 21 22 23 26 28 29 33 34 36 0
1 3 6 8 9 10 16 18 22 23 24 27 29 30 34 35 37 0
2 4 7 9 10 11 17 19 23 24 25 28 30 31 35 36 38 0
1 3 5 8 10 11 12 18 20 24 25 26 29 31 32 36 37 0
2 4 6 9 11 12 13 19 21 25 26 27 30 32 33 37 38 0
1 3 5 7 10 12 13 14 20 22 26 27 28 31 33 34 38 0
2 4 6 8 11 13 14 15 20 21 23 27 28 29 32 34 35 0
3 5 7 9 12 14 15 16 21 22 24 28 29 30 33 35 36 0
4 5 6 8 11 13 15 17 22 23 25 28 29 30 34 36 37 0
5 6 7 9 12 14 16 18 23 24 26 29 30 31 35 37 38 0
6 7 8 10 13 15 17 19 20 24 25 27 30 31 32 36 38 0
1 7 8 9 11 14 16 18 20 21 25 26 28 31 32 33 37 0
2 8 9 10 12 15 17 19 21 22 26 27 29 32 33 34 38 0
1 3 9 10 11 13 16 18 20 22 23 27 28 30 33 34 35 0
2 4 10 11 12 14 17 19 21 23 24 28 29 31 34 35 36 0
1 3 5 11 12 13 15 18 22 24 25 29 30 32 35 36 37 0
2 4 6 12 13 14 16 19 23 25 26 30 31 33 36 37 38 0
1 3 5 7 13 14 15 17 20 24 26 27 31 32 34 37 38 0
2 4 6 8 14 15 16 18 20 21 25 27 28 32 33 35 38 0
3 5 7 9 15 16 17 19 20 21 22 26 28 29 33 34 36 0
1 4 6 8 10 16 17 18 21 22 23 27 29 30 34 35 37 0
2 5 7 9 11 17 18 19 22 23 24 28 30 31 35 36 38 0
1 3 6 8 10 12 18 19 20 23 24 25 29 31 32 36 37 0
1 2 4 7 9 11 13 19 21 24 25 26 30 32 33 37 38 0
1 2 3 5 8 10 12 14 20 22 25 26 27 31 33 34 38 0
2 3 4 6 9 11 13 15 20 21 23 26 27 28 32 34 35 0
3 4 5 7 10 12 14 16 21 22 24 27 28 29 33 35 36 0
3 4 6 8 10 12 14 15 17 18 21 26 27 29 34 37 38 0
4 5 7 9 11 13 15 16 18 19 20 22 27 28 30 35 38 0
1 5 6 8 10 12 14 16 17 19 20 21 23 28 29 31 36 0
1 2 6 7 9 11 13 15 17 18 21 22 24 29 30 32 37 0
2 3 7 8 10 12 14 16 18 19 22 23 25 30 31 33 38 0
1 3 4 8 9 11 13 15 17 19 20 23 24 26 31 32 34 0
1 2 4 5 9 10 12 14 16 18 21 24 25 27 32 33 35 0
2 3 5 6 10 11 13 15 17 19 22 25 26 28 33 34 36 0
1 3 4 6 7 11 12 14 16 18 23 26 27 29 34 35 37 0
2 4 5 7 8 12 13 15 17 19 24 27 28 30 35 36 38 0
1 3 5 6 8 9 13 14 16 18 20 25 28 29 31 36 37 0
2 4 6 7 9 10 14 15 17 19 21 26 29 30 32 37 38 0
1 3 5 7 8 10 11 15 16 18 20 22 27 30 31 33 38 0
2 4 6 8 9 11 12 16 17 19 20 21 23 28 31 32 34 0
1 3 5 7 9 10 12 13 17 18 21 22 24 29 32 33 35 0
2 4 6 8 10 11 13 14 18 19 22 23 25 30 33 34 36 0
1 3 5 7 9 11 12 14 15 19 23 24 26 31 34 35 37 0
1 2 4 6 8 10 12 13 15 16 24 25 27 32 35 36 38 0
2 3 5 7 9 11 13 14 16 17 20 25 26 28 33 36 37 0
3 4 6 7 9 11 13 15 17 18 21 22 25 30 32 33 38 0
4 5 7 8 10 12 14 16 18 19 20 22 23 26 31 33 34 0
1 5 6 8 9 11 13 15 17 19 21 23 24 27 32 34 35 0
1 2 6 7 9 10 12 14 16 18 22 24 25 28 33 35 36 0
2 3 7 8 10 11 13 15 17 19 23 25 26 29 34 36 37 0
1 3 4 8 9 11 12 14 16 18 24 26 27 30 35 37 38 0
2 4 5 9 10 12 13 15 17 19 20 25 27 28 31 36 38 0
1 3 5 6 10 11 13 14 16 18 20 21 26 28 29 32 37 0
2 4 6 7 11 12 14 15 17 19 21 22 27 29 30 33 38 0
1 3 5 7 8 12 13 15 16 18 20 22 23 28 30 31 34 0
2 4 6 8 9 13 14 16 17 19 21 23 24 29 31 32 35 0
1 3 5 7 9 10 14 15 17 18 22 24 25 30 32 33 36 0
2 4 6 8 10 11 15 16 18 19 23 25 26 31 33 34 37 0
1 3 5 7 9 11 12 16 17 19 24 26 27 32 34 35 38 0
1 2 4 6 8 10 12 13 17 18 20 25 27 28 33 35 36 0
2 3 5 7 9 11 13 14 18 19 21 26 28 29 34 36 37 0
1 3 4 6 8 10 12 14 15 19 22 27 29 30 35 37 38 0
1 2 4 5 7 9 11 13 15 16 20 23 28 30 31 36 38 0
2 3 5 6 8 10 12 14 16 17 20 21 24 29 31 32 37 0
3 4 6 8 10 12 13 14 15 17 18 21 22 27 29 30 36 38 0
4 5 7 9 11 13 14 15 16 18 19 20 22 23 28 30 31 37 0
1 5 6 8 10 12 14 15 16 17 19 21 23 24 29 31 32 38 0
1 2 6 7 9 11 13 15 16 17 18 20 22 24 25 30 32 33 0
2 3 7 8 10 12 14 16 17 18 19 21 23 25 26 31 33 34 0
1 3 4 8 9 11 13 15 17 18 19 22 24 26 27 32 34 35 0
1 2 4 5 9 10 12 14 16 18 19 23 25 27 28 33 35 36 0
1 2 3 5 6 10 11 13 15 17 19 24 26 28 29 34 36 37 0
1 2 3 4 6 7 11 12 14 16 18 25 27 29 30 35 37 38 0
2 3 4 5 7 8 12 13 15 17 19 20 26 28 30 31 36 38 0
1 3 4 5 6 8 9 13 14 16 18 20 21 27 29 31 32 37 0
2 4 5 6 7 9 10 14 15 17 19 21 22 28 30 32 33 38 0
1 3 5 6 7 8 10 11 15 16 18 20 22 23 29 31 33 34 0
2 4 6 7 8 9 11 12 16 17 19 21 23 24 30 32 34 35 0
1 3 5 7 8 9 10 12 13 17 18 22 24 25 31 33 35 36 0
2 4 6 8 9 10 11 13 14 18 19 23 25 26 32 34 36 37 0
1 3 5 7 9 10 11 12 14 15 19 24 26 27 33 35 37 38 0
1 2 4 6 8 10 11 12 13 15 16 20 25 27 28 34 36 38 0
2 3 5 7 9 11 12 13 14 16 17 20 21 26 28 29 35 37 0
3 4 6 7 8 9 11 13 15 17 18 21 23 29 30 32 37 38 0
4 5 7 8 9 10 12 14 16 18 19 20 22 24 30 31 33 38 0
1 5 6 8 9 10 11 13 15 17 19 20 21 23 25 31 32 34 0
1 2 6 7 9 10 11 12 14 16 18 21 22 24 26 32 33 35 0
2 3 7 8 10 11 12 13 15 17 19 22 23 25 27 33 34 36 0
1 3 4 8 9 11 12 13 14 16 18 23 24 26 28 34 35 37 0
2 4 5 9 10 12 13 14 15 17 19 24 25 27 29 35 36 38 0
1 3 5 6 10 11 13 14 15 16 18 20 25 26 28 30 36 37 0
2 4 6 7 11 12 14 15 16 17 19 21 26 27 29 31 37 38 0
1 3 5 7 8 12 13 15 16 17 18 20 22 27 28 30 32 38 0
2 4 6 8 9 13 14 16 17 18 19 20 21 23 28 29 31 33 0
1 3 5 7 9 10 14 15 17 18 19 21 22 24 29 30 32 34 0
1 2 4 6 8 10 11 15 16 18 19 22 23 25 30 31 33 35 0
1 2 3 5 7 9 11 12 16 17 19 23 24 26 31 32 34 36 0
1 2 3 4 6 8 10 12 13 17 18 24 25 27 32 33 35 37 0
2 3 4 5 7 9 11 13 14 18 19 25 26 28 33 34 36 38 0
1 3 4 5 6 8 10 12 14 15 19 20 26 27 29 34 35 37 0
1 2 4 5 6 7 9 11 13 15 16 21 27 28 30 35 36 38 0
2 3 5 6 7 8 10 12 14 16 17 20 22 28 29 31 36 37 0
4 6 8 10 11 13 15 17 18 22 23 25 30 36 38 0
5 7 9 11 12 14 16 18 19 20 23 24 26 31 37 0
1 6 8 10 12 13 15 17 19 21 24 25 27 32 38 0
1 2 7 9 11 13 14 16 18 20 22 25 26 28 33 0
2 3 8 10 12 14 15 17 19 21 23 26 27 29 34 0
1 3 4 9 11 13 15 16 18 22 24 27 28 30 35 0
2 4 5 10 12 14 16 17 19 23 25 28 29 31 36 0
1 3 5 6 11 13 15 17 18 24 26 29 30 32 37 0
2 4 6 7 12 14 16 18 19 25 27 30 31 33 38 0
1 3 5 7 8 13 15 17 19 20 26 28 31 32 34 0
1 2 4 6 8 9 14 16 18 21 27 29 32 33 35 0
2 3 5 7 9 10 15 17 19 22 28 30 33 34 36 0
1 3 4 6 8 10 11 16 18 23 29 31 34 35 37 0
2 4 5 7 9 11 12 17 19 24 30 32 35 36 38 0
1 3 5 6 8 10 12 13 18 20 25 31 33 36 37 0
2 4 6 7 9 11 13 14 19 21 26 32 34 37 38 0
1 3 5 7 8 10 12 14 15 20 22 27 33 35 38 0
2 4 6 8 9 11 13 15 16 20 21 23 28 34 36 0
3 5 7 9 10 12 14 16 17 21 22 24 29 35 37 0
3 4 6 8 10 11 13 15 17 21 23 29 34 36 37 0
4 5 7 9 11 12 14 16 18 22 24 30 35 37 38 0
5 6 8 10 12 13 15 17 19 20 23 25 31 36 38 0
1 6 7 9 11 13 14 16 18 20 21 24 26 32 37 0
2 7 8 10 12 14 15 17 19 21 22 25 27 33 38 0
1 3 8 9 11 13 15 16 18 20 22 23 26 28 34 0
2 4 9 10 12 14 16 17 19 21 23 24 27 29 35 0
1 3 5 10 11 13 15 17 18 22 24 25 28 30 36 0
2 4 6 11 12 14 16 18 19 23 25 26 29 31 37 0
1 3 5 7 12 13 15 17 19 24 26 27 30 32 38 0
1 2 4 6 8 13 14 16 18 20 25 27 28 31 33 0
2 3 5 7 9 14 15 17 19 21 26 28 29 32 34 0
1 3 4 6 8 10 15 16 18 22 27 29 30 33 35 0
2 4 5 7 9 11 16 17 19 23 28 30 31 34 36 0
1 3 5 6 8 10 12 17 18 24 29 31 32 35 37 0
2 4 6 7 9 11 13 18 19 25 30 32 33 36 38 0
1 3 5 7 8 10 12 14 19 20 26 31 33 34 37 0
1 2 4 6 8 9 11 13 15 21 27 32 34 35 38 0
2 3 5 7 9 10 12 14 16 20 22 28 33 35 36 0
3 4 6 8 10 15 17 18 21 23 26 30 33 38 0
4 5 7 9 11 16 18 19 20 22 24 27 31 34 0
1 5 6 8 10 12 17 19 21 23 25 28 32 35 0
1 2 6 7 9 11 13 18 22 24 26 29 33 36 0
2 3 7 8 10 12 14 19 23 25 27 30 34 37 0
1 3 4 8 9 11 13 15 24 26 28 31 35 38 0
2 4 5 9 10 12 14 16 20 25 27 29 32 36 0
3 5 6 10 11 13 15 17 21 26 28 30 33 37 0
4 6 7 11 12 14 16 18 22 27 29 31 34 38 0
5 7 8 12 13 15 17 19 20 23 28 30 32 35 0
1 6 8 9 13 14 16 18 21 24 29 31 33 36 0
2 7 9 10 14 15 17 19 22 25 30 32 34 37 0
1 3 8 10 11 15 16 18 23 26 31 33 35 38 0
2 4 9 11 12 16 17 19 20 24 27 32 34 36 0
1 3 5 10 12 13 17 18 21 25 28 33 35 37 0
2 4 6 11 13 14 18 19 22 26 29 34 36 38 0
1 3 5 7 12 14 15 19 20 23 27 30 35 37 0
1 2 4 6 8 13 15 16 21 24 28 31 36 38 0
2 3 5 7 9 14 16 17 20 22 25 29 32 37 0
3 4 6 11 13 15 17 18 21 26 29 33 36 38 0
4 5 7 12 14 16 18 19 20 22 27 30 34 37 0
1 5 6 8 13 15 17 19 21 23 28 31 35 38 0
1 2 6 7 9 14 16 18 20 22 24 29 32 36 0
2 3 7 8 10 15 17 19 21 23 25 30 33 37 0
1 3 4 8 9 11 16 18 22 24 26 31 34 38 0
2 4 5 9 10 12 17 19 20 23 25 27 32 35 0
1 3 5 6 10 11 13 18 21 24 26 28 33 36 0
2 4 6 7 11 12 14 19 22 25 27 29 34 37 0
1 3 5 7 8 12 13 15 23 26 28 30 35 38 0
2 4 6 8 9 13 14 16 20 24 27 29 31 36 0
3 5 7 9 10 14 15 17 21 25 28 30 32 37 0
4 6 8 10 11 15 16 18 22 26 29 31 33 38 0
5 7 9 11 12 16 17 19 20 23 27 30 32 34 0
1 6 8 10 12 13 17 18 21 24 28 31 33 35 0
2 7 9 11 13 14 18 19 22 25 29 32 34 36 0
1 3 8 10 12 14 15 19 23 26 30 33 35 37 0
1 2 4 9 11 13 15 16 24 27 31 34 36 38 0
2 3 5 10 12 14 16 17 20 25 28 32 35 37 0
4 5 8 11 12 14 15 17 22 23 25 26 27 28 29 34 36 37 0
5 6 9 12 13 15 16 18 23 24 26 27 28 29 30 35 37 38 0
6 7 10 13 14 16 17 19 20 24 25 27 28 29 30 31 36 38 0
1 7 8 11 14 15 17 18 20 21 25 26 28 29 30 31 32 37 0
2 8 9 12 15 16 18 19 21 22 26 27 29 30 31 32 33 38 0
1 3 9 10 13 16 17 19 20 22 23 27 28 30 31 32 33 34 0
1 2 4 10 11 14 17 18 21 23 24 28 29 31 32 33 34 35 0
2 3 5 11 12 15 18 19 22 24 25 29 30 32 33 34 35 36 0
1 3 4 6 12 13 16 19 23 25 26 30 31 33 34 35 36 37 0
1 2 4 5 7 13 14 17 24 26 27 31 32 34 35 36 37 38 0
2 3 5 6 8 14 15 18 20 25 27 28 32 33 35 36 37 38 0
3 4 6 7 9 15 16 19 20 21 26 28 29 33 34 36 37 38 0
1 4 5 7 8 10 16 17 20 21 22 27 29 30 34 35 37 38 0
2 5 6 8 9 11 17 18 20 21 22 23 28 30 31 35 36 38 0
3 6 7 9 10 12 18 19 20 21 22 23 24 29 31 32 36 37 0
1 4 7 8 10 11 13 19 21 22 23 24 25 30 32 33 37 38 0
1 2 5 8 9 11 12 14 20 22 23 24 25 26 31 33 34 38 0
2 3 6 9 10 12 13 15 20 21 23 24 25 26 27 32 34 35 0
3 4 7 10 11 13 14 16 21 22 24 25 26 27 28 33 35 36 0
4 6 7 9 10 13 16 17 22 23 25 30 31 32 33 34 36 37 0
5 7 8 10 11 14 17 18 23 24 26 31 32 33 34 35 37 38 0
6 8 9 11 12 15 18 19 20 24 25 27 32 33 34 35 36 38 0
1 7 9 10 12 13 16 19 20 21 25 26 28 33 34 35 36 37 0
1 2 8 10 11 13 14 17 21 22 26 27 29 34 35 36 37 38 0
2 3 9 11 12 14 15 18 20 22 23 27 28 30 35 36 37 38 0
3 4 10 12 13 15 16 19 20 21 23 24 28 29 31 36 37 38 0
1 4 5 11 13 14 16 17 20 21 22 24 25 29 30 32 37 38 0
2 5 6 12 14 15 17 18 20 21 22 23 25 26 30 31 33 38 0
3 6 7 13 15 16 18 19 20 21 22 23 24 26 27 31 32 34 0
1 4 7 8 14 16 17 19 21 22 23 24 25 27 28 32 33 35 0
1 2 5 8 9 15 17 18 22 23 24 25 26 28 29 33 34 36 0
2 3 6 9 10 16 18 19 23 24 25 26 27 29 30 34 35 37 0
1 3 4 7 10 11 17 19 24 25 26 27 28 30 31 35 36 38 0
1 2 4 5 8 11 12 18 20 25 26 27 28 29 31 32 36 37 0
2 3 5 6 9 12 13 19 21 26 27 28 29 30 32 33 37 38 0
1 3 4 6 7 10 13 14 20 22 27 28 29 30 31 33 34 38 0
2 4 5 7 8 11 14 15 20 21 23 28 29 30 31 32 34 35 0
3 5 6 8 9 12 15 16 21 22 24 29 30 31 32 33 35 36 0
5 8 11 12 15 17 23 25 26 27 28 29 32 33 34 36 37 0
6 9 12 13 16 18 24 26 27 28 29 30 33 34 35 37 38 0
7 10 13 14 17 19 20 25 27 28 29 30 31 34 35 36 38 0
1 8 11 14 15 18 20 21 26 28 29 30 31 32 35 36 37 0
2 9 12 15 16 19 21 22 27 29 30 31 32 33 36 37 38 0
1 3 10 13 16 17 20 22 23 28 30 31 32 33 34 37 38 0
2 4 11 14 17 18 20 21 23 24 29 31 32 33 34 35 38 0
3 5 12 15 18 19 20 21 22 24 25 30 32 33 34 35 36 0
1 4 6 13 16 19 21 22 23 25 26 31 33 34 35 36 37 0
1 2 5 7 14 17 22 23 24 26 27 32 34 35 36 37 38 0
2 3 6 8 15 18 20 23 24 25 27 28 33 35 36 37 38 0
3 4 7 9 16 19 20 21 24 25 26 28 29 34 36 37 38 0
1 4 5 8 10 17 20 21 22 25 26 27 29 30 35 37 38 0
2 5 6 9 11 18 20 21 22 23 26 27 28 30 31 36 38 0
3 6 7 10 12 19 20 21 22 23 24 27 28 29 31 32 37 0
1 4 7 8 11 13 21 22 23 24 25 28 29 30 32 33 38 0
2 5 8 9 12 14 20 22 23 24 25 26 29 30 31 33 34 0
3 6 9 10 13 15 21 23 24 25 26 27 30 31 32 34 35 0
4 7 10 11 14 16 22 24 25 26 27 28 31 32 33 35 36 0
4 6 9 10 13 16 22 23 25 26 27 30 31 32 33 34 36 0
5 7 10 11 14 17 23 24 26 27 28 31 32 33 34 35 37 0
6 8 11 12 15 18 24 25 27 28 29 32 33 34 35 36 38 0
7 9 12 13 16 19 20 25 26 28 29 30 33 34 35 36 37 0
1 8 10 13 14 17 21 26 27 29 30 31 34 35 36 37 38 0
2 9 11 14 15 18 20 22 27 28 30 31 32 35 36 37 38 0
3 10 12 15 16 19 20 21 23 28 29 31 32 33 36 37 38 0
1 4 11 13 16 17 20 21 22 24 29 30 32 33 34 37 38 0
2 5 12 14 17 18 20 21 22 23 25 30 31 33 34 35 38 0
3 6 13 15 18 19 20 21 22 23 24 26 31 32 34 35 36 0
1 4 7 14 16 19 21 22 23 24 25 27 32 33 35 36 37 0
1 2 5 8 15 17 22 23 24 25 26 28 33 34 36 37 38 0
2 3 6 9 16 18 20 23 24 25 26 27 29 34 35 37 38 0
3 4 7 10 17 19 20 21 24 25 26 27 28 30 35 36 38 0
1 4 5 8 11 18 20 21 22 25 26 27 28 29 31 36 37 0
2 5 6 9 12 19 21 22 23 26 27 28 29 30 32 37 38 0
1 3 6 7 10 13 20 22 23 24 27 28 29 30 31 33 38 0
2 4 7 8 11 14 20 21 23 24 25 28 29 30 31 32 34 0
3 5 8 9 12 15 21 22 24 25 26 29 30 31 32 33 35 0
3 4 5 7 9 11 13 14 15 17 18 21 22 28 29 34 38 0
4 5 6 8 10 12 14 15 16 18 19 20 22 23 29 30 35 0
1 5 6 7 9 11 13 15 16 17 19 21 23 24 30 31 36 0
1 2 6 7 8 10 12 14 16 17 18 22 24 25 31 32 37 0
2 3 7 8 9 11 13 15 17 18 19 23 25 26 32 33 38 0
1 3 4 8 9 10 12 14 16 18 19 20 24 26 27 33 34 0
1 2 4 5 9 10 11 13 15 17 19 21 25 27 28 34 35 0
1 2 3 5 6 10 11 12 14 16 18 22 26 28 29 35 36 0
2 3 4 6 7 11 12 13 15 17 19 23 27 29 30 36 37 0
1 3 4 5 7 8 12 13 14 16 18 24 28 30 31 37 38 0
2 4 5 6 8 9 13 14 15 17 19 20 25 29 31 32 38 0
1 3 5 6 7 9 10 14 15 16 18 20 21 26 30 32 33 0
2 4 6 7 8 10 11 15 16 17 19 21 22 27 31 33 34 0
1 3 5 7 8 9 11 12 16 17 18 22 23 28 32 34 35 0
2 4 6 8 9 10 12 13 17 18 19 23 24 29 33 35 36 0
1 3 5 7 9 10 11 13 14 18 19 24 25 30 34 36 37 0
1 2 4 6 8 10 11 12 14 15 19 25 26 31 35 37 38 0
1 2 3 5 7 9 11 12 13 15 16 20 26 27 32 36 38 0
2 3 4 6 8 10 12 13 14 16 17 20 21 27 28 33 37 0
3 4 6 7 8 10 12 14 16 17 18 21 25 30 31 37 38 0
4 5 7 8 9 11 13 15 17 18 19 20 22 26 31 32 38 0
1 5 6 8 9 10 12 14 16 18 19 20 21 23 27 32 33 0
1 2 6 7 9 10 11 13 15 17 19 21 22 24 28 33 34 0
1 2 3 7 8 10 11 12 14 16 18 22 23 25 29 34 35 0
2 3 4 8 9 11 12 13 15 17 19 23 24 26 30 35 36 0
1 3 4 5 9 10 12 13 14 16 18 24 25 27 31 36 37 0
2 4 5 6 10 11 13 14 15 17 19 25 26 28 32 37 38 0
1 3 5 6 7 11 12 14 15 16 18 20 26 27 29 33 38 0
2 4 6 7 8 12 13 15 16 17 19 20 21 27 28 30 34 0
1 3 5 7 8 9 13 14 16 17 18 21 22 28 29 31 35 0
2 4 6 8 9 10 14 15 17 18 19 22 23 29 30 32 36 0
1 3 5 7 9 10 11 15 16 18 19 23 24 30 31 33 37 0
1 2 4 6 8 10 11 12 16 17 19 24 25 31 32 34 38 0
1 2 3 5 7 9 11 12 13 17 18 20 25 26 32 33 35 0
2 3 4 6 8 10 12 13 14 18 19 21 26 27 33 34 36 0
1 3 4 5 7 9 11 13 14 15 19 22 27 28 34 35 37 0
1 2 4 5 6 8 10 12 14 15 16 23 28 29 35 36 38 0
2 3 5 6 7 9 11 13 15 16 17 20 24 29 30 36 37 0
3 4 6 9 11 12 14 15 17 18 21 22 26 27 29 32 38 0
4 5 7 10 12 13 15 16 18 19 20 22 23 27 28 30 33 0
1 5 6 8 11 13 14 16 17 19 21 23 24 28 29 31 34 0
1 2 6 7 9 12 14 15 17 18 22 24 25 29 30 32 35 0
2 3 7 8 10 13 15 16 18 19 23 25 26 30 31 33 36 0
1 3 4 8 9 11 14 16 17 19 24 26 27 31 32 34 37 0
1 2 4 5 9 10 12 15 17 18 25 27 28 32 33 35 38 0
2 3 5 6 10 11 13 16 18 19 20 26 28 29 33 34 36 0
1 3 4 6 7 11 12 14 17 19 21 27 29 30 34 35 37 0
1 2 4 5 7 8 12 13 15 18 22 28 30 31 35 36 38 0
2 3 5 6 8 9 13 14 16 19 20 23 29 31 32 36 37 0
1 3 4 6 7 9 10 14 15 17 21 24 30 32 33 37 38 0
2 4 5 7 8 10 11 15 16 18 20 22 25 31 33 34 38 0
3 5 6 8 9 11 12 16 17 19 20 21 23 26 32 34 35 0
1 4 6 7 9 10 12 13 17 18 21 22 24 27 33 35 36 0
2 5 7 8 10 11 13 14 18 19 22 23 25 28 34 36 37 0
1 3 6 8 9 11 12 14 15 19 23 24 26 29 35 37 38 0
1 2 4 7 9 10 12 13 15 16 20 24 25 27 30 36 38 0
2 3 5 8 10 11 13 14 16 17 20 21 25 26 28 31 37 0
3 4 6 7 9 10 12 15 17 18 21 27 30 32 33 37 38 0
4 5 7 8 10 11 13 16 18 19 20 22 28 31 33 34 38 0
1 5 6 8 9 11 12 14 17 19 20 21 23 29 32 34 35 0
1 2 6 7 9 10 12 13 15 18 21 22 24 30 33 35 36 0
2 3 7 8 10 11 13 14 16 19 22 23 25 31 34 36 37 0
1 3 4 8 9 11 12 14 15 17 23 24 26 32 35 37 38 0
2 4 5 9 10 12 13 15 16 18 20 24 25 27 33 36 38 0
3 5 6 10 11 13 14 16 17 19 20 21 25 26 28 34 37 0
1 4 6 7 11 12 14 15 17 18 21 22 26 27 29 35 38 0
2 5 7 8 12 13 15 16 18 19 20 22 23 27 28 30 36 0
1 3 6 8 9 13 14 16 17 19 21 23 24 28 29 31 37 0
1 2 4 7 9 10 14 15 17 18 22 24 25 29 30 32 38 0
2 3 5 8 10 11 15 16 18 19 20 23 25 26 30 31 33 0
1 3 4 6 9 11 12 16 17 19 21 24 26 27 31 32 34 0
1 2 4 5 7 10 12 13 17 18 22 25 27 28 32 33 35 0
2 3 5 6 8 11 13 14 18 19 23 26 28 29 33 34 36 0
1 3 4 6 7 9 12 14 15 19 24 27 29 30 34 35 37 0
1 2 4 5 7 8 10 13 15 16 25 28 30 31 35 36 38 0
2 3 5 6 8 9 11 14 16 17 20 26 29 31 32 36 37 0
5 6 8 11 12 15 17 18 23 25 27 28 29 32 33 34 36 38 0
6 7 9 12 13 16 18 19 20 24 26 28 29 30 33 34 35 37 0
1 7 8 10 13 14 17 19 21 25 27 29 30 31 34 35 36 38 0
1 2 8 9 11 14 15 18 20 22 26 28 30 31 32 35 36 37 0
2 3 9 10 12 15 16 19 21 23 27 29 31 32 33 36 37 38 0
1 3 4 10 11 13 16 17 20 22 24 28 30 32 33 34 37 38 0
2 4 5 11 12 14 17 18 20 21 23 25 29 31 33 34 35 38 0
3 5 6 12 13 15 18 19 20 21 22 24 26 30 32 34 35 36 0
1 4 6 7 13 14 16 19 21 22 23 25 27 31 33 35 36 37 0
1 2 5 7 8 14 15 17 22 23 24 26 28 32 34 36 37 38 0
2 3 6 8 9 15 16 18 20 23 24 25 27 29 33 35 37 38 0
3 4 7 9 10 16 17 19 20 21 24 25 26 28 30 34 36 38 0
1 4 5 8 10 11 17 18 20 21 22 25 26 27 29 31 35 37 0
2 5 6 9 11 12 18 19 21 22 23 26 27 28 30 32 36 38 0
1 3 6 7 10 12 13 19 20 22 23 24 27 28 29 31 33 37 0
1 2 4 7 8 11 13 14 21 23 24 25 28 29 30 32 34 38 0
2 3 5 8 9 12 14 15 20 22 24 25 26 29 30 31 33 35 0
3 4 6 9 10 13 15 16 21 23 25 26 27 30 31 32 34 36 0
4 5 7 10 11 14 16 17 22 24 26 27 28 31 32 33 35 37 0
3 4 6 8 10 11 13 15 16 18 21 26 29 31 36 37 38 0
4 5 7 9 11 12 14 16 17 19 20 22 27 30 32 37 38 0
1 5 6 8 10 12 13 15 17 18 20 21 23 28 31 33 38 0
2 6 7 9 11 13 14 16 18 19 20 21 22 24 29 32 34 0
1 3 7 8 10 12 14 15 17 19 21 22 23 25 30 33 35 0
1 2 4 8 9 11 13 15 16 18 22 23 24 26 31 34 36 0
2 3 5 9 10 12 14 16 17 19 23 24 25 27 32 35 37 0
1 3 4 6 10 11 13 15 17 18 24 25 26 28 33 36 38 0
2 4 5 7 11 12 14 16 18 19 20 25 26 27 29 34 37 0
1 3 5 6 8 12 13 15 17 19 21 26 27 28 30 35 38 0
1 2 4 6 7 9 13 14 16 18 20 22 27 28 29 31 36 0
2 3 5 7 8 10 14 15 17 19 21 23 28 29 30 32 37 0
1 3 4 6 8 9 11 15 16 18 22 24 29 30 31 33 38 0
2 4 5 7 9 10 12 16 17 19 20 23 25 30 31 32 34 0
1 3 5 6 8 10 11 13 17 18 21 24 26 31 32 33 35 0
2 4 6 7 9 11 12 14 18 19 22 25 27 32 33 34 36 0
1 3 5 7 8 10 12 13 15 19 23 26 28 33 34 35 37 0
1 2 4 6 8 9 11 13 14 16 24 27 29 34 35 36 38 0
2 3 5 7 9 10 12 14 15 17 20 25 28 30 35 36 37 0
3 5 6 8 10 11 13 15 17 18 21 22 23 28 30 33 38 0
4 6 7 9 11 12 14 16 18 19 20 22 23 24 29 31 34 0
1 5 7 8 10 12 13 15 17 19 21 23 24 25 30 32 35 0
1 2 6 8 9 11 13 14 16 18 22 24 25 26 31 33 36 0
2 3 7 9 10 12 14 15 17 19 23 25 26 27 32 34 37 0
1 3 4 8 10 11 13 15 16 18 24 26 27 28 33 35 38 0
2 4 5 9 11 12 14 16 17 19 20 25 27 28 29 34 36 0
1 3 5 6 10 12 13 15 17 18 21 26 28 29 30 35 37 0
2 4 6 7 11 13 14 16 18 19 22 27 29 30 31 36 38 0
1 3 5 7 8 12 14 15 17 19 20 23 28 30 31 32 37 0
1 2 4 6 8 9 13 15 16 18 21 24 29 31 32 33 38 0
2 3 5 7 9 10 14 16 17 19 20 22 25 30 32 33 34 0
1 3 4 6 8 10 11 15 17 18 21 23 26 31 33 34 35 0
2 4 5 7 9 11 12 16 18 19 22 24 27 32 34 35 36 0
1 3 5 6 8 10 12 13 17 19 23 25 28 33 35 36 37 0
1 2 4 6 7 9 11 13 14 18 24 26 29 34 36 37 38 0
2 3 5 7 8 10 12 14 15 19 20 25 27 30 35 37 38 0
1 3 4 6 8 9 11 13 15 16 20 21 26 28 31 36 38 0
2 4 5 7 9 10 12 14 16 17 20 21 22 27 29 32 37 0
3 5 7 10 12 14 15 17 18 21 22 27 28 29 36 38 0
4 6 8 11 13 15 16 18 19 20 22 23 28 29 30 37 0
1 5 7 9 12 14 16 17 19 21 23 24 29 30 31 38 0
1 2 6 8 10 13 15 17 18 20 22 24 25 30 31 32 0
2 3 7 9 11 14 16 18 19 21 23 25 26 31 32 33 0
1 3 4 8 10 12 15 17 19 22 24 26 27 32 33 34 0
1 2 4 5 9 11 13 16 18 23 25 27 28 33 34 35 0
2 3 5 6 10 12 14 17 19 24 26 28 29 34 35 36 0
1 3 4 6 7 11 13 15 18 25 27 29 30 35 36 37 0
2 4 5 7 8 12 14 16 19 26 28 30 31 36 37 38 0
1 3 5 6 8 9 13 15 17 20 27 29 31 32 37 38 0
2 4 6 7 9 10 14 16 18 20 21 28 30 32 33 38 0
3 5 7 8 10 11 15 17 19 20 21 22 29 31 33 34 0
1 4 6 8 9 11 12 16 18 21 22 23 30 32 34 35 0
2 5 7 9 10 12 13 17 19 22 23 24 31 33 35 36 0
1 3 6 8 10 11 13 14 18 23 24 25 32 34 36 37 0
2 4 7 9 11 12 14 15 19 24 25 26 33 35 37 38 0
1 3 5 8 10 12 13 15 16 20 25 26 27 34 36 38 0
2 4 6 9 11 13 14 16 17 20 21 26 27 28 35 37 0
3 4 6 7 9 11 14 16 18 21 23 30 31 32 37 38 0
4 5 7 8 10 12 15 17 19 20 22 24 31 32 33 38 0
1 5 6 8 9 11 13 16 18 20 21 23 25 32 33 34 0
2 6 7 9 10 12 14 17 19 21 22 24 26 33 34 35 0
1 3 7 8 10 11 13 15 18 22 23 25 27 34 35 36 0
2 4 8 9 11 12 14 16 19 23 24 26 28 35 36 37 0
1 3 5 9 10 12 13 15 17 24 25 27 29 36 37 38 0
2 4 6 10 11 13 14 16 18 20 25 26 28 30 37 38 0
3 5 7 11 12 14 15 17 19 20 21 26 27 29 31 38 0
1 4 6 8 12 13 15 16 18 20 21 22 27 28 30 32 0
2 5 7 9 13 14 16 17 19 21 22 23 28 29 31 33 0
1 3 6 8 10 14 15 17 18 22 23 24 29 30 32 34 0
2 4 7 9 11 15 16 18 19 23 24 25 30 31 33 35 0
1 3 5 8 10 12 16 17 19 24 25 26 31 32 34 36 0
1 2 4 6 9 11 13 17 18 25 26 27 32 33 35 37 0
2 3 5 7 10 12 14 18 19 26 27 28 33 34 36 38 0
1 3 4 6 8 11 13 15 19 20 27 28 29 34 35 37 0
1 2 4 5 7 9 12 14 16 21 28 29 30 35 36 38 0
2 3 5 6 8 10 13 15 17 20 22 29 30 31 36 37 0
3 5 7 10 12 13 15 16 17 18 21 22 27 28 29 31 37 38 0
4 6 8 11 13 14 16 17 18 19 20 22 23 28 29 30 32 38 0
1 5 7 9 12 14 15 17 18 19 20 21 23 24 29 30 31 33 0
1 2 6 8 10 13 15 16 18 19 21 22 24 25 30 31 32 34 0
1 2 3 7 9 11 14 16 17 19 22 23 25 26 31 32 33 35 0
1 2 3 4 8 10 12 15 17 18 23 24 26 27 32 33 34 36 0
2 3 4 5 9 11 13 16 18 19 24 25 27 28 33 34 35 37 0
1 3 4 5 6 10 12 14 17 19 25 26 28 29 34 35 36 38 0
1 2 4 5 6 7 11 13 15 18 20 26 27 29 30 35 36 37 0
2 3 5 6 7 8 12 14 16 19 21 27 28 30 31 36 37 38 0
1 3 4 6 7 8 9 13 15 17 20 22 28 29 31 32 37 38 0
2 4 5 7 8 9 10 14 16 18 20 21 23 29 30 32 33 38 0
3 5 6 8 9 10 11 15 17 19 20 21 22 24 30 31 33 34 0
1 4 6 7 9 10 11 12 16 18 21 22 23 25 31 32 34 35 0
2 5 7 8 10 11 12 13 17 19 22 23 24 26 32 33 35 36 0
1 3 6 8 9 11 12 13 14 18 23 24 25 27 33 34 36 37 0
2 4 7 9 10 12 13 14 15 19 24 25 26 28 34 35 37 38 0
1 3 5 8 10 11 13 14 15 16 20 25 26 27 29 35 36 38 0
2 4 6 9 11 12 14 15 16 17 20 21 26 27 28 30 36 37 0
3 4 5 6 8 9 11 14 16 18 21 22 28 30 31 32 37 38 0
4 5 6 7 9 10 12 15 17 19 20 22 23 29 31 32 33 38 0
1 5 6 7 8 10 11 13 16 18 20 21 23 24 30 32 33 34 0
2 6 7 8 9 11 12 14 17 19 21 22 24 25 31 33 34 35 0
1 3 7 8 9 10 12 13 15 18 22 23 25 26 32 34 35 36 0
2 4 8 9 10 11 13 14 16 19 23 24 26 27 33 35 36 37 0
1 3 5 9 10 11 12 14 15 17 24 25 27 28 34 36 37 38 0
2 4 6 10 11 12 13 15 16 18 20 25 26 28 29 35 37 38 0
3 5 7 11 12 13 14 16 17 19 20 21 26 27 29 30 36 38 0
1 4 6 8 12 13 14 15 17 18 20 21 22 27 28 30 31 37 0
2 5 7 9 13 14 15 16 18 19 21 22 23 28 29 31 32 38 0
1 3 6 8 10 14 15 16 17 19 20 22 23 24 29 30 32 33 0
1 2 4 7 9 11 15 16 17 18 21 23 24 25 30 31 33 34 0
2 3 5 8 10 12 16 17 18 19 22 24 25 26 31 32 34 35 0
1 3 4 6 9 11 13 17 18 19 23 25 26 27 32 33 35 36 0
1 2 4 5 7 10 12 14 18 19 24 26 27 28 33 34 36 37 0
1 2 3 5 6 8 11 13 15 19 25 27 28 29 34 35 37 38 0
1 2 3 4 6 7 9 12 14 16 20 26 28 29 30 35 36 38 0
2 3 4 5 7 8 10 13 15 17 20 21 27 29 30 31 36 37 0
3 5 7 10 11 13 16 17 21 22 23 27 28 29 31 33 34 37 0
4 6 8 11 12 14 17 18 22 23 24 28 29 30 32 34 35 38 0
5 7 9 12 13 15 18 19 20 23 24 25 29 30 31 33 35 36 0
1 6 8 10 13 14 16 19 21 24 25 26 30 31 32 34 36 37 0
1 2 7 9 11 14 15 17 22 25 26 27 31 32 33 35 37 38 0
2 3 8 10 12 15 16 18 20 23 26 27 28 32 33 34 36 38 0
3 4 9 11 13 16 17 19 20 21 24 27 28 29 33 34 35 37 0
1 4 5 10 12 14 17 18 21 22 25 28 29 30 34 35 36 38 0
2 5 6 11 13 15 18 19 20 22 23 26 29 30 31 35 36 37 0
1 3 6 7 12 14 16 19 21 23 24 27 30 31 32 36 37 38 0
1 2 4 7 8 13 15 17 20 22 24 25 28 31 32 33 37 38 0
2 3 5 8 9 14 16 18 20 21 23 25 26 29 32 33 34 38 0
3 4 6 9 10 15 17 19 20 21 22 24 26 27 30 33 34 35 0
1 4 5 7 10 11 16 18 21 22 23 25 27 28 31 34 35 36 0
2 5 6 8 11 12 17 19 22 23 24 26 28 29 32 35 36 37 0
1 3 6 7 9 12 13 18 23 24 25 27 29 30 33 36 37 38 0
2 4 7 8 10 13 14 19 20 24 25 26 28 30 31 34 37 38 0
1 3 5 8 9 11 14 15 20 21 25 26 27 29 31 32 35 38 0
2 4 6 9 10 12 15 16 20 21 22 26 27 28 30 32 33 36 0
4 5 8 10 11 14 16 18 22 25 26 28 30 31 32 36 37 38 0
5 6 9 11 12 15 17 19 20 23 26 27 29 31 32 33 37 38 0
1 6 7 10 12 13 16 18 20 21 24 27 28 30 32 33 34 38 0
2 7 8 11 13 14 17 19 20 21 22 25 28 29 31 33 34 35 0
1 3 8 9 12 14 15 18 21 22 23 26 29 30 32 34 35 36 0
2 4 9 10 13 15 16 19 22 23 24 27 30 31 33 35 36 37 0
1 3 5 10 11 14 16 17 23 24 25 28 31 32 34 36 37 38 0
2 4 6 11 12 15 17 18 20 24 25 26 29 32 33 35 37 38 0
3 5 7 12 13 16 18 19 20 21 25 26 27 30 33 34 36 38 0
1 4 6 8 13 14 17 19 20 21 22 26 27 28 31 34 35 37 0
1 2 5 7 9 14 15 18 21 22 23 27 28 29 32 35 36 38 0
2 3 6 8 10 15 16 19 20 22 23 24 28 29 30 33 36 37 0
1 3 4 7 9 11 16 17 21 23 24 25 29 30 31 34 37 38 0
2 4 5 8 10 12 17 18 20 22 24 25 26 30 31 32 35 38 0
3 5 6 9 11 13 18 19 20 21 23 25 26 27 31 32 33 36 0
1 4 6 7 10 12 14 19 21 22 24 26 27 28 32 33 34 37 0
1 2 5 7 8 11 13 15 22 23 25 27 28 29 33 34 35 38 0
2 3 6 8 9 12 14 16 20 23 24 26 28 29 30 34 35 36 0
3 4 7 9 10 13 15 17 21 24 25 27 29 30 31 35 36 37 0
3 5 7 10 11 13 16 21 22 23 27 28 29 31 33 34 36 0
4 6 8 11 12 14 17 22 23 24 28 29 30 32 34 35 37 0
5 7 9 12 13 15 18 23 24 25 29 30 31 33 35 36 38 0
6 8 10 13 14 16 19 20 24 25 26 30 31 32 34 36 37 0
1 7 9 11 14 15 17 21 25 26 27 31 32 33 35 37 38 0
2 8 10 12 15 16 18 20 22 26 27 28 32 33 34 36 38 0
3 9 11 13 16 17 19 20 21 23 27 28 29 33 34 35 37 0
1 4 10 12 14 17 18 21 22 24 28 29 30 34 35 36 38 0
2 5 11 13 15 18 19 20 22 23 25 29 30 31 35 36 37 0
1 3 6 12 14 16 19 21 23 24 26 30 31 32 36 37 38 0
1 2 4 7 13 15 17 20 22 24 25 27 31 32 33 37 38 0
2 3 5 8 14 16 18 20 21 23 25 26 28 32 33 34 38 0
3 4 6 9 15 17 19 20 21 22 24 26 27 29 33 34 35 0
1 4 5 7 10 16 18 21 22 23 25 27 28 30 34 35 36 0
2 5 6 8 11 17 19 22 23 24 26 28 29 31 35 36 37 0
1 3 6 7 9 12 18 23 24 25 27 29 30 32 36 37 38 0
2 4 7 8 10 13 19 20 24 25 26 28 30 31 33 37 38 0
1 3 5 8 9 11 14 20 21 25 26 27 29 31 32 34 38 0
2 4 6 9 10 12 15 20 21 22 26 27 28 30 32 33 35 0
5 8 10 11 14 16 18 23 25 26 28 30 31 32 36 37 38 0
6 9 11 12 15 17 19 20 24 26 27 29 31 32 33 37 38 0
1 7 10 12 13 16 18 20 21 25 27 28 30 32 33 34 38 0
2 8 11 13 14 17 19 20 21 22 26 28 29 31 33 34 35 0
1 3 9 12 14 15 18 21 22 23 27 29 30 32 34 35 36 0
2 4 10 13 15 16 19 22 23 24 28 30 31 33 35 36 37 0
1 3 5 11 14 16 17 23 24 25 29 31 32 34 36 37 38 0
2 4 6 12 15 17 18 20 24 25 26 30 32 33 35 37 38 0
3 5 7 13 16 18 19 20 21 25 26 27 31 33 34 36 38 0
1 4 6 8 14 17 19 20 21 22 26 27 28 32 34 35 37 0
1 2 5 7 9 15 18 21 22 23 27 28 29 33 35 36 38 0
2 3 6 8 10 16 19 20 22 23 24 28 29 30 34 36 37 0
1 3 4 7 9 11 17 21 23 24 25 29 30 31 35 37 38 0
2 4 5 8 10 12 18 20 22 24 25 26 30 31 32 36 38 0
3 5 6 9 11 13 19 20 21 23 25 26 27 31 32 33 37 0
1 4 6 7 10 12 14 21 22 24 26 27 28 32 33 34 38 0
2 5 7 8 11 13 15 20 22 23 25 27 28 29 33 34 35 0
3 6 8 9 12 14 16 21 23 24 26 28 29 30 34 35 36 0
4 7 9 10 13 15 17 22 24 25 27 29 30 31 35 36 37 0
3 4 6 7 8 10 12 13 15 16 18 21 22 31 33 36 38 0
4 5 7 8 9 11 13 14 16 17 19 20 22 23 32 34 37 0
1 5 6 8 9 10 12 14 15 17 18 21 23 24 33 35 38 0
2 6 7 9 10 11 13 15 16 18 19 20 22 24 25 34 36 0
1 3 7 8 10 11 12 14 16 17 19 21 23 25 26 35 37 0
1 2 4 8 9 11 12 13 15 17 18 22 24 26 27 36 38 0
2 3 5 9 10 12 13 14 16 18 19 20 23 25 27 28 37 0
1 3 4 6 10 11 13 14 15 17 19 21 24 26 28 29 38 0
1 2 4 5 7 11 12 14 15 16 18 20 22 25 27 29 30 0
2 3 5 6 8 12 13 15 16 17 19 21 23 26 28 30 31 0
1 3 4 6 7 9 13 14 16 17 18 22 24 27 29 31 32 0
2 4 5 7 8 10 14 15 17 18 19 23 25 28 30 32 33 0
1 3 5 6 8 9 11 15 16 18 19 24 26 29 31 33 34 0
1 2 4 6 7 9 10 12 16 17 19 25 27 30 32 34 35 0
1 2 3 5 7 8 10 11 13 17 18 26 28 31 33 35 36 0
2 3 4 6 8 9 11 12 14 18 19 27 29 32 34 36 37 0
1 3 4 5 7 9 10 12 13 15 19 28 30 33 35 37 38 0
1 2 4 5 6 8 10 11 13 14 16 20 29 31 34 36 38 0
2 3 5 6 7 9 11 12 14 15 17 20 21 30 32 35 37 0
3 5 6 8 9 11 13 14 15 17 18 21 23 26 28 37 38 0
4 6 7 9 10 12 14 15 16 18 19 20 22 24 27 29 38 0
1 5 7 8 10 11 13 15 16 17 19 20 21 23 25 28 30 0
1 2 6 8 9 11 12 14 16 17 18 21 22 24 26 29 31 0
2 3 7 9 10 12 13 15 17 18 19 22 23 25 27 30 32 0
1 3 4 8 10 11 13 14 16 18 19 23 24 26 28 31 33 0
1 2 4 5 9 11 12 14 15 17 19 24 25 27 29 32 34 0
1 2 3 5 6 10 12 13 15 16 18 25 26 28 30 33 35 0
2 3 4 6 7 11 13 14 16 17 19 26 27 29 31 34 36 0
1 3 4 5 7 8 12 14 15 17 18 27 28 30 32 35 37 0
2 4 5 6 8 9 13 15 16 18 19 28 29 31 33 36 38 0
1 3 5 6 7 9 10 14 16 17 19 20 29 30 32 34 37 0
1 2 4 6 7 8 10 11 15 17 18 21 30 31 33 35 38 0
2 3 5 7 8 9 11 12 16 18 19 20 22 31 32 34 36 0
1 3 4 6 8 9 10 12 13 17 19 21 23 32 33 35 37 0
1 2 4 5 7 9 10 11 13 14 18 22 24 33 34 36 38 0
2 3 5 6 8 10 11 12 14 15 19 20 23 25 34 35 37 0
1 3 4 6 7 9 11 12 13 15 16 21 24 26 35 36 38 0
2 4 5 7 8 10 12 13 14 16 17 20 22 25 27 36 37 0
3 5 6 8 11 13 16 17 18 21 27 28 29 31 33 34 37 38 0
4 6 7 9 12 14 17 18 19 20 22 28 29 30 32 34 35 38 0
1 5 7 8 10 13 15 18 19 20 21 23 29 30 31 33 35 36 0
1 2 6 8 9 11 14 16 19 21 22 24 30 31 32 34 36 37 0
1 2 3 7 9 10 12 15 17 22 23 25 31 32 33 35 37 38 0
2 3 4 8 10 11 13 16 18 20 23 24 26 32 33 34 36 38 0
3 4 5 9 11 12 14 17 19 20 21 24 25 27 33 34 35 37 0
1 4 5 6 10 12 13 15 18 21 22 25 26 28 34 35 36 38 0
2 5 6 7 11 13 14 16 19 20 22 23 26 27 29 35 36 37 0
1 3 6 7 8 12 14 15 17 21 23 24 27 28 30 36 37 38 0
2 4 7 8 9 13 15 16 18 20 22 24 25 28 29 31 37 38 0
3 5 8 9 10 14 16 17 19 20 21 23 25 26 29 30 32 38 0
1 4 6 9 10 11 15 17 18 20 21 22 24 26 27 30 31 33 0
2 5 7 10 11 12 16 18 19 21 22 23 25 27 28 31 32 34 0
1 3 6 8 11 12 13 17 19 22 23 24 26 28 29 32 33 35 0
1 2 4 7 9 12 13 14 18 23 24 25 27 29 30 33 34 36 0
2 3 5 8 10 13 14 15 19 24 25 26 28 30 31 34 35 37 0
1 3 4 6 9 11 14 15 16 25 26 27 29 31 32 35 36 38 0
2 4 5 7 10 12 15 16 17 20 26 27 28 30 32 33 36 37 0
3 4 5 8 10 13 15 16 18 21 22 25 26 28 30 31 32 38 0
4 5 6 9 11 14 16 17 19 20 22 23 26 27 29 31 32 33 0
1 5 6 7 10 12 15 17 18 21 23 24 27 28 30 32 33 34 0
2 6 7 8 11 13 16 18 19 22 24 25 28 29 31 33 34 35 0
1 3 7 8 9 12 14 17 19 23 25 26 29 30 32 34 35 36 0
1 2 4 8 9 10 13 15 18 24 26 27 30 31 33 35 36 37 0
2 3 5 9 10 11 14 16 19 25 27 28 31 32 34 36 37 38 0
1 3 4 6 10 11 12 15 17 20 26 28 29 32 33 35 37 38 0
2 4 5 7 11 12 13 16 18 20 21 27 29 30 33 34 36 38 0
3 5 6 8 12 13 14 17 19 20 21 22 28 30 31 34 35 37 0
1 4 6 7 9 13 14 15 18 21 22 23 29 31 32 35 36 38 0
2 5 7 8 10 14 15 16 19 20 22 23 24 30 32 33 36 37 0
1 3 6 8 9 11 15 16 17 21 23 24 25 31 33 34 37 38 0
2 4 7 9 10 12 16 17 18 20 22 24 25 26 32 34 35 38 0
3 5 8 10 11 13 17 18 19 20 21 23 25 26 27 33 35 36 0
1 4 6 9 11 12 14 18 19 21 22 24 26 27 28 34 36 37 0
1 2 5 7 10 12 13 15 19 22 23 25 27 28 29 35 37 38 0
1 2 3 6 8 11 13 14 16 20 23 24 26 28 29 30 36 38 0
2 3 4 7 9 12 14 15 17 20 21 24 25 27 29 30 31 37 0
3 4 5 6 8 11 14 16 18 21 28 29 31 32 34 37 38 0
4 5 6 7 9 12 15 17 19 20 22 29 30 32 33 35 38 0
1 5 6 7 8 10 13 16 18 20 21 23 30 31 33 34 36 0
2 6 7 8 9 11 14 17 19 21 22 24 31 32 34 35 37 0
1 3 7 8 9 10 12 15 18 22 23 25 32 33 35 36 38 0
2 4 8 9 10 11 13 16 19 20 23 24 26 33 34 36 37 0
1 3 5 9 10 11 12 14 17 21 24 25 27 34 35 37 38 0
2 4 6 10 11 12 13 15 18 20 22 25 26 28 35 36 38 0
3 5 7 11 12 13 14 16 19 20 21 23 26 27 29 36 37 0
1 4 6 8 12 13 14 15 17 21 22 24 27 28 30 37 38 0
2 5 7 9 13 14 15 16 18 20 22 23 25 28 29 31 38 0
3 6 8 10 14 15 16 17 19 20 21 23 24 26 29 30 32 0
1 4 7 9 11 15 16 17 18 21 22 24 25 27 30 31 33 0
2 5 8 10 12 16 17 18 19 22 23 25 26 28 31 32 34 0
1 3 6 9 11 13 17 18 19 23 24 26 27 29 32 33 35 0
1 2 4 7 10 12 14 18 19 24 25 27 28 30 33 34 36 0
1 2 3 5 8 11 13 15 19 25 26 28 29 31 34 35 37 0
1 2 3 4 6 9 12 14 16 26 27 29 30 32 35 36 38 0
2 3 4 5 7 10 13 15 17 20 27 28 30 31 33 36 37 0
3 5 7 10 13 15 16 17 18 21 22 25 27 28 30 31 38 0
4 6 8 11 14 16 17 18 19 20 22 23 26 28 29 31 32 0
1 5 7 9 12 15 17 18 19 21 23 24 27 29 30 32 33 0
1 2 6 8 10 13 16 18 19 22 24 25 28 30 31 33 34 0
1 2 3 7 9 11 14 17 19 23 25 26 29 31 32 34 35 0
1 2 3 4 8 10 12 15 18 24 26 27 30 32 33 35 36 0
2 3 4 5 9 11 13 16 19 25 27 28 31 33 34 36 37 0
1 3 4 5 6 10 12 14 17 26 28 29 32 34 35 37 38 0
2 4 5 6 7 11 13 15 18 20 27 29 30 33 35 36 38 0
3 5 6 7 8 12 14 16 19 20 21 28 30 31 34 36 37 0
1 4 6 7 8 9 13 15 17 21 22 29 31 32 35 37 38 0
2 5 7 8 9 10 14 16 18 20 22 23 30 32 33 36 38 0
3 6 8 9 10 11 15 17 19 20 21 23 24 31 33 34 37 0
1 4 7 9 10 11 12 16 18 21 22 24 25 32 34 35 38 0
2 5 8 10 11 12 13 17 19 20 22 23 25 26 33 35 36 0
1 3 6 9 11 12 13 14 18 21 23 24 26 27 34 36 37 0
2 4 7 10 12 13 14 15 19 22 24 25 27 28 35 37 38 0
1 3 5 8 11 13 14 15 16 20 23 25 26 28 29 36 38 0
2 4 6 9 12 14 15 16 17 20 21 24 26 27 29 30 37 0
3 4 6 8 9 10 12 15 16 18 21 31 32 33 37 38 0
4 5 7 9 10 11 13 16 17 19 20 22 32 33 34 38 0
1 5 6 8 10 11 12 14 17 18 20 21 23 33 34 35 0
2 6 7 9 11 12 13 15 18 19 21 22 24 34 35 36 0
1 3 7 8 10 12 13 14 16 19 22 23 25 35 36 37 0
1 2 4 8 9 11 13 14 15 17 23 24 26 36 37 38 0
2 3 5 9 10 12 14 15 16 18 20 24 25 27 37 38 0
3 4 6 10 11 13 15 16 17 19 20 21 25 26 28 38 0
1 4 5 7 11 12 14 16 17 18 20 21 22 26 27 29 0
2 5 6 8 12 13 15 17 18 19 21 22 23 27 28 30 0
1 3 6 7 9 13 14 16 18 19 22 23 24 28 29 31 0
1 2 4 7 8 10 14 15 17 19 23 24 25 29 30 32 0
1 2 3 5 8 9 11 15 16 18 24 25 26 30 31 33 0
2 3 4 6 9 10 12 16 17 19 25 26 27 31 32 34 0
1 3 4 5 7 10 11 13 17 18 26 27 28 32 33 35 0
2 4 5 6 8 11 12 14 18 19 27 28 29 33 34 36 0
1 3 5 6 7 9 12 13 15 19 28 29 30 34 35 37 0
1 2 4 6 7 8 10 13 14 16 29 30 31 35 36 38 0
2 3 5 7 8 9 11 14 15 17 20 30 31 32 36 37 0
3 5 6 9 11 12 13 15 17 18 21 22 26 27 28 38 0
4 6 7 10 12 13 14 16 18 19 20 22 23 27 28 29 0
1 5 7 8 11 13 14 15 17 19 21 23 24 28 29 30 0
1 2 6 8 9 12 14 15 16 18 22 24 25 29 30 31 0
2 3 7 9 10 13 15 16 17 19 23 25 26 30 31 32 0
1 3 4 8 10 11 14 16 17 18 24 26 27 31 32 33 0
2 4 5 9 11 12 15 17 18 19 25 27 28 32 33 34 0
1 3 5 6 10 12 13 16 18 19 26 28 29 33 34 35 0
1 2 4 6 7 11 13 14 17 19 27 29 30 34 35 36 0
1 2 3 5 7 8 12 14 15 18 28 30 31 35 36 37 0
2 3 4 6 8 9 13 15 16 19 29 31 32 36 37 38 0
1 3 4 5 7 9 10 14 16 17 20 30 32 33 37 38 0
2 4 5 6 8 10 11 15 17 18 20 21 31 33 34 38 0
3 5 6 7 9 11 12 16 18 19 20 21 22 32 34 35 0
1 4 6 7 8 10 12 13 17 19 21 22 23 33 35 36 0
1 2 5 7 8 9 11 13 14 18 22 23 24 34 36 37 0
2 3 6 8 9 10 12 14 15 19 23 24 25 35 37 38 0
1 3 4 7 9 10 11 13 15 16 20 24 25 26 36 38 0
2 4 5 8 10 11 12 14 16 17 20 21 25 26 27 37 0
3 5 6 8 11 14 16 17 21 23 28 29 31 32 34 37 0
4 6 7 9 12 15 17 18 22 24 29 30 32 33 35 38 0
5 7 8 10 13 16 18 19 20 23 25 30 31 33 34 36 0
1 6 8 9 11 14 17 19 21 24 26 31 32 34 35 37 0
1 2 7 9 10 12 15 18 22 25 27 32 33 35 36 38 0
2 3 8 10 11 13 16 19 20 23 26 28 33 34 36 37 0
1 3 4 9 11 12 14 17 21 24 27 29 34 35 37 38 0
2 4 5 10 12 13 15 18 20 22 25 28 30 35 36 38 0
3 5 6 11 13 14 16 19 20 21 23 26 29 31 36 37 0
1 4 6 7 12 14 15 17 21 22 24 27 30 32 37 38 0
2 5 7 8 13 15 16 18 20 22 23 25 28 31 33 38 0
3 6 8 9 14 16 17 19 20 21 23 24 26 29 32 34 0
1 4 7 9 10 15 17 18 21 22 24 25 27 30 33 35 0
2 5 8 10 11 16 18 19 22 23 25 26 28 31 34 36 0
1 3 6 9 11 12 17 19 23 24 26 27 29 32 35 37 0
1 2 4 7 10 12 13 18 24 25 27 28 30 33 36 38 0
2 3 5 8 11 13 14 19 20 25 26 28 29 31 34 37 0
1 3 4 6 9 12 14 15 21 26 27 29 30 32 35 38 0
2 4 5 7 10 13 15 16 20 22 27 28 30 31 33 36 0
4 5 7 10 13 15 16 18 22 25 27 28 30 31 36 38 0
5 6 8 11 14 16 17 19 20 23 26 28 29 31 32 37 0
1 6 7 9 12 15 17 18 21 24 27 29 30 32 33 38 0
2 7 8 10 13 16 18 19 20 22 25 28 30 31 33 34 0
1 3 8 9 11 14 17 19 21 23 26 29 31 32 34 35 0
1 2 4 9 10 12 15 18 22 24 27 30 32 33 35 36 0
2 3 5 10 11 13 16 19 23 25 28 31 33 34 36 37 0
1 3 4 6 11 12 14 17 24 26 29 32 34 35 37 38 0
2 4 5 7 12 13 15 18 20 25 27 30 33 35 36 38 0
3 5 6 8 13 14 16 19 20 21 26 28 31 34 36 37 0
1 4 6 7 9 14 15 17 21 22 27 29 32 35 37 38 0
2 5 7 8 10 15 16 18 20 22 23 28 30 33 36 38 0
3 6 8 9 11 16 17 19 20 21 23 24 29 31 34 37 0
1 4 7 9 10 12 17 18 21 22 24 25 30 32 35 38 0
2 5 8 10 11 13 18 19 20 22 23 25 26 31 33 36 0
1 3 6 9 11 12 14 19 21 23 24 26 27 32 34 37 0
1 2 4 7 10 12 13 15 22 24 25 27 28 33 35 38 0
2 3 5 8 11 13 14 16 20 23 25 26 28 29 34 36 0
3 4 6 9 12 14 15 17 21 24 26 27 29 30 35 37 0
3 5 6 8 11 12 15 17 18 21 27 28 29 32 33 34 37 38 0
4 6 7 9 12 13 16 18 19 20 22 28 29 30 33 34 35 38 0
1 5 7 8 10 13 14 17 19 20 21 23 29 30 31 34 35 36 0
1 2 6 8 9 11 14 15 18 21 22 24 30 31 32 35 36 37 0
2 3 7 9 10 12 15 16 19 22 23 25 31 32 33 36 37 38 0
1 3 4 8 10 11 13 16 17 20 23 24 26 32 33 34 37 38 0
2 4 5 9 11 12 14 17 18 20 21 24 25 27 33 34 35 38 0
3 5 6 10 12 13 15 18 19 20 21 22 25 26 28 34 35 36 0
1 4 6 7 11 13 14 16 19 21 22 23 26 27 29 35 36 37 0
1 2 5 7 8 12 14 15 17 22 23 24 27 28 30 36 37 38 0
2 3 6 8 9 13 15 16 18 20 23 24 25 28 29 31 37 38 0
3 4 7 9 10 14 16 17 19 20 21 24 25 26 29 30 32 38 0
1 4 5 8 10 11 15 17 18 20 21 22 25 26 27 30 31 33 0
2 5 6 9 11 12 16 18 19 21 22 23 26 27 28 31 32 34 0
1 3 6 7 10 12 13 17 19 22 23 24 27 28 29 32 33 35 0
1 2 4 7 8 11 13 14 18 23 24 25 28 29 30 33 34 36 0
2 3 5 8 9 12 14 15 19 24 25 26 29 30 31 34 35 37 0
1 3 4 6 9 10 13 15 16 25 26 27 30 31 32 35 36 38 0
2 4 5 7 10 11 14 16 17 20 26 27 28 31 32 33 36 37 0
3 4 6 9 10 13 15 16 18 21 22 25 26 27 30 31 32 38 0
4 5 7 10 11 14 16 17 19 20 22 23 26 27 28 31 32 33 0
1 5 6 8 11 12 15 17 18 21 23 24 27 28 29 32 33 34 0
2 6 7 9 12 13 16 18 19 22 24 25 28 29 30 33 34 35 0
1 3 7 8 10 13 14 17 19 23 25 26 29 30 31 34 35 36 0
1 2 4 8 9 11 14 15 18 24 26 27 30 31 32 35 36 37 0
2 3 5 9 10 12 15 16 19 25 27 28 31 32 33 36 37 38 0
1 3 4 6 10 11 13 16 17 20 26 28 29 32 33 34 37 38 0
2 4 5 7 11 12 14 17 18 20 21 27 29 30 33 34 35 38 0
3 5 6 8 12 13 15 18 19 20 21 22 28 30 31 34 35 36 0
1 4 6 7 9 13 14 16 19 21 22 23 29 31 32 35 36 37 0
1 2 5 7 8 10 14 15 17 22 23 24 30 32 33 36 37 38 0
2 3 6 8 9 11 15 16 18 20 23 24 25 31 33 34 37 38 0
3 4 7 9 10 12 16 17 19 20 21 24 25 26 32 34 35 38 0
1 4 5 8 10 11 13 17 18 20 21 22 25 26 27 33 35 36 0
2 5 6 9 11 12 14 18 19 21 22 23 26 27 28 34 36 37 0
1 3 6 7 10 12 13 15 19 22 23 24 27 28 29 35 37 38 0
1 2 4 7 8 11 13 14 16 20 23 24 25 28 29 30 36 38 0
2 3 5 8 9 12 14 15 17 20 21 24 25 26 29 30 31 37 0
3 5 6 8 10 12 15 17 18 21 27 28 32 33 37 38 0
4 6 7 9 11 13 16 18 19 20 22 28 29 33 34 38 0
1 5 7 8 10 12 14 17 19 20 21 23 29 30 34 35 0
1 2 6 8 9 11 13 15 18 21 22 24 30 31 35 36 0
2 3 7 9 10 12 14 16 19 22 23 25 31 32 36 37 0
1 3 4 8 10 11 13 15 17 23 24 26 32 33 37 38 0
2 4 5 9 11 12 14 16 18 20 24 25 27 33 34 38 0
3 5 6 10 12 13 15 17 19 20 21 25 26 28 34 35 0
1 4 6 7 11 13 14 16 18 21 22 26 27 29 35 36 0
2 5 7 8 12 14 15 17 19 22 23 27 28 30 36 37 0
1 3 6 8 9 13 15 16 18 23 24 28 29 31 37 38 0
2 4 7 9 10 14 16 17 19 20 24 25 29 30 32 38 0
1 3 5 8 10 11 15 17 18 20 21 25 26 30 31 33 0
2 4 6 9 11 12 16 18 19 21 22 26 27 31 32 34 0
1 3 5 7 10 12 13 17 19 22 23 27 28 32 33 35 0
1 2 4 6 8 11 13 14 18 23 24 28 29 33 34 36 0
2 3 5 7 9 12 14 15 19 24 25 29 30 34 35 37 0
1 3 4 6 8 10 13 15 16 25 26 30 31 35 36 38 0
2 4 5 7 9 11 14 16 17 20 26 27 31 32 36 37 0
3 4 6 9 11 13 15 16 18 21 22 26 27 31 32 38 0
4 5 7 10 12 14 16 17 19 20 22 23 27 28 32 33 0
1 5 6 8 11 13 15 17 18 21 23 24 28 29 33 34 0
2 6 7 9 12 14 16 18 19 22 24 25 29 30 34 35 0
1 3 7 8 10 13 15 17 19 23 25 26 30 31 35 36 0
1 2 4 8 9 11 14 16 18 24 26 27 31 32 36 37 0
2 3 5 9 10 12 15 17 19 25 27 28 32 33 37 38 0
1 3 4 6 10 11 13 16 18 20 26 28 29 33 34 38 0
2 4 5 7 11 12 14 17 19 20 21 27 29 30 34 35 0
1 3 5 6 8 12 13 15 18 21 22 28 30 31 35 36 0
2 4 6 7 9 13 14 16 19 22 23 29 31 32 36 37 0
1 3 5 7 8 10 14 15 17 23 24 30 32 33 37 38 0
2 4 6 8 9 11 15 16 18 20 24 25 31 33 34 38 0
3 5 7 9 10 12 16 17 19 20 21 25 26 32 34 35 0
1 4 6 8 10 11 13 17 18 21 22 26 27 33 35 36 0
2 5 7 9 11 12 14 18 19 22 23 27 28 34 36 37 0
1 3 6 8 10 12 13 15 19 23 24 28 29 35 37 38 0
1 2 4 7 9 11 13 14 16 20 24 25 29 30 36 38 0
2 3 5 8 10 12 14 15 17 20 21 25 26 30 31 37 0
3 5 7 8 9 14 15 17 18 21 22 23 28 29 32 38 0
4 6 8 9 10 15 16 18 19 20 22 23 24 29 30 33 0
1 5 7 9 10 11 16 17 19 21 23 24 25 30 31 34 0
1 2 6 8 10 11 12 17 18 22 24 25 26 31 32 35 0
2 3 7 9 11 12 13 18 19 23 25 26 27 32 33 36 0
1 3 4 8 10 12 13 14 19 24 26 27 28 33 34 37 0
1 2 4 5 9 11 13 14 15 25 27 28 29 34 35 38 0
2 3 5 6 10 12 14 15 16 20 26 28 29 30 35 36 0
3 4 6 7 11 13 15 16 17 21 27 29 30 31 36 37 0
4 5 7 8 12 14 16 17 18 22 28 30 31 32 37 38 0
5 6 8 9 13 15 17 18 19 20 23 29 31 32 33 38 0
1 6 7 9 10 14 16 18 19 20 21 24 30 32 33 34 0
1 2 7 8 10 11 15 17 19 21 22 25 31 33 34 35 0
1 2 3 8 9 11 12 16 18 22 23 26 32 34 35 36 0
2 3 4 9 10 12 13 17 19 23 24 27 33 35 36 37 0
1 3 4 5 10 11 13 14 18 24 25 28 34 36 37 38 0
2 4 5 6 11 12 14 15 19 20 25 26 29 35 37 38 0
1 3 5 6 7 12 13 15 16 20 21 26 27 30 36 38 0
2 4 6 7 8 13 14 16 17 20 21 22 27 28 31 37 0
3 4 6 7 12 13 14 16 18 21 27 30 31 36 37 38 0
4 5 7 8 13 14 15 17 19 20 22 28 31 32 37 38 0
1 5 6 8 9 14 15 16 18 20 21 23 29 32 33 38 0
2 6 7 9 10 15 16 17 19 20 21 22 24 30 33 34 0
1 3 7 8 10 11 16 17 18 21 22 23 25 31 34 35 0
2 4 8 9 11 12 17 18 19 22 23 24 26 32 35 36 0
1 3 5 9 10 12 13 18 19 23 24 25 27 33 36 37 0
1 2 4 6 10 11 13 14 19 24 25 26 28 34 37 38 0
1 2 3 5 7 11 12 14 15 20 25 26 27 29 35 38 0
2 3 4 6 8 12 13 15 16 20 21 26 27 28 30 36 0
3 4 5 7 9 13 14 16 17 21 22 27 28 29 31 37 0
4 5 6 8 10 14 15 17 18 22 23 28 29 30 32 38 0
5 6 7 9 11 15 16 18 19 20 23 24 29 30 31 33 0
1 6 7 8 10 12 16 17 19 21 24 25 30 31 32 34 0
1 2 7 8 9 11 13 17 18 22 25 26 31 32 33 35 0
2 3 8 9 10 12 14 18 19 23 26 27 32 33 34 36 0
1 3 4 9 10 11 13 15 19 24 27 28 33 34 35 37 0
1 2 4 5 10 11 12 14 16 25 28 29 34 35 36 38 0
2 3 5 6 11 12 13 15 17 20 26 29 30 35 36 37 0
3 4 6 7 9 10 12 15 17 18 21 22 27 32 33 38 0
4 5 7 8 10 11 13 16 18 19 20 22 23 28 33 34 0
1 5 6 8 9 11 12 14 17 19 21 23 24 29 34 35 0
1 2 6 7 9 10 12 13 15 18 22 24 25 30 35 36 0
2 3 7 8 10 11 13 14 16 19 23 25 26 31 36 37 0
1 3 4 8 9 11 12 14 15 17 24 26 27 32 37 38 0
2 4 5 9 10 12 13 15 16 18 20 25 27 28 33 38 0
3 5 6 10 11 13 14 16 17 19 20 21 26 28 29 34 0
1 4 6 7 11 12 14 15 17 18 21 22 27 29 30 35 0
2 5 7 8 12 13 15 16 18 19 22 23 28 30 31 36 0
1 3 6 8 9 13 14 16 17 19 23 24 29 31 32 37 0
1 2 4 7 9 10 14 15 17 18 24 25 30 32 33 38 0
2 3 5 8 10 11 15 16 18 19 20 25 26 31 33 34 0
1 3 4 6 9 11 12 16 17 19 21 26 27 32 34 35 0
1 2 4 5 7 10 12 13 17 18 22 27 28 33 35 36 0
2 3 5 6 8 11 13 14 18 19 23 28 29 34 36 37 0
1 3 4 6 7 9 12 14 15 19 24 29 30 35 37 38 0
1 2 4 5 7 8 10 13 15 16 20 25 30 31 36 38 0
2 3 5 6 8 9 11 14 16 17 20 21 26 31 32 37 0
3 4 6 9 11 12 14 15 17 18 21 26 27 32 37 38 0
4 5 7 10 12 13 15 16 18 19 20 22 27 28 33 38 0
1 5 6 8 11 13 14 16 17 19 20 21 23 28 29 34 0
1 2 6 7 9 12 14 15 17 18 21 22 24 29 30 35 0
2 3 7 8 10 13 15 16 18 19 22 23 25 30 31 36 0
1 3 4 8 9 11 14 16 17 19 23 24 26 31 32 37 0
1 2 4 5 9 10 12 15 17 18 24 25 27 32 33 38 0
2 3 5 6 10 11 13 16 18 19 20 25 26 28 33 34 0
1 3 4 6 7 11 12 14 17 19 21 26 27 29 34 35 0
1 2 4 5 7 8 12 13 15 18 22 27 28 30 35 36 0
2 3 5 6 8 9 13 14 16 19 23 28 29 31 36 37 0
1 3 4 6 7 9 10 14 15 17 24 29 30 32 37 38 0
2 4 5 7 8 10 11 15 16 18 20 25 30 31 33 38 0
3 5 6 8 9 11 12 16 17 19 20 21 26 31 32 34 0
1 4 6 7 9 10 12 13 17 18 21 22 27 32 33 35 0
2 5 7 8 10 11 13 14 18 19 22 23 28 33 34 36 0
1 3 6 8 9 11 12 14 15 19 23 24 29 34 35 37 0
1 2 4 7 9 10 12 13 15 16 24 25 30 35 36 38 0
2 3 5 8 10 11 13 14 16 17 20 25 26 31 36 37 0
3 4 6 7 9 11 14 16 21 22 23 29 31 32 33 34 36 0
4 5 7 8 10 12 15 17 22 23 24 30 32 33 34 35 37 0
5 6 8 9 11 13 16 18 23 24 25 31 33 34 35 36 38 0
6 7 9 10 12 14 17 19 20 24 25 26 32 34 35 36 37 0
1 7 8 10 11 13 15 18 21 25 26 27 33 35 36 37 38 0
2 8 9 11 12 14 16 19 20 22 26 27 28 34 36 37 38 0
1 3 9 10 12 13 15 17 20 21 23 27 28 29 35 37 38 0
2 4 10 11 13 14 16 18 20 21 22 24 28 29 30 36 38 0
3 5 11 12 14 15 17 19 20 21 22 23 25 29 30 31 37 0
1 4 6 12 13 15 16 18 21 22 23 24 26 30 31 32 38 0
2 5 7 13 14 16 17 19 20 22 23 24 25 27 31 32 33 0
1 3 6 8 14 15 17 18 21 23 24 25 26 28 32 33 34 0
2 4 7 9 15 16 18 19 22 24 25 26 27 29 33 34 35 0
1 3 5 8 10 16 17 19 23 25 26 27 28 30 34 35 36 0
1 2 4 6 9 11 17 18 24 26 27 28 29 31 35 36 37 0
2 3 5 7 10 12 18 19 25 27 28 29 30 32 36 37 38 0
1 3 4 6 8 11 13 19 20 26 28 29 30 31 33 37 38 0
1 2 4 5 7 9 12 14 20 21 27 29 30 31 32 34 38 0
2 3 5 6 8 10 13 15 20 21 22 28 30 31 32 33 35 0
5 7 10 12 14 15 17 18 23 25 26 27 28 30 36 37 38 0
6 8 11 13 15 16 18 19 20 24 26 27 28 29 31 37 38 0
1 7 9 12 14 16 17 19 20 21 25 27 28 29 30 32 38 0
1 2 8 10 13 15 17 18 20 21 22 26 28 29 30 31 33 0
2 3 9 11 14 16 18 19 21 22 23 27 29 30 31 32 34 0
1 3 4 10 12 15 17 19 22 23 24 28 30 31 32 33 35 0
1 2 4 5 11 13 16 18 23 24 25 29 31 32 33 34 36 0
2 3 5 6 12 14 17 19 24 25 26 30 32 33 34 35 37 0
1 3 4 6 7 13 15 18 25 26 27 31 33 34 35 36 38 0
2 4 5 7 8 14 16 19 20 26 27 28 32 34 35 36 37 0
1 3 5 6 8 9 15 17 21 27 28 29 33 35 36 37 38 0
2 4 6 7 9 10 16 18 20 22 28 29 30 34 36 37 38 0
3 5 7 8 10 11 17 19 20 21 23 29 30 31 35 37 38 0
1 4 6 8 9 11 12 18 20 21 22 24 30 31 32 36 38 0
2 5 7 9 10 12 13 19 20 21 22 23 25 31 32 33 37 0
1 3 6 8 10 11 13 14 21 22 23 24 26 32 33 34 38 0
2 4 7 9 11 12 14 15 20 22 23 24 25 27 33 34 35 0
3 5 8 10 12 13 15 16 21 23 24 25 26 28 34 35 36 0
4 6 9 11 13 14 16 17 22 24 25 26 27 29 35 36 37 0
4 5 7 10 11 12 15 17 22 23 25 27 28 32 33 34 36 37 0
5 6 8 11 12 13 16 18 23 24 26 28 29 33 34 35 37 38 0
6 7 9 12 13 14 17 19 20 24 25 27 29 30 34 35 36 38 0
1 7 8 10 13 14 15 18 20 21 25 26 28 30 31 35 36 37 0
2 8 9 11 14 15 16 19 21 22 26 27 29 31 32 36 37 38 0
1 3 9 10 12 15 16 17 20 22 23 27 28 30 32 33 37 38 0
2 4 10 11 13 16 17 18 20 21 23 24 28 29 31 33 34 38 0
3 5 11 12 14 17 18 19 20 21 22 24 25 29 30 32 34 35 0
1 4 6 12 13 15 18 19 21 22 23 25 26 30 31 33 35 36 0
1 2 5 7 13 14 16 19 22 23 24 26 27 31 32 34 36 37 0
1 2 3 6 8 14 15 17 23 24 25 27 28 32 33 35 37 38 0
2 3 4 7 9 15 16 18 20 24 25 26 28 29 33 34 36 38 0
3 4 5 8 10 16 17 19 20 21 25 26 27 29 30 34 35 37 0
1 4 5 6 9 11 17 18 21 22 26 27 28 30 31 35 36 38 0
2 5 6 7 10 12 18 19 20 22 23 27 28 29 31 32 36 37 0
1 3 6 7 8 11 13 19 21 23 24 28 29 30 32 33 37 38 0
1 2 4 7 8 9 12 14 20 22 24 25 29 30 31 33 34 38 0
2 3 5 8 9 10 13 15 20 21 23 25 26 30 31 32 34 35 0
3 4 6 9 10 11 14 16 21 22 24 26 27 31 32 33 35 36 0
4 6 9 10 11 14 16 17 22 23 25 26 27 31 32 34 36 37 0
5 7 10 11 12 15 17 18 23 24 26 27 28 32 33 35 37 38 0
6 8 11 12 13 16 18 19 20 24 25 27 28 29 33 34 36 38 0
1 7 9 12 13 14 17 19 20 21 25 26 28 29 30 34 35 37 0
1 2 8 10 13 14 15 18 21 22 26 27 29 30 31 35 36 38 0
2 3 9 11 14 15 16 19 20 22 23 27 28 30 31 32 36 37 0
1 3 4 10 12 15 16 17 21 23 24 28 29 31 32 33 37 38 0
2 4 5 11 13 16 17 18 20 22 24 25 29 30 32 33 34 38 0
3 5 6 12 14 17 18 19 20 21 23 25 26 30 31 33 34 35 0
1 4 6 7 13 15 18 19 21 22 24 26 27 31 32 34 35 36 0
1 2 5 7 8 14 16 19 22 23 25 27 28 32 33 35 36 37 0
1 2 3 6 8 9 15 17 23 24 26 28 29 33 34 36 37 38 0
2 3 4 7 9 10 16 18 20 24 25 27 29 30 34 35 37 38 0
3 4 5 8 10 11 17 19 20 21 25 26 28 30 31 35 36 38 0
1 4 5 6 9 11 12 18 20 21 22 26 27 29 31 32 36 37 0
2 5 6 7 10 12 13 19 21 22 23 27 28 30 32 33 37 38 0
1 3 6 7 8 11 13 14 20 22 23 24 28 29 31 33 34 38 0
2 4 7 8 9 12 14 15 20 21 23 24 25 29 30 32 34 35 0
3 5 8 9 10 13 15 16 21 22 24 25 26 30 31 33 35 36 0
4 6 7 9 11 14 16 17 22 23 25 31 32 33 34 36 37 0
5 7 8 10 12 15 17 18 23 24 26 32 33 34 35 37 38 0
6 8 9 11 13 16 18 19 20 24 25 27 33 34 35 36 38 0
1 7 9 10 12 14 17 19 20 21 25 26 28 34 35 36 37 0
1 2 8 10 11 13 15 18 21 22 26 27 29 35 36 37 38 0
2 3 9 11 12 14 16 19 20 22 23 27 28 30 36 37 38 0
1 3 4 10 12 13 15 17 20 21 23 24 28 29 31 37 38 0
2 4 5 11 13 14 16 18 20 21 22 24 25 29 30 32 38 0
3 5 6 12 14 15 17 19 20 21 22 23 25 26 30 31 33 0
1 4 6 7 13 15 16 18 21 22 23 24 26 27 31 32 34 0
2 5 7 8 14 16 17 19 22 23 24 25 27 28 32 33 35 0
1 3 6 8 9 15 17 18 23 24 25 26 28 29 33 34 36 0
2 4 7 9 10 16 18 19 24 25 26 27 29 30 34 35 37 0
1 3 5 8 10 11 17 19 25 26 27 28 30 31 35 36 38 0
1 2 4 6 9 11 12 18 20 26 27 28 29 31 32 36 37 0
2 3 5 7 10 12 13 19 21 27 28 29 30 32 33 37 38 0
1 3 4 6 8 11 13 14 20 22 28 29 30 31 33 34 38 0
2 4 5 7 9 12 14 15 20 21 23 29 30 31 32 34 35 0
3 5 6 8 10 13 15 16 21 22 24 30 31 32 33 35 36 0
4 5 7 10 12 14 15 17 22 23 25 26 27 28 34 36 37 0
5 6 8 11 13 15 16 18 23 24 26 27 28 29 35 37 38 0
6 7 9 12 14 16 17 19 20 24 25 27 28 29 30 36 38 0
1 7 8 10 13 15 17 18 20 21 25 26 28 29 30 31 37 0
2 8 9 11 14 16 18 19 21 22 26 27 29 30 31 32 38 0
1 3 9 10 12 15 17 19 20 22 23 27 28 30 31 32 33 0
1 2 4 10 11 13 16 18 21 23 24 28 29 31 32 33 34 0
2 3 5 11 12 14 17 19 22 24 25 29 30 32 33 34 35 0
1 3 4 6 12 13 15 18 23 25 26 30 31 33 34 35 36 0
2 4 5 7 13 14 16 19 24 26 27 31 32 34 35 36 37 0
1 3 5 6 8 14 15 17 25 27 28 32 33 35 36 37 38 0
2 4 6 7 9 15 16 18 20 26 28 29 33 34 36 37 38 0
3 5 7 8 10 16 17 19 20 21 27 29 30 34 35 37 38 0
1 4 6 8 9 11 17 18 20 21 22 28 30 31 35 36 38 0
2 5 7 9 10 12 18 19 20 21 22 23 29 31 32 36 37 0
1 3 6 8 10 11 13 19 21 22 23 24 30 32 33 37 38 0
1 2 4 7 9 11 12 14 20 22 23 24 25 31 33 34 38 0
2 3 5 8 10 12 13 15 20 21 23 24 25 26 32 34 35 0
3 4 6 9 11 13 14 16 21 22 24 25 26 27 33 35 36 0
4 6 7 9 10 12 15 16 18 22 25 27 31 32 33 36 38 0
5 7 8 10 11 13 16 17 19 20 23 26 28 32 33 34 37 0
1 6 8 9 11 12 14 17 18 21 24 27 29 33 34 35 38 0
2 7 9 10 12 13 15 18 19 20 22 25 28 30 34 35 36 0
1 3 8 10 11 13 14 16 19 21 23 26 29 31 35 36 37 0
1 2 4 9 11 12 14 15 17 22 24 27 30 32 36 37 38 0
2 3 5 10 12 13 15 16 18 20 23 25 28 31 33 37 38 0
3 4 6 11 13 14 16 17 19 20 21 24 26 29 32 34 38 0
1 4 5 7 12 14 15 17 18 20 21 22 25 27 30 33 35 0
2 5 6 8 13 15 16 18 19 21 22 23 26 28 31 34 36 0
1 3 6 7 9 14 16 17 19 22 23 24 27 29 32 35 37 0
1 2 4 7 8 10 15 17 18 23 24 25 28 30 33 36 38 0
2 3 5 8 9 11 16 18 19 20 24 25 26 29 31 34 37 0
1 3 4 6 9 10 12 17 19 21 25 26 27 30 32 35 38 0
1 2 4 5 7 10 11 13 18 20 22 26 27 28 31 33 36 0
2 3 5 6 8 11 12 14 19 21 23 27 28 29 32 34 37 0
1 3 4 6 7 9 12 13 15 22 24 28 29 30 33 35 38 0
2 4 5 7 8 10 13 14 16 20 23 25 29 30 31 34 36 0
3 5 6 8 9 11 14 15 17 21 24 26 30 31 32 35 37 0
3 5 6 9 11 12 14 15 17 21 23 26 27 28 32 34 37 0
4 6 7 10 12 13 15 16 18 22 24 27 28 29 33 35 38 0
5 7 8 11 13 14 16 17 19 20 23 25 28 29 30 34 36 0
1 6 8 9 12 14 15 17 18 21 24 26 29 30 31 35 37 0
2 7 9 10 13 15 16 18 19 22 25 27 30 31 32 36 38 0
1 3 8 10 11 14 16 17 19 20 23 26 28 31 32 33 37 0
1 2 4 9 11 12 15 17 18 21 24 27 29 32 33 34 38 0
2 3 5 10 12 13 16 18 19 20 22 25 28 30 33 34 35 0
1 3 4 6 11 13 14 17 19 21 23 26 29 31 34 35 36 0
1 2 4 5 7 12 14 15 18 22 24 27 30 32 35 36 37 0
2 3 5 6 8 13 15 16 19 23 25 28 31 33 36 37 38 0
1 3 4 6 7 9 14 16 17 20 24 26 29 32 34 37 38 0
2 4 5 7 8 10 15 17 18 20 21 25 27 30 33 35 38 0
3 5 6 8 9 11 16 18 19 20 21 22 26 28 31 34 36 0
1 4 6 7 9 10 12 17 19 21 22 23 27 29 32 35 37 0
1 2 5 7 8 10 11 13 18 22 23 24 28 30 33 36 38 0
2 3 6 8 9 11 12 14 19 20 23 24 25 29 31 34 37 0
1 3 4 7 9 10 12 13 15 21 24 25 26 30 32 35 38 0
2 4 5 8 10 11 13 14 16 20 22 25 26 27 31 33 36 0
4 5 7 10 12 15 17 18 22 25 27 28 32 33 36 38 0
5 6 8 11 13 16 18 19 20 23 26 28 29 33 34 37 0
1 6 7 9 12 14 17 19 21 24 27 29 30 34 35 38 0
1 2 7 8 10 13 15 18 20 22 25 28 30 31 35 36 0
2 3 8 9 11 14 16 19 21 23 26 29 31 32 36 37 0
1 3 4 9 10 12 15 17 22 24 27 30 32 33 37 38 0
2 4 5 10 11 13 16 18 20 23 25 28 31 33 34 38 0
3 5 6 11 12 14 17 19 20 21 24 26 29 32 34 35 0
1 4 6 7 12 13 15 18 21 22 25 27 30 33 35 36 0
2 5 7 8 13 14 16 19 22 23 26 28 31 34 36 37 0
1 3 6 8 9 14 15 17 23 24 27 29 32 35 37 38 0
2 4 7 9 10 15 16 18 20 24 25 28 30 33 36 38 0
3 5 8 10 11 16 17 19 20 21 25 26 29 31 34 37 0
1 4 6 9 11 12 17 18 21 22 26 27 30 32 35 38 0
2 5 7 10 12 13 18 19 20 22 23 27 28 31 33 36 0
1 3 6 8 11 13 14 19 21 23 24 28 29 32 34 37 0
1 2 4 7 9 12 14 15 22 24 25 29 30 33 35 38 0
2 3 5 8 10 13 15 16 20 23 25 26 30 31 34 36 0
3 4 6 9 11 14 16 17 21 24 26 27 31 32 35 37 0
3 4 6 9 11 14 16 17 21 23 26 27 31 32 34 37 0
4 5 7 10 12 15 17 18 22 24 27 28 32 33 35 38 0
5 6 8 11 13 16 18 19 20 23 25 28 29 33 34 36 0
1 6 7 9 12 14 17 19 21 24 26 29 30 34 35 37 0
1 2 7 8 10 13 15 18 22 25 27 30 31 35 36 38 0
2 3 8 9 11 14 16 19 20 23 26 28 31 32 36 37 0
1 3 4 9 10 12 15 17 21 24 27 29 32 33 37 38 0
2 4 5 10 11 13 16 18 20 22 25 28 30 33 34 38 0
3 5 6 11 12 14 17 19 20 21 23 26 29 31 34 35 0
1 4 6 7 12 13 15 18 21 22 24 27 30 32 35 36 0
2 5 7 8 13 14 16 19 22 23 25 28 31 33 36 37 0
1 3 6 8 9 14 15 17 23 24 26 29 32 34 37 38 0
2 4 7 9 10 15 16 18 20 24 25 27 30 33 35 38 0
3 5 8 10 11 16 17 19 20 21 25 26 28 31 34 36 0
1 4 6 9 11 12 17 18 21 22 26 27 29 32 35 37 0
2 5 7 10 12 13 18 19 22 23 27 28 30 33 36 38 0
1 3 6 8 11 13 14 19 20 23 24 28 29 31 34 37 0
1 2 4 7 9 12 14 15 21 24 25 29 30 32 35 38 0
2 3 5 8 10 13 15 16 20 22 25 26 30 31 33 36 0
4 6 7 9 11 12 15 17 18 22 25 27 32 33 34 36 38 0
5 7 8 10 12 13 16 18 19 20 23 26 28 33 34 35 37 0
1 6 8 9 11 13 14 17 19 21 24 27 29 34 35 36 38 0
1 2 7 9 10 12 14 15 18 20 22 25 28 30 35 36 37 0
2 3 8 10 11 13 15 16 19 21 23 26 29 31 36 37 38 0
1 3 4 9 11 12 14 16 17 20 22 24 27 30 32 37 38 0
2 4 5 10 12 13 15 17 18 20 21 23 25 28 31 33 38 0
3 5 6 11 13 14 16 18 19 20 21 22 24 26 29 32 34 0
1 4 6 7 12 14 15 17 19 21 22 23 25 27 30 33 35 0
1 2 5 7 8 13 15 16 18 22 23 24 26 28 31 34 36 0
2 3 6 8 9 14 16 17 19 23 24 25 27 29 32 35 37 0
1 3 4 7 9 10 15 17 18 24 25 26 28 30 33 36 38 0
2 4 5 8 10 11 16 18 19 20 25 26 27 29 31 34 37 0
1 3 5 6 9 11 12 17 19 21 26 27 28 30 32 35 38 0
1 2 4 6 7 10 12 13 18 20 22 27 28 29 31 33 36 0
2 3 5 7 8 11 13 14 19 21 23 28 29 30 32 34 37 0
1 3 4 6 8 9 12 14 15 22 24 29 30 31 33 35 38 0
2 4 5 7 9 10 13 15 16 20 23 25 30 31 32 34 36 0
3 5 6 8 10 11 14 16 17 21 24 26 31 32 33 35 37 0
3 4 6 9 10 12 14 15 17 21 23 25 26 27 32 34 37 0
4 5 7 10 11 13 15 16 18 22 24 26 27 28 33 35 38 0
5 6 8 11 12 14 16 17 19 20 23 25 27 28 29 34 36 0
1 6 7 9 12 13 15 17 18 21 24 26 28 29 30 35 37 0
2 7 8 10 13 14 16 18 19 22 25 27 29 30 31 36 38 0
1 3 8 9 11 14 15 17 19 20 23 26 28 30 31 32 37 0
1 2 4 9 10 12 15 16 18 21 24 27 29 31 32 33 38 0
2 3 5 10 11 13 16 17 19 20 22 25 28 30 32 33 34 0
1 3 4 6 11 12 14 17 18 21 23 26 29 31 33 34 35 0
2 4 5 7 12 13 15 18 19 22 24 27 30 32 34 35 36 0
1 3 5 6 8 13 14 16 19 23 25 28 31 33 35 36 37 0
1 2 4 6 7 9 14 15 17 24 26 29 32 34 36 37 38 0
2 3 5 7 8 10 15 16 18 20 25 27 30 33 35 37 38 0
3 4 6 8 9 11 16 17 19 20 21 26 28 31 34 36 38 0
1 4 5 7 9 10 12 17 18 20 21 22 27 29 32 35 37 0
2 5 6 8 10 11 13 18 19 21 22 23 28 30 33 36 38 0
1 3 6 7 9 11 12 14 19 20 22 23 24 29 31 34 37 0
1 2 4 7 8 10 12 13 15 21 23 24 25 30 32 35 38 0
2 3 5 8 9 11 13 14 16 20 22 24 25 26 31 33 36 0
4 5 8 10 12 15 16 22 23 25 26 28 31 32 33 34 36 0
5 6 9 11 13 16 17 23 24 26 27 29 32 33 34 35 37 0
6 7 10 12 14 17 18 24 25 27 28 30 33 34 35 36 38 0
7 8 11 13 15 18 19 20 25 26 28 29 31 34 35 36 37 0
1 8 9 12 14 16 19 21 26 27 29 30 32 35 36 37 38 0
1 2 9 10 13 15 17 20 22 27 28 30 31 33 36 37 38 0
2 3 10 11 14 16 18 20 21 23 28 29 31 32 34 37 38 0
3 4 11 12 15 17 19 20 21 22 24 29 30 32 33 35 38 0
1 4 5 12 13 16 18 20 21 22 23 25 30 31 33 34 36 0
2 5 6 13 14 17 19 21 22 23 24 26 31 32 34 35 37 0
1 3 6 7 14 15 18 22 23 24 25 27 32 33 35 36 38 0
2 4 7 8 15 16 19 20 23 24 25 26 28 33 34 36 37 0
1 3 5 8 9 16 17 21 24 25 26 27 29 34 35 37 38 0
2 4 6 9 10 17 18 20 22 25 26 27 28 30 35 36 38 0
3 5 7 10 11 18 19 20 21 23 26 27 28 29 31 36 37 0
1 4 6 8 11 12 19 21 22 24 27 28 29 30 32 37 38 0
1 2 5 7 9 12 13 20 22 23 25 28 29 30 31 33 38 0
2 3 6 8 10 13 14 20 21 23 24 26 29 30 31 32 34 0
3 4 7 9 11 14 15 21 22 24 25 27 30 31 32 33 35 0
5 6 9 11 13 16 17 23 25 26 27 28 31 33 34 36 37 0
6 7 10 12 14 17 18 24 26 27 28 29 32 34 35 37 38 0
7 8 11 13 15 18 19 20 25 27 28 29 30 33 35 36 38 0
1 8 9 12 14 16 19 20 21 26 28 29 30 31 34 36 37 0
1 2 9 10 13 15 17 21 22 27 29 30 31 32 35 37 38 0
2 3 10 11 14 16 18 20 22 23 28 30 31 32 33 36 38 0
3 4 11 12 15 17 19 20 21 23 24 29 31 32 33 34 37 0
1 4 5 12 13 16 18 21 22 24 25 30 32 33 34 35 38 0
2 5 6 13 14 17 19 20 22 23 25 26 31 33 34 35 36 0
1 3 6 7 14 15 18 21 23 24 26 27 32 34 35 36 37 0
2 4 7 8 15 16 19 22 24 25 27 28 33 35 36 37 38 0
1 3 5 8 9 16 17 20 23 25 26 28 29 34 36 37 38 0
2 4 6 9 10 17 18 20 21 24 26 27 29 30 35 37 38 0
3 5 7 10 11 18 19 20 21 22 25 27 28 30 31 36 38 0
1 4 6 8 11 12 19 20 21 22 23 26 28 29 31 32 37 0
1 2 5 7 9 12 13 21 22 23 24 27 29 30 32 33 38 0
2 3 6 8 10 13 14 20 22 23 24 25 28 30 31 33 34 0
3 4 7 9 11 14 15 21 23 24 25 26 29 31 32 34 35 0
4 5 8 10 12 15 16 22 24 25 26 27 30 32 33 35 36 0
3 6 10 13 16 21 22 23 24 26 28 30 31 33 34 35 36 0
4 7 11 14 17 22 23 24 25 27 29 31 32 34 35 36 37 0
5 8 12 15 18 23 24 25 26 28 30 32 33 35 36 37 38 0
6 9 13 16 19 20 24 25 26 27 29 31 33 34 36 37 38 0
1 7 10 14 17 20 21 25 26 27 28 30 32 34 35 37 38 0
2 8 11 15 18 20 21 22 26 27 28 29 31 33 35 36 38 0
3 9 12 16 19 20 21 22 23 27 28 29 30 32 34 36 37 0
1 4 10 13 17 21 22 23 24 28 29 30 31 33 35 37 38 0
2 5 11 14 18 20 22 23 24 25 29 30 31 32 34 36 38 0
3 6 12 15 19 20 21 23 24 25 26 30 31 32 33 35 37 0
1 4 7 13 16 21 22 24 25 26 27 31 32 33 34 36 38 0
2 5 8 14 17 20 22 23 25 26 27 28 32 33 34 35 37 0
3 6 9 15 18 21 23 24 26 27 28 29 33 34 35 36 38 0
4 7 10 16 19 20 22 24 25 27 28 29 30 34 35 36 37 0
1 5 8 11 17 21 23 25 26 28 29 30 31 35 36 37 38 0
2 6 9 12 18 20 22 24 26 27 29 30 31 32 36 37 38 0
3 7 10 13 19 20 21 23 25 27 28 30 31 32 33 37 38 0
1 4 8 11 14 20 21 22 24 26 28 29 31 32 33 34 38 0
2 5 9 12 15 20 21 22 23 25 27 29 30 32 33 34 35 0
5 8 11 15 18 23 24 25 26 28 29 31 33 35 36 37 38 0
6 9 12 16 19 20 24 25 26 27 29 30 32 34 36 37 38 0
1 7 10 13 17 20 21 25 26 27 28 30 31 33 35 37 38 0
2 8 11 14 18 20 21 22 26 27 28 29 31 32 34 36 38 0
3 9 12 15 19 20 21 22 23 27 28 29 30 32 33 35 37 0
1 4 10 13 16 21 22 23 24 28 29 30 31 33 34 36 38 0
2 5 11 14 17 20 22 23 24 25 29 30 31 32 34 35 37 0
3 6 12 15 18 21 23 24 25 26 30 31 32 33 35 36 38 0
4 7 13 16 19 20 22 24 25 26 27 31 32 33 34 36 37 0
1 5 8 14 17 21 23 25 26 27 28 32 33 34 35 37 38 0
2 6 9 15 18 20 22 24 26 27 28 29 33 34 35 36 38 0
3 7 10 16 19 20 21 23 25 27 28 29 30 34 35 36 37 0
1 4 8 11 17 21 22 24 26 28 29 30 31 35 36 37 38 0
2 5 9 12 18 20 22 23 25 27 29 30 31 32 36 37 38 0
3 6 10 13 19 20 21 23 24 26 28 30 31 32 33 37 38 0
1 4 7 11 14 20 21 22 24 25 27 29 31 32 33 34 38 0
2 5 8 12 15 20 21 22 23 25 26 28 30 32 33 34 35 0
3 6 9 13 16 21 22 23 24 26 27 29 31 33 34 35 36 0
4 7 10 14 17 22 23 24 25 27 28 30 32 34 35 36 37 0
3 6 10 13 16 18 21 23 24 26 28 30 31 32 33 34 35 38 0
4 7 11 14 17 19 20 22 24 25 27 29 31 32 33 34 35 36 0
1 5 8 12 15 18 21 23 25 26 28 30 32 33 34 35 36 37 0
2 6 9 13 16 19 22 24 26 27 29 31 33 34 35 36 37 38 0
1 3 7 10 14 17 20 23 25 27 28 30 32 34 35 36 37 38 0
2 4 8 11 15 18 20 21 24 26 28 29 31 33 35 36 37 38 0
3 5 9 12 16 19 20 21 22 25 27 29 30 32 34 36 37 38 0
1 4 6 10 13 17 20 21 22 23 26 28 30 31 33 35 37 38 0
2 5 7 11 14 18 20 21 22 23 24 27 29 31 32 34 36 38 0
3 6 8 12 15 19 20 21 22 23 24 25 28 30 32 33 35 37 0
1 4 7 9 13 16 21 22 23 24 25 26 29 31 33 34 36 38 0
2 5 8 10 14 17 20 22 23 24 25 26 27 30 32 34 35 37 0
3 6 9 11 15 18 21 23 24 25 26 27 28 31 33 35 36 38 0
4 7 10 12 16 19 20 22 24 25 26 27 28 29 32 34 36 37 0
1 5 8 11 13 17 21 23 25 26 27 28 29 30 33 35 37 38 0
2 6 9 12 14 18 20 22 24 26 27 28 29 30 31 34 36 38 0
3 7 10 13 15 19 20 21 23 25 27 28 29 30 31 32 35 37 0
1 4 8 11 14 16 21 22 24 26 28 29 30 31 32 33 36 38 0
2 5 9 12 15 17 20 22 23 25 27 29 30 31 32 33 34 37 0
3 5 8 11 15 18 21 24 25 26 27 28 29 31 33 35 36 38 0
4 6 9 12 16 19 20 22 25 26 27 28 29 30 32 34 36 37 0
1 5 7 10 13 17 21 23 26 27 28 29 30 31 33 35 37 38 0
2 6 8 11 14 18 20 22 24 27 28 29 30 31 32 34 36 38 0
3 7 9 12 15 19 20 21 23 25 28 29 30 31 32 33 35 37 0
1 4 8 10 13 16 21 22 24 26 29 30 31 32 33 34 36 38 0
2 5 9 11 14 17 20 22 23 25 27 30 31 32 33 34 35 37 0
3 6 10 12 15 18 21 23 24 26 28 31 32 33 34 35 36 38 0
4 7 11 13 16 19 20 22 24 25 27 29 32 33 34 35 36 37 0
1 5 8 12 14 17 21 23 25 26 28 30 33 34 35 36 37 38 0
2 6 9 13 15 18 20 22 24 26 27 29 31 34 35 36 37 38 0
3 7 10 14 16 19 20 21 23 25 27 28 30 32 35 36 37 38 0
1 4 8 11 15 17 20 21 22 24 26 28 29 31 33 36 37 38 0
2 5 9 12 16 18 20 21 22 23 25 27 29 30 32 34 37 38 0
3 6 10 13 17 19 20 21 22 23 24 26 28 30 31 33 35 38 0
1 4 7 11 14 18 20 21 22 23 24 25 27 29 31 32 34 36 0
2 5 8 12 15 19 21 22 23 24 25 26 28 30 32 33 35 37 0
1 3 6 9 13 16 22 23 24 25 26 27 29 31 33 34 36 38 0
2 4 7 10 14 17 20 23 24 25 26 27 28 30 32 34 35 37 0
3 6 10 13 15 18 21 23 24 26 28 29 30 31 35 36 37 38 0
4 7 11 14 16 19 20 22 24 25 27 29 30 31 32 36 37 38 0
1 5 8 12 15 17 20 21 23 25 26 28 30 31 32 33 37 38 0
2 6 9 13 16 18 20 21 22 24 26 27 29 31 32 33 34 38 0
3 7 10 14 17 19 20 21 22 23 25 27 28 30 32 33 34 35 0
1 4 8 11 15 18 21 22 23 24 26 28 29 31 33 34 35 36 0
2 5 9 12 16 19 22 23 24 25 27 29 30 32 34 35 36 37 0
1 3 6 10 13 17 23 24 25 26 28 30 31 33 35 36 37 38 0
2 4 7 11 14 18 20 24 25 26 27 29 31 32 34 36 37 38 0
3 5 8 12 15 19 20 21 25 26 27 28 30 32 33 35 37 38 0
1 4 6 9 13 16 20 21 22 26 27 28 29 31 33 34 36 38 0
2 5 7 10 14 17 20 21 22 23 27 28 29 30 32 34 35 37 0
3 6 8 11 15 18 21 22 23 24 28 29 30 31 33 35 36 38 0
4 7 9 12 16 19 20 22 23 24 25 29 30 31 32 34 36 37 0
1 5 8 10 13 17 21 23 24 25 26 30 31 32 33 35 37 38 0
2 6 9 11 14 18 20 22 24 25 26 27 31 32 33 34 36 38 0
3 7 10 12 15 19 20 21 23 25 26 27 28 32 33 34 35 37 0
1 4 8 11 13 16 21 22 24 26 27 28 29 33 34 35 36 38 0
2 5 9 12 14 17 20 22 23 25 27 28 29 30 34 35 36 37 0
3 5 6 10 12 15 16 21 22 24 26 28 30 32 33 35 36 0
4 6 7 11 13 16 17 22 23 25 27 29 31 33 34 36 37 0
5 7 8 12 14 17 18 23 24 26 28 30 32 34 35 37 38 0
6 8 9 13 15 18 19 20 24 25 27 29 31 33 35 36 38 0
1 7 9 10 14 16 19 20 21 25 26 28 30 32 34 36 37 0
1 2 8 10 11 15 17 21 22 26 27 29 31 33 35 37 38 0
2 3 9 11 12 16 18 20 22 23 27 28 30 32 34 36 38 0
3 4 10 12 13 17 19 20 21 23 24 28 29 31 33 35 37 0
1 4 5 11 13 14 18 21 22 24 25 29 30 32 34 36 38 0
2 5 6 12 14 15 19 20 22 23 25 26 30 31 33 35 37 0
1 3 6 7 13 15 16 21 23 24 26 27 31 32 34 36 38 0
2 4 7 8 14 16 17 20 22 24 25 27 28 32 33 35 37 0
3 5 8 9 15 17 18 21 23 25 26 28 29 33 34 36 38 0
4 6 9 10 16 18 19 20 22 24 26 27 29 30 34 35 37 0
1 5 7 10 11 17 19 21 23 25 27 28 30 31 35 36 38 0
1 2 6 8 11 12 18 20 22 24 26 28 29 31 32 36 37 0
2 3 7 9 12 13 19 21 23 25 27 29 30 32 33 37 38 0
1 3 4 8 10 13 14 20 22 24 26 28 30 31 33 34 38 0
2 4 5 9 11 14 15 20 21 23 25 27 29 31 32 34 35 0
5 6 9 11 15 16 18 23 24 26 27 29 31 33 35 37 38 0
6 7 10 12 16 17 19 20 24 25 27 28 30 32 34 36 38 0
1 7 8 11 13 17 18 20 21 25 26 28 29 31 33 35 37 0
2 8 9 12 14 18 19 21 22 26 27 29 30 32 34 36 38 0
1 3 9 10 13 15 19 20 22 23 27 28 30 31 33 35 37 0
1 2 4 10 11 14 16 21 23 24 28 29 31 32 34 36 38 0
2 3 5 11 12 15 17 20 22 24 25 29 30 32 33 35 37 0
3 4 6 12 13 16 18 21 23 25 26 30 31 33 34 36 38 0
4 5 7 13 14 17 19 20 22 24 26 27 31 32 34 35 37 0
1 5 6 8 14 15 18 21 23 25 27 28 32 33 35 36 38 0
2 6 7 9 15 16 19 20 22 24 26 28 29 33 34 36 37 0
1 3 7 8 10 16 17 21 23 25 27 29 30 34 35 37 38 0
2 4 8 9 11 17 18 20 22 24 26 28 30 31 35 36 38 0
3 5 9 10 12 18 19 20 21 23 25 27 29 31 32 36 37 0
1 4 6 10 11 13 19 21 22 24 26 28 30 32 33 37 38 0
1 2 5 7 11 12 14 20 22 23 25 27 29 31 33 34 38 0
2 3 6 8 12 13 15 20 21 23 24 26 28 30 32 34 35 0
3 4 7 9 13 14 16 21 22 24 25 27 29 31 33 35 36 0
4 5 8 10 14 15 17 22 23 25 26 28 30 32 34 36 37 0
3 5 10 13 16 18 21 22 23 24 25 28 30 31 33 34 35 36 38 0
4 6 11 14 17 19 20 22 23 24 25 26 29 31 32 34 35 36 37 0
1 5 7 12 15 18 21 23 24 25 26 27 30 32 33 35 36 37 38 0
2 6 8 13 16 19 20 22 24 25 26 27 28 31 33 34 36 37 38 0
1 3 7 9 14 17 20 21 23 25 26 27 28 29 32 34 35 37 38 0
2 4 8 10 15 18 20 21 22 24 26 27 28 29 30 33 35 36 38 0
3 5 9 11 16 19 20 21 22 23 25 27 28 29 30 31 34 36 37 0
1 4 6 10 12 17 21 22 23 24 26 28 29 30 31 32 35 37 38 0
2 5 7 11 13 18 20 22 23 24 25 27 29 30 31 32 33 36 38 0
3 6 8 12 14 19 20 21 23 24 25 26 28 30 31 32 33 34 37 0
1 4 7 9 13 15 21 22 24 25 26 27 29 31 32 33 34 35 38 0
2 5 8 10 14 16 20 22 23 25 26 27 28 30 32 33 34 35 36 0
3 6 9 11 15 17 21 23 24 26 27 28 29 31 33 34 35 36 37 0
4 7 10 12 16 18 22 24 25 27 28 29 30 32 34 35 36 37 38 0
5 8 11 13 17 19 20 23 25 26 28 29 30 31 33 35 36 37 38 0
1 6 9 12 14 18 20 21 24 26 27 29 30 31 32 34 36 37 38 0
2 7 10 13 15 19 20 21 22 25 27 28 30 31 32 33 35 37 38 0
1 3 8 11 14 16 20 21 22 23 26 28 29 31 32 33 34 36 38 0
2 4 9 12 15 17 20 21 22 23 24 27 29 30 32 33 34 35 37 0
3 5 8 11 16 18 21 23 24 25 26 28 29 31 34 35 36 37 38 0
4 6 9 12 17 19 20 22 24 25 26 27 29 30 32 35 36 37 38 0
1 5 7 10 13 18 20 21 23 25 26 27 28 30 31 33 36 37 38 0
2 6 8 11 14 19 20 21 22 24 26 27 28 29 31 32 34 37 38 0
1 3 7 9 12 15 20 21 22 23 25 27 28 29 30 32 33 35 38 0
2 4 8 10 13 16 20 21 22 23 24 26 28 29 30 31 33 34 36 0
3 5 9 11 14 17 21 22 23 24 25 27 29 30 31 32 34 35 37 0
4 6 10 12 15 18 22 23 24 25 26 28 30 31 32 33 35 36 38 0
5 7 11 13 16 19 20 23 24 25 26 27 29 31 32 33 34 36 37 0
1 6 8 12 14 17 21 24 25 26 27 28 30 32 33 34 35 37 38 0
2 7 9 13 15 18 20 22 25 26 27 28 29 31 33 34 35 36 38 0
3 8 10 14 16 19 20 21 23 26 27 28 29 30 32 34 35 36 37 0
1 4 9 11 15 17 21 22 24 27 28 29 30 31 33 35 36 37 38 0
2 5 10 12 16 18 20 22 23 25 28 29 30 31 32 34 36 37 38 0
3 6 11 13 17 19 20 21 23 24 26 29 30 31 32 33 35 37 38 0
1 4 7 12 14 18 20 21 22 24 25 27 30 31 32 33 34 36 38 0
2 5 8 13 15 19 20 21 22 23 25 26 28 31 32 33 34 35 37 0
1 3 6 9 14 16 21 22 23 24 26 27 29 32 33 34 35 36 38 0
2 4 7 10 15 17 20 22 23 24 25 27 28 30 33 34 35 36 37 0
5 6 10 13 16 18 23 24 25 26 28 30 31 33 34 35 36 37 38 0
6 7 11 14 17 19 20 24 25 26 27 29 31 32 34 35 36 37 38 0
1 7 8 12 15 18 20 21 25 26 27 28 30 32 33 35 36 37 38 0
2 8 9 13 16 19 20 21 22 26 27 28 29 31 33 34 36 37 38 0
1 3 9 10 14 17 20 21 22 23 27 28 29 30 32 34 35 37 38 0
2 4 10 11 15 18 20 21 22 23 24 28 29 30 31 33 35 36 38 0
3 5 11 12 16 19 20 21 22 23 24 25 29 30 31 32 34 36 37 0
1 4 6 12 13 17 21 22 23 24 25 26 30 31 32 33 35 37 38 0
2 5 7 13 14 18 20 22 23 24 25 26 27 31 32 33 34 36 38 0
3 6 8 14 15 19 20 21 23 24 25 26 27 28 32 33 34 35 37 0
1 4 7 9 15 16 21 22 24 25 26 27 28 29 33 34 35 36 38 0
2 5 8 10 16 17 20 22 23 25 26 27 28 29 30 34 35 36 37 0
3 6 9 11 17 18 21 23 24 26 27 28 29 30 31 35 36 37 38 0
4 7 10 12 18 19 20 22 24 25 27 28 29 30 31 32 36 37 38 0
1 5 8 11 13 19 20 21 23 25 26 28 29 30 31 32 33 37 38 0
1 2 6 9 12 14 20 21 22 24 26 27 29 30 31 32 33 34 38 0
2 3 7 10 13 15 20 21 22 23 25 27 28 30 31 32 33 34 35 0
3 4 8 11 14 16 21 22 23 24 26 28 29 31 32 33 34 35 36 0
4 5 9 12 15 17 22 23 24 25 27 29 30 32 33 34 35 36 37 0
3 5 8 11 15 16 21 22 23 24 25 26 28 29 31 33 34 35 36 0
4 6 9 12 16 17 22 23 24 25 26 27 29 30 32 34 35 36 37 0
5 7 10 13 17 18 23 24 25 26 27 28 30 31 33 35 36 37 38 0
6 8 11 14 18 19 20 24 25 26 27 28 29 31 32 34 36 37 38 0
1 7 9 12 15 19 20 21 25 26 27 28 29 30 32 33 35 37 38 0
1 2 8 10 13 16 20 21 22 26 27 28 29 30 31 33 34 36 38 0
2 3 9 11 14 17 20 21 22 23 27 28 29 30 31 32 34 35 37 0
3 4 10 12 15 18 21 22 23 24 28 29 30 31 32 33 35 36 38 0
4 5 11 13 16 19 20 22 23 24 25 29 30 31 32 33 34 36 37 0
1 5 6 12 14 17 21 23 24 25 26 30 31 32 33 34 35 37 38 0
2 6 7 13 15 18 20 22 24 25 26 27 31 32 33 34 35 36 38 0
3 7 8 14 16 19 20 21 23 25 26 27 28 32 33 34 35 36 37 0
1 4 8 9 15 17 21 22 24 26 27 28 29 33 34 35 36 37 38 0
2 5 9 10 16 18 20 22 23 25 27 28 29 30 34 35 36 37 38 0
3 6 10 11 17 19 20 21 23 24 26 28 29 30 31 35 36 37 38 0
1 4 7 11 12 18 20 21 22 24 25 27 29 30 31 32 36 37 38 0
2 5 8 12 13 19 20 21 22 23 25 26 28 30 31 32 33 37 38 0
1 3 6 9 13 14 20 21 22 23 24 26 27 29 31 32 33 34 38 0
2 4 7 10 14 15 20 21 22 23 24 25 27 28 30 32 33 34 35 0
3 5 6 10 13 16 18 21 23 26 28 30 31 33 34 36 38 0
4 6 7 11 14 17 19 20 22 24 27 29 31 32 34 35 37 0
1 5 7 8 12 15 18 21 23 25 28 30 32 33 35 36 38 0
2 6 8 9 13 16 19 20 22 24 26 29 31 33 34 36 37 0
1 3 7 9 10 14 17 21 23 25 27 30 32 34 35 37 38 0
2 4 8 10 11 15 18 20 22 24 26 28 31 33 35 36 38 0
3 5 9 11 12 16 19 20 21 23 25 27 29 32 34 36 37 0
1 4 6 10 12 13 17 21 22 24 26 28 30 33 35 37 38 0
2 5 7 11 13 14 18 20 22 23 25 27 29 31 34 36 38 0
3 6 8 12 14 15 19 20 21 23 24 26 28 30 32 35 37 0
1 4 7 9 13 15 16 21 22 24 25 27 29 31 33 36 38 0
2 5 8 10 14 16 17 20 22 23 25 26 28 30 32 34 37 0
3 6 9 11 15 17 18 21 23 24 26 27 29 31 33 35 38 0
4 7 10 12 16 18 19 20 22 24 25 27 28 30 32 34 36 0
1 5 8 11 13 17 19 21 23 25 26 28 29 31 33 35 37 0
1 2 6 9 12 14 18 22 24 26 27 29 30 32 34 36 38 0
2 3 7 10 13 15 19 20 23 25 27 28 30 31 33 35 37 0
1 3 4 8 11 14 16 21 24 26 28 29 31 32 34 36 38 0
2 4 5 9 12 15 17 20 22 25 27 29 30 32 33 35 37 0
3 5 8 11 15 16 18 21 23 25 26 28 29 31 33 36 38 0
4 6 9 12 16 17 19 20 22 24 26 27 29 30 32 34 37 0
1 5 7 10 13 17 18 21 23 25 27 28 30 31 33 35 38 0
2 6 8 11 14 18 19 20 22 24 26 28 29 31 32 34 36 0
1 3 7 9 12 15 19 21 23 25 27 29 30 32 33 35 37 0
1 2 4 8 10 13 16 22 24 26 28 30 31 33 34 36 38 0
2 3 5 9 11 14 17 20 23 25 27 29 31 32 34 35 37 0
3 4 6 10 12 15 18 21 24 26 28 30 32 33 35 36 38 0
4 5 7 11 13 16 19 20 22 25 27 29 31 33 34 36 37 0
1 5 6 8 12 14 17 21 23 26 28 30 32 34 35 37 38 0
2 6 7 9 13 15 18 20 22 24 27 29 31 33 35 36 38 0
3 7 8 10 14 16 19 20 21 23 25 28 30 32 34 36 37 0
1 4 8 9 11 15 17 21 22 24 26 29 31 33 35 37 38 0
2 5 9 10 12 16 18 20 22 23 25 27 30 32 34 36 38 0
3 6 10 11 13 17 19 20 21 23 24 26 28 31 33 35 37 0
1 4 7 11 12 14 18 21 22 24 25 27 29 32 34 36 38 0
2 5 8 12 13 15 19 20 22 23 25 26 28 30 33 35 37 0
1 3 6 9 13 14 16 21 23 24 26 27 29 31 34 36 38 0
2 4 7 10 14 15 17 20 22 24 25 27 28 30 32 35 37 0
2 3 5 6 10 11 13 14 18 19 26 28 29 34 36 37 0
1 3 4 6 7 11 12 14 15 19 27 29 30 35 37 38 0
1 2 4 5 7 8 12 13 15 16 20 28 30 31 36 38 0
2 3 5 6 8 9 13 14 16 17 20 21 29 31 32 37 0
3 4 6 7 9 10 14 15 17 18 21 22 30 32 33 38 0
4 5 7 8 10 11 15 16 18 19 20 22 23 31 33 34 0
1 5 6 8 9 11 12 16 17 19 21 23 24 32 34 35 0
1 2 6 7 9 10 12 13 17 18 22 24 25 33 35 36 0
2 3 7 8 10 11 13 14 18 19 23 25 26 34 36 37 0
1 3 4 8 9 11 12 14 15 19 24 26 27 35 37 38 0
1 2 4 5 9 10 12 13 15 16 20 25 27 28 36 38 0
2 3 5 6 10 11 13 14 16 17 20 21 26 28 29 37 0
3 4 6 7 11 12 14 15 17 18 21 22 27 29 30 38 0
4 5 7 8 12 13 15 16 18 19 20 22 23 28 30 31 0
1 5 6 8 9 13 14 16 17 19 21 23 24 29 31 32 0
1 2 6 7 9 10 14 15 17 18 22 24 25 30 32 33 0
2 3 7 8 10 11 15 16 18 19 23 25 26 31 33 34 0
1 3 4 8 9 11 12 16 17 19 24 26 27 32 34 35 0
1 2 4 5 9 10 12 13 17 18 25 27 28 33 35 36 0
2 3 7 8 10 11 15 16 18 19 22 23 25 30 31 33 0
1 3 4 8 9 11 12 16 17 19 23 24 26 31 32 34 0
1 2 4 5 9 10 12 13 17 18 24 25 27 32 33 35 0
2 3 5 6 10 11 13 14 18 19 25 26 28 33 34 36 0
1 3 4 6 7 11 12 14 15 19 26 27 29 34 35 37 0
1 2 4 5 7 8 12 13 15 16 27 28 30 35 36 38 0
2 3 5 6 8 9 13 14 16 17 20 28 29 31 36 37 0
3 4 6 7 9 10 14 15 17 18 21 29 30 32 37 38 0
4 5 7 8 10 11 15 16 18 19 20 22 30 31 33 38 0
1 5 6 8 9 11 12 16 17 19 20 21 23 31 32 34 0
1 2 6 7 9 10 12 13 17 18 21 22 24 32 33 35 0
2 3 7 8 10 11 13 14 18 19 22 23 25 33 34 36 0
1 3 4 8 9 11 12 14 15 19 23 24 26 34 35 37 0
1 2 4 5 9 10 12 13 15 16 24 25 27 35 36 38 0
2 3 5 6 10 11 13 14 16 17 20 25 26 28 36 37 0
3 4 6 7 11 12 14 15 17 18 21 26 27 29 37 38 0
4 5 7 8 12 13 15 16 18 19 20 22 27 28 30 38 0
1 5 6 8 9 13 14 16 17 19 20 21 23 28 29 31 0
1 2 6 7 9 10 14 15 17 18 21 22 24 29 30 32 0
2 5 6 10 13 16 19 22 23 26 28 29 30 31 33 34 36 37 0
1 3 6 7 11 14 17 23 24 27 29 30 31 32 34 35 37 38 0
2 4 7 8 12 15 18 20 24 25 28 30 31 32 33 35 36 38 0
3 5 8 9 13 16 19 20 21 25 26 29 31 32 33 34 36 37 0
1 4 6 9 10 14 17 21 22 26 27 30 32 33 34 35 37 38 0
2 5 7 10 11 15 18 20 22 23 27 28 31 33 34 35 36 38 0
3 6 8 11 12 16 19 20 21 23 24 28 29 32 34 35 36 37 0
1 4 7 9 12 13 17 21 22 24 25 29 30 33 35 36 37 38 0
2 5 8 10 13 14 18 20 22 23 25 26 30 31 34 36 37 38 0
3 6 9 11 14 15 19 20 21 23 24 26 27 31 32 35 37 38 0
1 4 7 10 12 15 16 20 21 22 24 25 27 28 32 33 36 38 0
2 5 8 11 13 16 17 20 21 22 23 25 26 28 29 33 34 37 0
3 6 9 12 14 17 18 21 22 23 24 26 27 29 30 34 35 38 0
4 7 10 13 15 18 19 20 22 23 24 25 27 28 30 31 35 36 0
1 5 8 11 14 16 19 21 23 24 25 26 28 29 31 32 36 37 0
1 2 6 9 12 15 17 22 24 25 26 27 29 30 32 33 37 38 0
2 3 7 10 13 16 18 20 23 25 26 27 28 30 31 33 34 38 0
3 4 8 11 14 17 19 20 21 24 26 27 28 29 31 32 34 35 0
1 4 5 9 12 15 18 21 22 25 27 28 29 30 32 33 35 36 0
2 5 8 11 15 16 19 22 23 25 26 28 29 30 31 33 36 37 0
1 3 6 9 12 16 17 23 24 26 27 29 30 31 32 34 37 38 0
2 4 7 10 13 17 18 20 24 25 27 28 30 31 32 33 35 38 0
3 5 8 11 14 18 19 20 21 25 26 28 29 31 32 33 34 36 0
1 4 6 9 12 15 19 21 22 26 27 29 30 32 33 34 35 37 0
1 2 5 7 10 13 16 22 23 27 28 30 31 33 34 35 36 38 0
2 3 6 8 11 14 17 20 23 24 28 29 31 32 34 35 36 37 0
3 4 7 9 12 15 18 21 24 25 29 30 32 33 35 36 37 38 0
4 5 8 10 13 16 19 20 22 25 26 30 31 33 34 36 37 38 0
1 5 6 9 11 14 17 20 21 23 26 27 31 32 34 35 37 38 0
2 6 7 10 12 15 18 20 21 22 24 27 28 32 33 35 36 38 0
3 7 8 11 13 16 19 20 21 22 23 25 28 29 33 34 36 37 0
1 4 8 9 12 14 17 21 22 23 24 26 29 30 34 35 37 38 0
2 5 9 10 13 15 18 20 22 23 24 25 27 30 31 35 36 38 0
3 6 10 11 14 16 19 20 21 23 24 25 26 28 31 32 36 37 0
1 4 7 11 12 15 17 21 22 24 25 26 27 29 32 33 37 38 0
2 5 8 12 13 16 18 20 22 23 25 26 27 28 30 33 34 38 0
3 6 9 13 14 17 19 20 21 23 24 26 27 28 29 31 34 35 0
1 4 7 10 14 15 18 21 22 24 25 27 28 29 30 32 35 36 0
2 5 6 10 12 15 16 19 22 23 26 28 29 31 32 33 34 36 37 0
1 3 6 7 11 13 16 17 23 24 27 29 30 32 33 34 35 37 38 0
2 4 7 8 12 14 17 18 20 24 25 28 30 31 33 34 35 36 38 0
3 5 8 9 13 15 18 19 20 21 25 26 29 31 32 34 35 36 37 0
1 4 6 9 10 14 16 19 21 22 26 27 30 32 33 35 36 37 38 0
1 2 5 7 10 11 15 17 20 22 23 27 28 31 33 34 36 37 38 0
2 3 6 8 11 12 16 18 20 21 23 24 28 29 32 34 35 37 38 0
3 4 7 9 12 13 17 19 20 21 22 24 25 29 30 33 35 36 38 0
1 4 5 8 10 13 14 18 20 21 22 23 25 26 30 31 34 36 37 0
2 5 6 9 11 14 15 19 21 22 23 24 26 27 31 32 35 37 38 0
1 3 6 7 10 12 15 16 20 22 23 24 25 27 28 32 33 36 38 0
2 4 7 8 11 13 16 17 20 21 23 24 25 26 28 29 33 34 37 0
3 5 8 9 12 14 17 18 21 22 24 25 26 27 29 30 34 35 38 0
4 6 9 10 13 15 18 19 20 22 23 25 26 27 28 30 31 35 36 0
1 5 7 10 11 14 16 19 21 23 24 26 27 28 29 31 32 36 37 0
1 2 6 8 11 12 15 17 22 24 25 27 28 29 30 32 33 37 38 0
2 3 7 9 12 13 16 18 20 23 25 26 28 29 30 31 33 34 38 0
3 4 8 10 13 14 17 19 20 21 24 26 27 29 30 31 32 34 35 0
1 4 5 9 11 14 15 18 21 22 25 27 28 30 31 32 33 35 36 0
2 5 6 9 11 15 16 19 22 23 25 26 27 28 30 31 33 36 37 0
1 3 6 7 10 12 16 17 23 24 26 27 28 29 31 32 34 37 38 0
2 4 7 8 11 13 17 18 20 24 25 27 28 29 30 32 33 35 38 0
3 5 8 9 12 14 18 19 20 21 25 26 28 29 30 31 33 34 36 0
1 4 6 9 10 13 15 19 21 22 26 27 29 30 31 32 34 35 37 0
1 2 5 7 10 11 14 16 22 23 27 28 30 31 32 33 35 36 38 0
2 3 6 8 11 12 15 17 20 23 24 28 29 31 32 33 34 36 37 0
3 4 7 9 12 13 16 18 21 24 25 29 30 32 33 34 35 37 38 0
4 5 8 10 13 14 17 19 20 22 25 26 30 31 33 34 35 36 38 0
1 5 6 9 11 14 15 18 20 21 23 26 27 31 32 34 35 36 37 0
2 6 7 10 12 15 16 19 21 22 24 27 28 32 33 35 36 37 38 0
1 3 7 8 11 13 16 17 20 22 23 25 28 29 33 34 36 37 38 0
2 4 8 9 12 14 17 18 20 21 23 24 26 29 30 34 35 37 38 0
3 5 9 10 13 15 18 19 20 21 22 24 25 27 30 31 35 36 38 0
1 4 6 10 11 14 16 19 20 21 22 23 25 26 28 31 32 36 37 0
1 2 5 7 11 12 15 17 21 22 23 24 26 27 29 32 33 37 38 0
2 3 6 8 12 13 16 18 20 22 23 24 25 27 28 30 33 34 38 0
3 4 7 9 13 14 17 19 20 21 23 24 25 26 28 29 31 34 35 0
1 4 5 8 10 14 15 18 21 22 24 25 26 27 29 30 32 35 36 0
2 5 6 10 13 16 18 19 21 22 23 26 28 30 31 32 33 34 0
1 3 6 7 11 14 17 19 22 23 24 27 29 31 32 33 34 35 0
1 2 4 7 8 12 15 18 23 24 25 28 30 32 33 34 35 36 0
2 3 5 8 9 13 16 19 24 25 26 29 31 33 34 35 36 37 0
1 3 4 6 9 10 14 17 25 26 27 30 32 34 35 36 37 38 0
2 4 5 7 10 11 15 18 20 26 27 28 31 33 35 36 37 38 0
3 5 6 8 11 12 16 19 20 21 27 28 29 32 34 36 37 38 0
1 4 6 7 9 12 13 17 20 21 22 28 29 30 33 35 37 38 0
2 5 7 8 10 13 14 18 20 21 22 23 29 30 31 34 36 38 0
3 6 8 9 11 14 15 19 20 21 22 23 24 30 31 32 35 37 0
1 4 7 9 10 12 15 16 21 22 23 24 25 31 32 33 36 38 0
2 5 8 10 11 13 16 17 20 22 23 24 25 26 32 33 34 37 0
3 6 9 11 12 14 17 18 21 23 24 25 26 27 33 34 35 38 0
4 7 10 12 13 15 18 19 20 22 24 25 26 27 28 34 35 36 0
1 5 8 11 13 14 16 19 21 23 25 26 27 28 29 35 36 37 0
1 2 6 9 12 14 15 17 22 24 26 27 28 29 30 36 37 38 0
2 3 7 10 13 15 16 18 20 23 25 27 28 29 30 31 37 38 0
3 4 8 11 14 16 17 19 20 21 24 26 28 29 30 31 32 38 0
1 4 5 9 12 15 17 18 20 21 22 25 27 29 30 31 32 33 0
2 3 5 8 11 15 16 19 25 26 27 28 29 31 33 36 37 38 0
1 3 4 6 9 12 16 17 20 26 27 28 29 30 32 34 37 38 0
2 4 5 7 10 13 17 18 20 21 27 28 29 30 31 33 35 38 0
3 5 6 8 11 14 18 19 20 21 22 28 29 30 31 32 34 36 0
1 4 6 7 9 12 15 19 21 22 23 29 30 31 32 33 35 37 0
1 2 5 7 8 10 13 16 22 23 24 30 31 32 33 34 36 38 0
2 3 6 8 9 11 14 17 20 23 24 25 31 32 33 34 35 37 0
3 4 7 9 10 12 15 18 21 24 25 26 32 33 34 35 36 38 0
4 5 8 10 11 13 16 19 20 22 25 26 27 33 34 35 36 37 0
1 5 6 9 11 12 14 17 21 23 26 27 28 34 35 36 37 38 0
2 6 7 10 12 13 15 18 20 22 24 27 28 29 35 36 37 38 0
3 7 8 11 13 14 16 19 20 21 23 25 28 29 30 36 37 38 0
1 4 8 9 12 14 15 17 20 21 22 24 26 29 30 31 37 38 0
2 5 9 10 13 15 16 18 20 21 22 23 25 27 30 31 32 38 0
3 6 10 11 14 16 17 19 20 21 22 23 24 26 28 31 32 33 0
1 4 7 11 12 15 17 18 21 22 23 24 25 27 29 32 33 34 0
2 5 8 12 13 16 18 19 22 23 24 25 26 28 30 33 34 35 0
1 3 6 9 13 14 17 19 23 24 25 26 27 29 31 34 35 36 0
1 2 4 7 10 14 15 18 24 25 26 27 28 30 32 35 36 37 0
2 3 8 10 12 13 14 18 19 21 23 26 27 29 34 36 37 0
1 3 4 9 11 13 14 15 19 22 24 27 28 30 35 37 38 0
1 2 4 5 10 12 14 15 16 20 23 25 28 29 31 36 38 0
2 3 5 6 11 13 15 16 17 20 21 24 26 29 30 32 37 0
3 4 6 7 12 14 16 17 18 21 22 25 27 30 31 33 38 0
4 5 7 8 13 15 17 18 19 20 22 23 26 28 31 32 34 0
1 5 6 8 9 14 16 18 19 21 23 24 27 29 32 33 35 0
1 2 6 7 9 10 15 17 19 22 24 25 28 30 33 34 36 0
1 2 3 7 8 10 11 16 18 23 25 26 29 31 34 35 37 0
2 3 4 8 9 11 12 17 19 24 26 27 30 32 35 36 38 0
1 3 4 5 9 10 12 13 18 20 25 27 28 31 33 36 37 0
2 4 5 6 10 11 13 14 19 21 26 28 29 32 34 37 38 0
1 3 5 6 7 11 12 14 15 20 22 27 29 30 33 35 38 0
2 4 6 7 8 12 13 15 16 20 21 23 28 30 31 34 36 0
3 5 7 8 9 13 14 16 17 21 22 24 29 31 32 35 37 0
4 6 8 9 10 14 15 17 18 22 23 25 30 32 33 36 38 0
5 7 9 10 11 15 16 18 19 20 23 24 26 31 33 34 37 0
1 6 8 10 11 12 16 17 19 21 24 25 27 32 34 35 38 0
1 2 7 9 11 12 13 17 18 20 22 25 26 28 33 35 36 0
2 3 7 8 9 11 13 18 19 22 23 25 30 32 33 36 38 0
1 3 4 8 9 10 12 14 19 20 23 24 26 31 33 34 37 0
1 2 4 5 9 10 11 13 15 21 24 25 27 32 34 35 38 0
2 3 5 6 10 11 12 14 16 20 22 25 26 28 33 35 36 0
3 4 6 7 11 12 13 15 17 21 23 26 27 29 34 36 37 0
4 5 7 8 12 13 14 16 18 22 24 27 28 30 35 37 38 0
5 6 8 9 13 14 15 17 19 20 23 25 28 29 31 36 38 0
1 6 7 9 10 14 15 16 18 20 21 24 26 29 30 32 37 0
2 7 8 10 11 15 16 17 19 21 22 25 27 30 31 33 38 0
1 3 8 9 11 12 16 17 18 20 22 23 26 28 31 32 34 0
2 4 9 10 12 13 17 18 19 21 23 24 27 29 32 33 35 0
1 3 5 10 11 13 14 18 19 22 24 25 28 30 33 34 36 0
1 2 4 6 11 12 14 15 19 23 25 26 29 31 34 35 37 0
1 2 3 5 7 12 13 15 16 24 26 27 30 32 35 36 38 0
2 3 4 6 8 13 14 16 17 20 25 27 28 31 33 36 37 0
3 4 5 7 9 14 15 17 18 21 26 28 29 32 34 37 38 0
4 5 6 8 10 15 16 18 19 20 22 27 29 30 33 35 38 0
1 5 6 7 9 11 16 17 19 20 21 23 28 30 31 34 36 0
1 2 6 7 8 10 12 17 18 21 22 24 29 31 32 35 37 0
2 3 8 10 13 16 18 19 21 23 26 29 30 31 33 34 36 0
1 3 4 9 11 14 17 19 22 24 27 30 31 32 34 35 37 0
1 2 4 5 10 12 15 18 23 25 28 31 32 33 35 36 38 0
2 3 5 6 11 13 16 19 20 24 26 29 32 33 34 36 37 0
1 3 4 6 7 12 14 17 21 25 27 30 33 34 35 37 38 0
2 4 5 7 8 13 15 18 20 22 26 28 31 34 35 36 38 0
3 5 6 8 9 14 16 19 20 21 23 27 29 32 35 36 37 0
1 4 6 7 9 10 15 17 21 22 24 28 30 33 36 37 38 0
2 5 7 8 10 11 16 18 20 22 23 25 29 31 34 37 38 0
3 6 8 9 11 12 17 19 20 21 23 24 26 30 32 35 38 0
1 4 7 9 10 12 13 18 20 21 22 24 25 27 31 33 36 0
2 5 8 10 11 13 14 19 21 22 23 25 26 28 32 34 37 0
1 3 6 9 11 12 14 15 22 23 24 26 27 29 33 35 38 0
2 4 7 10 12 13 15 16 20 23 24 25 27 28 30 34 36 0
3 5 8 11 13 14 16 17 21 24 25 26 28 29 31 35 37 0
4 6 9 12 14 15 17 18 22 25 26 27 29 30 32 36 38 0
5 7 10 13 15 16 18 19 20 23 26 27 28 30 31 33 37 0
1 6 8 11 14 16 17 19 21 24 27 28 29 31 32 34 38 0
1 2 7 9 12 15 17 18 20 22 25 28 29 30 32 33 35 0
2 3 5 8 11 13 18 19 23 25 26 28 29 30 33 36 38 0
1 3 4 6 9 12 14 19 20 24 26 27 29 30 31 34 37 0
1 2 4 5 7 10 13 15 21 25 27 28 30 31 32 35 38 0
2 3 5 6 8 11 14 16 20 22 26 28 29 31 32 33 36 0
3 4 6 7 9 12 15 17 21 23 27 29 30 32 33 34 37 0
4 5 7 8 10 13 16 18 22 24 28 30 31 33 34 35 38 0
5 6 8 9 11 14 17 19 20 23 25 29 31 32 34 35 36 0
1 6 7 9 10 12 15 18 21 24 26 30 32 33 35 36 37 0
2 7 8 10 11 13 16 19 22 25 27 31 33 34 36 37 38 0
1 3 8 9 11 12 14 17 20 23 26 28 32 34 35 37 38 0
2 4 9 10 12 13 15 18 20 21 24 27 29 33 35 36 38 0
3 5 10 11 13 14 16 19 20 21 22 25 28 30 34 36 37 0
1 4 6 11 12 14 15 17 21 22 23 26 29 31 35 37 38 0
2 5 7 12 13 15 16 18 20 22 23 24 27 30 32 36 38 0
3 6 8 13 14 16 17 19 20 21 23 24 25 28 31 33 37 0
1 4 7 9 14 15 17 18 21 22 24 25 26 29 32 34 38 0
2 5 8 10 15 16 18 19 20 22 23 25 26 27 30 33 35 0
1 3 6 9 11 16 17 19 21 23 24 26 27 28 31 34 36 0
1 2 4 7 10 12 17 18 22 24 25 27 28 29 32 35 37 0
3 6 8 10 12 15 18 21 23 24 26 32 33 34 35 36 38 0
4 7 9 11 13 16 19 20 22 24 25 27 33 34 35 36 37 0
1 5 8 10 12 14 17 21 23 25 26 28 34 35 36 37 38 0
2 6 9 11 13 15 18 20 22 24 26 27 29 35 36 37 38 0
3 7 10 12 14 16 19 20 21 23 25 27 28 30 36 37 38 0
1 4 8 11 13 15 17 20 21 22 24 26 28 29 31 37 38 0
2 5 9 12 14 16 18 20 21 22 23 25 27 29 30 32 38 0
3 6 10 13 15 17 19 20 21 22 23 24 26 28 30 31 33 0
1 4 7 11 14 16 18 21 22 23 24 25 27 29 31 32 34 0
2 5 8 12 15 17 19 22 23 24 25 26 28 30 32 33 35 0
1 3 6 9 13 16 18 23 24 25 26 27 29 31 33 34 36 0
2 4 7 10 14 17 19 24 25 26 27 28 30 32 34 35 37 0
1 3 5 8 11 15 18 25 26 27 28 29 31 33 35 36 38 0
2 4 6 9 12 16 19 20 26 27 28 29 30 32 34 36 37 0
1 3 5 7 10 13 17 21 27 28 29 30 31 33 35 37 38 0
2 4 6 8 11 14 18 20 22 28 29 30 31 32 34 36 38 0
3 5 7 9 12 15 19 20 21 23 29 30 31 32 33 35 37 0
1 4 6 8 10 13 16 21 22 24 30 31 32 33 34 36 38 0
2 5 7 9 11 14 17 20 22 23 25 31 32 33 34 35 37 0
3 6 9 11 13 15 18 21 23 24 25 26 27 33 35 36 38 0
4 7 10 12 14 16 19 20 22 24 25 26 27 28 34 36 37 0
1 5 8 11 13 15 17 21 23 25 26 27 28 29 35 37 38 0
2 6 9 12 14 16 18 20 22 24 26 27 28 29 30 36 38 0
3 7 10 13 15 17 19 20 21 23 25 27 28 29 30 31 37 0
1 4 8 11 14 16 18 21 22 24 26 28 29 30 31 32 38 0
2 5 9 12 15 17 19 20 22 23 25 27 29 30 31 32 33 0
1 3 6 10 13 16 18 21 23 24 26 28 30 31 32 33 34 0
2 4 7 11 14 17 19 22 24 25 27 29 31 32 33 34 35 0
1 3 5 8 12 15 18 23 25 26 28 30 32 33 34 35 36 0
2 4 6 9 13 16 19 24 26 27 29 31 33 34 35 36 37 0
1 3 5 7 10 14 17 25 27 28 30 32 34 35 36 37 38 0
2 4 6 8 11 15 18 20 26 28 29 31 33 35 36 37 38 0
3 5 7 9 12 16 19 20 21 27 29 30 32 34 36 37 38 0
1 4 6 8 10 13 17 20 21 22 28 30 31 33 35 37 38 0
2 5 7 9 11 14 18 20 21 22 23 29 31 32 34 36 38 0
3 6 8 10 12 15 19 20 21 22 23 24 30 32 33 35 37 0
1 4 7 9 11 13 16 21 22 23 24 25 31 33 34 36 38 0
2 5 8 10 12 14 17 20 22 23 24 25 26 32 34 35 37 0
3 6 8 11 13 16 21 22 23 24 27 28 29 30 33 34 35 36 0
4 7 9 12 14 17 22 23 24 25 28 29 30 31 34 35 36 37 0
5 8 10 13 15 18 23 24 25 26 29 30 31 32 35 36 37 38 0
6 9 11 14 16 19 20 24 25 26 27 30 31 32 33 36 37 38 0
1 7 10 12 15 17 20 21 25 26 27 28 31 32 33 34 37 38 0
2 8 11 13 16 18 20 21 22 26 27 28 29 32 33 34 35 38 0
3 9 12 14 17 19 20 21 22 23 27 28 29 30 33 34 35 36 0
1 4 10 13 15 18 21 22 23 24 28 29 30 31 34 35 36 37 0
2 5 11 14 16 19 22 23 24 25 29 30 31 32 35 36 37 38 0
1 3 6 12 15 17 20 23 24 25 26 30 31 32 33 36 37 38 0
2 4 7 13 16 18 20 21 24 25 26 27 31 32 33 34 37 38 0
3 5 8 14 17 19 20 21 22 25 26 27 28 32 33 34 35 38 0
1 4 6 9 15 18 20 21 22 23 26 27 28 29 33 34 35 36 0
2 5 7 10 16 19 21 22 23 24 27 28 29 30 34 35 36 37 0
1 3 6 8 11 17 22 23 24 25 28 29 30 31 35 36 37 38 0
2 4 7 9 12 18 20 23 24 25 26 29 30 31 32 36 37 38 0
3 5 8 10 13 19 20 21 24 25 26 27 30 31 32 33 37 38 0
1 4 6 9 11 14 20 21 22 25 26 27 28 31 32 33 34 38 0
2 5 7 10 12 15 20 21 22 23 26 27 28 29 32 33 34 35 0
3 7 8 10 13 16 21 22 23 25 30 31 33 34 36 0
4 8 9 11 14 17 22 23 24 26 31 32 34 35 37 0
5 9 10 12 15 18 23 24 25 27 32 33 35 36 38 0
6 10 11 13 16 19 20 24 25 26 28 33 34 36 37 0
1 7 11 12 14 17 21 25 26 27 29 34 35 37 38 0
2 8 12 13 15 18 20 22 26 27 28 30 35 36 38 0
3 9 13 14 16 19 20 21 23 27 28 29 31 36 37 0
1 4 10 14 15 17 21 22 24 28 29 30 32 37 38 0
2 5 11 15 16 18 20 22 23 25 29 30 31 33 38 0
3 6 12 16 17 19 20 21 23 24 26 30 31 32 34 0
1 4 7 13 17 18 21 22 24 25 27 31 32 33 35 0
2 5 8 14 18 19 22 23 25 26 28 32 33 34 36 0
1 3 6 9 15 19 23 24 26 27 29 33 34 35 37 0
1 2 4 7 10 16 24 25 27 28 30 34 35 36 38 0
2 3 5 8 11 17 20 25 26 28 29 31 35 36 37 0
3 4 6 9 12 18 21 26 27 29 30 32 36 37 38 0
4 5 7 10 13 19 20 22 27 28 30 31 33 37 38 0
1 5 6 8 11 14 20 21 23 28 29 31 32 34 38 0
2 6 7 9 12 15 20 21 22 24 29 30 32 33 35 0
5 8 11 13 14 18 23 25 26 28 29 34 36 37 38 0
6 9 12 14 15 19 20 24 26 27 29 30 35 37 38 0
1 7 10 13 15 16 20 21 25 27 28 30 31 36 38 0
2 8 11 14 16 17 20 21 22 26 28 29 31 32 37 0
3 9 12 15 17 18 21 22 23 27 29 30 32 33 38 0
4 10 13 16 18 19 20 22 23 24 28 30 31 33 34 0
1 5 11 14 17 19 21 23 24 25 29 31 32 34 35 0
1 2 6 12 15 18 22 24 25 26 30 32 33 35 36 0
2 3 7 13 16 19 23 25 26 27 31 33 34 36 37 0
1 3 4 8 14 17 24 26 27 28 32 34 35 37 38 0
2 4 5 9 15 18 20 25 27 28 29 33 35 36 38 0
3 5 6 10 16 19 20 21 26 28 29 30 34 36 37 0
1 4 6 7 11 17 21 22 27 29 30 31 35 37 38 0
2 5 7 8 12 18 20 22 23 28 30 31 32 36 38 0
3 6 8 9 13 19 20 21 23 24 29 31 32 33 37 0
1 4 7 9 10 14 21 22 24 25 30 32 33 34 38 0
2 5 8 10 11 15 20 22 23 25 26 31 33 34 35 0
3 6 9 11 12 16 21 23 24 26 27 32 34 35 36 0
4 7 10 12 13 17 22 24 25 27 28 33 35 36 37 0
3 7 11 13 16 18 21 23 25 27 29 30 31 33 34 36 37 38 0
4 8 12 14 17 19 20 22 24 26 28 30 31 32 34 35 37 38 0
1 5 9 13 15 18 20 21 23 25 27 29 31 32 33 35 36 38 0
2 6 10 14 16 19 20 21 22 24 26 28 30 32 33 34 36 37 0
1 3 7 11 15 17 21 22 23 25 27 29 31 33 34 35 37 38 0
2 4 8 12 16 18 20 22 23 24 26 28 30 32 34 35 36 38 0
3 5 9 13 17 19 20 21 23 24 25 27 29 31 33 35 36 37 0
1 4 6 10 14 18 21 22 24 25 26 28 30 32 34 36 37 38 0
2 5 7 11 15 19 20 22 23 25 26 27 29 31 33 35 37 38 0
1 3 6 8 12 16 20 21 23 24 26 27 28 30 32 34 36 38 0
2 4 7 9 13 17 20 21 22 24 25 27 28 29 31 33 35 37 0
3 5 8 10 14 18 21 22 23 25 26 28 29 30 32 34 36 38 0
4 6 9 11 15 19 20 22 23 24 26 27 29 30 31 33 35 37 0
1 5 7 10 12 16 21 23 24 25 27 28 30 31 32 34 36 38 0
2 6 8 11 13 17 20 22 24 25 26 28 29 31 32 33 35 37 0
3 7 9 12 14 18 21 23 25 26 27 29 30 32 33 34 36 38 0
4 8 10 13 15 19 20 22 24 26 27 28 30 31 33 34 35 37 0
1 5 9 11 14 16 21 23 25 27 28 29 31 32 34 35 36 38 0
2 6 10 12 15 17 20 22 24 26 28 29 30 32 33 35 36 37 0
3 7 8 10 12 13 14 18 21 23 25 27 30 34 36 37 38 0
4 8 9 11 13 14 15 19 20 22 24 26 28 31 35 37 38 0
1 5 9 10 12 14 15 16 20 21 23 25 27 29 32 36 38 0
2 6 10 11 13 15 16 17 20 21 22 24 26 28 30 33 37 0
3 7 11 12 14 16 17 18 21 22 23 25 27 29 31 34 38 0
4 8 12 13 15 17 18 19 20 22 23 24 26 28 30 32 35 0
1 5 9 13 14 16 18 19 21 23 24 25 27 29 31 33 36 0
1 2 6 10 14 15 17 19 22 24 25 26 28 30 32 34 37 0
1 2 3 7 11 15 16 18 23 25 26 27 29 31 33 35 38 0
2 3 4 8 12 16 17 19 20 24 26 27 28 30 32 34 36 0
1 3 4 5 9 13 17 18 21 25 27 28 29 31 33 35 37 0
2 4 5 6 10 14 18 19 22 26 28 29 30 32 34 36 38 0
1 3 5 6 7 11 15 19 20 23 27 29 30 31 33 35 37 0
1 2 4 6 7 8 12 16 21 24 28 30 31 32 34 36 38 0
2 3 5 7 8 9 13 17 20 22 25 29 31 32 33 35 37 0
3 4 6 8 9 10 14 18 21 23 26 30 32 33 34 36 38 0
4 5 7 9 10 11 15 19 20 22 24 27 31 33 34 35 37 0
1 5 6 8 10 11 12 16 21 23 25 28 32 34 35 36 38 0
2 6 7 9 11 12 13 17 20 22 24 26 29 33 35 36 37 0
3 7 8 9 11 13 14 18 21 22 23 25 29 32 34 36 38 0
4 8 9 10 12 14 15 19 20 22 23 24 26 30 33 35 37 0
1 5 9 10 11 13 15 16 21 23 24 25 27 31 34 36 38 0
2 6 10 11 12 14 16 17 20 22 24 25 26 28 32 35 37 0
3 7 11 12 13 15 17 18 21 23 25 26 27 29 33 36 38 0
4 8 12 13 14 16 18 19 20 22 24 26 27 28 30 34 37 0
1 5 9 13 14 15 17 19 21 23 25 27 28 29 31 35 38 0
1 2 6 10 14 15 16 18 20 22 24 26 28 29 30 32 36 0
2 3 7 11 15 16 17 19 21 23 25 27 29 30 31 33 37 0
1 3 4 8 12 16 17 18 22 24 26 28 30 31 32 34 38 0
2 4 5 9 13 17 18 19 20 23 25 27 29 31 32 33 35 0
1 3 5 6 10 14 18 19 21 24 26 28 30 32 33 34 36 0
1 2 4 6 7 11 15 19 22 25 27 29 31 33 34 35 37 0
1 2 3 5 7 8 12 16 23 26 28 30 32 34 35 36 38 0
2 3 4 6 8 9 13 17 20 24 27 29 31 33 35 36 37 0
3 4 5 7 9 10 14 18 21 25 28 30 32 34 36 37 38 0
4 5 6 8 10 11 15 19 20 22 26 29 31 33 35 37 38 0
1 5 6 7 9 11 12 16 20 21 23 27 30 32 34 36 38 0
2 6 7 8 10 12 13 17 20 21 22 24 28 31 33 35 37 0
3 6 8 11 14 16 18 21 23 24 28 29 31 32 34 35 37 38 0
4 7 9 12 15 17 19 20 22 24 25 29 30 32 33 35 36 38 0
1 5 8 10 13 16 18 20 21 23 25 26 30 31 33 34 36 37 0
2 6 9 11 14 17 19 21 22 24 26 27 31 32 34 35 37 38 0
1 3 7 10 12 15 18 20 22 23 25 27 28 32 33 35 36 38 0
2 4 8 11 13 16 19 20 21 23 24 26 28 29 33 34 36 37 0
1 3 5 9 12 14 17 21 22 24 25 27 29 30 34 35 37 38 0
2 4 6 10 13 15 18 20 22 23 25 26 28 30 31 35 36 38 0
3 5 7 11 14 16 19 20 21 23 24 26 27 29 31 32 36 37 0
1 4 6 8 12 15 17 21 22 24 25 27 28 30 32 33 37 38 0
2 5 7 9 13 16 18 20 22 23 25 26 28 29 31 33 34 38 0
3 6 8 10 14 17 19 20 21 23 24 26 27 29 30 32 34 35 0
1 4 7 9 11 15 18 21 22 24 25 27 28 30 31 33 35 36 0
2 5 8 10 12 16 19 22 23 25 26 28 29 31 32 34 36 37 0
1 3 6 9 11 13 17 23 24 26 27 29 30 32 33 35 37 38 0
2 4 7 10 12 14 18 20 24 25 27 28 30 31 33 34 36 38 0
3 5 8 11 13 15 19 20 21 25 26 28 29 31 32 34 35 37 0
1 4 6 9 12 14 16 21 22 26 27 29 30 32 33 35 36 38 0
2 5 7 10 13 15 17 20 22 23 27 28 30 31 33 34 36 37 0
3 5 7 10 13 15 18 21 22 24 25 27 28 30 31 35 36 38 0
4 6 8 11 14 16 19 20 22 23 25 26 28 29 31 32 36 37 0
1 5 7 9 12 15 17 21 23 24 26 27 29 30 32 33 37 38 0
2 6 8 10 13 16 18 20 22 24 25 27 28 30 31 33 34 38 0
3 7 9 11 14 17 19 20 21 23 25 26 28 29 31 32 34 35 0
1 4 8 10 12 15 18 21 22 24 26 27 29 30 32 33 35 36 0
2 5 9 11 13 16 19 22 23 25 27 28 30 31 33 34 36 37 0
1 3 6 10 12 14 17 23 24 26 28 29 31 32 34 35 37 38 0
2 4 7 11 13 15 18 20 24 25 27 29 30 32 33 35 36 38 0
3 5 8 12 14 16 19 20 21 25 26 28 30 31 33 34 36 37 0
1 4 6 9 13 15 17 21 22 26 27 29 31 32 34 35 37 38 0
2 5 7 10 14 16 18 20 22 23 27 28 30 32 33 35 36 38 0
3 6 8 11 15 17 19 20 21 23 24 28 29 31 33 34 36 37 0
1 4 7 9 12 16 18 21 22 24 25 29 30 32 34 35 37 38 0
2 5 8 10 13 17 19 20 22 23 25 26 30 31 33 35 36 38 0
1 3 6 9 11 14 18 20 21 23 24 26 27 31 32 34 36 37 0
2 4 7 10 12 15 19 21 22 24 25 27 28 32 33 35 37 38 0
1 3 5 8 11 13 16 20 22 23 25 26 28 29 33 34 36 38 0
2 4 6 9 12 14 17 20 21 23 24 26 27 29 30 34 35 37 0
3 6 8 11 13 16 18 21 23 24 26 27 28 29 32 33 34 35 38 0
4 7 9 12 14 17 19 20 22 24 25 27 28 29 30 33 34 35 36 0
1 5 8 10 13 15 18 21 23 25 26 28 29 30 31 34 35 36 37 0
2 6 9 11 14 16 19 22 24 26 27 29 30 31 32 35 36 37 38 0
1 3 7 10 12 15 17 20 23 25 27 28 30 31 32 33 36 37 38 0
2 4 8 11 13 16 18 20 21 24 26 28 29 31 32 33 34 37 38 0
3 5 9 12 14 17 19 20 21 22 25 27 29 30 32 33 34 35 38 0
1 4 6 10 13 15 18 20 21 22 23 26 28 30 31 33 34 35 36 0
2 5 7 11 14 16 19 21 22 23 24 27 29 31 32 34 35 36 37 0
1 3 6 8 12 15 17 22 23 24 25 28 30 32 33 35 36 37 38 0
2 4 7 9 13 16 18 20 23 24 25 26 29 31 33 34 36 37 38 0
3 5 8 10 14 17 19 20 21 24 25 26 27 30 32 34 35 37 38 0
1 4 6 9 11 15 18 20 21 22 25 26 27 28 31 33 35 36 38 0
2 5 7 10 12 16 19 20 21 22 23 26 27 28 29 32 34 36 37 0
1 3 6 8 11 13 17 21 22 23 24 27 28 29 30 33 35 37 38 0
2 4 7 9 12 14 18 20 22 23 24 25 28 29 30 31 34 36 38 0
3 5 8 10 13 15 19 20 21 23 24 25 26 29 30 31 32 35 37 0
1 4 6 9 11 14 16 21 22 24 25 26 27 30 31 32 33 36 38 0
2 5 7 10 12 15 17 20 22 23 25 26 27 28 31 32 33 34 37 0
3 5 8 10 13 15 18 21 24 25 26 27 30 31 32 33 35 36 38 0
4 6 9 11 14 16 19 20 22 25 26 27 28 31 32 33 34 36 37 0
1 5 7 10 12 15 17 21 23 26 27 28 29 32 33 34 35 37 38 0
2 6 8 11 13 16 18 20 22 24 27 28 29 30 33 34 35 36 38 0
3 7 9 12 14 17 19 20 21 23 25 28 29 30 31 34 35 36 37 0
1 4 8 10 13 15 18 21 22 24 26 29 30 31 32 35 36 37 38 0
2 5 9 11 14 16 19 20 22 23 25 27 30 31 32 33 36 37 38 0
1 3 6 10 12 15 17 20 21 23 24 26 28 31 32 33 34 37 38 0
2 4 7 11 13 16 18 20 21 22 24 25 27 29 32 33 34 35 38 0
3 5 8 12 14 17 19 20 21 22 23 25 26 28 30 33 34 35 36 0
1 4 6 9 13 15 18 21 22 23 24 26 27 29 31 34 35 36 37 0
2 5 7 10 14 16 19 22 23 24 25 27 28 30 32 35 36 37 38 0
1 3 6 8 11 15 17 20 23 24 25 26 28 29 31 33 36 37 38 0
2 4 7 9 12 16 18 20 21 24 25 26 27 29 30 32 34 37 38 0
3 5 8 10 13 17 19 20 21 22 25 26 27 28 30 31 33 35 38 0
1 4 6 9 11 14 18 20 21 22 23 26 27 28 29 31 32 34 36 0
2 5 7 10 12 15 19 21 22 23 24 27 28 29 30 32 33 35 37 0
1 3 6 8 11 13 16 22 23 24 25 28 29 30 31 33 34 36 38 0
2 4 7 9 12 14 17 20 23 24 25 26 29 30 31 32 34 35 37 0
5 7 11 14 16 18 23 24 25 26 27 29 31 32 34 35 36 37 38 0
6 8 12 15 17 19 20 24 25 26 27 28 30 32 33 35 36 37 38 0
1 7 9 13 16 18 20 21 25 26 27 28 29 31 33 34 36 37 38 0
2 8 10 14 17 19 20 21 22 26 27 28 29 30 32 34 35 37 38 0
1 3 9 11 15 18 20 21 22 23 27 28 29 30 31 33 35 36 38 0
2 4 10 12 16 19 20 21 22 23 24 28 29 30 31 32 34 36 37 0
1 3 5 11 13 17 21 22 23 24 25 29 30 31 32 33 35 37 38 0
2 4 6 12 14 18 20 22 23 24 25 26 30 31 32 33 34 36 38 0
3 5 7 13 15 19 20 21 23 24 25 26 27 31 32 33 34 35 37 0
1 4 6 8 14 16 21 22 24 25 26 27 28 32 33 34 35 36 38 0
2 5 7 9 15 17 20 22 23 25 26 27 28 29 33 34 35 36 37 0
3 6 8 10 16 18 21 23 24 26 27 28 29 30 34 35 36 37 38 0
4 7 9 11 17 19 20 22 24 25 27 28 29 30 31 35 36 37 38 0
1 5 8 10 12 18 20 21 23 25 26 28 29 30 31 32 36 37 38 0
2 6 9 11 13 19 20 21 22 24 26 27 29 30 31 32 33 37 38 0
1 3 7 10 12 14 20 21 22 23 25 27 28 30 31 32 33 34 38 0
2 4 8 11 13 15 20 21 22 23 24 26 28 29 31 32 33 34 35 0
3 5 9 12 14 16 21 22 23 24 25 27 29 30 32 33 34 35 36 0
4 6 10 13 15 17 22 23 24 25 26 28 30 31 33 34 35 36 37 0
3 5 7 10 14 16 21 22 23 24 25 27 28 30 32 33 34 35 36 0
4 6 8 11 15 17 22 23 24 25 26 28 29 31 33 34 35 36 37 0
5 7 9 12 16 18 23 24 25 26 27 29 30 32 34 35 36 37 38 0
6 8 10 13 17 19 20 24 25 26 27 28 30 31 33 35 36 37 38 0
1 7 9 11 14 18 20 21 25 26 27 28 29 31 32 34 36 37 38 0
2 8 10 12 15 19 20 21 22 26 27 28 29 30 32 33 35 37 38 0
1 3 9 11 13 16 20 21 22 23 27 28 29 30 31 33 34 36 38 0
2 4 10 12 14 17 20 21 22 23 24 28 29 30 31 32 34 35 37 0
3 5 11 13 15 18 21 22 23 24 25 29 30 31 32 33 35 36 38 0
4 6 12 14 16 19 20 22 23 24 25 26 30 31 32 33 34 36 37 0
1 5 7 13 15 17 21 23 24 25 26 27 31 32 33 34 35 37 38 0
2 6 8 14 16 18 20 22 24 25 26 27 28 32 33 34 35 36 38 0
3 7 9 15 17 19 20 21 23 25 26 27 28 29 33 34 35 36 37 0
1 4 8 10 16 18 21 22 24 26 27 28 29 30 34 35 36 37 38 0
2 5 9 11 17 19 20 22 23 25 27 28 29 30 31 35 36 37 38 0
1 3 6 10 12 18 20 21 23 24 26 28 29 30 31 32 36 37 38 0
2 4 7 11 13 19 20 21 22 24 25 27 29 30 31 32 33 37 38 0
1 3 5 8 12 14 20 21 22 23 25 26 28 30 31 32 33 34 38 0
2 4 6 9 13 15 20 21 22 23 24 26 27 29 31 32 33 34 35 0
3 6 7 11 14 16 18 21 23 24 27 29 30 31 32 35 37 38 0
4 7 8 12 15 17 19 20 22 24 25 28 30 31 32 33 36 38 0
1 5 8 9 13 16 18 20 21 23 25 26 29 31 32 33 34 37 0
2 6 9 10 14 17 19 21 22 24 26 27 30 32 33 34 35 38 0
1 3 7 10 11 15 18 20 22 23 25 27 28 31 33 34 35 36 0
2 4 8 11 12 16 19 21 23 24 26 28 29 32 34 35 36 37 0
1 3 5 9 12 13 17 22 24 25 27 29 30 33 35 36 37 38 0
2 4 6 10 13 14 18 20 23 25 26 28 30 31 34 36 37 38 0
3 5 7 11 14 15 19 20 21 24 26 27 29 31 32 35 37 38 0
1 4 6 8 12 15 16 20 21 22 25 27 28 30 32 33 36 38 0
2 5 7 9 13 16 17 20 21 22 23 26 28 29 31 33 34 37 0
3 6 8 10 14 17 18 21 22 23 24 27 29 30 32 34 35 38 0
4 7 9 11 15 18 19 20 22 23 24 25 28 30 31 33 35 36 0
1 5 8 10 12 16 19 21 23 24 25 26 29 31 32 34 36 37 0
1 2 6 9 11 13 17 22 24 25 26 27 30 32 33 35 37 38 0
2 3 7 10 12 14 18 20 23 25 26 27 28 31 33 34 36 38 0
3 4 8 11 13 15 19 20 21 24 26 27 28 29 32 34 35 37 0
1 4 5 9 12 14 16 21 22 25 27 28 29 30 33 35 36 38 0
2 5 6 10 13 15 17 20 22 23 26 28 29 30 31 34 36 37 0
3 5 7 10 14 15 18 21 22 24 27 28 29 30 32 35 36 38 0
4 6 8 11 15 16 19 20 22 23 25 28 29 30 31 33 36 37 0
1 5 7 9 12 16 17 21 23 24 26 29 30 31 32 34 37 38 0
2 6 8 10 13 17 18 20 22 24 25 27 30 31 32 33 35 38 0
3 7 9 11 14 18 19 20 21 23 25 26 28 31 32 33 34 36 0
1 4 8 10 12 15 19 21 22 24 26 27 29 32 33 34 35 37 0
1 2 5 9 11 13 16 22 23 25 27 28 30 33 34 35 36 38 0
2 3 6 10 12 14 17 20 23 24 26 28 29 31 34 35 36 37 0
3 4 7 11 13 15 18 21 24 25 27 29 30 32 35 36 37 38 0
4 5 8 12 14 16 19 20 22 25 26 28 30 31 33 36 37 38 0
1 5 6 9 13 15 17 20 21 23 26 27 29 31 32 34 37 38 0
2 6 7 10 14 16 18 20 21 22 24 27 28 30 32 33 35 38 0
3 7 8 11 15 17 19 20 21 22 23 25 28 29 31 33 34 36 0
1 4 8 9 12 16 18 21 22 23 24 26 29 30 32 34 35 37 0
2 5 9 10 13 17 19 22 23 24 25 27 30 31 33 35 36 38 0
1 3 6 10 11 14 18 20 23 24 25 26 28 31 32 34 36 37 0
2 4 7 11 12 15 19 21 24 25 26 27 29 32 33 35 37 38 0
1 3 5 8 12 13 16 20 22 25 26 27 28 30 33 34 36 38 0
2 4 6 9 13 14 17 20 21 23 26 27 28 29 31 34 35 37 0
3 6 7 11 14 16 21 22 23 24 27 29 31 32 33 34 35 36 0
4 7 8 12 15 17 22 23 24 25 28 30 32 33 34 35 36 37 0
5 8 9 13 16 18 23 24 25 26 29 31 33 34 35 36 37 38 0
6 9 10 14 17 19 20 24 25 26 27 30 32 34 35 36 37 38 0
1 7 10 11 15 18 20 21 25 26 27 28 31 33 35 36 37 38 0
2 8 11 12 16 19 20 21 22 26 27 28 29 32 34 36 37 38 0
1 3 9 12 13 17 20 21 22 23 27 28 29 30 33 35 37 38 0
2 4 10 13 14 18 20 21 22 23 24 28 29 30 31 34 36 38 0
3 5 11 14 15 19 20 21 22 23 24 25 29 30 31 32 35 37 0
1 4 6 12 15 16 21 22 23 24 25 26 30 31 32 33 36 38 0
2 5 7 13 16 17 20 22 23 24 25 26 27 31 32 33 34 37 0
3 6 8 14 17 18 21 23 24 25 26 27 28 32 33 34 35 38 0
4 7 9 15 18 19 20 22 24 25 26 27 28 29 33 34 35 36 0
1 5 8 10 16 19 21 23 25 26 27 28 29 30 34 35 36 37 0
1 2 6 9 11 17 22 24 26 27 28 29 30 31 35 36 37 38 0
2 3 7 10 12 18 20 23 25 27 28 29 30 31 32 36 37 38 0
3 4 8 11 13 19 20 21 24 26 28 29 30 31 32 33 37 38 0
1 4 5 9 12 14 20 21 22 25 27 29 30 31 32 33 34 38 0
2 5 6 10 13 15 20 21 22 23 26 28 30 31 32 33 34 35 0
5 7 10 14 15 18 23 24 25 26 27 28 30 32 35 36 37 38 0
6 8 11 15 16 19 20 24 25 26 27 28 29 31 33 36 37 38 0
1 7 9 12 16 17 20 21 25 26 27 28 29 30 32 34 37 38 0
2 8 10 13 17 18 20 21 22 26 27 28 29 30 31 33 35 38 0
3 9 11 14 18 19 20 21 22 23 27 28 29 30 31 32 34 36 0
1 4 10 12 15 19 21 22 23 24 28 29 30 31 32 33 35 37 0
1 2 5 11 13 16 22 23 24 25 29 30 31 32 33 34 36 38 0
2 3 6 12 14 17 20 23 24 25 26 30 31 32 33 34 35 37 0
3 4 7 13 15 18 21 24 25 26 27 31 32 33 34 35 36 38 0
4 5 8 14 16 19 20 22 25 26 27 28 32 33 34 35 36 37 0
1 5 6 9 15 17 21 23 26 27 28 29 33 34 35 36 37 38 0
2 6 7 10 16 18 20 22 24 27 28 29 30 34 35 36 37 38 0
3 7 8 11 17 19 20 21 23 25 28 29 30 31 35 36 37 38 0
1 4 8 9 12 18 20 21 22 24 26 29 30 31 32 36 37 38 0
2 5 9 10 13 19 20 21 22 23 25 27 30 31 32 33 37 38 0
1 3 6 10 11 14 20 21 22 23 24 26 28 31 32 33 34 38 0
2 4 7 11 12 15 20 21 22 23 24 25 27 29 32 33 34 35 0
3 5 8 12 13 16 21 22 23 24 25 26 28 30 33 34 35 36 0
4 6 9 13 14 17 22 23 24 25 26 27 29 31 34 35 36 37 0
3 6 7 11 13 16 18 21 23 24 27 29 30 32 33 34 35 37 38 0
4 7 8 12 14 17 19 20 22 24 25 28 30 31 33 34 35 36 38 0
1 5 8 9 13 15 18 20 21 23 25 26 29 31 32 34 35 36 37 0
2 6 9 10 14 16 19 21 22 24 26 27 30 32 33 35 36 37 38 0
1 3 7 10 11 15 17 20 22 23 25 27 28 31 33 34 36 37 38 0
2 4 8 11 12 16 18 20 21 23 24 26 28 29 32 34 35 37 38 0
3 5 9 12 13 17 19 20 21 22 24 25 27 29 30 33 35 36 38 0
1 4 6 10 13 14 18 20 21 22 23 25 26 28 30 31 34 36 37 0
2 5 7 11 14 15 19 21 22 23 24 26 27 29 31 32 35 37 38 0
1 3 6 8 12 15 16 20 22 23 24 25 27 28 30 32 33 36 38 0
2 4 7 9 13 16 17 20 21 23 24 25 26 28 29 31 33 34 37 0
3 5 8 10 14 17 18 21 22 24 25 26 27 29 30 32 34 35 38 0
4 6 9 11 15 18 19 20 22 23 25 26 27 28 30 31 33 35 36 0
1 5 7 10 12 16 19 21 23 24 26 27 28 29 31 32 34 36 37 0
1 2 6 8 11 13 17 22 24 25 27 28 29 30 32 33 35 37 38 0
2 3 7 9 12 14 18 20 23 25 26 28 29 30 31 33 34 36 38 0
3 4 8 10 13 15 19 20 21 24 26 27 29 30 31 32 34 35 37 0
1 4 5 9 11 14 16 21 22 25 27 28 30 31 32 33 35 36 38 0
2 5 6 10 12 15 17 20 22 23 26 28 29 31 32 33 34 36 37 0
3 5 8 10 14 15 18 21 22 24 25 26 27 29 30 32 35 36 38 0
4 6 9 11 15 16 19 20 22 23 25 26 27 28 30 31 33 36 37 0
1 5 7 10 12 16 17 21 23 24 26 27 28 29 31 32 34 37 38 0
2 6 8 11 13 17 18 20 22 24 25 27 28 29 30 32 33 35 38 0
3 7 9 12 14 18 19 20 21 23 25 26 28 29 30 31 33 34 36 0
1 4 8 10 13 15 19 21 22 24 26 27 29 30 31 32 34 35 37 0
1 2 5 9 11 14 16 22 23 25 27 28 30 31 32 33 35 36 38 0
2 3 6 10 12 15 17 20 23 24 26 28 29 31 32 33 34 36 37 0
3 4 7 11 13 16 18 21 24 25 27 29 30 32 33 34 35 37 38 0
4 5 8 12 14 17 19 20 22 25 26 28 30 31 33 34 35 36 38 0
1 5 6 9 13 15 18 20 21 23 26 27 29 31 32 34 35 36 37 0
2 6 7 10 14 16 19 21 22 24 27 28 30 32 33 35 36 37 38 0
1 3 7 8 11 15 17 20 22 23 25 28 29 31 33 34 36 37 38 0
2 4 8 9 12 16 18 20 21 23 24 26 29 30 32 34 35 37 38 0
3 5 9 10 13 17 19 20 21 22 24 25 27 30 31 33 35 36 38 0
1 4 6 10 11 14 18 20 21 22 23 25 26 28 31 32 34 36 37 0
2 5 7 11 12 15 19 21 22 23 24 26 27 29 32 33 35 37 38 0
1 3 6 8 12 13 16 20 22 23 24 25 27 28 30 33 34 36 38 0
2 4 7 9 13 14 17 20 21 23 24 25 26 28 29 31 34 35 37 0
3 5 8 12 15 16 18 21 25 26 27 28 30 31 32 33 38 0
4 6 9 13 16 17 19 20 22 26 27 28 29 31 32 33 34 0
1 5 7 10 14 17 18 21 23 27 28 29 30 32 33 34 35 0
2 6 8 11 15 18 19 22 24 28 29 30 31 33 34 35 36 0
1 3 7 9 12 16 19 23 25 29 30 31 32 34 35 36 37 0
1 2 4 8 10 13 17 24 26 30 31 32 33 35 36 37 38 0
2 3 5 9 11 14 18 20 25 27 31 32 33 34 36 37 38 0
3 4 6 10 12 15 19 20 21 26 28 32 33 34 35 37 38 0
1 4 5 7 11 13 16 20 21 22 27 29 33 34 35 36 38 0
2 5 6 8 12 14 17 20 21 22 23 28 30 34 35 36 37 0
3 6 7 9 13 15 18 21 22 23 24 29 31 35 36 37 38 0
4 7 8 10 14 16 19 20 22 23 24 25 30 32 36 37 38 0
1 5 8 9 11 15 17 20 21 23 24 25 26 31 33 37 38 0
2 6 9 10 12 16 18 20 21 22 24 25 26 27 32 34 38 0
3 7 10 11 13 17 19 20 21 22 23 25 26 27 28 33 35 0
1 4 8 11 12 14 18 21 22 23 24 26 27 28 29 34 36 0
2 5 9 12 13 15 19 22 23 24 25 27 28 29 30 35 37 0
1 3 6 10 13 14 16 23 24 25 26 28 29 30 31 36 38 0
2 4 7 11 14 15 17 20 24 25 26 27 29 30 31 32 37 0
3 5 6 9 13 16 18 21 26 27 28 29 31 32 33 34 38 0
4 6 7 10 14 17 19 20 22 27 28 29 30 32 33 34 35 0
1 5 7 8 11 15 18 21 23 28 29 30 31 33 34 35 36 0
2 6 8 9 12 16 19 22 24 29 30 31 32 34 35 36 37 0
1 3 7 9 10 13 17 23 25 30 31 32 33 35 36 37 38 0
2 4 8 10 11 14 18 20 24 26 31 32 33 34 36 37 38 0
3 5 9 11 12 15 19 20 21 25 27 32 33 34 35 37 38 0
1 4 6 10 12 13 16 20 21 22 26 28 33 34 35 36 38 0
2 5 7 11 13 14 17 20 21 22 23 27 29 34 35 36 37 0
3 6 8 12 14 15 18 21 22 23 24 28 30 35 36 37 38 0
4 7 9 13 15 16 19 20 22 23 24 25 29 31 36 37 38 0
1 5 8 10 14 16 17 20 21 23 24 25 26 30 32 37 38 0
2 6 9 11 15 17 18 20 21 22 24 25 26 27 31 33 38 0
3 7 10 12 16 18 19 20 21 22 23 25 26 27 28 32 34 0
1 4 8 11 13 17 19 21 22 23 24 26 27 28 29 33 35 0
1 2 5 9 12 14 18 22 23 24 25 27 28 29 30 34 36 0
2 3 6 10 13 15 19 23 24 25 26 28 29 30 31 35 37 0
1 3 4 7 11 14 16 24 25 26 27 29 30 31 32 36 38 0
2 4 5 8 12 15 17 20 25 26 27 28 30 31 32 33 37 0
3 6 8 13 16 18 21 23 24 25 26 28 31 33 34 35 36 38 0
4 7 9 14 17 19 20 22 24 25 26 27 29 32 34 35 36 37 0
1 5 8 10 15 18 21 23 25 26 27 28 30 33 35 36 37 38 0
2 6 9 11 16 19 20 22 24 26 27 28 29 31 34 36 37 38 0
1 3 7 10 12 17 20 21 23 25 27 28 29 30 32 35 37 38 0
2 4 8 11 13 18 20 21 22 24 26 28 29 30 31 33 36 38 0
3 5 9 12 14 19 20 21 22 23 25 27 29 30 31 32 34 37 0
1 4 6 10 13 15 21 22 23 24 26 28 30 31 32 33 35 38 0
2 5 7 11 14 16 20 22 23 24 25 27 29 31 32 33 34 36 0
3 6 8 12 15 17 21 23 24 25 26 28 30 32 33 34 35 37 0
4 7 9 13 16 18 22 24 25 26 27 29 31 33 34 35 36 38 0
5 8 10 14 17 19 20 23 25 26 27 28 30 32 34 35 36 37 0
1 6 9 11 15 18 21 24 26 27 28 29 31 33 35 36 37 38 0
2 7 10 12 16 19 20 22 25 27 28 29 30 32 34 36 37 38 0
1 3 8 11 13 17 20 21 23 26 28 29 30 31 33 35 37 38 0
2 4 9 12 14 18 20 21 22 24 27 29 30 31 32 34 36 38 0
3 5 10 13 15 19 20 21 22 23 25 28 30 31 32 33 35 37 0
1 4 6 11 14 16 21 22 23 24 26 29 31 32 33 34 36 38 0
2 5 7 12 15 17 20 22 23 24 25 27 30 32 33 34 35 37 0
3 5 8 13 15 18 21 23 24 25 26 28 31 33 34 35 36 38 0
4 6 9 14 16 19 20 22 24 25 26 27 29 32 34 35 36 37 0
1 5 7 10 15 17 21 23 25 26 27 28 30 33 35 36 37 38 0
2 6 8 11 16 18 20 22 24 26 27 28 29 31 34 36 37 38 0
3 7 9 12 17 19 20 21 23 25 27 28 29 30 32 35 37 38 0
1 4 8 10 13 18 20 21 22 24 26 28 29 30 31 33 36 38 0
2 5 9 11 14 19 20 21 22 23 25 27 29 30 31 32 34 37 0
1 3 6 10 12 15 21 22 23 24 26 28 30 31 32 33 35 38 0
2 4 7 11 13 16 20 22 23 24 25 27 29 31 32 33 34 36 0
3 5 8 12 14 17 21 23 24 25 26 28 30 32 33 34 35 37 0
4 6 9 13 15 18 22 24 25 26 27 29 31 33 34 35 36 38 0
5 7 10 14 16 19 20 23 25 26 27 28 30 32 34 35 36 37 0
1 6 8 11 15 17 21 24 26 27 28 29 31 33 35 36 37 38 0
2 7 9 12 16 18 20 22 25 27 28 29 30 32 34 36 37 38 0
3 8 10 13 17 19 20 21 23 26 28 29 30 31 33 35 37 38 0
1 4 9 11 14 18 20 21 22 24 27 29 30 31 32 34 36 38 0
2 5 10 12 15 19 20 21 22 23 25 28 30 31 32 33 35 37 0
1 3 6 11 13 16 21 22 23 24 26 29 31 32 33 34 36 38 0
2 4 7 12 14 17 20 22 23 24 25 27 30 32 33 34 35 37 0
3 5 7 8 11 14 16 18 21 24 27 28 29 30 31 32 35 37 38 0
4 6 8 9 12 15 17 19 20 22 25 28 29 30 31 32 33 36 38 0
1 5 7 9 10 13 16 18 20 21 23 26 29 30 31 32 33 34 37 0
2 6 8 10 11 14 17 19 21 22 24 27 30 31 32 33 34 35 38 0
1 3 7 9 11 12 15 18 20 22 23 25 28 31 32 33 34 35 36 0
2 4 8 10 12 13 16 19 21 23 24 26 29 32 33 34 35 36 37 0
1 3 5 9 11 13 14 17 22 24 25 27 30 33 34 35 36 37 38 0
2 4 6 10 12 14 15 18 20 23 25 26 28 31 34 35 36 37 38 0
3 5 7 11 13 15 16 19 20 21 24 26 27 29 32 35 36 37 38 0
1 4 6 8 12 14 16 17 20 21 22 25 27 28 30 33 36 37 38 0
2 5 7 9 13 15 17 18 20 21 22 23 26 28 29 31 34 37 38 0
3 6 8 10 14 16 18 19 20 21 22 23 24 27 29 30 32 35 38 0
1 4 7 9 11 15 17 19 20 21 22 23 24 25 28 30 31 33 36 0
1 2 5 8 10 12 16 18 21 22 23 24 25 26 29 31 32 34 37 0
2 3 6 9 11 13 17 19 22 23 24 25 26 27 30 32 33 35 38 0
1 3 4 7 10 12 14 18 20 23 24 25 26 27 28 31 33 34 36 0
2 4 5 8 11 13 15 19 21 24 25 26 27 28 29 32 34 35 37 0
1 3 5 6 9 12 14 16 22 25 26 27 28 29 30 33 35 36 38 0
2 4 6 7 10 13 15 17 20 23 26 27 28 29 30 31 34 36 37 0
3 5 7 10 13 14 16 18 21 22 24 27 28 29 30 31 32 35 38 0
4 6 8 11 14 15 17 19 20 22 23 25 28 29 30 31 32 33 36 0
1 5 7 9 12 15 16 18 21 23 24 26 29 30 31 32 33 34 37 0
2 6 8 10 13 16 17 19 22 24 25 27 30 31 32 33 34 35 38 0
1 3 7 9 11 14 17 18 20 23 25 26 28 31 32 33 34 35 36 0
2 4 8 10 12 15 18 19 21 24 26 27 29 32 33 34 35 36 37 0
1 3 5 9 11 13 16 19 22 25 27 28 30 33 34 35 36 37 38 0
1 2 4 6 10 12 14 17 20 23 26 28 29 31 34 35 36 37 38 0
2 3 5 7 11 13 15 18 20 21 24 27 29 30 32 35 36 37 38 0
3 4 6 8 12 14 16 19 20 21 22 25 28 30 31 33 36 37 38 0
1 4 5 7 9 13 15 17 20 21 22 23 26 29 31 32 34 37 38 0
2 5 6 8 10 14 16 18 20 21 22 23 24 27 30 32 33 35 38 0
3 6 7 9 11 15 17 19 20 21 22 23 24 25 28 31 33 34 36 0
1 4 7 8 10 12 16 18 21 22 23 24 25 26 29 32 34 35 37 0
2 5 8 9 11 13 17 19 22 23 24 25 26 27 30 33 35 36 38 0
1 3 6 9 10 12 14 18 20 23 24 25 26 27 28 31 34 36 37 0
2 4 7 10 11 13 15 19 21 24 25 26 27 28 29 32 35 37 38 0
1 3 5 8 11 12 14 16 20 22 25 26 27 28 29 30 33 36 38 0
2 4 6 9 12 13 15 17 20 21 23 26 27 28 29 30 31 34 37 0
3 6 7 10 12 15 18 21 23 24 26 27 28 32 33 34 35 36 38 0
4 7 8 11 13 16 19 20 22 24 25 27 28 29 33 34 35 36 37 0
1 5 8 9 12 14 17 21 23 25 26 28 29 30 34 35 36 37 38 0
2 6 9 10 13 15 18 20 22 24 26 27 29 30 31 35 36 37 38 0
3 7 10 11 14 16 19 20 21 23 25 27 28 30 31 32 36 37 38 0
1 4 8 11 12 15 17 20 21 22 24 26 28 29 31 32 33 37 38 0
2 5 9 12 13 16 18 20 21 22 23 25 27 29 30 32 33 34 38 0
3 6 10 13 14 17 19 20 21 22 23 24 26 28 30 31 33 34 35 0
1 4 7 11 14 15 18 21 22 23 24 25 27 29 31 32 34 35 36 0
2 5 8 12 15 16 19 22 23 24 25 26 28 30 32 33 35 36 37 0
1 3 6 9 13 16 17 23 24 25 26 27 29 31 33 34 36 37 38 0
2 4 7 10 14 17 18 20 24 25 26 27 28 30 32 34 35 37 38 0
3 5 8 11 15 18 19 20 21 25 26 27 28 29 31 33 35 36 38 0
1 4 6 9 12 16 19 20 21 22 26 27 28 29 30 32 34 36 37 0
1 2 5 7 10 13 17 21 22 23 27 28 29 30 31 33 35 37 38 0
2 3 6 8 11 14 18 20 22 23 24 28 29 30 31 32 34 36 38 0
3 4 7 9 12 15 19 20 21 23 24 25 29 30 31 32 33 35 37 0
1 4 5 8 10 13 16 21 22 24 25 26 30 31 32 33 34 36 38 0
2 5 6 9 11 14 17 20 22 23 25 26 27 31 32 33 34 35 37 0
3 6 9 11 14 15 18 21 23 24 25 26 27 31 32 33 35 36 38 0
4 7 10 12 15 16 19 20 22 24 25 26 27 28 32 33 34 36 37 0
1 5 8 11 13 16 17 21 23 25 26 27 28 29 33 34 35 37 38 0
2 6 9 12 14 17 18 20 22 24 26 27 28 29 30 34 35 36 38 0
3 7 10 13 15 18 19 20 21 23 25 27 28 29 30 31 35 36 37 0
1 4 8 11 14 16 19 21 22 24 26 28 29 30 31 32 36 37 38 0
1 2 5 9 12 15 17 20 22 23 25 27 29 30 31 32 33 37 38 0
2 3 6 10 13 16 18 20 21 23 24 26 28 30 31 32 33 34 38 0
3 4 7 11 14 17 19 20 21 22 24 25 27 29 31 32 33 34 35 0
1 4 5 8 12 15 18 21 22 23 25 26 28 30 32 33 34 35 36 0
2 5 6 9 13 16 19 22 23 24 26 27 29 31 33 34 35 36 37 0
1 3 6 7 10 14 17 23 24 25 27 28 30 32 34 35 36 37 38 0
2 4 7 8 11 15 18 20 24 25 26 28 29 31 33 35 36 37 38 0
3 5 8 9 12 16 19 20 21 25 26 27 29 30 32 34 36 37 38 0
1 4 6 9 10 13 17 20 21 22 26 27 28 30 31 33 35 37 38 0
2 5 7 10 11 14 18 20 21 22 23 27 28 29 31 32 34 36 38 0
3 6 8 11 12 15 19 20 21 22 23 24 28 29 30 32 33 35 37 0
1 4 7 9 12 13 16 21 22 23 24 25 29 30 31 33 34 36 38 0
2 5 8 10 13 14 17 20 22 23 24 25 26 30 31 32 34 35 37 0
3 6 7 10 12 15 16 18 21 23 24 26 27 28 32 33 34 35 38 0
4 7 8 11 13 16 17 19 20 22 24 25 27 28 29 33 34 35 36 0
1 5 8 9 12 14 17 18 21 23 25 26 28 29 30 34 35 36 37 0
2 6 9 10 13 15 18 19 22 24 26 27 29 30 31 35 36 37 38 0
1 3 7 10 11 14 16 19 20 23 25 27 28 30 31 32 36 37 38 0
1 2 4 8 11 12 15 17 20 21 24 26 28 29 31 32 33 37 38 0
2 3 5 9 12 13 16 18 20 21 22 25 27 29 30 32 33 34 38 0
3 4 6 10 13 14 17 19 20 21 22 23 26 28 30 31 33 34 35 0
1 4 5 7 11 14 15 18 21 22 23 24 27 29 31 32 34 35 36 0
2 5 6 8 12 15 16 19 22 23 24 25 28 30 32 33 35 36 37 0
1 3 6 7 9 13 16 17 23 24 25 26 29 31 33 34 36 37 38 0
2 4 7 8 10 14 17 18 20 24 25 26 27 30 32 34 35 37 38 0
3 5 8 9 11 15 18 19 20 21 25 26 27 28 31 33 35 36 38 0
1 4 6 9 10 12 16 19 20 21 22 26 27 28 29 32 34 36 37 0
1 2 5 7 10 11 13 17 21 22 23 27 28 29 30 33 35 37 38 0
2 3 6 8 11 12 14 18 20 22 23 24 28 29 30 31 34 36 38 0
3 4 7 9 12 13 15 19 20 21 23 24 25 29 30 31 32 35 37 0
1 4 5 8 10 13 14 16 21 22 24 25 26 30 31 32 33 36 38 0
2 5 6 9 11 14 15 17 20 22 23 25 26 27 31 32 33 34 37 0
3 5 6 9 11 14 15 18 21 24 25 26 27 31 32 33 35 36 38 0
4 6 7 10 12 15 16 19 20 22 25 26 27 28 32 33 34 36 37 0
1 5 7 8 11 13 16 17 21 23 26 27 28 29 33 34 35 37 38 0
2 6 8 9 12 14 17 18 20 22 24 27 28 29 30 34 35 36 38 0
3 7 9 10 13 15 18 19 20 21 23 25 28 29 30 31 35 36 37 0
1 4 8 10 11 14 16 19 21 22 24 26 29 30 31 32 36 37 38 0
1 2 5 9 11 12 15 17 20 22 23 25 27 30 31 32 33 37 38 0
2 3 6 10 12 13 16 18 20 21 23 24 26 28 31 32 33 34 38 0
3 4 7 11 13 14 17 19 20 21 22 24 25 27 29 32 33 34 35 0
1 4 5 8 12 14 15 18 21 22 23 25 26 28 30 33 34 35 36 0
2 5 6 9 13 15 16 19 22 23 24 26 27 29 31 34 35 36 37 0
1 3 6 7 10 14 16 17 23 24 25 27 28 30 32 35 36 37 38 0
2 4 7 8 11 15 17 18 20 24 25 26 28 29 31 33 36 37 38 0
3 5 8 9 12 16 18 19 20 21 25 26 27 29 30 32 34 37 38 0
1 4 6 9 10 13 17 19 20 21 22 26 27 28 30 31 33 35 38 0
1 2 5 7 10 11 14 18 20 21 22 23 27 28 29 31 32 34 36 0
2 3 6 8 11 12 15 19 21 22 23 24 28 29 30 32 33 35 37 0
1 3 4 7 9 12 13 16 22 23 24 25 29 30 31 33 34 36 38 0
2 4 5 8 10 13 14 17 20 23 24 25 26 30 31 32 34 35 37 0
3 6 7 10 11 14 15 18 21 23 24 26 27 28 31 32 33 35 36 38 0
4 7 8 11 12 15 16 19 20 22 24 25 27 28 29 32 33 34 36 37 0
1 5 8 9 12 13 16 17 21 23 25 26 28 29 30 33 34 35 37 38 0
2 6 9 10 13 14 17 18 20 22 24 26 27 29 30 31 34 35 36 38 0
3 7 10 11 14 15 18 19 20 21 23 25 27 28 30 31 32 35 36 37 0
1 4 8 11 12 15 16 19 21 22 24 26 28 29 31 32 33 36 37 38 0
1 2 5 9 12 13 16 17 20 22 23 25 27 29 30 32 33 34 37 38 0
2 3 6 10 13 14 17 18 20 21 23 24 26 28 30 31 33 34 35 38 0
3 4 7 11 14 15 18 19 20 21 22 24 25 27 29 31 32 34 35 36 0
1 4 5 8 12 15 16 19 21 22 23 25 26 28 30 32 33 35 36 37 0
1 2 5 6 9 13 16 17 22 23 24 26 27 29 31 33 34 36 37 38 0
2 3 6 7 10 14 17 18 20 23 24 25 27 28 30 32 34 35 37 38 0
3 4 7 8 11 15 18 19 20 21 24 25 26 28 29 31 33 35 36 38 0
1 4 5 8 9 12 16 19 20 21 22 25 26 27 29 30 32 34 36 37 0
1 2 5 6 9 10 13 17 21 22 23 26 27 28 30 31 33 35 37 38 0
2 3 6 7 10 11 14 18 20 22 23 24 27 28 29 31 32 34 36 38 0
3 4 7 8 11 12 15 19 20 21 23 24 25 28 29 30 32 33 35 37 0
1 4 5 8 9 12 13 16 21 22 24 25 26 29 30 31 33 34 36 38 0
2 5 6 9 10 13 14 17 20 22 23 25 26 27 30 31 32 34 35 37 0
3 5 8 11 12 13 18 21 25 26 27 28 29 30 33 36 38 0
4 6 9 12 13 14 19 20 22 26 27 28 29 30 31 34 37 0
1 5 7 10 13 14 15 21 23 27 28 29 30 31 32 35 38 0
2 6 8 11 14 15 16 20 22 24 28 29 30 31 32 33 36 0
3 7 9 12 15 16 17 21 23 25 29 30 31 32 33 34 37 0
4 8 10 13 16 17 18 22 24 26 30 31 32 33 34 35 38 0
5 9 11 14 17 18 19 20 23 25 27 31 32 33 34 35 36 0
1 6 10 12 15 18 19 21 24 26 28 32 33 34 35 36 37 0
1 2 7 11 13 16 19 22 25 27 29 33 34 35 36 37 38 0
1 2 3 8 12 14 17 20 23 26 28 30 34 35 36 37 38 0
2 3 4 9 13 15 18 20 21 24 27 29 31 35 36 37 38 0
3 4 5 10 14 16 19 20 21 22 25 28 30 32 36 37 38 0
1 4 5 6 11 15 17 20 21 22 23 26 29 31 33 37 38 0
2 5 6 7 12 16 18 20 21 22 23 24 27 30 32 34 38 0
3 6 7 8 13 17 19 20 21 22 23 24 25 28 31 33 35 0
1 4 7 8 9 14 18 21 22 23 24 25 26 29 32 34 36 0
2 5 8 9 10 15 19 22 23 24 25 26 27 30 33 35 37 0
1 3 6 9 10 11 16 23 24 25 26 27 28 31 34 36 38 0
2 4 7 10 11 12 17 20 24 25 26 27 28 29 32 35 37 0
3 8 9 10 13 16 18 21 23 26 29 30 31 32 33 34 38 0
4 9 10 11 14 17 19 20 22 24 27 30 31 32 33 34 35 0
1 5 10 11 12 15 18 21 23 25 28 31 32 33 34 35 36 0
2 6 11 12 13 16 19 22 24 26 29 32 33 34 35 36 37 0
1 3 7 12 13 14 17 23 25 27 30 33 34 35 36 37 38 0
2 4 8 13 14 15 18 20 24 26 28 31 34 35 36 37 38 0
3 5 9 14 15 16 19 20 21 25 27 29 32 35 36 37 38 0
1 4 6 10 15 16 17 20 21 22 26 28 30 33 36 37 38 0
2 5 7 11 16 17 18 20 21 22 23 27 29 31 34 37 38 0
3 6 8 12 17 18 19 20 21 22 23 24 28 30 32 35 38 0
1 4 7 9 13 18 19 20 21 22 23 24 25 29 31 33 36 0
1 2 5 8 10 14 19 21 22 23 24 25 26 30 32 34 37 0
1 2 3 6 9 11 15 22 23 24 25 26 27 31 33 35 38 0
2 3 4 7 10 12 16 20 23 24 25 26 27 28 32 34 36 0
3 4 5 8 11 13 17 21 24 25 26 27 28 29 33 35 37 0
4 5 6 9 12 14 18 22 25 26 27 28 29 30 34 36 38 0
5 6 7 10 13 15 19 20 23 26 27 28 29 30 31 35 37 0
1 6 7 8 11 14 16 21 24 27 28 29 30 31 32 36 38 0
2 7 8 9 12 15 17 20 22 25 28 29 30 31 32 33 37 0
3 6 8 10 13 15 21 22 23 24 30 31 32 33 34 35 0
4 7 9 11 14 16 22 23 24 25 31 32 33 34 35 36 0
5 8 10 12 15 17 23 24 25 26 32 33 34 35 36 37 0
6 9 11 13 16 18 24 25 26 27 33 34 35 36 37 38 0
7 10 12 14 17 19 20 25 26 27 28 34 35 36 37 38 0
1 8 11 13 15 18 20 21 26 27 28 29 35 36 37 38 0
2 9 12 14 16 19 20 21 22 27 28 29 30 36 37 38 0
1 3 10 13 15 17 20 21 22 23 28 29 30 31 37 38 0
2 4 11 14 16 18 20 21 22 23 24 29 30 31 32 38 0
3 5 12 15 17 19 20 21 22 23 24 25 30 31 32 33 0
1 4 6 13 16 18 21 22 23 24 25 26 31 32 33 34 0
2 5 7 14 17 19 22 23 24 25 26 27 32 33 34 35 0
1 3 6 8 15 18 23 24 25 26 27 28 33 34 35 36 0
2 4 7 9 16 19 24 25 26 27 28 29 34 35 36 37 0
1 3 5 8 10 17 25 26 27 28 29 30 35 36 37 38 0
2 4 6 9 11 18 20 26 27 28 29 30 31 36 37 38 0
3 5 7 10 12 19 20 21 27 28 29 30 31 32 37 38 0
1 4 6 8 11 13 20 21 22 28 29 30 31 32 33 38 0
2 5 7 9 12 14 20 21 22 23 29 30 31 32 33 34 0
6 8 11 13 15 18 24 25 26 27 28 29 35 36 37 38 0
7 9 12 14 16 19 20 25 26 27 28 29 30 36 37 38 0
1 8 10 13 15 17 20 21 26 27 28 29 30 31 37 38 0
2 9 11 14 16 18 20 21 22 27 28 29 30 31 32 38 0
3 10 12 15 17 19 20 21 22 23 28 29 30 31 32 33 0
1 4 11 13 16 18 21 22 23 24 29 30 31 32 33 34 0
2 5 12 14 17 19 22 23 24 25 30 31 32 33 34 35 0
1 3 6 13 15 18 23 24 25 26 31 32 33 34 35 36 0
2 4 7 14 16 19 24 25 26 27 32 33 34 35 36 37 0
1 3 5 8 15 17 25 26 27 28 33 34 35 36 37 38 0
2 4 6 9 16 18 20 26 27 28 29 34 35 36 37 38 0
3 5 7 10 17 19 20 21 27 28 29 30 35 36 37 38 0
1 4 6 8 11 18 20 21 22 28 29 30 31 36 37 38 0
2 5 7 9 12 19 20 21 22 23 29 30 31 32 37 38 0
1 3 6 8 10 13 20 21 22 23 24 30 31 32 33 38 0
2 4 7 9 11 14 20 21 22 23 24 25 31 32 33 34 0
3 5 8 10 12 15 21 22 23 24 25 26 32 33 34 35 0
4 6 9 11 13 16 22 23 24 25 26 27 33 34 35 36 0
5 7 10 12 14 17 23 24 25 26 27 28 34 35 36 37 0
3 6 8 10 13 14 16 18 21 23 24 25 26 30 31 32 35 37 38 0
4 7 9 11 14 15 17 19 20 22 24 25 26 27 31 32 33 36 38 0
1 5 8 10 12 15 16 18 20 21 23 25 26 27 28 32 33 34 37 0
2 6 9 11 13 16 17 19 21 22 24 26 27 28 29 33 34 35 38 0
1 3 7 10 12 14 17 18 20 22 23 25 27 28 29 30 34 35 36 0
2 4 8 11 13 15 18 19 21 23 24 26 28 29 30 31 35 36 37 0
1 3 5 9 12 14 16 19 22 24 25 27 29 30 31 32 36 37 38 0
1 2 4 6 10 13 15 17 20 23 25 26 28 30 31 32 33 37 38 0
2 3 5 7 11 14 16 18 20 21 24 26 27 29 31 32 33 34 38 0
3 4 6 8 12 15 17 19 20 21 22 25 27 28 30 32 33 34 35 0
1 4 5 7 9 13 16 18 21 22 23 26 28 29 31 33 34 35 36 0
2 5 6 8 10 14 17 19 22 23 24 27 29 30 32 34 35 36 37 0
1 3 6 7 9 11 15 18 23 24 25 28 30 31 33 35 36 37 38 0
2 4 7 8 10 12 16 19 20 24 25 26 29 31 32 34 36 37 38 0
1 3 5 8 9 11 13 17 20 21 25 26 27 30 32 33 35 37 38 0
2 4 6 9 10 12 14 18 20 21 22 26 27 28 31 33 34 36 38 0
3 5 7 10 11 13 15 19 20 21 22 23 27 28 29 32 34 35 37 0
1 4 6 8 11 12 14 16 21 22 23 24 28 29 30 33 35 36 38 0
2 5 7 9 12 13 15 17 20 22 23 24 25 29 30 31 34 36 37 0
3 5 7 8 11 13 15 18 21 22 24 27 28 29 33 34 35 36 38 0
4 6 8 9 12 14 16 19 20 22 23 25 28 29 30 34 35 36 37 0
1 5 7 9 10 13 15 17 21 23 24 26 29 30 31 35 36 37 38 0
2 6 8 10 11 14 16 18 20 22 24 25 27 30 31 32 36 37 38 0
3 7 9 11 12 15 17 19 20 21 23 25 26 28 31 32 33 37 38 0
1 4 8 10 12 13 16 18 20 21 22 24 26 27 29 32 33 34 38 0
2 5 9 11 13 14 17 19 20 21 22 23 25 27 28 30 33 34 35 0
1 3 6 10 12 14 15 18 21 22 23 24 26 28 29 31 34 35 36 0
2 4 7 11 13 15 16 19 22 23 24 25 27 29 30 32 35 36 37 0
1 3 5 8 12 14 16 17 23 24 25 26 28 30 31 33 36 37 38 0
2 4 6 9 13 15 17 18 20 24 25 26 27 29 31 32 34 37 38 0
3 5 7 10 14 16 18 19 20 21 25 26 27 28 30 32 33 35 38 0
1 4 6 8 11 15 17 19 20 21 22 26 27 28 29 31 33 34 36 0
1 2 5 7 9 12 16 18 21 22 23 27 28 29 30 32 34 35 37 0
2 3 6 8 10 13 17 19 22 23 24 28 29 30 31 33 35 36 38 0
1 3 4 7 9 11 14 18 20 23 24 25 29 30 31 32 34 36 37 0
2 4 5 8 10 12 15 19 21 24 25 26 30 31 32 33 35 37 38 0
1 3 5 6 9 11 13 16 20 22 25 26 27 31 32 33 34 36 38 0
2 4 6 7 10 12 14 17 20 21 23 26 27 28 32 33 34 35 37 0
3 5 7 8 11 14 16 18 21 23 24 28 29 30 31 32 35 37 38 0
4 6 8 9 12 15 17 19 20 22 24 25 29 30 31 32 33 36 38 0
1 5 7 9 10 13 16 18 20 21 23 25 26 30 31 32 33 34 37 0
2 6 8 10 11 14 17 19 21 22 24 26 27 31 32 33 34 35 38 0
1 3 7 9 11 12 15 18 20 22 23 25 27 28 32 33 34 35 36 0
2 4 8 10 12 13 16 19 21 23 24 26 28 29 33 34 35 36 37 0
1 3 5 9 11 13 14 17 22 24 25 27 29 30 34 35 36 37 38 0
2 4 6 10 12 14 15 18 20 23 25 26 28 30 31 35 36 37 38 0
3 5 7 11 13 15 16 19 20 21 24 26 27 29 31 32 36 37 38 0
1 4 6 8 12 14 16 17 20 21 22 25 27 28 30 32 33 37 38 0
2 5 7 9 13 15 17 18 20 21 22 23 26 28 29 31 33 34 38 0
3 6 8 10 14 16 18 19 20 21 22 23 24 27 29 30 32 34 35 0
1 4 7 9 11 15 17 19 21 22 23 24 25 28 30 31 33 35 36 0
1 2 5 8 10 12 16 18 22 23 24 25 26 29 31 32 34 36 37 0
2 3 6 9 11 13 17 19 23 24 25 26 27 30 32 33 35 37 38 0
1 3 4 7 10 12 14 18 20 24 25 26 27 28 31 33 34 36 38 0
2 4 5 8 11 13 15 19 20 21 25 26 27 28 29 32 34 35 37 0
1 3 5 6 9 12 14 16 21 22 26 27 28 29 30 33 35 36 38 0
2 4 6 7 10 13 15 17 20 22 23 27 28 29 30 31 34 36 37 0
3 5 7 10 13 14 16 18 21 22 24 27 28 29 30 31 35 36 38 0
4 6 8 11 14 15 17 19 20 22 23 25 28 29 30 31 32 36 37 0
1 5 7 9 12 15 16 18 21 23 24 26 29 30 31 32 33 37 38 0
2 6 8 10 13 16 17 19 20 22 24 25 27 30 31 32 33 34 38 0
1 3 7 9 11 14 17 18 20 21 23 25 26 28 31 32 33 34 35 0
2 4 8 10 12 15 18 19 21 22 24 26 27 29 32 33 34 35 36 0
1 3 5 9 11 13 16 19 22 23 25 27 28 30 33 34 35 36 37 0
1 2 4 6 10 12 14 17 23 24 26 28 29 31 34 35 36 37 38 0
2 3 5 7 11 13 15 18 20 24 25 27 29 30 32 35 36 37 38 0
3 4 6 8 12 14 16 19 20 21 25 26 28 30 31 33 36 37 38 0
1 4 5 7 9 13 15 17 20 21 22 26 27 29 31 32 34 37 38 0
2 5 6 8 10 14 16 18 20 21 22 23 27 28 30 32 33 35 38 0
3 6 7 9 11 15 17 19 20 21 22 23 24 28 29 31 33 34 36 0
1 4 7 8 10 12 16 18 21 22 23 24 25 29 30 32 34 35 37 0
2 5 8 9 11 13 17 19 22 23 24 25 26 30 31 33 35 36 38 0
1 3 6 9 10 12 14 18 20 23 24 25 26 27 31 32 34 36 37 0
2 4 7 10 11 13 15 19 21 24 25 26 27 28 32 33 35 37 38 0
1 3 5 8 11 12 14 16 20 22 25 26 27 28 29 33 34 36 38 0
2 4 6 9 12 13 15 17 20 21 23 26 27 28 29 30 34 35 37 0
2 3 7 11 12 14 16 18 19 23 25 27 29 30 31 37 38 0
1 3 4 8 12 13 15 17 19 20 24 26 28 30 31 32 38 0
1 2 4 5 9 13 14 16 18 20 21 25 27 29 31 32 33 0
2 3 5 6 10 14 15 17 19 21 22 26 28 30 32 33 34 0
1 3 4 6 7 11 15 16 18 22 23 27 29 31 33 34 35 0
2 4 5 7 8 12 16 17 19 23 24 28 30 32 34 35 36 0
1 3 5 6 8 9 13 17 18 24 25 29 31 33 35 36 37 0
2 4 6 7 9 10 14 18 19 25 26 30 32 34 36 37 38 0
1 3 5 7 8 10 11 15 19 20 26 27 31 33 35 37 38 0
1 2 4 6 8 9 11 12 16 20 21 27 28 32 34 36 38 0
2 3 5 7 9 10 12 13 17 20 21 22 28 29 33 35 37 0
3 4 6 8 10 11 13 14 18 21 22 23 29 30 34 36 38 0
4 5 7 9 11 12 14 15 19 20 22 23 24 30 31 35 37 0
1 5 6 8 10 12 13 15 16 21 23 24 25 31 32 36 38 0
2 6 7 9 11 13 14 16 17 20 22 24 25 26 32 33 37 0
3 7 8 10 12 14 15 17 18 21 23 25 26 27 33 34 38 0
4 8 9 11 13 15 16 18 19 20 22 24 26 27 28 34 35 0
1 5 9 10 12 14 16 17 19 21 23 25 27 28 29 35 36 0
1 2 6 10 11 13 15 17 18 22 24 26 28 29 30 36 37 0
2 3 5 7 9 10 14 18 19 21 22 28 29 30 32 34 36 0
1 3 4 6 8 10 11 15 19 22 23 29 30 31 33 35 37 0
1 2 4 5 7 9 11 12 16 23 24 30 31 32 34 36 38 0
2 3 5 6 8 10 12 13 17 20 24 25 31 32 33 35 37 0
3 4 6 7 9 11 13 14 18 21 25 26 32 33 34 36 38 0
4 5 7 8 10 12 14 15 19 20 22 26 27 33 34 35 37 0
1 5 6 8 9 11 13 15 16 21 23 27 28 34 35 36 38 0
2 6 7 9 10 12 14 16 17 20 22 24 28 29 35 36 37 0
3 7 8 10 11 13 15 17 18 21 23 25 29 30 36 37 38 0
4 8 9 11 12 14 16 18 19 20 22 24 26 30 31 37 38 0
1 5 9 10 12 13 15 17 19 20 21 23 25 27 31 32 38 0
1 2 6 10 11 13 14 16 18 20 21 22 24 26 28 32 33 0
2 3 7 11 12 14 15 17 19 21 22 23 25 27 29 33 34 0
1 3 4 8 12 13 15 16 18 22 23 24 26 28 30 34 35 0
2 4 5 9 13 14 16 17 19 23 24 25 27 29 31 35 36 0
1 3 5 6 10 14 15 17 18 24 25 26 28 30 32 36 37 0
2 4 6 7 11 15 16 18 19 25 26 27 29 31 33 37 38 0
1 3 5 7 8 12 16 17 19 20 26 27 28 30 32 34 38 0
1 2 4 6 8 9 13 17 18 20 21 27 28 29 31 33 35 0
2 3 7 8 10 12 13 18 19 23 25 27 30 33 36 37 38 0
1 3 4 8 9 11 13 14 19 20 24 26 28 31 34 37 38 0
1 2 4 5 9 10 12 14 15 20 21 25 27 29 32 35 38 0
2 3 5 6 10 11 13 15 16 20 21 22 26 28 30 33 36 0
3 4 6 7 11 12 14 16 17 21 22 23 27 29 31 34 37 0
4 5 7 8 12 13 15 17 18 22 23 24 28 30 32 35 38 0
5 6 8 9 13 14 16 18 19 20 23 24 25 29 31 33 36 0
1 6 7 9 10 14 15 17 19 21 24 25 26 30 32 34 37 0
1 2 7 8 10 11 15 16 18 22 25 26 27 31 33 35 38 0
2 3 8 9 11 12 16 17 19 20 23 26 27 28 32 34 36 0
1 3 4 9 10 12 13 17 18 21 24 27 28 29 33 35 37 0
2 4 5 10 11 13 14 18 19 22 25 28 29 30 34 36 38 0
1 3 5 6 11 12 14 15 19 20 23 26 29 30 31 35 37 0
1 2 4 6 7 12 13 15 16 21 24 27 30 31 32 36 38 0
2 3 5 7 8 13 14 16 17 20 22 25 28 31 32 33 37 0
3 4 6 8 9 14 15 17 18 21 23 26 29 32 33 34 38 0
4 5 7 9 10 15 16 18 19 20 22 24 27 30 33 34 35 0
1 5 6 8 10 11 16 17 19 21 23 25 28 31 34 35 36 0
1 2 6 7 9 11 12 17 18 22 24 26 29 32 35 36 37 0
2 3 8 9 11 13 14 18 19 21 22 23 26 29 32 34 36 0
1 3 4 9 10 12 14 15 19 22 23 24 27 30 33 35 37 0
1 2 4 5 10 11 13 15 16 23 24 25 28 31 34 36 38 0
2 3 5 6 11 12 14 16 17 20 24 25 26 29 32 35 37 0
3 4 6 7 12 13 15 17 18 21 25 26 27 30 33 36 38 0
4 5 7 8 13 14 16 18 19 20 22 26 27 28 31 34 37 0
1 5 6 8 9 14 15 17 19 21 23 27 28 29 32 35 38 0
1 2 6 7 9 10 15 16 18 20 22 24 28 29 30 33 36 0
2 3 7 8 10 11 16 17 19 21 23 25 29 30 31 34 37 0
1 3 4 8 9 11 12 17 18 22 24 26 30 31 32 35 38 0
2 4 5 9 10 12 13 18 19 20 23 25 27 31 32 33 36 0
1 3 5 6 10 11 13 14 19 21 24 26 28 32 33 34 37 0
1 2 4 6 7 11 12 14 15 22 25 27 29 33 34 35 38 0
2 3 5 7 8 12 13 15 16 20 23 26 28 30 34 35 36 0
3 4 6 8 9 13 14 16 17 21 24 27 29 31 35 36 37 0
4 5 7 9 10 14 15 17 18 22 25 28 30 32 36 37 38 0
5 6 8 10 11 15 16 18 19 20 23 26 29 31 33 37 38 0
1 6 7 9 11 12 16 17 19 20 21 24 27 30 32 34 38 0
1 2 7 8 10 12 13 17 18 20 21 22 25 28 31 33 35 0
2 7 8 10 12 13 14 18 19 22 25 27 30 34 36 37 38 0
1 3 8 9 11 13 14 15 19 20 23 26 28 31 35 37 38 0
1 2 4 9 10 12 14 15 16 20 21 24 27 29 32 36 38 0
2 3 5 10 11 13 15 16 17 20 21 22 25 28 30 33 37 0
3 4 6 11 12 14 16 17 18 21 22 23 26 29 31 34 38 0
4 5 7 12 13 15 17 18 19 20 22 23 24 27 30 32 35 0
1 5 6 8 13 14 16 18 19 21 23 24 25 28 31 33 36 0
1 2 6 7 9 14 15 17 19 22 24 25 26 29 32 34 37 0
1 2 3 7 8 10 15 16 18 23 25 26 27 30 33 35 38 0
2 3 4 8 9 11 16 17 19 20 24 26 27 28 31 34 36 0
1 3 4 5 9 10 12 17 18 21 25 27 28 29 32 35 37 0
2 4 5 6 10 11 13 18 19 22 26 28 29 30 33 36 38 0
1 3 5 6 7 11 12 14 19 20 23 27 29 30 31 34 37 0
1 2 4 6 7 8 12 13 15 21 24 28 30 31 32 35 38 0
2 3 5 7 8 9 13 14 16 20 22 25 29 31 32 33 36 0
3 4 6 8 9 10 14 15 17 21 23 26 30 32 33 34 37 0
4 5 7 9 10 11 15 16 18 22 24 27 31 33 34 35 38 0
5 6 8 10 11 12 16 17 19 20 23 25 28 32 34 35 36 0
1 6 7 9 11 12 13 17 18 21 24 26 29 33 35 36 37 0
2 3 7 8 9 11 13 14 19 21 22 23 25 29 32 34 37 0
1 3 4 8 9 10 12 14 15 22 23 24 26 30 33 35 38 0
2 4 5 9 10 11 13 15 16 20 23 24 25 27 31 34 36 0
3 5 6 10 11 12 14 16 17 21 24 25 26 28 32 35 37 0
4 6 7 11 12 13 15 17 18 22 25 26 27 29 33 36 38 0
5 7 8 12 13 14 16 18 19 20 23 26 27 28 30 34 37 0
1 6 8 9 13 14 15 17 19 21 24 27 28 29 31 35 38 0
1 2 7 9 10 14 15 16 18 20 22 25 28 29 30 32 36 0
2 3 8 10 11 15 16 17 19 21 23 26 29 30 31 33 37 0
1 3 4 9 11 12 16 17 18 22 24 27 30 31 32 34 38 0
2 4 5 10 12 13 17 18 19 20 23 25 28 31 32 33 35 0
1 3 5 6 11 13 14 18 19 21 24 26 29 32 33 34 36 0
1 2 4 6 7 12 14 15 19 22 25 27 30 33 34 35 37 0
1 2 3 5 7 8 13 15 16 23 26 28 31 34 35 36 38 0
2 3 4 6 8 9 14 16 17 20 24 27 29 32 35 36 37 0
3 4 5 7 9 10 15 17 18 21 25 28 30 33 36 37 38 0
4 5 6 8 10 11 16 18 19 20 22 26 29 31 34 37 38 0
1 5 6 7 9 11 12 17 19 20 21 23 27 30 32 35 38 0
1 2 6 7 8 10 12 13 18 20 21 22 24 28 31 33 36 0
2 3 7 11 13 16 18 19 23 25 26 27 29 31 33 34 36 0
1 3 4 8 12 14 17 19 24 26 27 28 30 32 34 35 37 0
1 2 4 5 9 13 15 18 25 27 28 29 31 33 35 36 38 0
2 3 5 6 10 14 16 19 20 26 28 29 30 32 34 36 37 0
1 3 4 6 7 11 15 17 21 27 29 30 31 33 35 37 38 0
2 4 5 7 8 12 16 18 20 22 28 30 31 32 34 36 38 0
3 5 6 8 9 13 17 19 20 21 23 29 31 32 33 35 37 0
1 4 6 7 9 10 14 18 21 22 24 30 32 33 34 36 38 0
2 5 7 8 10 11 15 19 20 22 23 25 31 33 34 35 37 0
1 3 6 8 9 11 12 16 21 23 24 26 32 34 35 36 38 0
2 4 7 9 10 12 13 17 20 22 24 25 27 33 35 36 37 0
3 5 8 10 11 13 14 18 21 23 25 26 28 34 36 37 38 0
4 6 9 11 12 14 15 19 20 22 24 26 27 29 35 37 38 0
1 5 7 10 12 13 15 16 20 21 23 25 27 28 30 36 38 0
2 6 8 11 13 14 16 17 20 21 22 24 26 28 29 31 37 0
3 7 9 12 14 15 17 18 21 22 23 25 27 29 30 32 38 0
4 8 10 13 15 16 18 19 20 22 23 24 26 28 30 31 33 0
1 5 9 11 14 16 17 19 21 23 24 25 27 29 31 32 34 0
1 2 6 10 12 15 17 18 22 24 25 26 28 30 32 33 35 0
2 3 5 8 10 14 18 19 23 25 26 28 30 32 33 34 36 0
1 3 4 6 9 11 15 19 24 26 27 29 31 33 34 35 37 0
1 2 4 5 7 10 12 16 25 27 28 30 32 34 35 36 38 0
2 3 5 6 8 11 13 17 20 26 28 29 31 33 35 36 37 0
3 4 6 7 9 12 14 18 21 27 29 30 32 34 36 37 38 0
4 5 7 8 10 13 15 19 20 22 28 30 31 33 35 37 38 0
1 5 6 8 9 11 14 16 20 21 23 29 31 32 34 36 38 0
2 6 7 9 10 12 15 17 20 21 22 24 30 32 33 35 37 0
3 7 8 10 11 13 16 18 21 22 23 25 31 33 34 36 38 0
4 8 9 11 12 14 17 19 20 22 23 24 26 32 34 35 37 0
1 5 9 10 12 13 15 18 21 23 24 25 27 33 35 36 38 0
2 6 10 11 13 14 16 19 20 22 24 25 26 28 34 36 37 0
1 3 7 11 12 14 15 17 21 23 25 26 27 29 35 37 38 0
2 4 8 12 13 15 16 18 20 22 24 26 27 28 30 36 38 0
3 5 9 13 14 16 17 19 20 21 23 25 27 28 29 31 37 0
1 4 6 10 14 15 17 18 21 22 24 26 28 29 30 32 38 0
2 5 7 11 15 16 18 19 20 22 23 25 27 29 30 31 33 0
1 3 6 8 12 16 17 19 21 23 24 26 28 30 31 32 34 0
1 2 4 7 9 13 17 18 22 24 25 27 29 31 32 33 35 0
2 3 7 11 12 13 14 18 19 23 25 27 29 30 34 36 37 0
1 3 4 8 12 13 14 15 19 24 26 28 30 31 35 37 38 0
1 2 4 5 9 13 14 15 16 20 25 27 29 31 32 36 38 0
2 3 5 6 10 14 15 16 17 20 21 26 28 30 32 33 37 0
3 4 6 7 11 15 16 17 18 21 22 27 29 31 33 34 38 0
4 5 7 8 12 16 17 18 19 20 22 23 28 30 32 34 35 0
1 5 6 8 9 13 17 18 19 21 23 24 29 31 33 35 36 0
1 2 6 7 9 10 14 18 19 22 24 25 30 32 34 36 37 0
1 2 3 7 8 10 11 15 19 23 25 26 31 33 35 37 38 0
1 2 3 4 8 9 11 12 16 20 24 26 27 32 34 36 38 0
2 3 4 5 9 10 12 13 17 20 21 25 27 28 33 35 37 0
3 4 5 6 10 11 13 14 18 21 22 26 28 29 34 36 38 0
4 5 6 7 11 12 14 15 19 20 22 23 27 29 30 35 37 0
1 5 6 7 8 12 13 15 16 21 23 24 28 30 31 36 38 0
2 6 7 8 9 13 14 16 17 20 22 24 25 29 31 32 37 0
3 7 8 9 10 14 15 17 18 21 23 25 26 30 32 33 38 0
4 8 9 10 11 15 16 18 19 20 22 24 26 27 31 33 34 0
1 5 9 10 11 12 16 17 19 21 23 25 27 28 32 34 35 0
1 2 6 10 11 12 13 17 18 22 24 26 28 29 33 35 36 0
2 3 7 8 9 10 14 18 19 22 23 25 29 30 32 34 36 0
1 3 4 8 9 10 11 15 19 23 24 26 30 31 33 35 37 0
1 2 4 5 9 10 11 12 16 24 25 27 31 32 34 36 38 0
2 3 5 6 10 11 12 13 17 20 25 26 28 32 33 35 37 0
3 4 6 7 11 12 13 14 18 21 26 27 29 33 34 36 38 0
4 5 7 8 12 13 14 15 19 20 22 27 28 30 34 35 37 0
1 5 6 8 9 13 14 15 16 21 23 28 29 31 35 36 38 0
2 6 7 9 10 14 15 16 17 20 22 24 29 30 32 36 37 0
3 7 8 10 11 15 16 17 18 21 23 25 30 31 33 37 38 0
4 8 9 11 12 16 17 18 19 20 22 24 26 31 32 34 38 0
1 5 9 10 12 13 17 18 19 20 21 23 25 27 32 33 35 0
1 2 6 10 11 13 14 18 19 21 22 24 26 28 33 34 36 0
1 2 3 7 11 12 14 15 19 22 23 25 27 29 34 35 37 0
1 2 3 4 8 12 13 15 16 23 24 26 28 30 35 36 38 0
2 3 4 5 9 13 14 16 17 20 24 25 27 29 31 36 37 0
3 4 5 6 10 14 15 17 18 21 25 26 28 30 32 37 38 0
4 5 6 7 11 15 16 18 19 20 22 26 27 29 31 33 38 0
1 5 6 7 8 12 16 17 19 20 21 23 27 28 30 32 34 0
1 2 6 7 8 9 13 17 18 21 22 24 28 29 31 33 35 0
2 7 11 13 16 19 22 25 27 29 31 33 34 36 37 38 0
1 3 8 12 14 17 20 23 26 28 30 32 34 35 37 38 0
2 4 9 13 15 18 20 21 24 27 29 31 33 35 36 38 0
3 5 10 14 16 19 20 21 22 25 28 30 32 34 36 37 0
1 4 6 11 15 17 21 22 23 26 29 31 33 35 37 38 0
2 5 7 12 16 18 20 22 23 24 27 30 32 34 36 38 0
3 6 8 13 17 19 20 21 23 24 25 28 31 33 35 37 0
1 4 7 9 14 18 21 22 24 25 26 29 32 34 36 38 0
2 5 8 10 15 19 20 22 23 25 26 27 30 33 35 37 0
1 3 6 9 11 16 21 23 24 26 27 28 31 34 36 38 0
2 4 7 10 12 17 20 22 24 25 27 28 29 32 35 37 0
3 5 8 11 13 18 21 23 25 26 28 29 30 33 36 38 0
4 6 9 12 14 19 20 22 24 26 27 29 30 31 34 37 0
1 5 7 10 13 15 21 23 25 27 28 30 31 32 35 38 0
2 6 8 11 14 16 20 22 24 26 28 29 31 32 33 36 0
3 7 9 12 15 17 21 23 25 27 29 30 32 33 34 37 0
4 8 10 13 16 18 22 24 26 28 30 31 33 34 35 38 0
5 9 11 14 17 19 20 23 25 27 29 31 32 34 35 36 0
1 6 10 12 15 18 21 24 26 28 30 32 33 35 36 37 0
2 5 8 10 14 19 21 22 23 25 26 28 30 32 34 37 0
1 3 6 9 11 15 22 23 24 26 27 29 31 33 35 38 0
2 4 7 10 12 16 20 23 24 25 27 28 30 32 34 36 0
3 5 8 11 13 17 21 24 25 26 28 29 31 33 35 37 0
4 6 9 12 14 18 22 25 26 27 29 30 32 34 36 38 0
5 7 10 13 15 19 20 23 26 27 28 30 31 33 35 37 0
1 6 8 11 14 16 21 24 27 28 29 31 32 34 36 38 0
2 7 9 12 15 17 20 22 25 28 29 30 32 33 35 37 0
3 8 10 13 16 18 21 23 26 29 30 31 33 34 36 38 0
4 9 11 14 17 19 20 22 24 27 30 31 32 34 35 37 0
1 5 10 12 15 18 21 23 25 28 31 32 33 35 36 38 0
2 6 11 13 16 19 20 22 24 26 29 32 33 34 36 37 0
1 3 7 12 14 17 21 23 25 27 30 33 34 35 37 38 0
2 4 8 13 15 18 20 22 24 26 28 31 34 35 36 38 0
3 5 9 14 16 19 20 21 23 25 27 29 32 35 36 37 0
1 4 6 10 15 17 21 22 24 26 28 30 33 36 37 38 0
2 5 7 11 16 18 20 22 23 25 27 29 31 34 37 38 0
3 6 8 12 17 19 20 21 23 24 26 28 30 32 35 38 0
1 4 7 9 13 18 20 21 22 24 25 27 29 31 33 36 0
3 5 7 11 14 16 18 21 24 27 29 30 31 32 35 37 38 0
4 6 8 12 15 17 19 20 22 25 28 30 31 32 33 36 38 0
1 5 7 9 13 16 18 20 21 23 26 29 31 32 33 34 37 0
2 6 8 10 14 17 19 21 22 24 27 30 32 33 34 35 38 0
1 3 7 9 11 15 18 20 22 23 25 28 31 33 34 35 36 0
2 4 8 10 12 16 19 21 23 24 26 29 32 34 35 36 37 0
1 3 5 9 11 13 17 22 24 25 27 30 33 35 36 37 38 0
2 4 6 10 12 14 18 20 23 25 26 28 31 34 36 37 38 0
3 5 7 11 13 15 19 20 21 24 26 27 29 32 35 37 38 0
1 4 6 8 12 14 16 20 21 22 25 27 28 30 33 36 38 0
2 5 7 9 13 15 17 20 21 22 23 26 28 29 31 34 37 0
3 6 8 10 14 16 18 21 22 23 24 27 29 30 32 35 38 0
4 7 9 11 15 17 19 20 22 23 24 25 28 30 31 33 36 0
1 5 8 10 12 16 18 21 23 24 25 26 29 31 32 34 37 0
2 6 9 11 13 17 19 22 24 25 26 27 30 32 33 35 38 0
1 3 7 10 12 14 18 20 23 25 26 27 28 31 33 34 36 0
2 4 8 11 13 15 19 21 24 26 27 28 29 32 34 35 37 0
1 3 5 9 12 14 16 22 25 27 28 29 30 33 35 36 38 0
2 4 6 10 13 15 17 20 23 26 28 29 30 31 34 36 37 0
3 5 7 10 14 16 18 21 22 24 27 28 29 30 32 35 38 0
4 6 8 11 15 17 19 20 22 23 25 28 29 30 31 33 36 0
1 5 7 9 12 16 18 21 23 24 26 29 30 31 32 34 37 0
2 6 8 10 13 17 19 22 24 25 27 30 31 32 33 35 38 0
1 3 7 9 11 14 18 20 23 25 26 28 31 32 33 34 36 0
2 4 8 10 12 15 19 21 24 26 27 29 32 33 34 35 37 0
1 3 5 9 11 13 16 22 25 27 28 30 33 34 35 36 38 0
2 4 6 10 12 14 17 20 23 26 28 29 31 34 35 36 37 0
3 5 7 11 13 15 18 21 24 27 29 30 32 35 36 37 38 0
4 6 8 12 14 16 19 20 22 25 28 30 31 33 36 37 38 0
1 5 7 9 13 15 17 20 21 23 26 29 31 32 34 37 38 0
2 6 8 10 14 16 18 20 21 22 24 27 30 32 33 35 38 0
3 7 9 11 15 17 19 20 21 22 23 25 28 31 33 34 36 0
1 4 8 10 12 16 18 21 22 23 24 26 29 32 34 35 37 0
2 5 9 11 13 17 19 22 23 24 25 27 30 33 35 36 38 0
1 3 6 10 12 14 18 20 23 24 25 26 28 31 34 36 37 0
2 4 7 11 13 15 19 21 24 25 26 27 29 32 35 37 38 0
1 3 5 8 12 14 16 20 22 25 26 27 28 30 33 36 38 0
2 4 6 9 13 15 17 20 21 23 26 27 28 29 31 34 37 0
4 7 11 14 16 22 23 24 25 27 29 31 32 33 34 35 36 0
5 8 12 15 17 23 24 25 26 28 30 32 33 34 35 36 37 0
6 9 13 16 18 24 25 26 27 29 31 33 34 35 36 37 38 0
7 10 14 17 19 20 25 26 27 28 30 32 34 35 36 37 38 0
1 8 11 15 18 20 21 26 27 28 29 31 33 35 36 37 38 0
2 9 12 16 19 20 21 22 27 28 29 30 32 34 36 37 38 0
1 3 10 13 17 20 21 22 23 28 29 30 31 33 35 37 38 0
2 4 11 14 18 20 21 22 23 24 29 30 31 32 34 36 38 0
3 5 12 15 19 20 21 22 23 24 25 30 31 32 33 35 37 0
1 4 6 13 16 21 22 23 24 25 26 31 32 33 34 36 38 0
2 5 7 14 17 20 22 23 24 25 26 27 32 33 34 35 37 0
3 6 8 15 18 21 23 24 25 26 27 28 33 34 35 36 38 0
4 7 9 16 19 20 22 24 25 26 27 28 29 34 35 36 37 0
1 5 8 10 17 21 23 25 26 27 28 29 30 35 36 37 38 0
2 6 9 11 18 20 22 24 26 27 28 29 30 31 36 37 38 0
3 7 10 12 19 20 21 23 25 27 28 29 30 31 32 37 38 0
1 4 8 11 13 20 21 22 24 26 28 29 30 31 32 33 38 0
2 5 9 12 14 20 21 22 23 25 27 29 30 31 32 33 34 0
3 6 10 13 15 21 22 23 24 26 28 30 31 32 33 34 35 0
5 7 10 14 17 23 24 25 26 27 28 30 32 34 35 36 37 0
6 8 11 15 18 24 25 26 27 28 29 31 33 35 36 37 38 0
7 9 12 16 19 20 25 26 27 28 29 30 32 34 36 37 38 0
1 8 10 13 17 20 21 26 27 28 29 30 31 33 35 37 38 0
2 9 11 14 18 20 21 22 27 28 29 30 31 32 34 36 38 0
3 10 12 15 19 20 21 22 23 28 29 30 31 32 33 35 37 0
1 4 11 13 16 21 22 23 24 29 30 31 32 33 34 36 38 0
2 5 12 14 17 20 22 23 24 25 30 31 32 33 34 35 37 0
3 6 13 15 18 21 23 24 25 26 31 32 33 34 35 36 38 0
4 7 14 16 19 20 22 24 25 26 27 32 33 34 35 36 37 0
1 5 8 15 17 21 23 25 26 27 28 33 34 35 36 37 38 0
2 6 9 16 18 20 22 24 26 27 28 29 34 35 36 37 38 0
3 7 10 17 19 20 21 23 25 27 28 29 30 35 36 37 38 0
1 4 8 11 18 20 21 22 24 26 28 29 30 31 36 37 38 0
2 5 9 12 19 20 21 22 23 25 27 29 30 31 32 37 38 0
1 3 6 10 13 20 21 22 23 24 26 28 30 31 32 33 38 0
2 4 7 11 14 20 21 22 23 24 25 27 29 31 32 33 34 0
3 5 8 12 15 21 22 23 24 25 26 28 30 32 33 34 35 0
4 6 9 13 16 22 23 24 25 26 27 29 31 33 34 35 36 0
4 6 10 13 16 22 23 24 25 26 28 30 31 33 34 35 36 0
5 7 11 14 17 23 24 25 26 27 29 31 32 34 35 36 37 0
6 8 12 15 18 24 25 26 27 28 30 32 33 35 36 37 38 0
7 9 13 16 19 20 25 26 27 28 29 31 33 34 36 37 38 0
1 8 10 14 17 20 21 26 27 28 29 30 32 34 35 37 38 0
2 9 11 15 18 20 21 22 27 28 29 30 31 33 35 36 38 0
3 10 12 16 19 20 21 22 23 28 29 30 31 32 34 36 37 0
1 4 11 13 17 21 22 23 24 29 30 31 32 33 35 37 38 0
2 5 12 14 18 20 22 23 24 25 30 31 32 33 34 36 38 0
3 6 13 15 19 20 21 23 24 25 26 31 32 33 34 35 37 0
1 4 7 14 16 21 22 24 25 26 27 32 33 34 35 36 38 0
2 5 8 15 17 20 22 23 25 26 27 28 33 34 35 36 37 0
3 6 9 16 18 21 23 24 26 27 28 29 34 35 36 37 38 0
4 7 10 17 19 20 22 24 25 27 28 29 30 35 36 37 38 0
1 5 8 11 18 20 21 23 25 26 28 29 30 31 36 37 38 0
2 6 9 12 19 20 21 22 24 26 27 29 30 31 32 37 38 0
1 3 7 10 13 20 21 22 23 25 27 28 30 31 32 33 38 0
2 4 8 11 14 20 21 22 23 24 26 28 29 31 32 33 34 0
3 5 9 12 15 21 22 23 24 25 27 29 30 32 33 34 35 0
5 8 11 15 17 23 24 25 26 28 29 31 33 34 35 36 37 0
6 9 12 16 18 24 25 26 27 29 30 32 34 35 36 37 38 0
7 10 13 17 19 20 25 26 27 28 30 31 33 35 36 37 38 0
1 8 11 14 18 20 21 26 27 28 29 31 32 34 36 37 38 0
2 9 12 15 19 20 21 22 27 28 29 30 32 33 35 37 38 0
1 3 10 13 16 20 21 22 23 28 29 30 31 33 34 36 38 0
2 4 11 14 17 20 21 22 23 24 29 30 31 32 34 35 37 0
3 5 12 15 18 21 22 23 24 25 30 31 32 33 35 36 38 0
4 6 13 16 19 20 22 23 24 25 26 31 32 33 34 36 37 0
1 5 7 14 17 21 23 24 25 26 27 32 33 34 35 37 38 0
2 6 8 15 18 20 22 24 25 26 27 28 33 34 35 36 38 0
3 7 9 16 19 20 21 23 25 26 27 28 29 34 35 36 37 0
1 4 8 10 17 21 22 24 26 27 28 29 30 35 36 37 38 0
2 5 9 11 18 20 22 23 25 27 28 29 30 31 36 37 38 0
3 6 10 12 19 20 21 23 24 26 28 29 30 31 32 37 38 0
1 4 7 11 13 20 21 22 24 25 27 29 30 31 32 33 38 0
2 5 8 12 14 20 21 22 23 25 26 28 30 31 32 33 34 0
3 6 9 13 15 21 22 23 24 26 27 29 31 32 33 34 35 0
4 7 10 14 16 22 23 24 25 27 28 30 32 33 34 35 36 0
4 6 11 14 16 18 22 23 24 25 26 29 31 32 34 35 36 38 0
5 7 12 15 17 19 20 23 24 25 26 27 30 32 33 35 36 37 0
1 6 8 13 16 18 21 24 25 26 27 28 31 33 34 36 37 38 0
2 7 9 14 17 19 20 22 25 26 27 28 29 32 34 35 37 38 0
1 3 8 10 15 18 20 21 23 26 27 28 29 30 33 35 36 38 0
2 4 9 11 16 19 20 21 22 24 27 28 29 30 31 34 36 37 0
1 3 5 10 12 17 21 22 23 25 28 29 30 31 32 35 37 38 0
2 4 6 11 13 18 20 22 23 24 26 29 30 31 32 33 36 38 0
3 5 7 12 14 19 20 21 23 24 25 27 30 31 32 33 34 37 0
1 4 6 8 13 15 21 22 24 25 26 28 31 32 33 34 35 38 0
2 5 7 9 14 16 20 22 23 25 26 27 29 32 33 34 35 36 0
3 6 8 10 15 17 21 23 24 26 27 28 30 33 34 35 36 37 0
4 7 9 11 16 18 22 24 25 27 28 29 31 34 35 36 37 38 0
5 8 10 12 17 19 20 23 25 26 28 29 30 32 35 36 37 38 0
1 6 9 11 13 18 20 21 24 26 27 29 30 31 33 36 37 38 0
2 7 10 12 14 19 20 21 22 25 27 28 30 31 32 34 37 38 0
1 3 8 11 13 15 20 21 22 23 26 28 29 31 32 33 35 38 0
2 4 9 12 14 16 20 21 22 23 24 27 29 30 32 33 34 36 0
3 5 10 13 15 17 21 22 23 24 25 28 30 31 33 34 35 37 0
3 5 7 10 15 17 21 23 24 25 27 28 30 33 34 35 36 37 0
4 6 8 11 16 18 22 24 25 26 28 29 31 34 35 36 37 38 0
5 7 9 12 17 19 20 23 25 26 27 29 30 32 35 36 37 38 0
1 6 8 10 13 18 20 21 24 26 27 28 30 31 33 36 37 38 0
2 7 9 11 14 19 20 21 22 25 27 28 29 31 32 34 37 38 0
1 3 8 10 12 15 20 21 22 23 26 28 29 30 32 33 35 38 0
2 4 9 11 13 16 20 21 22 23 24 27 29 30 31 33 34 36 0
3 5 10 12 14 17 21 22 23 24 25 28 30 31 32 34 35 37 0
4 6 11 13 15 18 22 23 24 25 26 29 31 32 33 35 36 38 0
5 7 12 14 16 19 20 23 24 25 26 27 30 32 33 34 36 37 0
1 6 8 13 15 17 21 24 25 26 27 28 31 33 34 35 37 38 0
2 7 9 14 16 18 20 22 25 26 27 28 29 32 34 35 36 38 0
3 8 10 15 17 19 20 21 23 26 27 28 29 30 33 35 36 37 0
1 4 9 11 16 18 21 22 24 27 28 29 30 31 34 36 37 38 0
2 5 10 12 17 19 20 22 23 25 28 29 30 31 32 35 37 38 0
1 3 6 11 13 18 20 21 23 24 26 29 30 31 32 33 36 38 0
2 4 7 12 14 19 20 21 22 24 25 27 30 31 32 33 34 37 0
1 3 5 8 13 15 21 22 23 25 26 28 31 32 33 34 35 38 0
2 4 6 9 14 16 20 22 23 24 26 27 29 32 33 34 35 36 0
4 7 12 15 18 22 24 25 27 30 32 33 35 36 38 0
5 8 13 16 19 20 23 25 26 28 31 33 34 36 37 0
1 6 9 14 17 21 24 26 27 29 32 34 35 37 38 0
2 7 10 15 18 20 22 25 27 28 30 33 35 36 38 0
3 8 11 16 19 20 21 23 26 28 29 31 34 36 37 0
1 4 9 12 17 21 22 24 27 29 30 32 35 37 38 0
2 5 10 13 18 20 22 23 25 28 30 31 33 36 38 0
3 6 11 14 19 20 21 23 24 26 29 31 32 34 37 0
1 4 7 12 15 21 22 24 25 27 30 32 33 35 38 0
2 5 8 13 16 20 22 23 25 26 28 31 33 34 36 0
3 6 9 14 17 21 23 24 26 27 29 32 34 35 37 0
4 7 10 15 18 22 24 25 27 28 30 33 35 36 38 0
5 8 11 16 19 20 23 25 26 28 29 31 34 36 37 0
1 6 9 12 17 21 24 26 27 29 30 32 35 37 38 0
2 7 10 13 18 20 22 25 27 28 30 31 33 36 38 0
3 8 11 14 19 20 21 23 26 28 29 31 32 34 37 0
1 4 9 12 15 21 22 24 27 29 30 32 33 35 38 0
2 5 10 13 16 20 22 23 25 28 30 31 33 34 36 0
3 6 11 14 17 21 23 24 26 29 31 32 34 35 37 0
4 5 10 13 16 18 22 23 24 25 28 30 31 33 34 35 36 38 0
5 6 11 14 17 19 20 23 24 25 26 29 31 32 34 35 36 37 0
1 6 7 12 15 18 21 24 25 26 27 30 32 33 35 36 37 38 0
2 7 8 13 16 19 20 22 25 26 27 28 31 33 34 36 37 38 0
1 3 8 9 14 17 20 21 23 26 27 28 29 32 34 35 37 38 0
2 4 9 10 15 18 20 21 22 24 27 28 29 30 33 35 36 38 0
3 5 10 11 16 19 20 21 22 23 25 28 29 30 31 34 36 37 0
1 4 6 11 12 17 21 22 23 24 26 29 30 31 32 35 37 38 0
2 5 7 12 13 18 20 22 23 24 25 27 30 31 32 33 36 38 0
3 6 8 13 14 19 20 21 23 24 25 26 28 31 32 33 34 37 0
1 4 7 9 14 15 21 22 24 25 26 27 29 32 33 34 35 38 0
2 5 8 10 15 16 20 22 23 25 26 27 28 30 33 34 35 36 0
3 6 9 11 16 17 21 23 24 26 27 28 29 31 34 35 36 37 0
4 7 10 12 17 18 22 24 25 27 28 29 30 32 35 36 37 38 0
5 8 11 13 18 19 20 23 25 26 28 29 30 31 33 36 37 38 0
1 6 9 12 14 19 20 21 24 26 27 29 30 31 32 34 37 38 0
1 2 7 10 13 15 20 21 22 25 27 28 30 31 32 33 35 38 0
2 3 8 11 14 16 20 21 22 23 26 28 29 31 32 33 34 36 0
3 4 9 12 15 17 21 22 23 24 27 29 30 32 33 34 35 37 0
3 5 8 11 16 17 21 23 24 25 26 28 29 31 34 35 36 37 0
4 6 9 12 17 18 22 24 25 26 27 29 30 32 35 36 37 38 0
5 7 10 13 18 19 20 23 25 26 27 28 30 31 33 36 37 38 0
1 6 8 11 14 19 20 21 24 26 27 28 29 31 32 34 37 38 0
1 2 7 9 12 15 20 21 22 25 27 28 29 30 32 33 35 38 0
2 3 8 10 13 16 20 21 22 23 26 28 29 30 31 33 34 36 0
3 4 9 11 14 17 21 22 23 24 27 29 30 31 32 34 35 37 0
4 5 10 12 15 18 22 23 24 25 28 30 31 32 33 35 36 38 0
5 6 11 13 16 19 20 23 24 25 26 29 31 32 33 34 36 37 0
1 6 7 12 14 17 21 24 25 26 27 30 32 33 34 35 37 38 0
2 7 8 13 15 18 20 22 25 26 27 28 31 33 34 35 36 38 0
3 8 9 14 16 19 20 21 23 26 27 28 29 32 34 35 36 37 0
1 4 9 10 15 17 21 22 24 27 28 29 30 33 35 36 37 38 0
2 5 10 11 16 18 20 22 23 25 28 29 30 31 34 36 37 38 0
3 6 11 12 17 19 20 21 23 24 26 29 30 31 32 35 37 38 0
1 4 7 12 13 18 20 21 22 24 25 27 30 31 32 33 36 38 0
2 5 8 13 14 19 20 21 22 23 25 26 28 31 32 33 34 37 0
1 3 6 9 14 15 21 22 23 24 26 27 29 32 33 34 35 38 0
2 4 7 10 15 16 20 22 23 24 25 27 28 30 33 34 35 36 0
4 6 10 13 16 18 22 23 24 26 28 29 30 31 33 34 35 38 0
5 7 11 14 17 19 20 23 24 25 27 29 30 31 32 34 35 36 0
1 6 8 12 15 18 21 24 25 26 28 30 31 32 33 35 36 37 0
2 7 9 13 16 19 22 25 26 27 29 31 32 33 34 36 37 38 0
1 3 8 10 14 17 20 23 26 27 28 30 32 33 34 35 37 38 0
2 4 9 11 15 18 20 21 24 27 28 29 31 33 34 35 36 38 0
3 5 10 12 16 19 20 21 22 25 28 29 30 32 34 35 36 37 0
1 4 6 11 13 17 21 22 23 26 29 30 31 33 35 36 37 38 0
2 5 7 12 14 18 20 22 23 24 27 30 31 32 34 36 37 38 0
3 6 8 13 15 19 20 21 23 24 25 28 31 32 33 35 37 38 0
1 4 7 9 14 16 20 21 22 24 25 26 29 32 33 34 36 38 0
2 5 8 10 15 17 20 21 22 23 25 26 27 30 33 34 35 37 0
3 6 9 11 16 18 21 22 23 24 26 27 28 31 34 35 36 38 0
4 7 10 12 17 19 20 22 23 24 25 27 28 29 32 35 36 37 0
1 5 8 11 13 18 21 23 24 25 26 28 29 30 33 36 37 38 0
2 6 9 12 14 19 20 22 24 25 26 27 29 30 31 34 37 38 0
1 3 7 10 13 15 20 21 23 25 26 27 28 30 31 32 35 38 0
2 4 8 11 14 16 20 21 22 24 26 27 28 29 31 32 33 36 0
3 5 9 12 15 17 21 22 23 25 27 28 29 30 32 33 34 37 0
3 5 8 11 15 17 21 24 25 26 28 29 30 31 33 35 36 37 0
4 6 9 12 16 18 22 25 26 27 29 30 31 32 34 36 37 38 0
5 7 10 13 17 19 20 23 26 27 28 30 31 32 33 35 37 38 0
1 6 8 11 14 18 20 21 24 27 28 29 31 32 33 34 36 38 0
2 7 9 12 15 19 20 21 22 25 28 29 30 32 33 34 35 37 0
1 3 8 10 13 16 21 22 23 26 29 30 31 33 34 35 36 38 0
2 4 9 11 14 17 20 22 23 24 27 30 31 32 34 35 36 37 0
3 5 10 12 15 18 21 23 24 25 28 31 32 33 35 36 37 38 0
4 6 11 13 16 19 20 22 24 25 26 29 32 33 34 36 37 38 0
1 5 7 12 14 17 20 21 23 25 26 27 30 33 34 35 37 38 0
2 6 8 13 15 18 20 21 22 24 26 27 28 31 34 35 36 38 0
3 7 9 14 16 19 20 21 22 23 25 27 28 29 32 35 36 37 0
1 4 8 10 15 17 21 22 23 24 26 28 29 30 33 36 37 38 0
2 5 9 11 16 18 20 22 23 24 25 27 29 30 31 34 37 38 0
3 6 10 12 17 19 20 21 23 24 25 26 28 30 31 32 35 38 0
1 4 7 11 13 18 20 21 22 24 25 26 27 29 31 32 33 36 0
2 5 8 12 14 19 21 22 23 25 26 27 28 30 32 33 34 37 0
1 3 6 9 13 15 22 23 24 26 27 28 29 31 33 34 35 38 0
2 4 7 10 14 16 20 23 24 25 27 28 29 30 32 34 35 36 0
4 5 6 10 13 16 18 22 23 25 26 28 30 31 33 34 36 38 0
5 6 7 11 14 17 19 20 23 24 26 27 29 31 32 34 35 37 0
1 6 7 8 12 15 18 21 24 25 27 28 30 32 33 35 36 38 0
2 7 8 9 13 16 19 20 22 25 26 28 29 31 33 34 36 37 0
1 3 8 9 10 14 17 21 23 26 27 29 30 32 34 35 37 38 0
2 4 9 10 11 15 18 20 22 24 27 28 30 31 33 35 36 38 0
3 5 10 11 12 16 19 20 21 23 25 28 29 31 32 34 36 37 0
1 4 6 11 12 13 17 21 22 24 26 29 30 32 33 35 37 38 0
2 5 7 12 13 14 18 20 22 23 25 27 30 31 33 34 36 38 0
3 6 8 13 14 15 19 20 21 23 24 26 28 31 32 34 35 37 0
1 4 7 9 14 15 16 21 22 24 25 27 29 32 33 35 36 38 0
2 5 8 10 15 16 17 20 22 23 25 26 28 30 33 34 36 37 0
3 6 9 11 16 17 18 21 23 24 26 27 29 31 34 35 37 38 0
4 7 10 12 17 18 19 20 22 24 25 27 28 30 32 35 36 38 0
1 5 8 11 13 18 19 20 21 23 25 26 28 29 31 33 36 37 0
1 2 6 9 12 14 19 21 22 24 26 27 29 30 32 34 37 38 0
1 2 3 7 10 13 15 20 22 23 25 27 28 30 31 33 35 38 0
2 3 4 8 11 14 16 20 21 23 24 26 28 29 31 32 34 36 0
3 4 5 9 12 15 17 21 22 24 25 27 29 30 32 33 35 37 0
3 5 8 11 15 16 17 21 23 25 26 28 29 31 33 34 36 37 0
4 6 9 12 16 17 18 22 24 26 27 29 30 32 34 35 37 38 0
5 7 10 13 17 18 19 20 23 25 27 28 30 31 33 35 36 38 0
1 6 8 11 14 18 19 20 21 24 26 28 29 31 32 34 36 37 0
1 2 7 9 12 15 19 21 22 25 27 29 30 32 33 35 37 38 0
1 2 3 8 10 13 16 20 22 23 26 28 30 31 33 34 36 38 0
2 3 4 9 11 14 17 20 21 23 24 27 29 31 32 34 35 37 0
3 4 5 10 12 15 18 21 22 24 25 28 30 32 33 35 36 38 0
4 5 6 11 13 16 19 20 22 23 25 26 29 31 33 34 36 37 0
1 5 6 7 12 14 17 21 23 24 26 27 30 32 34 35 37 38 0
2 6 7 8 13 15 18 20 22 24 25 27 28 31 33 35 36 38 0
3 7 8 9 14 16 19 20 21 23 25 26 28 29 32 34 36 37 0
1 4 8 9 10 15 17 21 22 24 26 27 29 30 33 35 37 38 0
2 5 9 10 11 16 18 20 22 23 25 27 28 30 31 34 36 38 0
3 6 10 11 12 17 19 20 21 23 24 26 28 29 31 32 35 37 0
1 4 7 11 12 13 18 21 22 24 25 27 29 30 32 33 36 38 0
2 5 8 12 13 14 19 20 22 23 25 26 28 30 31 33 34 37 0
1 3 6 9 13 14 15 21 23 24 26 27 29 31 32 34 35 38 0
2 4 7 10 14 15 16 20 22 24 25 27 28 30 32 33 35 36 0
4 6 10 12 15 18 22 24 25 26 28 32 33 34 35 36 38 0
5 7 11 13 16 19 20 23 25 26 27 29 33 34 35 36 37 0
1 6 8 12 14 17 21 24 26 27 28 30 34 35 36 37 38 0
2 7 9 13 15 18 20 22 25 27 28 29 31 35 36 37 38 0
3 8 10 14 16 19 20 21 23 26 28 29 30 32 36 37 38 0
1 4 9 11 15 17 20 21 22 24 27 29 30 31 33 37 38 0
2 5 10 12 16 18 20 21 22 23 25 28 30 31 32 34 38 0
3 6 11 13 17 19 20 21 22 23 24 26 29 31 32 33 35 0
1 4 7 12 14 18 21 22 23 24 25 27 30 32 33 34 36 0
2 5 8 13 15 19 22 23 24 25 26 28 31 33 34 35 37 0
1 3 6 9 14 16 23 24 25 26 27 29 32 34 35 36 38 0
2 4 7 10 15 17 20 24 25 26 27 28 30 33 35 36 37 0
3 5 8 11 16 18 21 25 26 27 28 29 31 34 36 37 38 0
4 6 9 12 17 19 20 22 26 27 28 29 30 32 35 37 38 0
1 5 7 10 13 18 20 21 23 27 28 29 30 31 33 36 38 0
2 6 8 11 14 19 20 21 22 24 28 29 30 31 32 34 37 0
1 3 7 9 12 15 21 22 23 25 29 30 31 32 33 35 38 0
2 4 8 10 13 16 20 22 23 24 26 30 31 32 33 34 36 0
3 5 9 11 14 17 21 23 24 25 27 31 32 33 34 35 37 0
3 6 9 11 15 17 21 23 24 25 26 27 31 33 34 35 37 0
4 7 10 12 16 18 22 24 25 26 27 28 32 34 35 36 38 0
5 8 11 13 17 19 20 23 25 26 27 28 29 33 35 36 37 0
1 6 9 12 14 18 21 24 26 27 28 29 30 34 36 37 38 0
2 7 10 13 15 19 20 22 25 27 28 29 30 31 35 37 38 0
1 3 8 11 14 16 20 21 23 26 28 29 30 31 32 36 38 0
2 4 9 12 15 17 20 21 22 24 27 29 30 31 32 33 37 0
3 5 10 13 16 18 21 22 23 25 28 30 31 32 33 34 38 0
4 6 11 14 17 19 20 22 23 24 26 29 31 32 33 34 35 0
1 5 7 12 15 18 21 23 24 25 27 30 32 33 34 35 36 0
2 6 8 13 16 19 22 24 25 26 28 31 33 34 35 36 37 0
1 3 7 9 14 17 23 25 26 27 29 32 34 35 36 37 38 0
2 4 8 10 15 18 20 24 26 27 28 30 33 35 36 37 38 0
3 5 9 11 16 19 20 21 25 27 28 29 31 34 36 37 38 0
1 4 6 10 12 17 20 21 22 26 28 29 30 32 35 37 38 0
2 5 7 11 13 18 20 21 22 23 27 29 30 31 33 36 38 0
3 6 8 12 14 19 20 21 22 23 24 28 30 31 32 34 37 0
1 4 7 9 13 15 21 22 23 24 25 29 31 32 33 35 38 0
2 5 8 10 14 16 20 22 23 24 25 26 30 32 33 34 36 0
3 6 10 13 14 16 21 23 24 26 28 29 30 31 34 35 36 0
4 7 11 14 15 17 22 24 25 27 29 30 31 32 35 36 37 0
5 8 12 15 16 18 23 25 26 28 30 31 32 33 36 37 38 0
6 9 13 16 17 19 20 24 26 27 29 31 32 33 34 37 38 0
1 7 10 14 17 18 20 21 25 27 28 30 32 33 34 35 38 0
2 8 11 15 18 19 20 21 22 26 28 29 31 33 34 35 36 0
1 3 9 12 16 19 21 22 23 27 29 30 32 34 35 36 37 0
1 2 4 10 13 17 22 23 24 28 30 31 33 35 36 37 38 0
2 3 5 11 14 18 20 23 24 25 29 31 32 34 36 37 38 0
3 4 6 12 15 19 20 21 24 25 26 30 32 33 35 37 38 0
1 4 5 7 13 16 20 21 22 25 26 27 31 33 34 36 38 0
2 5 6 8 14 17 20 21 22 23 26 27 28 32 34 35 37 0
3 6 7 9 15 18 21 22 23 24 27 28 29 33 35 36 38 0
4 7 8 10 16 19 20 22 23 24 25 28 29 30 34 36 37 0
1 5 8 9 11 17 21 23 24 25 26 29 30 31 35 37 38 0
2 6 9 10 12 18 20 22 24 25 26 27 30 31 32 36 38 0
3 7 10 11 13 19 20 21 23 25 26 27 28 31 32 33 37 0
1 4 8 11 12 14 21 22 24 26 27 28 29 32 33 34 38 0
2 5 9 12 13 15 20 22 23 25 27 28 29 30 33 34 35 0
5 7 8 11 15 18 23 24 25 28 29 30 31 33 35 36 38 0
6 8 9 12 16 19 20 24 25 26 29 30 31 32 34 36 37 0
1 7 9 10 13 17 21 25 26 27 30 31 32 33 35 37 38 0
2 8 10 11 14 18 20 22 26 27 28 31 32 33 34 36 38 0
3 9 11 12 15 19 20 21 23 27 28 29 32 33 34 35 37 0
1 4 10 12 13 16 21 22 24 28 29 30 33 34 35 36 38 0
2 5 11 13 14 17 20 22 23 25 29 30 31 34 35 36 37 0
3 6 12 14 15 18 21 23 24 26 30 31 32 35 36 37 38 0
4 7 13 15 16 19 20 22 24 25 27 31 32 33 36 37 38 0
1 5 8 14 16 17 20 21 23 25 26 28 32 33 34 37 38 0
2 6 9 15 17 18 20 21 22 24 26 27 29 33 34 35 38 0
3 7 10 16 18 19 20 21 22 23 25 27 28 30 34 35 36 0
1 4 8 11 17 19 21 22 23 24 26 28 29 31 35 36 37 0
1 2 5 9 12 18 22 23 24 25 27 29 30 32 36 37 38 0
2 3 6 10 13 19 20 23 24 25 26 28 30 31 33 37 38 0
1 3 4 7 11 14 20 21 24 25 26 27 29 31 32 34 38 0
2 4 5 8 12 15 20 21 22 25 26 27 28 30 32 33 35 0
3 5 6 9 13 16 21 22 23 26 27 28 29 31 33 34 36 0
4 6 7 10 14 17 22 23 24 27 28 29 30 32 34 35 37 0
3 6 7 11 14 16 21 23 24 26 27 29 31 32 34 35 36 0
4 7 8 12 15 17 22 24 25 27 28 30 32 33 35 36 37 0
5 8 9 13 16 18 23 25 26 28 29 31 33 34 36 37 38 0
6 9 10 14 17 19 20 24 26 27 29 30 32 34 35 37 38 0
1 7 10 11 15 18 20 21 25 27 28 30 31 33 35 36 38 0
2 8 11 12 16 19 20 21 22 26 28 29 31 32 34 36 37 0
1 3 9 12 13 17 21 22 23 27 29 30 32 33 35 37 38 0
2 4 10 13 14 18 20 22 23 24 28 30 31 33 34 36 38 0
3 5 11 14 15 19 20 21 23 24 25 29 31 32 34 35 37 0
1 4 6 12 15 16 21 22 24 25 26 30 32 33 35 36 38 0
2 5 7 13 16 17 20 22 23 25 26 27 31 33 34 36 37 0
3 6 8 14 17 18 21 23 24 26 27 28 32 34 35 37 38 0
4 7 9 15 18 19 20 22 24 25 27 28 29 33 35 36 38 0
1 5 8 10 16 19 20 21 23 25 26 28 29 30 34 36 37 0
1 2 6 9 11 17 21 22 24 26 27 29 30 31 35 37 38 0
2 3 7 10 12 18 20 22 23 25 27 28 30 31 32 36 38 0
3 4 8 11 13 19 20 21 23 24 26 28 29 31 32 33 37 0
1 4 5 9 12 14 21 22 24 25 27 29 30 32 33 34 38 0
2 5 6 10 13 15 20 22 23 25 26 28 30 31 33 34 35 0
5 7 10 14 15 18 23 24 25 27 28 30 32 33 35 36 38 0
6 8 11 15 16 19 20 24 25 26 28 29 31 33 34 36 37 0
1 7 9 12 16 17 21 25 26 27 29 30 32 34 35 37 38 0
2 8 10 13 17 18 20 22 26 27 28 30 31 33 35 36 38 0
3 9 11 14 18 19 20 21 23 27 28 29 31 32 34 36 37 0
1 4 10 12 15 19 21 22 24 28 29 30 32 33 35 37 38 0
1 2 5 11 13 16 20 22 23 25 29 30 31 33 34 36 38 0
2 3 6 12 14 17 20 21 23 24 26 30 31 32 34 35 37 0
3 4 7 13 15 18 21 22 24 25 27 31 32 33 35 36 38 0
4 5 8 14 16 19 20 22 23 25 26 28 32 33 34 36 37 0
1 5 6 9 15 17 21 23 24 26 27 29 33 34 35 37 38 0
2 6 7 10 16 18 20 22 24 25 27 28 30 34 35 36 38 0
3 7 8 11 17 19 20 21 23 25 26 28 29 31 35 36 37 0
1 4 8 9 12 18 21 22 24 26 27 29 30 32 36 37 38 0
2 5 9 10 13 19 20 22 23 25 27 28 30 31 33 37 38 0
1 3 6 10 11 14 20 21 23 24 26 28 29 31 32 34 38 0
2 4 7 11 12 15 20 21 22 24 25 27 29 30 32 33 35 0
3 5 8 12 13 16 21 22 23 25 26 28 30 31 33 34 36 0
4 6 9 13 14 17 22 23 24 26 27 29 31 32 34 35 37 0
3 4 6 7 11 13 16 21 22 23 27 29 31 33 34 36 0
4 5 7 8 12 14 17 22 23 24 28 30 32 34 35 37 0
5 6 8 9 13 15 18 23 24 25 29 31 33 35 36 38 0
6 7 9 10 14 16 19 20 24 25 26 30 32 34 36 37 0
1 7 8 10 11 15 17 21 25 26 27 31 33 35 37 38 0
2 8 9 11 12 16 18 20 22 26 27 28 32 34 36 38 0
3 9 10 12 13 17 19 20 21 23 27 28 29 33 35 37 0
1 4 10 11 13 14 18 21 22 24 28 29 30 34 36 38 0
2 5 11 12 14 15 19 20 22 23 25 29 30 31 35 37 0
1 3 6 12 13 15 16 21 23 24 26 30 31 32 36 38 0
2 4 7 13 14 16 17 20 22 24 25 27 31 32 33 37 0
3 5 8 14 15 17 18 21 23 25 26 28 32 33 34 38 0
4 6 9 15 16 18 19 20 22 24 26 27 29 33 34 35 0
1 5 7 10 16 17 19 21 23 25 27 28 30 34 35 36 0
1 2 6 8 11 17 18 22 24 26 28 29 31 35 36 37 0
2 3 7 9 12 18 19 23 25 27 29 30 32 36 37 38 0
1 3 4 8 10 13 19 20 24 26 28 30 31 33 37 38 0
1 2 4 5 9 11 14 20 21 25 27 29 31 32 34 38 0
2 3 5 6 10 12 15 20 21 22 26 28 30 32 33 35 0
5 8 10 14 15 17 18 23 25 26 28 30 32 36 37 38 0
6 9 11 15 16 18 19 20 24 26 27 29 31 33 37 38 0
1 7 10 12 16 17 19 20 21 25 27 28 30 32 34 38 0
1 2 8 11 13 17 18 20 21 22 26 28 29 31 33 35 0
2 3 9 12 14 18 19 21 22 23 27 29 30 32 34 36 0
1 3 4 10 13 15 19 22 23 24 28 30 31 33 35 37 0
1 2 4 5 11 14 16 23 24 25 29 31 32 34 36 38 0
2 3 5 6 12 15 17 20 24 25 26 30 32 33 35 37 0
3 4 6 7 13 16 18 21 25 26 27 31 33 34 36 38 0
4 5 7 8 14 17 19 20 22 26 27 28 32 34 35 37 0
1 5 6 8 9 15 18 21 23 27 28 29 33 35 36 38 0
2 6 7 9 10 16 19 20 22 24 28 29 30 34 36 37 0
1 3 7 8 10 11 17 21 23 25 29 30 31 35 37 38 0
2 4 8 9 11 12 18 20 22 24 26 30 31 32 36 38 0
3 5 9 10 12 13 19 20 21 23 25 27 31 32 33 37 0
1 4 6 10 11 13 14 21 22 24 26 28 32 33 34 38 0
2 5 7 11 12 14 15 20 22 23 25 27 29 33 34 35 0
3 6 8 12 13 15 16 21 23 24 26 28 30 34 35 36 0
4 7 9 13 14 16 17 22 24 25 27 29 31 35 36 37 0
3 5 10 13 15 18 21 22 23 24 25 28 29 30 31 35 36 37 38 0
4 6 11 14 16 19 20 22 23 24 25 26 29 30 31 32 36 37 38 0
1 5 7 12 15 17 20 21 23 24 25 26 27 30 31 32 33 37 38 0
2 6 8 13 16 18 20 21 22 24 25 26 27 28 31 32 33 34 38 0
3 7 9 14 17 19 20 21 22 23 25 26 27 28 29 32 33 34 35 0
1 4 8 10 15 18 21 22 23 24 26 27 28 29 30 33 34 35 36 0
2 5 9 11 16 19 22 23 24 25 27 28 29 30 31 34 35 36 37 0
1 3 6 10 12 17 23 24 25 26 28 29 30 31 32 35 36 37 38 0
2 4 7 11 13 18 20 24 25 26 27 29 30 31 32 33 36 37 38 0
3 5 8 12 14 19 20 21 25 26 27 28 30 31 32 33 34 37 38 0
1 4 6 9 13 15 20 21 22 26 27 28 29 31 32 33 34 35 38 0
2 5 7 10 14 16 20 21 22 23 27 28 29 30 32 33 34 35 36 0
3 6 8 11 15 17 21 22 23 24 28 29 30 31 33 34 35 36 37 0
4 7 9 12 16 18 22 23 24 25 29 30 31 32 34 35 36 37 38 0
5 8 10 13 17 19 20 23 24 25 26 30 31 32 33 35 36 37 38 0
1 6 9 11 14 18 20 21 24 25 26 27 31 32 33 34 36 37 38 0
2 7 10 12 15 19 20 21 22 25 26 27 28 32 33 34 35 37 38 0
1 3 8 11 13 16 20 21 22 23 26 27 28 29 33 34 35 36 38 0
2 4 9 12 14 17 20 21 22 23 24 27 28 29 30 34 35 36 37 0
3 6 8 11 16 18 21 22 23 24 28 29 30 31 34 35 36 37 38 0
4 7 9 12 17 19 20 22 23 24 25 29 30 31 32 35 36 37 38 0
1 5 8 10 13 18 20 21 23 24 25 26 30 31 32 33 36 37 38 0
2 6 9 11 14 19 20 21 22 24 25 26 27 31 32 33 34 37 38 0
1 3 7 10 12 15 20 21 22 23 25 26 27 28 32 33 34 35 38 0
2 4 8 11 13 16 20 21 22 23 24 26 27 28 29 33 34 35 36 0
3 5 9 12 14 17 21 22 23 24 25 27 28 29 30 34 35 36 37 0
4 6 10 13 15 18 22 23 24 25 26 28 29 30 31 35 36 37 38 0
5 7 11 14 16 19 20 23 24 25 26 27 29 30 31 32 36 37 38 0
1 6 8 12 15 17 20 21 24 25 26 27 28 30 31 32 33 37 38 0
2 7 9 13 16 18 20 21 22 25 26 27 28 29 31 32 33 34 38 0
3 8 10 14 17 19 20 21 22 23 26 27 28 29 30 32 33 34 35 0
1 4 9 11 15 18 21 22 23 24 27 28 29 30 31 33 34 35 36 0
2 5 10 12 16 19 22 23 24 25 28 29 30 31 32 34 35 36 37 0
1 3 6 11 13 17 23 24 25 26 29 30 31 32 33 35 36 37 38 0
2 4 7 12 14 18 20 24 25 26 27 30 31 32 33 34 36 37 38 0
3 5 8 13 15 19 20 21 25 26 27 28 31 32 33 34 35 37 38 0
1 4 6 9 14 16 20 21 22 26 27 28 29 32 33 34 35 36 38 0
2 5 7 10 15 17 20 21 22 23 27 28 29 30 33 34 35 36 37 0
3 5 10 13 16 21 22 23 24 25 28 30 31 33 34 35 36 0
4 6 11 14 17 22 23 24 25 26 29 31 32 34 35 36 37 0
5 7 12 15 18 23 24 25 26 27 30 32 33 35 36 37 38 0
6 8 13 16 19 20 24 25 26 27 28 31 33 34 36 37 38 0
1 7 9 14 17 20 21 25 26 27 28 29 32 34 35 37 38 0
2 8 10 15 18 20 21 22 26 27 28 29 30 33 35 36 38 0
3 9 11 16 19 20 21 22 23 27 28 29 30 31 34 36 37 0
1 4 10 12 17 21 22 23 24 28 29 30 31 32 35 37 38 0
2 5 11 13 18 20 22 23 24 25 29 30 31 32 33 36 38 0
3 6 12 14 19 20 21 23 24 25 26 30 31 32 33 34 37 0
1 4 7 13 15 21 22 24 25 26 27 31 32 33 34 35 38 0
2 5 8 14 16 20 22 23 25 26 27 28 32 33 34 35 36 0
3 6 9 15 17 21 23 24 26 27 28 29 33 34 35 36 37 0
4 7 10 16 18 22 24 25 27 28 29 30 34 35 36 37 38 0
5 8 11 17 19 20 23 25 26 28 29 30 31 35 36 37 38 0
1 6 9 12 18 20 21 24 26 27 29 30 31 32 36 37 38 0
2 7 10 13 19 20 21 22 25 27 28 30 31 32 33 37 38 0
1 3 8 11 14 20 21 22 23 26 28 29 31 32 33 34 38 0
2 4 9 12 15 20 21 22 23 24 27 29 30 32 33 34 35 0
5 8 11 16 18 23 24 25 26 28 29 31 34 35 36 37 38 0
6 9 12 17 19 20 24 25 26 27 29 30 32 35 36 37 38 0
1 7 10 13 18 20 21 25 26 27 28 30 31 33 36 37 38 0
2 8 11 14 19 20 21 22 26 27 28 29 31 32 34 37 38 0
1 3 9 12 15 20 21 22 23 27 28 29 30 32 33 35 38 0
2 4 10 13 16 20 21 22 23 24 28 29 30 31 33 34 36 0
3 5 11 14 17 21 22 23 24 25 29 30 31 32 34 35 37 0
4 6 12 15 18 22 23 24 25 26 30 31 32 33 35 36 38 0
5 7 13 16 19 20 23 24 25 26 27 31 32 33 34 36 37 0
1 6 8 14 17 21 24 25 26 27 28 32 33 34 35 37 38 0
2 7 9 15 18 20 22 25 26 27 28 29 33 34 35 36 38 0
3 8 10 16 19 20 21 23 26 27 28 29 30 34 35 36 37 0
1 4 9 11 17 21 22 24 27 28 29 30 31 35 36 37 38 0
2 5 10 12 18 20 22 23 25 28 29 30 31 32 36 37 38 0
3 6 11 13 19 20 21 23 24 26 29 30 31 32 33 37 38 0
1 4 7 12 14 20 21 22 24 25 27 30 31 32 33 34 38 0
2 5 8 13 15 20 21 22 23 25 26 28 31 32 33 34 35 0
3 6 9 14 16 21 22 23 24 26 27 29 32 33 34 35 36 0
4 7 10 15 17 22 23 24 25 27 28 30 33 34 35 36 37 0
3 5 6 10 13 16 21 22 23 26 28 30 31 33 34 36 0
4 6 7 11 14 17 22 23 24 27 29 31 32 34 35 37 0
5 7 8 12 15 18 23 24 25 28 30 32 33 35 36 38 0
6 8 9 13 16 19 20 24 25 26 29 31 33 34 36 37 0
1 7 9 10 14 17 21 25 26 27 30 32 34 35 37 38 0
2 8 10 11 15 18 20 22 26 27 28 31 33 35 36 38 0
3 9 11 12 16 19 20 21 23 27 28 29 32 34 36 37 0
1 4 10 12 13 17 21 22 24 28 29 30 33 35 37 38 0
2 5 11 13 14 18 20 22 23 25 29 30 31 34 36 38 0
3 6 12 14 15 19 20 21 23 24 26 30 31 32 35 37 0
1 4 7 13 15 16 21 22 24 25 27 31 32 33 36 38 0
2 5 8 14 16 17 20 22 23 25 26 28 32 33 34 37 0
3 6 9 15 17 18 21 23 24 26 27 29 33 34 35 38 0
4 7 10 16 18 19 20 22 24 25 27 28 30 34 35 36 0
1 5 8 11 17 19 21 23 25 26 28 29 31 35 36 37 0
1 2 6 9 12 18 22 24 26 27 29 30 32 36 37 38 0
2 3 7 10 13 19 20 23 25 27 28 30 31 33 37 38 0
1 3 4 8 11 14 20 21 24 26 28 29 31 32 34 38 0
2 4 5 9 12 15 20 21 22 25 27 29 30 32 33 35 0
5 8 11 15 16 18 23 25 26 28 29 31 33 36 37 38 0
6 9 12 16 17 19 20 24 26 27 29 30 32 34 37 38 0
1 7 10 13 17 18 20 21 25 27 28 30 31 33 35 38 0
2 8 11 14 18 19 20 21 22 26 28 29 31 32 34 36 0
1 3 9 12 15 19 21 22 23 27 29 30 32 33 35 37 0
1 2 4 10 13 16 22 23 24 28 30 31 33 34 36 38 0
2 3 5 11 14 17 20 23 24 25 29 31 32 34 35 37 0
3 4 6 12 15 18 21 24 25 26 30 32 33 35 36 38 0
4 5 7 13 16 19 20 22 25 26 27 31 33 34 36 37 0
1 5 6 8 14 17 21 23 26 27 28 32 34 35 37 38 0
2 6 7 9 15 18 20 22 24 27 28 29 33 35 36 38 0
3 7 8 10 16 19 20 21 23 25 28 29 30 34 36 37 0
1 4 8 9 11 17 21 22 24 26 29 30 31 35 37 38 0
2 5 9 10 12 18 20 22 23 25 27 30 31 32 36 38 0
3 6 10 11 13 19 20 21 23 24 26 28 31 32 33 37 0
1 4 7 11 12 14 21 22 24 25 27 29 32 33 34 38 0
2 5 8 12 13 15 20 22 23 25 26 28 30 33 34 35 0
3 6 9 13 14 16 21 23 24 26 27 29 31 34 35 36 0
4 7 10 14 15 17 22 24 25 27 28 30 32 35 36 37 0
3 5 6 10 13 15 16 18 21 23 26 28 30 31 33 36 38 0
4 6 7 11 14 16 17 19 20 22 24 27 29 31 32 34 37 0
1 5 7 8 12 15 17 18 21 23 25 28 30 32 33 35 38 0
2 6 8 9 13 16 18 19 20 22 24 26 29 31 33 34 36 0
1 3 7 9 10 14 17 19 21 23 25 27 30 32 34 35 37 0
1 2 4 8 10 11 15 18 22 24 26 28 31 33 35 36 38 0
2 3 5 9 11 12 16 19 20 23 25 27 29 32 34 36 37 0
1 3 4 6 10 12 13 17 21 24 26 28 30 33 35 37 38 0
2 4 5 7 11 13 14 18 20 22 25 27 29 31 34 36 38 0
3 5 6 8 12 14 15 19 20 21 23 26 28 30 32 35 37 0
1 4 6 7 9 13 15 16 21 22 24 27 29 31 33 36 38 0
2 5 7 8 10 14 16 17 20 22 23 25 28 30 32 34 37 0
3 6 8 9 11 15 17 18 21 23 24 26 29 31 33 35 38 0
4 7 9 10 12 16 18 19 20 22 24 25 27 30 32 34 36 0
1 5 8 10 11 13 17 19 21 23 25 26 28 31 33 35 37 0
1 2 6 9 11 12 14 18 22 24 26 27 29 32 34 36 38 0
2 3 7 10 12 13 15 19 20 23 25 27 28 30 33 35 37 0
1 3 4 8 11 13 14 16 21 24 26 28 29 31 34 36 38 0
2 4 5 9 12 14 15 17 20 22 25 27 29 30 32 35 37 0
3 5 6 8 11 15 16 18 21 23 26 28 29 31 33 36 38 0
4 6 7 9 12 16 17 19 20 22 24 27 29 30 32 34 37 0
1 5 7 8 10 13 17 18 21 23 25 28 30 31 33 35 38 0
2 6 8 9 11 14 18 19 20 22 24 26 29 31 32 34 36 0
1 3 7 9 10 12 15 19 21 23 25 27 30 32 33 35 37 0
1 2 4 8 10 11 13 16 22 24 26 28 31 33 34 36 38 0
2 3 5 9 11 12 14 17 20 23 25 27 29 32 34 35 37 0
3 4 6 10 12 13 15 18 21 24 26 28 30 33 35 36 38 0
4 5 7 11 13 14 16 19 20 22 25 27 29 31 34 36 37 0
1 5 6 8 12 14 15 17 21 23 26 28 30 32 35 37 38 0
2 6 7 9 13 15 16 18 20 22 24 27 29 31 33 36 38 0
3 7 8 10 14 16 17 19 20 21 23 25 28 30 32 34 37 0
1 4 8 9 11 15 17 18 21 22 24 26 29 31 33 35 38 0
2 5 9 10 12 16 18 19 20 22 23 25 27 30 32 34 36 0
1 3 6 10 11 13 17 19 21 23 24 26 28 31 33 35 37 0
1 2 4 7 11 12 14 18 22 24 25 27 29 32 34 36 38 0
2 3 5 8 12 13 15 19 20 23 25 26 28 30 33 35 37 0
1 3 4 6 9 13 14 16 21 24 26 27 29 31 34 36 38 0
2 4 5 7 10 14 15 17 20 22 25 27 28 30 32 35 37 0
3 5 6 10 12 15 16 18 21 23 26 28 31 32 33 34 38 0
4 6 7 11 13 16 17 19 20 22 24 27 29 32 33 34 35 0
1 5 7 8 12 14 17 18 21 23 25 28 30 33 34 35 36 0
2 6 8 9 13 15 18 19 22 24 26 29 31 34 35 36 37 0
1 3 7 9 10 14 16 19 23 25 27 30 32 35 36 37 38 0
1 2 4 8 10 11 15 17 20 24 26 28 31 33 36 37 38 0
2 3 5 9 11 12 16 18 20 21 25 27 29 32 34 37 38 0
3 4 6 10 12 13 17 19 20 21 22 26 28 30 33 35 38 0
1 4 5 7 11 13 14 18 20 21 22 23 27 29 31 34 36 0
2 5 6 8 12 14 15 19 21 22 23 24 28 30 32 35 37 0
1 3 6 7 9 13 15 16 22 23 24 25 29 31 33 36 38 0
2 4 7 8 10 14 16 17 20 23 24 25 26 30 32 34 37 0
3 5 8 9 11 15 17 18 21 24 25 26 27 31 33 35 38 0
4 6 9 10 12 16 18 19 20 22 25 26 27 28 32 34 36 0
1 5 7 10 11 13 17 19 21 23 26 27 28 29 33 35 37 0
1 2 6 8 11 12 14 18 22 24 27 28 29 30 34 36 38 0
2 3 7 9 12 13 15 19 20 23 25 28 29 30 31 35 37 0
1 3 4 8 10 13 14 16 21 24 26 29 30 31 32 36 38 0
2 4 5 9 11 14 15 17 20 22 25 27 30 31 32 33 37 0
3 5 6 9 11 15 16 18 21 25 26 27 28 31 33 36 38 0
4 6 7 10 12 16 17 19 20 22 26 27 28 29 32 34 37 0
1 5 7 8 11 13 17 18 21 23 27 28 29 30 33 35 38 0
2 6 8 9 12 14 18 19 20 22 24 28 29 30 31 34 36 0
1 3 7 9 10 13 15 19 21 23 25 29 30 31 32 35 37 0
1 2 4 8 10 11 14 16 22 24 26 30 31 32 33 36 38 0
2 3 5 9 11 12 15 17 20 23 25 27 31 32 33 34 37 0
3 4 6 10 12 13 16 18 21 24 26 28 32 33 34 35 38 0
4 5 7 11 13 14 17 19 20 22 25 27 29 33 34 35 36 0
1 5 6 8 12 14 15 18 21 23 26 28 30 34 35 36 37 0
2 6 7 9 13 15 16 19 22 24 27 29 31 35 36 37 38 0
1 3 7 8 10 14 16 17 20 23 25 28 30 32 36 37 38 0
2 4 8 9 11 15 17 18 20 21 24 26 29 31 33 37 38 0
3 5 9 10 12 16 18 19 20 21 22 25 27 30 32 34 38 0
1 4 6 10 11 13 17 19 20 21 22 23 26 28 31 33 35 0
1 2 5 7 11 12 14 18 21 22 23 24 27 29 32 34 36 0
2 3 6 8 12 13 15 19 22 23 24 25 28 30 33 35 37 0
1 3 4 7 9 13 14 16 23 24 25 26 29 31 34 36 38 0
2 4 5 8 10 14 15 17 20 24 25 26 27 30 32 35 37 0
3 6 10 12 14 16 18 21 23 24 26 28 31 33 34 35 36 38 0
4 7 11 13 15 17 19 20 22 24 25 27 29 32 34 35 36 37 0
1 5 8 12 14 16 18 21 23 25 26 28 30 33 35 36 37 38 0
2 6 9 13 15 17 19 20 22 24 26 27 29 31 34 36 37 38 0
1 3 7 10 14 16 18 20 21 23 25 27 28 30 32 35 37 38 0
2 4 8 11 15 17 19 20 21 22 24 26 28 29 31 33 36 38 0
1 3 5 9 12 16 18 20 21 22 23 25 27 29 30 32 34 37 0
2 4 6 10 13 17 19 21 22 23 24 26 28 30 31 33 35 38 0
1 3 5 7 11 14 18 20 22 23 24 25 27 29 31 32 34 36 0
2 4 6 8 12 15 19 21 23 24 25 26 28 30 32 33 35 37 0
1 3 5 7 9 13 16 22 24 25 26 27 29 31 33 34 36 38 0
2 4 6 8 10 14 17 20 23 25 26 27 28 30 32 34 35 37 0
3 5 7 9 11 15 18 21 24 26 27 28 29 31 33 35 36 38 0
4 6 8 10 12 16 19 20 22 25 27 28 29 30 32 34 36 37 0
1 5 7 9 11 13 17 21 23 26 28 29 30 31 33 35 37 38 0
2 6 8 10 12 14 18 20 22 24 27 29 30 31 32 34 36 38 0
3 7 9 11 13 15 19 20 21 23 25 28 30 31 32 33 35 37 0
1 4 8 10 12 14 16 21 22 24 26 29 31 32 33 34 36 38 0
2 5 9 11 13 15 17 20 22 23 25 27 30 32 33 34 35 37 0
3 5 7 9 11 15 18 21 23 24 25 26 28 31 33 35 36 38 0
4 6 8 10 12 16 19 20 22 24 25 26 27 29 32 34 36 37 0
1 5 7 9 11 13 17 21 23 25 26 27 28 30 33 35 37 38 0
2 6 8 10 12 14 18 20 22 24 26 27 28 29 31 34 36 38 0
3 7 9 11 13 15 19 20 21 23 25 27 28 29 30 32 35 37 0
1 4 8 10 12 14 16 21 22 24 26 28 29 30 31 33 36 38 0
2 5 9 11 13 15 17 20 22 23 25 27 29 30 31 32 34 37 0
3 6 10 12 14 16 18 21 23 24 26 28 30 31 32 33 35 38 0
4 7 11 13 15 17 19 20 22 24 25 27 29 31 32 33 34 36 0
1 5 8 12 14 16 18 21 23 25 26 28 30 32 33 34 35 37 0
2 6 9 13 15 17 19 22 24 26 27 29 31 33 34 35 36 38 0
1 3 7 10 14 16 18 20 23 25 27 28 30 32 34 35 36 37 0
2 4 8 11 15 17 19 21 24 26 28 29 31 33 35 36 37 38 0
1 3 5 9 12 16 18 20 22 25 27 29 30 32 34 36 37 38 0
2 4 6 10 13 17 19 20 21 23 26 28 30 31 33 35 37 38 0
1 3 5 7 11 14 18 20 21 22 24 27 29 31 32 34 36 38 0
2 4 6 8 12 15 19 20 21 22 23 25 28 30 32 33 35 37 0
1 3 5 7 9 13 16 21 22 23 24 26 29 31 33 34 36 38 0
2 4 6 8 10 14 17 20 22 23 24 25 27 30 32 34 35 37 0
3 6 11 14 16 21 22 23 24 26 29 31 32 33 34 35 36 0
4 7 12 15 17 22 23 24 25 27 30 32 33 34 35 36 37 0
5 8 13 16 18 23 24 25 26 28 31 33 34 35 36 37 38 0
6 9 14 17 19 20 24 25 26 27 29 32 34 35 36 37 38 0
1 7 10 15 18 20 21 25 26 27 28 30 33 35 36 37 38 0
2 8 11 16 19 20 21 22 26 27 28 29 31 34 36 37 38 0
1 3 9 12 17 20 21 22 23 27 28 29 30 32 35 37 38 0
2 4 10 13 18 20 21 22 23 24 28 29 30 31 33 36 38 0
3 5 11 14 19 20 21 22 23 24 25 29 30 31 32 34 37 0
1 4 6 12 15 21 22 23 24 25 26 30 31 32 33 35 38 0
2 5 7 13 16 20 22 23 24 25 26 27 31 32 33 34 36 0
3 6 8 14 17 21 23 24 25 26 27 28 32 33 34 35 37 0
4 7 9 15 18 22 24 25 26 27 28 29 33 34 35 36 38 0
5 8 10 16 19 20 23 25 26 27 28 29 30 34 35 36 37 0
1 6 9 11 17 21 24 26 27 28 29 30 31 35 36 37 38 0
2 7 10 12 18 20 22 25 27 28 29 30 31 32 36 37 38 0
3 8 11 13 19 20 21 23 26 28 29 30 31 32 33 37 38 0
1 4 9 12 14 20 21 22 24 27 29 30 31 32 33 34 38 0
2 5 10 13 15 20 21 22 23 25 28 30 31 32 33 34 35 0
5 7 10 15 18 23 24 25 26 27 28 30 33 35 36 37 38 0
6 8 11 16 19 20 24 25 26 27 28 29 31 34 36 37 38 0
1 7 9 12 17 20 21 25 26 27 28 29 30 32 35 37 38 0
2 8 10 13 18 20 21 22 26 27 28 29 30 31 33 36 38 0
3 9 11 14 19 20 21 22 23 27 28 29 30 31 32 34 37 0
1 4 10 12 15 21 22 23 24 28 29 30 31 32 33 35 38 0
2 5 11 13 16 20 22 23 24 25 29 30 31 32 33 34 36 0
3 6 12 14 17 21 23 24 25 26 30 31 32 33 34 35 37 0
4 7 13 15 18 22 24 25 26 27 31 32 33 34 35 36 38 0
5 8 14 16 19 20 23 25 26 27 28 32 33 34 35 36 37 0
1 6 9 15 17 21 24 26 27 28 29 33 34 35 36 37 38 0
2 7 10 16 18 20 22 25 27 28 29 30 34 35 36 37 38 0
3 8 11 17 19 20 21 23 26 28 29 30 31 35 36 37 38 0
1 4 9 12 18 20 21 22 24 27 29 30 31 32 36 37 38 0
2 5 10 13 19 20 21 22 23 25 28 30 31 32 33 37 38 0
1 3 6 11 14 20 21 22 23 24 26 29 31 32 33 34 38 0
2 4 7 12 15 20 21 22 23 24 25 27 30 32 33 34 35 0
3 5 8 13 16 21 22 23 24 25 26 28 31 33 34 35 36 0
4 6 9 14 17 22 23 24 25 26 27 29 32 34 35 36 37 0
3 6 11 14 16 18 21 23 24 26 29 31 32 34 35 37 38 0
4 7 12 15 17 19 20 22 24 25 27 30 32 33 35 36 38 0
1 5 8 13 16 18 20 21 23 25 26 28 31 33 34 36 37 0
2 6 9 14 17 19 21 22 24 26 27 29 32 34 35 37 38 0
1 3 7 10 15 18 20 22 23 25 27 28 30 33 35 36 38 0
2 4 8 11 16 19 20 21 23 24 26 28 29 31 34 36 37 0
1 3 5 9 12 17 21 22 24 25 27 29 30 32 35 37 38 0
2 4 6 10 13 18 20 22 23 25 26 28 30 31 33 36 38 0
3 5 7 11 14 19 20 21 23 24 26 27 29 31 32 34 37 0
1 4 6 8 12 15 21 22 24 25 27 28 30 32 33 35 38 0
2 5 7 9 13 16 20 22 23 25 26 28 29 31 33 34 36 0
3 6 8 10 14 17 21 23 24 26 27 29 30 32 34 35 37 0
4 7 9 11 15 18 22 24 25 27 28 30 31 33 35 36 38 0
5 8 10 12 16 19 20 23 25 26 28 29 31 32 34 36 37 0
1 6 9 11 13 17 21 24 26 27 29 30 32 33 35 37 38 0
2 7 10 12 14 18 20 22 25 27 28 30 31 33 34 36 38 0
3 8 11 13 15 19 20 21 23 26 28 29 31 32 34 35 37 0
1 4 9 12 14 16 21 22 24 27 29 30 32 33 35 36 38 0
2 5 10 13 15 17 20 22 23 25 28 30 31 33 34 36 37 0
3 5 7 10 15 18 21 22 24 25 27 28 30 33 35 36 38 0
4 6 8 11 16 19 20 22 23 25 26 28 29 31 34 36 37 0
1 5 7 9 12 17 21 23 24 26 27 29 30 32 35 37 38 0
2 6 8 10 13 18 20 22 24 25 27 28 30 31 33 36 38 0
3 7 9 11 14 19 20 21 23 25 26 28 29 31 32 34 37 0
1 4 8 10 12 15 21 22 24 26 27 29 30 32 33 35 38 0
2 5 9 11 13 16 20 22 23 25 27 28 30 31 33 34 36 0
3 6 10 12 14 17 21 23 24 26 28 29 31 32 34 35 37 0
4 7 11 13 15 18 22 24 25 27 29 30 32 33 35 36 38 0
5 8 12 14 16 19 20 23 25 26 28 30 31 33 34 36 37 0
1 6 9 13 15 17 21 24 26 27 29 31 32 34 35 37 38 0
2 7 10 14 16 18 20 22 25 27 28 30 32 33 35 36 38 0
3 8 11 15 17 19 20 21 23 26 28 29 31 33 34 36 37 0
1 4 9 12 16 18 21 22 24 27 29 30 32 34 35 37 38 0
2 5 10 13 17 19 20 22 23 25 28 30 31 33 35 36 38 0
1 3 6 11 14 18 20 21 23 24 26 29 31 32 34 36 37 0
2 4 7 12 15 19 21 22 24 25 27 30 32 33 35 37 38 0
1 3 5 8 13 16 20 22 23 25 26 28 31 33 34 36 38 0
2 4 6 9 14 17 20 21 23 24 26 27 29 32 34 35 37 0
3 6 7 12 15 16 21 22 23 24 25 27 30 32 33 34 35 36 0
4 7 8 13 16 17 22 23 24 25 26 28 31 33 34 35 36 37 0
5 8 9 14 17 18 23 24 25 26 27 29 32 34 35 36 37 38 0
6 9 10 15 18 19 20 24 25 26 27 28 30 33 35 36 37 38 0
1 7 10 11 16 19 20 21 25 26 27 28 29 31 34 36 37 38 0
1 2 8 11 12 17 20 21 22 26 27 28 29 30 32 35 37 38 0
2 3 9 12 13 18 20 21 22 23 27 28 29 30 31 33 36 38 0
3 4 10 13 14 19 20 21 22 23 24 28 29 30 31 32 34 37 0
1 4 5 11 14 15 21 22 23 24 25 29 30 31 32 33 35 38 0
2 5 6 12 15 16 20 22 23 24 25 26 30 31 32 33 34 36 0
3 6 7 13 16 17 21 23 24 25 26 27 31 32 33 34 35 37 0
4 7 8 14 17 18 22 24 25 26 27 28 32 33 34 35 36 38 0
5 8 9 15 18 19 20 23 25 26 27 28 29 33 34 35 36 37 0
1 6 9 10 16 19 21 24 26 27 28 29 30 34 35 36 37 38 0
1 2 7 10 11 17 20 22 25 27 28 29 30 31 35 36 37 38 0
2 3 8 11 12 18 20 21 23 26 28 29 30 31 32 36 37 38 0
3 4 9 12 13 19 20 21 22 24 27 29 30 31 32 33 37 38 0
1 4 5 10 13 14 20 21 22 23 25 28 30 31 32 33 34 38 0
2 5 6 11 14 15 20 21 22 23 24 26 29 31 32 33 34 35 0
5 6 9 14 15 18 23 24 25 26 27 29 32 34 35 36 37 38 0
6 7 10 15 16 19 20 24 25 26 27 28 30 33 35 36 37 38 0
1 7 8 11 16 17 20 21 25 26 27 28 29 31 34 36 37 38 0
2 8 9 12 17 18 20 21 22 26 27 28 29 30 32 35 37 38 0
3 9 10 13 18 19 20 21 22 23 27 28 29 30 31 33 36 38 0
1 4 10 11 14 19 20 21 22 23 24 28 29 30 31 32 34 37 0
1 2 5 11 12 15 21 22 23 24 25 29 30 31 32 33 35 38 0
2 3 6 12 13 16 20 22 23 24 25 26 30 31 32 33 34 36 0
3 4 7 13 14 17 21 23 24 25 26 27 31 32 33 34 35 37 0
4 5 8 14 15 18 22 24 25 26 27 28 32 33 34 35 36 38 0
5 6 9 15 16 19 20 23 25 26 27 28 29 33 34 35 36 37 0
1 6 7 10 16 17 21 24 26 27 28 29 30 34 35 36 37 38 0
2 7 8 11 17 18 20 22 25 27 28 29 30 31 35 36 37 38 0
3 8 9 12 18 19 20 21 23 26 28 29 30 31 32 36 37 38 0
1 4 9 10 13 19 20 21 22 24 27 29 30 31 32 33 37 38 0
1 2 5 10 11 14 20 21 22 23 25 28 30 31 32 33 34 38 0
2 3 6 11 12 15 20 21 22 23 24 26 29 31 32 33 34 35 0
3 4 7 12 13 16 21 22 23 24 25 27 30 32 33 34 35 36 0
4 5 8 13 14 17 22 23 24 25 26 28 31 33 34 35 36 37 0
3 4 7 11 14 15 16 21 22 24 25 27 29 30 31 32 33 35 36 0
4 5 8 12 15 16 17 22 23 25 26 28 30 31 32 33 34 36 37 0
5 6 9 13 16 17 18 23 24 26 27 29 31 32 33 34 35 37 38 0
6 7 10 14 17 18 19 20 24 25 27 28 30 32 33 34 35 36 38 0
1 7 8 11 15 18 19 20 21 25 26 28 29 31 33 34 35 36 37 0
1 2 8 9 12 16 19 21 22 26 27 29 30 32 34 35 36 37 38 0
1 2 3 9 10 13 17 20 22 23 27 28 30 31 33 35 36 37 38 0
2 3 4 10 11 14 18 20 21 23 24 28 29 31 32 34 36 37 38 0
3 4 5 11 12 15 19 20 21 22 24 25 29 30 32 33 35 37 38 0
1 4 5 6 12 13 16 20 21 22 23 25 26 30 31 33 34 36 38 0
2 5 6 7 13 14 17 20 21 22 23 24 26 27 31 32 34 35 37 0
3 6 7 8 14 15 18 21 22 23 24 25 27 28 32 33 35 36 38 0
4 7 8 9 15 16 19 20 22 23 24 25 26 28 29 33 34 36 37 0
1 5 8 9 10 16 17 21 23 24 25 26 27 29 30 34 35 37 38 0
2 6 9 10 11 17 18 20 22 24 25 26 27 28 30 31 35 36 38 0
3 7 10 11 12 18 19 20 21 23 25 26 27 28 29 31 32 36 37 0
1 4 8 11 12 13 19 21 22 24 26 27 28 29 30 32 33 37 38 0
1 2 5 9 12 13 14 20 22 23 25 27 28 29 30 31 33 34 38 0
2 3 6 10 13 14 15 20 21 23 24 26 28 29 30 31 32 34 35 0
5 6 7 10 14 17 18 23 24 26 27 28 29 30 32 34 35 37 38 0
6 7 8 11 15 18 19 20 24 25 27 28 29 30 31 33 35 36 38 0
1 7 8 9 12 16 19 20 21 25 26 28 29 30 31 32 34 36 37 0
1 2 8 9 10 13 17 21 22 26 27 29 30 31 32 33 35 37 38 0
2 3 9 10 11 14 18 20 22 23 27 28 30 31 32 33 34 36 38 0
3 4 10 11 12 15 19 20 21 23 24 28 29 31 32 33 34 35 37 0
1 4 5 11 12 13 16 21 22 24 25 29 30 32 33 34 35 36 38 0
2 5 6 12 13 14 17 20 22 23 25 26 30 31 33 34 35 36 37 0
3 6 7 13 14 15 18 21 23 24 26 27 31 32 34 35 36 37 38 0
4 7 8 14 15 16 19 20 22 24 25 27 28 32 33 35 36 37 38 0
1 5 8 9 15 16 17 20 21 23 25 26 28 29 33 34 36 37 38 0
2 6 9 10 16 17 18 20 21 22 24 26 27 29 30 34 35 37 38 0
3 7 10 11 17 18 19 20 21 22 23 25 27 28 30 31 35 36 38 0
1 4 8 11 12 18 19 20 21 22 23 24 26 28 29 31 32 36 37 0
1 2 5 9 12 13 19 21 22 23 24 25 27 29 30 32 33 37 38 0
1 2 3 6 10 13 14 20 22 23 24 25 26 28 30 31 33 34 38 0
2 3 4 7 11 14 15 20 21 23 24 25 26 27 29 31 32 34 35 0
3 4 5 8 12 15 16 21 22 24 25 26 27 28 30 32 33 35 36 0
4 5 6 9 13 16 17 22 23 25 26 27 28 29 31 33 34 36 37 0
3 6 7 11 14 15 21 22 23 24 27 29 31 32 33 34 35 0
4 7 8 12 15 16 22 23 24 25 28 30 32 33 34 35 36 0
5 8 9 13 16 17 23 24 25 26 29 31 33 34 35 36 37 0
6 9 10 14 17 18 24 25 26 27 30 32 34 35 36 37 38 0
7 10 11 15 18 19 20 25 26 27 28 31 33 35 36 37 38 0
1 8 11 12 16 19 20 21 26 27 28 29 32 34 36 37 38 0
1 2 9 12 13 17 20 21 22 27 28 29 30 33 35 37 38 0
2 3 10 13 14 18 20 21 22 23 28 29 30 31 34 36 38 0
3 4 11 14 15 19 20 21 22 23 24 29 30 31 32 35 37 0
1 4 5 12 15 16 21 22 23 24 25 30 31 32 33 36 38 0
2 5 6 13 16 17 20 22 23 24 25 26 31 32 33 34 37 0
3 6 7 14 17 18 21 23 24 25 26 27 32 33 34 35 38 0
4 7 8 15 18 19 20 22 24 25 26 27 28 33 34 35 36 0
1 5 8 9 16 19 21 23 25 26 27 28 29 34 35 36 37 0
1 2 6 9 10 17 22 24 26 27 28 29 30 35 36 37 38 0
2 3 7 10 11 18 20 23 25 27 28 29 30 31 36 37 38 0
3 4 8 11 12 19 20 21 24 26 28 29 30 31 32 37 38 0
1 4 5 9 12 13 20 21 22 25 27 29 30 31 32 33 38 0
2 5 6 10 13 14 20 21 22 23 26 28 30 31 32 33 34 0
6 7 10 14 15 18 24 25 26 27 28 30 32 35 36 37 38 0
7 8 11 15 16 19 20 25 26 27 28 29 31 33 36 37 38 0
1 8 9 12 16 17 20 21 26 27 28 29 30 32 34 37 38 0
2 9 10 13 17 18 20 21 22 27 28 29 30 31 33 35 38 0
3 10 11 14 18 19 20 21 22 23 28 29 30 31 32 34 36 0
1 4 11 12 15 19 21 22 23 24 29 30 31 32 33 35 37 0
1 2 5 12 13 16 22 23 24 25 30 31 32 33 34 36 38 0
2 3 6 13 14 17 20 23 24 25 26 31 32 33 34 35 37 0
3 4 7 14 15 18 21 24 25 26 27 32 33 34 35 36 38 0
4 5 8 15 16 19 20 22 25 26 27 28 33 34 35 36 37 0
1 5 6 9 16 17 21 23 26 27 28 29 34 35 36 37 38 0
2 6 7 10 17 18 20 22 24 27 28 29 30 35 36 37 38 0
3 7 8 11 18 19 20 21 23 25 28 29 30 31 36 37 38 0
1 4 8 9 12 19 20 21 22 24 26 29 30 31 32 37 38 0
1 2 5 9 10 13 20 21 22 23 25 27 30 31 32 33 38 0
2 3 6 10 11 14 20 21 22 23 24 26 28 31 32 33 34 0
3 4 7 11 12 15 21 22 23 24 25 27 29 32 33 34 35 0
4 5 8 12 13 16 22 23 24 25 26 28 30 33 34 35 36 0
5 6 9 13 14 17 23 24 25 26 27 29 31 34 35 36 37 0
3 5 7 10 11 14 16 18 21 27 28 29 30 31 32 37 38 0
4 6 8 11 12 15 17 19 20 22 28 29 30 31 32 33 38 0
1 5 7 9 12 13 16 18 20 21 23 29 30 31 32 33 34 0
2 6 8 10 13 14 17 19 21 22 24 30 31 32 33 34 35 0
1 3 7 9 11 14 15 18 22 23 25 31 32 33 34 35 36 0
2 4 8 10 12 15 16 19 23 24 26 32 33 34 35 36 37 0
1 3 5 9 11 13 16 17 24 25 27 33 34 35 36 37 38 0
2 4 6 10 12 14 17 18 20 25 26 28 34 35 36 37 38 0
3 5 7 11 13 15 18 19 20 21 26 27 29 35 36 37 38 0
1 4 6 8 12 14 16 19 20 21 22 27 28 30 36 37 38 0
1 2 5 7 9 13 15 17 20 21 22 23 28 29 31 37 38 0
2 3 6 8 10 14 16 18 20 21 22 23 24 29 30 32 38 0
3 4 7 9 11 15 17 19 20 21 22 23 24 25 30 31 33 0
1 4 5 8 10 12 16 18 21 22 23 24 25 26 31 32 34 0
2 5 6 9 11 13 17 19 22 23 24 25 26 27 32 33 35 0
1 3 6 7 10 12 14 18 23 24 25 26 27 28 33 34 36 0
2 4 7 8 11 13 15 19 24 25 26 27 28 29 34 35 37 0
1 3 5 8 9 12 14 16 25 26 27 28 29 30 35 36 38 0
2 4 6 9 10 13 15 17 20 26 27 28 29 30 31 36 37 0
3 5 7 10 11 14 16 18 21 22 27 28 29 30 31 32 38 0
4 6 8 11 12 15 17 19 20 22 23 28 29 30 31 32 33 0
1 5 7 9 12 13 16 18 21 23 24 29 30 31 32 33 34 0
2 6 8 10 13 14 17 19 22 24 25 30 31 32 33 34 35 0
1 3 7 9 11 14 15 18 23 25 26 31 32 33 34 35 36 0
2 4 8 10 12 15 16 19 24 26 27 32 33 34 35 36 37 0
1 3 5 9 11 13 16 17 25 27 28 33 34 35 36 37 38 0
2 4 6 10 12 14 17 18 20 26 28 29 34 35 36 37 38 0
3 5 7 11 13 15 18 19 20 21 27 29 30 35 36 37 38 0
1 4 6 8 12 14 16 19 20 21 22 28 30 31 36 37 38 0
1 2 5 7 9 13 15 17 20 21 22 23 29 31 32 37 38 0
2 3 6 8 10 14 16 18 20 21 22 23 24 30 32 33 38 0
3 4 7 9 11 15 17 19 20 21 22 23 24 25 31 33 34 0
1 4 5 8 10 12 16 18 21 22 23 24 25 26 32 34 35 0
2 5 6 9 11 13 17 19 22 23 24 25 26 27 33 35 36 0
1 3 6 7 10 12 14 18 23 24 25 26 27 28 34 36 37 0
2 4 7 8 11 13 15 19 24 25 26 27 28 29 35 37 38 0
1 3 5 8 9 12 14 16 20 25 26 27 28 29 30 36 38 0
2 4 6 9 10 13 15 17 20 21 26 27 28 29 30 31 37 0
3 6 7 12 15 16 18 21 23 24 25 27 30 32 33 35 37 38 0
4 7 8 13 16 17 19 20 22 24 25 26 28 31 33 34 36 38 0
1 5 8 9 14 17 18 20 21 23 25 26 27 29 32 34 35 37 0
2 6 9 10 15 18 19 21 22 24 26 27 28 30 33 35 36 38 0
1 3 7 10 11 16 19 20 22 23 25 27 28 29 31 34 36 37 0
1 2 4 8 11 12 17 21 23 24 26 28 29 30 32 35 37 38 0
2 3 5 9 12 13 18 20 22 24 25 27 29 30 31 33 36 38 0
3 4 6 10 13 14 19 20 21 23 25 26 28 30 31 32 34 37 0
1 4 5 7 11 14 15 21 22 24 26 27 29 31 32 33 35 38 0
2 5 6 8 12 15 16 20 22 23 25 27 28 30 32 33 34 36 0
3 6 7 9 13 16 17 21 23 24 26 28 29 31 33 34 35 37 0
4 7 8 10 14 17 18 22 24 25 27 29 30 32 34 35 36 38 0
5 8 9 11 15 18 19 20 23 25 26 28 30 31 33 35 36 37 0
1 6 9 10 12 16 19 21 24 26 27 29 31 32 34 36 37 38 0
1 2 7 10 11 13 17 20 22 25 27 28 30 32 33 35 37 38 0
2 3 8 11 12 14 18 20 21 23 26 28 29 31 33 34 36 38 0
3 4 9 12 13 15 19 20 21 22 24 27 29 30 32 34 35 37 0
1 4 5 10 13 14 16 21 22 23 25 28 30 31 33 35 36 38 0
2 5 6 11 14 15 17 20 22 23 24 26 29 31 32 34 36 37 0
3 5 6 9 14 15 18 21 22 24 26 27 29 32 34 35 36 38 0
4 6 7 10 15 16 19 20 22 23 25 27 28 30 33 35 36 37 0
1 5 7 8 11 16 17 21 23 24 26 28 29 31 34 36 37 38 0
2 6 8 9 12 17 18 20 22 24 25 27 29 30 32 35 37 38 0
3 7 9 10 13 18 19 20 21 23 25 26 28 30 31 33 36 38 0
1 4 8 10 11 14 19 20 21 22 24 26 27 29 31 32 34 37 0
1 2 5 9 11 12 15 21 22 23 25 27 28 30 32 33 35 38 0
2 3 6 10 12 13 16 20 22 23 24 26 28 29 31 33 34 36 0
3 4 7 11 13 14 17 21 23 24 25 27 29 30 32 34 35 37 0
4 5 8 12 14 15 18 22 24 25 26 28 30 31 33 35 36 38 0
5 6 9 13 15 16 19 20 23 25 26 27 29 31 32 34 36 37 0
1 6 7 10 14 16 17 21 24 26 27 28 30 32 33 35 37 38 0
2 7 8 11 15 17 18 20 22 25 27 28 29 31 33 34 36 38 0
3 8 9 12 16 18 19 20 21 23 26 28 29 30 32 34 35 37 0
1 4 9 10 13 17 19 21 22 24 27 29 30 31 33 35 36 38 0
1 2 5 10 11 14 18 20 22 23 25 28 30 31 32 34 36 37 0
2 3 6 11 12 15 19 21 23 24 26 29 31 32 33 35 37 38 0
1 3 4 7 12 13 16 20 22 24 25 27 30 32 33 34 36 38 0
2 4 5 8 13 14 17 20 21 23 25 26 28 31 33 34 35 37 0
7 9 12 14 18 25 26 27 29 30 32 34 36 37 38 0
8 10 13 15 19 20 26 27 28 30 31 33 35 37 38 0
1 9 11 14 16 20 21 27 28 29 31 32 34 36 38 0
2 10 12 15 17 20 21 22 28 29 30 32 33 35 37 0
3 11 13 16 18 21 22 23 29 30 31 33 34 36 38 0
4 12 14 17 19 20 22 23 24 30 31 32 34 35 37 0
1 5 13 15 18 21 23 24 25 31 32 33 35 36 38 0
2 6 14 16 19 20 22 24 25 26 32 33 34 36 37 0
1 3 7 15 17 21 23 25 26 27 33 34 35 37 38 0
2 4 8 16 18 20 22 24 26 27 28 34 35 36 38 0
3 5 9 17 19 20 21 23 25 27 28 29 35 36 37 0
1 4 6 10 18 21 22 24 26 28 29 30 36 37 38 0
2 5 7 11 19 20 22 23 25 27 29 30 31 37 38 0
1 3 6 8 12 20 21 23 24 26 28 30 31 32 38 0
2 4 7 9 13 20 21 22 24 25 27 29 31 32 33 0
3 5 8 10 14 21 22 23 25 26 28 30 32 33 34 0
4 6 9 11 15 22 23 24 26 27 29 31 33 34 35 0
5 7 10 12 16 23 24 25 27 28 30 32 34 35 36 0
6 8 11 13 17 24 25 26 28 29 31 33 35 36 37 0
3 7 9 12 14 21 22 23 25 27 29 30 32 33 34 0
4 8 10 13 15 22 23 24 26 28 30 31 33 34 35 0
5 9 11 14 16 23 24 25 27 29 31 32 34 35 36 0
6 10 12 15 17 24 25 26 28 30 32 33 35 36 37 0
7 11 13 16 18 25 26 27 29 31 33 34 36 37 38 0
8 12 14 17 19 20 26 27 28 30 32 34 35 37 38 0
1 9 13 15 18 20 21 27 28 29 31 33 35 36 38 0
2 10 14 16 19 20 21 22 28 29 30 32 34 36 37 0
1 3 11 15 17 21 22 23 29 30 31 33 35 37 38 0
2 4 12 16 18 20 22 23 24 30 31 32 34 36 38 0
3 5 13 17 19 20 21 23 24 25 31 32 33 35 37 0
1 4 6 14 18 21 22 24 25 26 32 33 34 36 38 0
2 5 7 15 19 20 22 23 25 26 27 33 34 35 37 0
1 3 6 8 16 21 23 24 26 27 28 34 35 36 38 0
2 4 7 9 17 20 22 24 25 27 28 29 35 36 37 0
3 5 8 10 18 21 23 25 26 28 29 30 36 37 38 0
4 6 9 11 19 20 22 24 26 27 29 30 31 37 38 0
1 5 7 10 12 20 21 23 25 27 28 30 31 32 38 0
2 6 8 11 13 20 21 22 24 26 28 29 31 32 33 0
6 7 9 11 14 17 18 24 25 27 30 31 32 33 34 35 36 38 0
7 8 10 12 15 18 19 20 25 26 28 31 32 33 34 35 36 37 0
1 8 9 11 13 16 19 21 26 27 29 32 33 34 35 36 37 38 0
1 2 9 10 12 14 17 20 22 27 28 30 33 34 35 36 37 38 0
2 3 10 11 13 15 18 20 21 23 28 29 31 34 35 36 37 38 0
3 4 11 12 14 16 19 20 21 22 24 29 30 32 35 36 37 38 0
1 4 5 12 13 15 17 20 21 22 23 25 30 31 33 36 37 38 0
2 5 6 13 14 16 18 20 21 22 23 24 26 31 32 34 37 38 0
3 6 7 14 15 17 19 20 21 22 23 24 25 27 32 33 35 38 0
1 4 7 8 15 16 18 20 21 22 23 24 25 26 28 33 34 36 0
2 5 8 9 16 17 19 21 22 23 24 25 26 27 29 34 35 37 0
1 3 6 9 10 17 18 22 23 24 25 26 27 28 30 35 36 38 0
2 4 7 10 11 18 19 20 23 24 25 26 27 28 29 31 36 37 0
1 3 5 8 11 12 19 21 24 25 26 27 28 29 30 32 37 38 0
1 2 4 6 9 12 13 20 22 25 26 27 28 29 30 31 33 38 0
2 3 5 7 10 13 14 20 21 23 26 27 28 29 30 31 32 34 0
3 4 6 8 11 14 15 21 22 24 27 28 29 30 31 32 33 35 0
4 5 7 9 12 15 16 22 23 25 28 29 30 31 32 33 34 36 0
5 6 8 10 13 16 17 23 24 26 29 30 31 32 33 34 35 37 0
3 4 7 10 12 14 15 21 23 24 25 26 27 28 29 32 34 35 0
4 5 8 11 13 15 16 22 24 25 26 27 28 29 30 33 35 36 0
5 6 9 12 14 16 17 23 25 26 27 28 29 30 31 34 36 37 0
6 7 10 13 15 17 18 24 26 27 28 29 30 31 32 35 37 38 0
7 8 11 14 16 18 19 20 25 27 28 29 30 31 32 33 36 38 0
1 8 9 12 15 17 19 20 21 26 28 29 30 31 32 33 34 37 0
1 2 9 10 13 16 18 21 22 27 29 30 31 32 33 34 35 38 0
2 3 10 11 14 17 19 20 22 23 28 30 31 32 33 34 35 36 0
1 3 4 11 12 15 18 21 23 24 29 31 32 33 34 35 36 37 0
2 4 5 12 13 16 19 22 24 25 30 32 33 34 35 36 37 38 0
1 3 5 6 13 14 17 20 23 25 26 31 33 34 35 36 37 38 0
2 4 6 7 14 15 18 20 21 24 26 27 32 34 35 36 37 38 0
3 5 7 8 15 16 19 20 21 22 25 27 28 33 35 36 37 38 0
1 4 6 8 9 16 17 20 21 22 23 26 28 29 34 36 37 38 0
2 5 7 9 10 17 18 20 21 22 23 24 27 29 30 35 37 38 0
3 6 8 10 11 18 19 20 21 22 23 24 25 28 30 31 36 38 0
1 4 7 9 11 12 19 20 21 22 23 24 25 26 29 31 32 37 0
1 2 5 8 10 12 13 21 22 23 24 25 26 27 30 32 33 38 0
2 3 6 9 11 13 14 20 22 23 24 25 26 27 28 31 33 34 0
6 9 11 13 16 17 18 24 26 27 29 32 33 34 35 37 38 0
7 10 12 14 17 18 19 20 25 27 28 30 33 34 35 36 38 0
1 8 11 13 15 18 19 20 21 26 28 29 31 34 35 36 37 0
1 2 9 12 14 16 19 21 22 27 29 30 32 35 36 37 38 0
1 2 3 10 13 15 17 20 22 23 28 30 31 33 36 37 38 0
2 3 4 11 14 16 18 20 21 23 24 29 31 32 34 37 38 0
3 4 5 12 15 17 19 20 21 22 24 25 30 32 33 35 38 0
1 4 5 6 13 16 18 20 21 22 23 25 26 31 33 34 36 0
2 5 6 7 14 17 19 21 22 23 24 26 27 32 34 35 37 0
1 3 6 7 8 15 18 22 23 24 25 27 28 33 35 36 38 0
2 4 7 8 9 16 19 20 23 24 25 26 28 29 34 36 37 0
1 3 5 8 9 10 17 21 24 25 26 27 29 30 35 37 38 0
2 4 6 9 10 11 18 20 22 25 26 27 28 30 31 36 38 0
3 5 7 10 11 12 19 20 21 23 26 27 28 29 31 32 37 0
1 4 6 8 11 12 13 21 22 24 27 28 29 30 32 33 38 0
2 5 7 9 12 13 14 20 22 23 25 28 29 30 31 33 34 0
3 6 8 10 13 14 15 21 23 24 26 29 30 31 32 34 35 0
4 7 9 11 14 15 16 22 24 25 27 30 31 32 33 35 36 0
5 8 10 12 15 16 17 23 25 26 28 31 32 33 34 36 37 0
3 4 5 8 10 12 15 21 22 24 25 26 27 30 32 33 35 0
4 5 6 9 11 13 16 22 23 25 26 27 28 31 33 34 36 0
5 6 7 10 12 14 17 23 24 26 27 28 29 32 34 35 37 0
6 7 8 11 13 15 18 24 25 27 28 29 30 33 35 36 38 0
7 8 9 12 14 16 19 20 25 26 28 29 30 31 34 36 37 0
1 8 9 10 13 15 17 21 26 27 29 30 31 32 35 37 38 0
2 9 10 11 14 16 18 20 22 27 28 30 31 32 33 36 38 0
3 10 11 12 15 17 19 20 21 23 28 29 31 32 33 34 37 0
1 4 11 12 13 16 18 21 22 24 29 30 32 33 34 35 38 0
2 5 12 13 14 17 19 20 22 23 25 30 31 33 34 35 36 0
1 3 6 13 14 15 18 21 23 24 26 31 32 34 35 36 37 0
2 4 7 14 15 16 19 22 24 25 27 32 33 35 36 37 38 0
1 3 5 8 15 16 17 20 23 25 26 28 33 34 36 37 38 0
2 4 6 9 16 17 18 20 21 24 26 27 29 34 35 37 38 0
3 5 7 10 17 18 19 20 21 22 25 27 28 30 35 36 38 0
1 4 6 8 11 18 19 20 21 22 23 26 28 29 31 36 37 0
1 2 5 7 9 12 19 21 22 23 24 27 29 30 32 37 38 0
1 2 3 6 8 10 13 20 22 23 24 25 28 30 31 33 38 0
2 3 4 7 9 11 14 20 21 23 24 25 26 29 31 32 34 0
5 10 11 14 17 18 23 24 25 28 31 32 33 34 35 36 38 0
6 11 12 15 18 19 20 24 25 26 29 32 33 34 35 36 37 0
1 7 12 13 16 19 21 25 26 27 30 33 34 35 36 37 38 0
1 2 8 13 14 17 20 22 26 27 28 31 34 35 36 37 38 0
2 3 9 14 15 18 20 21 23 27 28 29 32 35 36 37 38 0
3 4 10 15 16 19 20 21 22 24 28 29 30 33 36 37 38 0
1 4 5 11 16 17 20 21 22 23 25 29 30 31 34 37 38 0
2 5 6 12 17 18 20 21 22 23 24 26 30 31 32 35 38 0
3 6 7 13 18 19 20 21 22 23 24 25 27 31 32 33 36 0
1 4 7 8 14 19 21 22 23 24 25 26 28 32 33 34 37 0
1 2 5 8 9 15 22 23 24 25 26 27 29 33 34 35 38 0
2 3 6 9 10 16 20 23 24 25 26 27 28 30 34 35 36 0
3 4 7 10 11 17 21 24 25 26 27 28 29 31 35 36 37 0
4 5 8 11 12 18 22 25 26 27 28 29 30 32 36 37 38 0
5 6 9 12 13 19 20 23 26 27 28 29 30 31 33 37 38 0
1 6 7 10 13 14 20 21 24 27 28 29 30 31 32 34 38 0
2 7 8 11 14 15 20 21 22 25 28 29 30 31 32 33 35 0
3 8 9 12 15 16 21 22 23 26 29 30 31 32 33 34 36 0
4 9 10 13 16 17 22 23 24 27 30 31 32 33 34 35 37 0
3 4 7 10 11 16 21 23 24 25 26 27 28 31 34 35 36 0
4 5 8 11 12 17 22 24 25 26 27 28 29 32 35 36 37 0
5 6 9 12 13 18 23 25 26 27 28 29 30 33 36 37 38 0
6 7 10 13 14 19 20 24 26 27 28 29 30 31 34 37 38 0
1 7 8 11 14 15 20 21 25 27 28 29 30 31 32 35 38 0
2 8 9 12 15 16 20 21 22 26 28 29 30 31 32 33 36 0
3 9 10 13 16 17 21 22 23 27 29 30 31 32 33 34 37 0
4 10 11 14 17 18 22 23 24 28 30 31 32 33 34 35 38 0
5 11 12 15 18 19 20 23 24 25 29 31 32 33 34 35 36 0
1 6 12 13 16 19 21 24 25 26 30 32 33 34 35 36 37 0
1 2 7 13 14 17 22 25 26 27 31 33 34 35 36 37 38 0
2 3 8 14 15 18 20 23 26 27 28 32 34 35 36 37 38 0
3 4 9 15 16 19 20 21 24 27 28 29 33 35 36 37 38 0
1 4 5 10 16 17 20 21 22 25 28 29 30 34 36 37 38 0
2 5 6 11 17 18 20 21 22 23 26 29 30 31 35 37 38 0
3 6 7 12 18 19 20 21 22 23 24 27 30 31 32 36 38 0
1 4 7 8 13 19 20 21 22 23 24 25 28 31 32 33 37 0
1 2 5 8 9 14 21 22 23 24 25 26 29 32 33 34 38 0
2 3 6 9 10 15 20 22 23 24 25 26 27 30 33 34 35 0
5 9 11 13 16 18 23 24 25 27 33 34 35 36 38 0
6 10 12 14 17 19 20 24 25 26 28 34 35 36 37 0
1 7 11 13 15 18 21 25 26 27 29 35 36 37 38 0
2 8 12 14 16 19 20 22 26 27 28 30 36 37 38 0
1 3 9 13 15 17 20 21 23 27 28 29 31 37 38 0
2 4 10 14 16 18 20 21 22 24 28 29 30 32 38 0
3 5 11 15 17 19 20 21 22 23 25 29 30 31 33 0
1 4 6 12 16 18 21 22 23 24 26 30 31 32 34 0
2 5 7 13 17 19 22 23 24 25 27 31 32 33 35 0
1 3 6 8 14 18 23 24 25 26 28 32 33 34 36 0
2 4 7 9 15 19 24 25 26 27 29 33 34 35 37 0
1 3 5 8 10 16 25 26 27 28 30 34 35 36 38 0
2 4 6 9 11 17 20 26 27 28 29 31 35 36 37 0
3 5 7 10 12 18 21 27 28 29 30 32 36 37 38 0
4 6 8 11 13 19 20 22 28 29 30 31 33 37 38 0
1 5 7 9 12 14 20 21 23 29 30 31 32 34 38 0
2 6 8 10 13 15 20 21 22 24 30 31 32 33 35 0
3 7 9 11 14 16 21 22 23 25 31 32 33 34 36 0
4 8 10 12 15 17 22 23 24 26 32 33 34 35 37 0
3 5 8 10 12 16 21 23 24 25 26 32 34 35 36 0
4 6 9 11 13 17 22 24 25 26 27 33 35 36 37 0
5 7 10 12 14 18 23 25 26 27 28 34 36 37 38 0
6 8 11 13 15 19 20 24 26 27 28 29 35 37 38 0
1 7 9 12 14 16 20 21 25 27 28 29 30 36 38 0
2 8 10 13 15 17 20 21 22 26 28 29 30 31 37 0
3 9 11 14 16 18 21 22 23 27 29 30 31 32 38 0
4 10 12 15 17 19 20 22 23 24 28 30 31 32 33 0
1 5 11 13 16 18 21 23 24 25 29 31 32 33 34 0
2 6 12 14 17 19 22 24 25 26 30 32 33 34 35 0
1 3 7 13 15 18 23 25 26 27 31 33 34 35 36 0
2 4 8 14 16 19 24 26 27 28 32 34 35 36 37 0
1 3 5 9 15 17 25 27 28 29 33 35 36 37 38 0
2 4 6 10 16 18 20 26 28 29 30 34 36 37 38 0
3 5 7 11 17 19 20 21 27 29 30 31 35 37 38 0
1 4 6 8 12 18 20 21 22 28 30 31 32 36 38 0
2 5 7 9 13 19 20 21 22 23 29 31 32 33 37 0
1 3 6 8 10 14 21 22 23 24 30 32 33 34 38 0
2 4 7 9 11 15 20 22 23 24 25 31 33 34 35 0
5 6 11 14 17 18 23 24 25 26 29 31 32 34 35 36 37 38 0
6 7 12 15 18 19 20 24 25 26 27 30 32 33 35 36 37 38 0
1 7 8 13 16 19 20 21 25 26 27 28 31 33 34 36 37 38 0
1 2 8 9 14 17 20 21 22 26 27 28 29 32 34 35 37 38 0
2 3 9 10 15 18 20 21 22 23 27 28 29 30 33 35 36 38 0
3 4 10 11 16 19 20 21 22 23 24 28 29 30 31 34 36 37 0
1 4 5 11 12 17 21 22 23 24 25 29 30 31 32 35 37 38 0
2 5 6 12 13 18 20 22 23 24 25 26 30 31 32 33 36 38 0
3 6 7 13 14 19 20 21 23 24 25 26 27 31 32 33 34 37 0
1 4 7 8 14 15 21 22 24 25 26 27 28 32 33 34 35 38 0
2 5 8 9 15 16 20 22 23 25 26 27 28 29 33 34 35 36 0
3 6 9 10 16 17 21 23 24 26 27 28 29 30 34 35 36 37 0
4 7 10 11 17 18 22 24 25 27 28 29 30 31 35 36 37 38 0
5 8 11 12 18 19 20 23 25 26 28 29 30 31 32 36 37 38 0
1 6 9 12 13 19 20 21 24 26 27 29 30 31 32 33 37 38 0
1 2 7 10 13 14 20 21 22 25 27 28 30 31 32 33 34 38 0
2 3 8 11 14 15 20 21 22 23 26 28 29 31 32 33 34 35 0
3 4 9 12 15 16 21 22 23 24 27 29 30 32 33 34 35 36 0
4 5 10 13 16 17 22 23 24 25 28 30 31 33 34 35 36 37 0
3 4 7 10 15 16 21 22 23 24 25 27 28 30 33 34 35 36 0
4 5 8 11 16 17 22 23 24 25 26 28 29 31 34 35 36 37 0
5 6 9 12 17 18 23 24 25 26 27 29 30 32 35 36 37 38 0
6 7 10 13 18 19 20 24 25 26 27 28 30 31 33 36 37 38 0
1 7 8 11 14 19 20 21 25 26 27 28 29 31 32 34 37 38 0
1 2 8 9 12 15 20 21 22 26 27 28 29 30 32 33 35 38 0
2 3 9 10 13 16 20 21 22 23 27 28 29 30 31 33 34 36 0
3 4 10 11 14 17 21 22 23 24 28 29 30 31 32 34 35 37 0
4 5 11 12 15 18 22 23 24 25 29 30 31 32 33 35 36 38 0
5 6 12 13 16 19 20 23 24 25 26 30 31 32 33 34 36 37 0
1 6 7 13 14 17 21 24 25 26 27 31 32 33 34 35 37 38 0
2 7 8 14 15 18 20 22 25 26 27 28 32 33 34 35 36 38 0
3 8 9 15 16 19 20 21 23 26 27 28 29 33 34 35 36 37 0
1 4 9 10 16 17 21 22 24 27 28 29 30 34 35 36 37 38 0
2 5 10 11 17 18 20 22 23 25 28 29 30 31 35 36 37 38 0
3 6 11 12 18 19 20 21 23 24 26 29 30 31 32 36 37 38 0
1 4 7 12 13 19 20 21 22 24 25 27 30 31 32 33 37 38 0
1 2 5 8 13 14 20 21 22 23 25 26 28 31 32 33 34 38 0
2 3 6 9 14 15 20 21 22 23 24 26 27 29 32 33 34 35 0
5 6 10 13 16 18 23 25 26 28 30 31 33 34 36 37 38 0
6 7 11 14 17 19 20 24 26 27 29 31 32 34 35 37 38 0
1 7 8 12 15 18 20 21 25 27 28 30 32 33 35 36 38 0
2 8 9 13 16 19 20 21 22 26 28 29 31 33 34 36 37 0
1 3 9 10 14 17 21 22 23 27 29 30 32 34 35 37 38 0
2 4 10 11 15 18 20 22 23 24 28 30 31 33 35 36 38 0
3 5 11 12 16 19 20 21 23 24 25 29 31 32 34 36 37 0
1 4 6 12 13 17 21 22 24 25 26 30 32 33 35 37 38 0
2 5 7 13 14 18 20 22 23 25 26 27 31 33 34 36 38 0
3 6 8 14 15 19 20 21 23 24 26 27 28 32 34 35 37 0
1 4 7 9 15 16 21 22 24 25 27 28 29 33 35 36 38 0
2 5 8 10 16 17 20 22 23 25 26 28 29 30 34 36 37 0
3 6 9 11 17 18 21 23 24 26 27 29 30 31 35 37 38 0
4 7 10 12 18 19 20 22 24 25 27 28 30 31 32 36 38 0
1 5 8 11 13 19 20 21 23 25 26 28 29 31 32 33 37 0
1 2 6 9 12 14 21 22 24 26 27 29 30 32 33 34 38 0
2 3 7 10 13 15 20 22 23 25 27 28 30 31 33 34 35 0
3 4 8 11 14 16 21 23 24 26 28 29 31 32 34 35 36 0
4 5 9 12 15 17 22 24 25 27 29 30 32 33 35 36 37 0
3 5 8 11 15 16 21 22 23 25 26 28 29 31 33 34 36 0
4 6 9 12 16 17 22 23 24 26 27 29 30 32 34 35 37 0
5 7 10 13 17 18 23 24 25 27 28 30 31 33 35 36 38 0
6 8 11 14 18 19 20 24 25 26 28 29 31 32 34 36 37 0
1 7 9 12 15 19 21 25 26 27 29 30 32 33 35 37 38 0
1 2 8 10 13 16 20 22 26 27 28 30 31 33 34 36 38 0
2 3 9 11 14 17 20 21 23 27 28 29 31 32 34 35 37 0
3 4 10 12 15 18 21 22 24 28 29 30 32 33 35 36 38 0
4 5 11 13 16 19 20 22 23 25 29 30 31 33 34 36 37 0
1 5 6 12 14 17 21 23 24 26 30 31 32 34 35 37 38 0
2 6 7 13 15 18 20 22 24 25 27 31 32 33 35 36 38 0
3 7 8 14 16 19 20 21 23 25 26 28 32 33 34 36 37 0
1 4 8 9 15 17 21 22 24 26 27 29 33 34 35 37 38 0
2 5 9 10 16 18 20 22 23 25 27 28 30 34 35 36 38 0
3 6 10 11 17 19 20 21 23 24 26 28 29 31 35 36 37 0
1 4 7 11 12 18 21 22 24 25 27 29 30 32 36 37 38 0
2 5 8 12 13 19 20 22 23 25 26 28 30 31 33 37 38 0
1 3 6 9 13 14 20 21 23 24 26 27 29 31 32 34 38 0
2 4 7 10 14 15 20 21 22 24 25 27 28 30 32 33 35 0
5 7 11 14 17 18 23 24 25 27 29 30 31 32 33 34 35 36 38 0
6 8 12 15 18 19 20 24 25 26 28 30 31 32 33 34 35 36 37 0
1 7 9 13 16 19 21 25 26 27 29 31 32 33 34 35 36 37 38 0
1 2 8 10 14 17 20 22 26 27 28 30 32 33 34 35 36 37 38 0
2 3 9 11 15 18 20 21 23 27 28 29 31 33 34 35 36 37 38 0
3 4 10 12 16 19 20 21 22 24 28 29 30 32 34 35 36 37 38 0
1 4 5 11 13 17 20 21 22 23 25 29 30 31 33 35 36 37 38 0
2 5 6 12 14 18 20 21 22 23 24 26 30 31 32 34 36 37 38 0
3 6 7 13 15 19 20 21 22 23 24 25 27 31 32 33 35 37 38 0
1 4 7 8 14 16 20 21 22 23 24 25 26 28 32 33 34 36 38 0
2 5 8 9 15 17 20 21 22 23 24 25 26 27 29 33 34 35 37 0
3 6 9 10 16 18 21 22 23 24 25 26 27 28 30 34 35 36 38 0
4 7 10 11 17 19 20 22 23 24 25 26 27 28 29 31 35 36 37 0
1 5 8 11 12 18 21 23 24 25 26 27 28 29 30 32 36 37 38 0
2 6 9 12 13 19 20 22 24 25 26 27 28 29 30 31 33 37 38 0
1 3 7 10 13 14 20 21 23 25 26 27 28 29 30 31 32 34 38 0
2 4 8 11 14 15 20 21 22 24 26 27 28 29 30 31 32 33 35 0
3 5 9 12 15 16 21 22 23 25 27 28 29 30 31 32 33 34 36 0
4 6 10 13 16 17 22 23 24 26 28 29 30 31 32 33 34 35 37 0
3 4 7 10 14 16 21 23 24 25 26 27 28 29 30 32 34 35 36 0
4 5 8 11 15 17 22 24 25 26 27 28 29 30 31 33 35 36 37 0
5 6 9 12 16 18 23 25 26 27 28 29 30 31 32 34 36 37 38 0
6 7 10 13 17 19 20 24 26 27 28 29 30 31 32 33 35 37 38 0
1 7 8 11 14 18 20 21 25 27 28 29 30 31 32 33 34 36 38 0
2 8 9 12 15 19 20 21 22 26 28 29 30 31 32 33 34 35 37 0
1 3 9 10 13 16 21 22 23 27 29 30 31 32 33 34 35 36 38 0
2 4 10 11 14 17 20 22 23 24 28 30 31 32 33 34 35 36 37 0
3 5 11 12 15 18 21 23 24 25 29 31 32 33 34 35 36 37 38 0
4 6 12 13 16 19 20 22 24 25 26 30 32 33 34 35 36 37 38 0
1 5 7 13 14 17 20 21 23 25 26 27 31 33 34 35 36 37 38 0
2 6 8 14 15 18 20 21 22 24 26 27 28 32 34 35 36 37 38 0
3 7 9 15 16 19 20 21 22 23 25 27 28 29 33 35 36 37 38 0
1 4 8 10 16 17 20 21 22 23 24 26 28 29 30 34 36 37 38 0
2 5 9 11 17 18 20 21 22 23 24 25 27 29 30 31 35 37 38 0
3 6 10 12 18 19 20 21 22 23 24 25 26 28 30 31 32 36 38 0
1 4 7 11 13 19 20 21 22 23 24 25 26 27 29 31 32 33 37 0
1 2 5 8 12 14 21 22 23 24 25 26 27 28 30 32 33 34 38 0
2 3 6 9 13 15 20 22 23 24 25 26 27 28 29 31 33 34 35 0
5 6 7 11 14 17 18 23 24 26 27 29 31 32 34 35 37 38 0
6 7 8 12 15 18 19 20 24 25 27 28 30 32 33 35 36 38 0
1 7 8 9 13 16 19 20 21 25 26 28 29 31 33 34 36 37 0
1 2 8 9 10 14 17 21 22 26 27 29 30 32 34 35 37 38 0
2 3 9 10 11 15 18 20 22 23 27 28 30 31 33 35 36 38 0
3 4 10 11 12 16 19 20 21 23 24 28 29 31 32 34 36 37 0
1 4 5 11 12 13 17 21 22 24 25 29 30 32 33 35 37 38 0
2 5 6 12 13 14 18 20 22 23 25 26 30 31 33 34 36 38 0
3 6 7 13 14 15 19 20 21 23 24 26 27 31 32 34 35 37 0
1 4 7 8 14 15 16 21 22 24 25 27 28 32 33 35 36 38 0
2 5 8 9 15 16 17 20 22 23 25 26 28 29 33 34 36 37 0
3 6 9 10 16 17 18 21 23 24 26 27 29 30 34 35 37 38 0
4 7 10 11 17 18 19 20 22 24 25 27 28 30 31 35 36 38 0
1 5 8 11 12 18 19 20 21 23 25 26 28 29 31 32 36 37 0
1 2 6 9 12 13 19 21 22 24 26 27 29 30 32 33 37 38 0
1 2 3 7 10 13 14 20 22 23 25 27 28 30 31 33 34 38 0
2 3 4 8 11 14 15 20 21 23 24 26 28 29 31 32 34 35 0
3 4 5 9 12 15 16 21 22 24 25 27 29 30 32 33 35 36 0
4 5 6 10 13 16 17 22 23 25 26 28 30 31 33 34 36 37 0
3 4 7 10 14 15 16 21 22 24 25 27 28 30 32 33 35 36 0
4 5 8 11 15 16 17 22 23 25 26 28 29 31 33 34 36 37 0
5 6 9 12 16 17 18 23 24 26 27 29 30 32 34 35 37 38 0
6 7 10 13 17 18 19 20 24 25 27 28 30 31 33 35 36 38 0
1 7 8 11 14 18 19 20 21 25 26 28 29 31 32 34 36 37 0
1 2 8 9 12 15 19 21 22 26 27 29 30 32 33 35 37 38 0
1 2 3 9 10 13 16 20 22 23 27 28 30 31 33 34 36 38 0
2 3 4 10 11 14 17 20 21 23 24 28 29 31 32 34 35 37 0
3 4 5 11 12 15 18 21 22 24 25 29 30 32 33 35 36 38 0
4 5 6 12 13 16 19 20 22 23 25 26 30 31 33 34 36 37 0
1 5 6 7 13 14 17 21 23 24 26 27 31 32 34 35 37 38 0
2 6 7 8 14 15 18 20 22 24 25 27 28 32 33 35 36 38 0
3 7 8 9 15 16 19 20 21 23 25 26 28 29 33 34 36 37 0
1 4 8 9 10 16 17 21 22 24 26 27 29 30 34 35 37 38 0
2 5 9 10 11 17 18 20 22 23 25 27 28 30 31 35 36 38 0
3 6 10 11 12 18 19 20 21 23 24 26 28 29 31 32 36 37 0
1 4 7 11 12 13 19 21 22 24 25 27 29 30 32 33 37 38 0
1 2 5 8 12 13 14 20 22 23 25 26 28 30 31 33 34 38 0
2 3 6 9 13 14 15 20 21 23 24 26 27 29 31 32 34 35 0
5 6 10 13 16 17 18 23 24 26 28 29 30 31 32 33 34 35 37 38 0
6 7 11 14 17 18 19 20 24 25 27 29 30 31 32 33 34 35 36 38 0
1 7 8 12 15 18 19 20 21 25 26 28 30 31 32 33 34 35 36 37 0
1 2 8 9 13 16 19 21 22 26 27 29 31 32 33 34 35 36 37 38 0
1 2 3 9 10 14 17 20 22 23 27 28 30 32 33 34 35 36 37 38 0
2 3 4 10 11 15 18 20 21 23 24 28 29 31 33 34 35 36 37 38 0
3 4 5 11 12 16 19 20 21 22 24 25 29 30 32 34 35 36 37 38 0
1 4 5 6 12 13 17 20 21 22 23 25 26 30 31 33 35 36 37 38 0
2 5 6 7 13 14 18 20 21 22 23 24 26 27 31 32 34 36 37 38 0
3 6 7 8 14 15 19 20 21 22 23 24 25 27 28 32 33 35 37 38 0
1 4 7 8 9 15 16 20 21 22 23 24 25 26 28 29 33 34 36 38 0
2 5 8 9 10 16 17 20 21 22 23 24 25 26 27 29 30 34 35 37 0
3 6 9 10 11 17 18 21 22 23 24 25 26 27 28 30 31 35 36 38 0
4 7 10 11 12 18 19 20 22 23 24 25 26 27 28 29 31 32 36 37 0
1 5 8 11 12 13 19 21 23 24 25 26 27 28 29 30 32 33 37 38 0
1 2 6 9 12 13 14 20 22 24 25 26 27 28 29 30 31 33 34 38 0
2 3 7 10 13 14 15 20 21 23 25 26 27 28 29 30 31 32 34 35 0
3 4 8 11 14 15 16 21 22 24 26 27 28 29 30 31 32 33 35 36 0
4 5 9 12 15 16 17 22 23 25 27 28 29 30 31 32 33 34 36 37 0
3 4 5 8 11 15 16 21 22 24 25 26 27 28 29 30 31 33 35 36 0
4 5 6 9 12 16 17 22 23 25 26 27 28 29 30 31 32 34 36 37 0
5 6 7 10 13 17 18 23 24 26 27 28 29 30 31 32 33 35 37 38 0
6 7 8 11 14 18 19 20 24 25 27 28 29 30 31 32 33 34 36 38 0
1 7 8 9 12 15 19 20 21 25 26 28 29 30 31 32 33 34 35 37 0
1 2 8 9 10 13 16 21 22 26 27 29 30 31 32 33 34 35 36 38 0
2 3 9 10 11 14 17 20 22 23 27 28 30 31 32 33 34 35 36 37 0
3 4 10 11 12 15 18 21 23 24 28 29 31 32 33 34 35 36 37 38 0
4 5 11 12 13 16 19 20 22 24 25 29 30 32 33 34 35 36 37 38 0
1 5 6 12 13 14 17 20 21 23 25 26 30 31 33 34 35 36 37 38 0
2 6 7 13 14 15 18 20 21 22 24 26 27 31 32 34 35 36 37 38 0
3 7 8 14 15 16 19 20 21 22 23 25 27 28 32 33 35 36 37 38 0
1 4 8 9 15 16 17 20 21 22 23 24 26 28 29 33 34 36 37 38 0
2 5 9 10 16 17 18 20 21 22 23 24 25 27 29 30 34 35 37 38 0
3 6 10 11 17 18 19 20 21 22 23 24 25 26 28 30 31 35 36 38 0
1 4 7 11 12 18 19 20 21 22 23 24 25 26 27 29 31 32 36 37 0
1 2 5 8 12 13 19 21 22 23 24 25 26 27 28 30 32 33 37 38 0
1 2 3 6 9 13 14 20 22 23 24 25 26 27 28 29 31 33 34 38 0
2 3 4 7 10 14 15 20 21 23 24 25 26 27 28 29 30 32 34 35 0
5 8 10 13 15 18 23 24 25 26 28 30 31 33 35 36 37 38 0
6 9 11 14 16 19 20 24 25 26 27 29 31 32 34 36 37 38 0
1 7 10 12 15 17 20 21 25 26 27 28 30 32 33 35 37 38 0
2 8 11 13 16 18 20 21 22 26 27 28 29 31 33 34 36 38 0
3 9 12 14 17 19 20 21 22 23 27 28 29 30 32 34 35 37 0
1 4 10 13 15 18 21 22 23 24 28 29 30 31 33 35 36 38 0
2 5 11 14 16 19 20 22 23 24 25 29 30 31 32 34 36 37 0
1 3 6 12 15 17 21 23 24 25 26 30 31 32 33 35 37 38 0
2 4 7 13 16 18 20 22 24 25 26 27 31 32 33 34 36 38 0
3 5 8 14 17 19 20 21 23 25 26 27 28 32 33 34 35 37 0
1 4 6 9 15 18 21 22 24 26 27 28 29 33 34 35 36 38 0
2 5 7 10 16 19 20 22 23 25 27 28 29 30 34 35 36 37 0
1 3 6 8 11 17 21 23 24 26 28 29 30 31 35 36 37 38 0
2 4 7 9 12 18 20 22 24 25 27 29 30 31 32 36 37 38 0
3 5 8 10 13 19 20 21 23 25 26 28 30 31 32 33 37 38 0
1 4 6 9 11 14 20 21 22 24 26 27 29 31 32 33 34 38 0
2 5 7 10 12 15 20 21 22 23 25 27 28 30 32 33 34 35 0
3 6 8 11 13 16 21 22 23 24 26 28 29 31 33 34 35 36 0
4 7 9 12 14 17 22 23 24 25 27 29 30 32 34 35 36 37 0
5 8 9 11 14 17 18 23 24 25 26 31 32 33 34 35 36 37 38 0
6 9 10 12 15 18 19 20 24 25 26 27 32 33 34 35 36 37 38 0
1 7 10 11 13 16 19 20 21 25 26 27 28 33 34 35 36 37 38 0
1 2 8 11 12 14 17 20 21 22 26 27 28 29 34 35 36 37 38 0
2 3 9 12 13 15 18 20 21 22 23 27 28 29 30 35 36 37 38 0
3 4 10 13 14 16 19 20 21 22 23 24 28 29 30 31 36 37 38 0
1 4 5 11 14 15 17 20 21 22 23 24 25 29 30 31 32 37 38 0
2 5 6 12 15 16 18 20 21 22 23 24 25 26 30 31 32 33 38 0
3 6 7 13 16 17 19 20 21 22 23 24 25 26 27 31 32 33 34 0
1 4 7 8 14 17 18 21 22 23 24 25 26 27 28 32 33 34 35 0
2 5 8 9 15 18 19 22 23 24 25 26 27 28 29 33 34 35 36 0
1 3 6 9 10 16 19 23 24 25 26 27 28 29 30 34 35 36 37 0
1 2 4 7 10 11 17 24 25 26 27 28 29 30 31 35 36 37 38 0
2 3 5 8 11 12 18 20 25 26 27 28 29 30 31 32 36 37 38 0
3 4 6 9 12 13 19 20 21 26 27 28 29 30 31 32 33 37 38 0
1 4 5 7 10 13 14 20 21 22 27 28 29 30 31 32 33 34 38 0
2 5 6 8 11 14 15 20 21 22 23 28 29 30 31 32 33 34 35 0
3 6 7 9 12 15 16 21 22 23 24 29 30 31 32 33 34 35 36 0
4 7 8 10 13 16 17 22 23 24 25 30 31 32 33 34 35 36 37 0
3 4 7 10 12 13 16 21 22 23 24 25 26 27 28 33 34 35 36 0
4 5 8 11 13 14 17 22 23 24 25 26 27 28 29 34 35 36 37 0
5 6 9 12 14 15 18 23 24 25 26 27 28 29 30 35 36 37 38 0
6 7 10 13 15 16 19 20 24 25 26 27 28 29 30 31 36 37 38 0
1 7 8 11 14 16 17 20 21 25 26 27 28 29 30 31 32 37 38 0
2 8 9 12 15 17 18 20 21 22 26 27 28 29 30 31 32 33 38 0
3 9 10 13 16 18 19 20 21 22 23 27 28 29 30 31 32 33 34 0
1 4 10 11 14 17 19 21 22 23 24 28 29 30 31 32 33 34 35 0
1 2 5 11 12 15 18 22 23 24 25 29 30 31 32 33 34 35 36 0
2 3 6 12 13 16 19 23 24 25 26 30 31 32 33 34 35 36 37 0
1 3 4 7 13 14 17 24 25 26 27 31 32 33 34 35 36 37 38 0
2 4 5 8 14 15 18 20 25 26 27 28 32 33 34 35 36 37 38 0
3 5 6 9 15 16 19 20 21 26 27 28 29 33 34 35 36 37 38 0
1 4 6 7 10 16 17 20 21 22 27 28 29 30 34 35 36 37 38 0
2 5 7 8 11 17 18 20 21 22 23 28 29 30 31 35 36 37 38 0
3 6 8 9 12 18 19 20 21 22 23 24 29 30 31 32 36 37 38 0
1 4 7 9 10 13 19 20 21 22 23 24 25 30 31 32 33 37 38 0
1 2 5 8 10 11 14 20 21 22 23 24 25 26 31 32 33 34 38 0
2 3 6 9 11 12 15 20 21 22 23 24 25 26 27 32 33 34 35 0
3 4 6 11 12 14 17 18 21 24 26 29 32 34 35 37 38 0
4 5 7 12 13 15 18 19 20 22 25 27 30 33 35 36 38 0
1 5 6 8 13 14 16 19 20 21 23 26 28 31 34 36 37 0
1 2 6 7 9 14 15 17 21 22 24 27 29 32 35 37 38 0
2 3 7 8 10 15 16 18 20 22 23 25 28 30 33 36 38 0
3 4 8 9 11 16 17 19 20 21 23 24 26 29 31 34 37 0
1 4 5 9 10 12 17 18 21 22 24 25 27 30 32 35 38 0
2 5 6 10 11 13 18 19 20 22 23 25 26 28 31 33 36 0
1 3 6 7 11 12 14 19 21 23 24 26 27 29 32 34 37 0
1 2 4 7 8 12 13 15 22 24 25 27 28 30 33 35 38 0
2 3 5 8 9 13 14 16 20 23 25 26 28 29 31 34 36 0
3 4 6 9 10 14 15 17 21 24 26 27 29 30 32 35 37 0
4 5 7 10 11 15 16 18 22 25 27 28 30 31 33 36 38 0
5 6 8 11 12 16 17 19 20 23 26 28 29 31 32 34 37 0
1 6 7 9 12 13 17 18 21 24 27 29 30 32 33 35 38 0
2 7 8 10 13 14 18 19 20 22 25 28 30 31 33 34 36 0
1 3 8 9 11 14 15 19 21 23 26 29 31 32 34 35 37 0
1 2 4 9 10 12 15 16 22 24 27 30 32 33 35 36 38 0
2 3 5 10 11 13 16 17 20 23 25 28 31 33 34 36 37 0
3 4 7 9 10 15 17 18 21 22 24 25 27 30 33 35 38 0
4 5 8 10 11 16 18 19 20 22 23 25 26 28 31 34 36 0
1 5 6 9 11 12 17 19 21 23 24 26 27 29 32 35 37 0
1 2 6 7 10 12 13 18 22 24 25 27 28 30 33 36 38 0
2 3 7 8 11 13 14 19 20 23 25 26 28 29 31 34 37 0
1 3 4 8 9 12 14 15 21 24 26 27 29 30 32 35 38 0
2 4 5 9 10 13 15 16 20 22 25 27 28 30 31 33 36 0
3 5 6 10 11 14 16 17 21 23 26 28 29 31 32 34 37 0
4 6 7 11 12 15 17 18 22 24 27 29 30 32 33 35 38 0
5 7 8 12 13 16 18 19 20 23 25 28 30 31 33 34 36 0
1 6 8 9 13 14 17 19 21 24 26 29 31 32 34 35 37 0
1 2 7 9 10 14 15 18 22 25 27 30 32 33 35 36 38 0
2 3 8 10 11 15 16 19 20 23 26 28 31 33 34 36 37 0
1 3 4 9 11 12 16 17 21 24 27 29 32 34 35 37 38 0
2 4 5 10 12 13 17 18 20 22 25 28 30 33 35 36 38 0
3 5 6 11 13 14 18 19 20 21 23 26 29 31 34 36 37 0
1 4 6 7 12 14 15 19 21 22 24 27 30 32 35 37 38 0
1 2 5 7 8 13 15 16 20 22 23 25 28 31 33 36 38 0
2 3 6 8 9 14 16 17 20 21 23 24 26 29 32 34 37 0
3 6 11 13 15 18 21 23 24 26 29 31 32 35 36 37 38 0
4 7 12 14 16 19 20 22 24 25 27 30 32 33 36 37 38 0
1 5 8 13 15 17 20 21 23 25 26 28 31 33 34 37 38 0
2 6 9 14 16 18 20 21 22 24 26 27 29 32 34 35 38 0
3 7 10 15 17 19 20 21 22 23 25 27 28 30 33 35 36 0
1 4 8 11 16 18 21 22 23 24 26 28 29 31 34 36 37 0
2 5 9 12 17 19 22 23 24 25 27 29 30 32 35 37 38 0
1 3 6 10 13 18 20 23 24 25 26 28 30 31 33 36 38 0
2 4 7 11 14 19 20 21 24 25 26 27 29 31 32 34 37 0
1 3 5 8 12 15 21 22 25 26 27 28 30 32 33 35 38 0
2 4 6 9 13 16 20 22 23 26 27 28 29 31 33 34 36 0
3 5 7 10 14 17 21 23 24 27 28 29 30 32 34 35 37 0
4 6 8 11 15 18 22 24 25 28 29 30 31 33 35 36 38 0
5 7 9 12 16 19 20 23 25 26 29 30 31 32 34 36 37 0
1 6 8 10 13 17 21 24 26 27 30 31 32 33 35 37 38 0
2 7 9 11 14 18 20 22 25 27 28 31 32 33 34 36 38 0
3 8 10 12 15 19 20 21 23 26 28 29 32 33 34 35 37 0
1 4 9 11 13 16 21 22 24 27 29 30 33 34 35 36 38 0
2 5 10 12 14 17 20 22 23 25 28 30 31 34 35 36 37 0
3 6 8 10 15 18 21 22 23 24 27 28 30 33 35 36 38 0
4 7 9 11 16 19 20 22 23 24 25 28 29 31 34 36 37 0
1 5 8 10 12 17 21 23 24 25 26 29 30 32 35 37 38 0
2 6 9 11 13 18 20 22 24 25 26 27 30 31 33 36 38 0
3 7 10 12 14 19 20 21 23 25 26 27 28 31 32 34 37 0
1 4 8 11 13 15 21 22 24 26 27 28 29 32 33 35 38 0
2 5 9 12 14 16 20 22 23 25 27 28 29 30 33 34 36 0
3 6 10 13 15 17 21 23 24 26 28 29 30 31 34 35 37 0
4 7 11 14 16 18 22 24 25 27 29 30 31 32 35 36 38 0
5 8 12 15 17 19 20 23 25 26 28 30 31 32 33 36 37 0
1 6 9 13 16 18 21 24 26 27 29 31 32 33 34 37 38 0
2 7 10 14 17 19 20 22 25 27 28 30 32 33 34 35 38 0
1 3 8 11 15 18 20 21 23 26 28 29 31 33 34 35 36 0
2 4 9 12 16 19 21 22 24 27 29 30 32 34 35 36 37 0
1 3 5 10 13 17 22 23 25 28 30 31 33 35 36 37 38 0
2 4 6 11 14 18 20 23 24 26 29 31 32 34 36 37 38 0
3 5 7 12 15 19 20 21 24 25 27 30 32 33 35 37 38 0
1 4 6 8 13 16 20 21 22 25 26 28 31 33 34 36 38 0
2 5 7 9 14 17 20 21 22 23 26 27 29 32 34 35 37 0
4 6 11 13 16 18 22 23 25 26 29 31 33 34 36 38 0
5 7 12 14 17 19 20 23 24 26 27 30 32 34 35 37 0
1 6 8 13 15 18 21 24 25 27 28 31 33 35 36 38 0
2 7 9 14 16 19 20 22 25 26 28 29 32 34 36 37 0
1 3 8 10 15 17 21 23 26 27 29 30 33 35 37 38 0
2 4 9 11 16 18 20 22 24 27 28 30 31 34 36 38 0
3 5 10 12 17 19 20 21 23 25 28 29 31 32 35 37 0
1 4 6 11 13 18 21 22 24 26 29 30 32 33 36 38 0
2 5 7 12 14 19 20 22 23 25 27 30 31 33 34 37 0
1 3 6 8 13 15 21 23 24 26 28 31 32 34 35 38 0
2 4 7 9 14 16 20 22 24 25 27 29 32 33 35 36 0
3 5 8 10 15 17 21 23 25 26 28 30 33 34 36 37 0
4 6 9 11 16 18 22 24 26 27 29 31 34 35 37 38 0
5 7 10 12 17 19 20 23 25 27 28 30 32 35 36 38 0
1 6 8 11 13 18 20 21 24 26 28 29 31 33 36 37 0
2 7 9 12 14 19 21 22 25 27 29 30 32 34 37 38 0
1 3 8 10 13 15 20 22 23 26 28 30 31 33 35 38 0
2 4 9 11 14 16 20 21 23 24 27 29 31 32 34 36 0
3 5 10 12 15 17 21 22 24 25 28 30 32 33 35 37 0
4 6 11 12 15 18 22 24 25 26 29 32 33 35 36 38 0
5 7 12 13 16 19 20 23 25 26 27 30 33 34 36 37 0
1 6 8 13 14 17 21 24 26 27 28 31 34 35 37 38 0
2 7 9 14 15 18 20 22 25 27 28 29 32 35 36 38 0
3 8 10 15 16 19 20 21 23 26 28 29 30 33 36 37 0
1 4 9 11 16 17 21 22 24 27 29 30 31 34 37 38 0
2 5 10 12 17 18 20 22 23 25 28 30 31 32 35 38 0
3 6 11 13 18 19 20 21 23 24 26 29 31 32 33 36 0
1 4 7 12 14 19 21 22 24 25 27 30 32 33 34 37 0
1 2 5 8 13 15 22 23 25 26 28 31 33 34 35 38 0
2 3 6 9 14 16 20 23 24 26 27 29 32 34 35 36 0
3 4 7 10 15 17 21 24 25 27 28 30 33 35 36 37 0
4 5 8 11 16 18 22 25 26 28 29 31 34 36 37 38 0
5 6 9 12 17 19 20 23 26 27 29 30 32 35 37 38 0
1 6 7 10 13 18 20 21 24 27 28 30 31 33 36 38 0
2 7 8 11 14 19 20 21 22 25 28 29 31 32 34 37 0
1 3 8 9 12 15 21 22 23 26 29 30 32 33 35 38 0
2 4 9 10 13 16 20 22 23 24 27 30 31 33 34 36 0
3 5 10 11 14 17 21 23 24 25 28 31 32 34 35 37 0
3 6 9 10 15 17 21 23 24 26 27 30 33 34 35 37 0
4 7 10 11 16 18 22 24 25 27 28 31 34 35 36 38 0
5 8 11 12 17 19 20 23 25 26 28 29 32 35 36 37 0
1 6 9 12 13 18 21 24 26 27 29 30 33 36 37 38 0
2 7 10 13 14 19 20 22 25 27 28 30 31 34 37 38 0
1 3 8 11 14 15 20 21 23 26 28 29 31 32 35 38 0
2 4 9 12 15 16 20 21 22 24 27 29 30 32 33 36 0
3 5 10 13 16 17 21 22 23 25 28 30 31 33 34 37 0
4 6 11 14 17 18 22 23 24 26 29 31 32 34 35 38 0
5 7 12 15 18 19 20 23 24 25 27 30 32 33 35 36 0
1 6 8 13 16 19 21 24 25 26 28 31 33 34 36 37 0
1 2 7 9 14 17 22 25 26 27 29 32 34 35 37 38 0
2 3 8 10 15 18 20 23 26 27 28 30 33 35 36 38 0
3 4 9 11 16 19 20 21 24 27 28 29 31 34 36 37 0
1 4 5 10 12 17 21 22 25 28 29 30 32 35 37 38 0
2 5 6 11 13 18 20 22 23 26 29 30 31 33 36 38 0
3 6 7 12 14 19 20 21 23 24 27 30 31 32 34 37 0
1 4 7 8 13 15 21 22 24 25 28 31 32 33 35 38 0
2 5 8 9 14 16 20 22 23 25 26 29 32 33 34 36 0
3 6 11 14 16 18 21 23 24 26 29 30 31 32 35 37 38 0
4 7 12 15 17 19 20 22 24 25 27 30 31 32 33 36 38 0
1 5 8 13 16 18 20 21 23 25 26 28 31 32 33 34 37 0
2 6 9 14 17 19 21 22 24 26 27 29 32 33 34 35 38 0
1 3 7 10 15 18 20 22 23 25 27 28 30 33 34 35 36 0
2 4 8 11 16 19 21 23 24 26 28 29 31 34 35 36 37 0
1 3 5 9 12 17 22 24 25 27 29 30 32 35 36 37 38 0
2 4 6 10 13 18 20 23 25 26 28 30 31 33 36 37 38 0
3 5 7 11 14 19 20 21 24 26 27 29 31 32 34 37 38 0
1 4 6 8 12 15 20 21 22 25 27 28 30 32 33 35 38 0
2 5 7 9 13 16 20 21 22 23 26 28 29 31 33 34 36 0
3 6 8 10 14 17 21 22 23 24 27 29 30 32 34 35 37 0
4 7 9 11 15 18 22 23 24 25 28 30 31 33 35 36 38 0
5 8 10 12 16 19 20 23 24 25 26 29 31 32 34 36 37 0
1 6 9 11 13 17 21 24 25 26 27 30 32 33 35 37 38 0
2 7 10 12 14 18 20 22 25 26 27 28 31 33 34 36 38 0
3 8 11 13 15 19 20 21 23 26 27 28 29 32 34 35 37 0
1 4 9 12 14 16 21 22 24 27 28 29 30 33 35 36 38 0
2 5 10 13 15 17 20 22 23 25 28 29 30 31 34 36 37 0
3 5 7 10 15 18 21 22 24 27 28 29 30 33 35 36 38 0
4 6 8 11 16 19 20 22 23 25 28 29 30 31 34 36 37 0
1 5 7 9 12 17 21 23 24 26 29 30 31 32 35 37 38 0
2 6 8 10 13 18 20 22 24 25 27 30 31 32 33 36 38 0
3 7 9 11 14 19 20 21 23 25 26 28 31 32 33 34 37 0
1 4 8 10 12 15 21 22 24 26 27 29 32 33 34 35 38 0
2 5 9 11 13 16 20 22 23 25 27 28 30 33 34 35 36 0
3 6 10 12 14 17 21 23 24 26 28 29 31 34 35 36 37 0
4 7 11 13 15 18 22 24 25 27 29 30 32 35 36 37 38 0
5 8 12 14 16 19 20 23 25 26 28 30 31 33 36 37 38 0
1 6 9 13 15 17 20 21 24 26 27 29 31 32 34 37 38 0
2 7 10 14 16 18 20 21 22 25 27 28 30 32 33 35 38 0
3 8 11 15 17 19 20 21 22 23 26 28 29 31 33 34 36 0
1 4 9 12 16 18 21 22 23 24 27 29 30 32 34 35 37 0
2 5 10 13 17 19 22 23 24 25 28 30 31 33 35 36 38 0
1 3 6 11 14 18 20 23 24 25 26 29 31 32 34 36 37 0
2 4 7 12 15 19 21 24 25 26 27 30 32 33 35 37 38 0
1 3 5 8 13 16 20 22 25 26 27 28 31 33 34 36 38 0
2 4 6 9 14 17 20 21 23 26 27 28 29 32 34 35 37 0
3 5 6 11 12 15 17 21 24 26 29 30 32 33 35 37 0
4 6 7 12 13 16 18 22 25 27 30 31 33 34 36 38 0
5 7 8 13 14 17 19 20 23 26 28 31 32 34 35 37 0
1 6 8 9 14 15 18 21 24 27 29 32 33 35 36 38 0
2 7 9 10 15 16 19 20 22 25 28 30 33 34 36 37 0
1 3 8 10 11 16 17 21 23 26 29 31 34 35 37 38 0
2 4 9 11 12 17 18 20 22 24 27 30 32 35 36 38 0
3 5 10 12 13 18 19 20 21 23 25 28 31 33 36 37 0
1 4 6 11 13 14 19 21 22 24 26 29 32 34 37 38 0
1 2 5 7 12 14 15 20 22 23 25 27 30 33 35 38 0
2 3 6 8 13 15 16 20 21 23 24 26 28 31 34 36 0
3 4 7 9 14 16 17 21 22 24 25 27 29 32 35 37 0
4 5 8 10 15 17 18 22 23 25 26 28 30 33 36 38 0
5 6 9 11 16 18 19 20 23 24 26 27 29 31 34 37 0
1 6 7 10 12 17 19 21 24 25 27 28 30 32 35 38 0
1 2 7 8 11 13 18 20 22 25 26 28 29 31 33 36 0
2 3 8 9 12 14 19 21 23 26 27 29 30 32 34 37 0
1 3 4 9 10 13 15 22 24 27 28 30 31 33 35 38 0
2 4 5 10 11 14 16 20 23 25 28 29 31 32 34 36 0
4 6 9 10 15 16 18 22 24 26 27 29 30 33 35 38 0
5 7 10 11 16 17 19 20 23 25 27 28 30 31 34 36 0
1 6 8 11 12 17 18 21 24 26 28 29 31 32 35 37 0
2 7 9 12 13 18 19 22 25 27 29 30 32 33 36 38 0
1 3 8 10 13 14 19 20 23 26 28 30 31 33 34 37 0
1 2 4 9 11 14 15 21 24 27 29 31 32 34 35 38 0
2 3 5 10 12 15 16 20 22 25 28 30 32 33 35 36 0
3 4 6 11 13 16 17 21 23 26 29 31 33 34 36 37 0
4 5 7 12 14 17 18 22 24 27 30 32 34 35 37 38 0
5 6 8 13 15 18 19 20 23 25 28 31 33 35 36 38 0
1 6 7 9 14 16 19 20 21 24 26 29 32 34 36 37 0
1 2 7 8 10 15 17 21 22 25 27 30 33 35 37 38 0
2 3 8 9 11 16 18 20 22 23 26 28 31 34 36 38 0
3 4 9 10 12 17 19 20 21 23 24 27 29 32 35 37 0
1 4 5 10 11 13 18 21 22 24 25 28 30 33 36 38 0
2 5 6 11 12 14 19 20 22 23 25 26 29 31 34 37 0
1 3 6 7 12 13 15 21 23 24 26 27 30 32 35 38 0
2 4 7 8 13 14 16 20 22 24 25 27 28 31 33 36 0
3 5 8 9 14 15 17 21 23 25 26 28 29 32 34 37 0
3 7 12 13 16 18 21 23 25 27 30 31 33 34 36 37 38 0
4 8 13 14 17 19 20 22 24 26 28 31 32 34 35 37 38 0
1 5 9 14 15 18 20 21 23 25 27 29 32 33 35 36 38 0
2 6 10 15 16 19 20 21 22 24 26 28 30 33 34 36 37 0
1 3 7 11 16 17 21 22 23 25 27 29 31 34 35 37 38 0
2 4 8 12 17 18 20 22 23 24 26 28 30 32 35 36 38 0
3 5 9 13 18 19 20 21 23 24 25 27 29 31 33 36 37 0
1 4 6 10 14 19 21 22 24 25 26 28 30 32 34 37 38 0
1 2 5 7 11 15 20 22 23 25 26 27 29 31 33 35 38 0
2 3 6 8 12 16 20 21 23 24 26 27 28 30 32 34 36 0
3 4 7 9 13 17 21 22 24 25 27 28 29 31 33 35 37 0
4 5 8 10 14 18 22 23 25 26 28 29 30 32 34 36 38 0
5 6 9 11 15 19 20 23 24 26 27 29 30 31 33 35 37 0
1 6 7 10 12 16 21 24 25 27 28 30 31 32 34 36 38 0
2 7 8 11 13 17 20 22 25 26 28 29 31 32 33 35 37 0
3 8 9 12 14 18 21 23 26 27 29 30 32 33 34 36 38 0
4 9 10 13 15 19 20 22 24 27 28 30 31 33 34 35 37 0
1 5 10 11 14 16 21 23 25 28 29 31 32 34 35 36 38 0
2 6 11 12 15 17 20 22 24 26 29 30 32 33 35 36 37 0
3 5 8 9 14 18 21 22 23 25 26 28 29 32 34 36 38 0
4 6 9 10 15 19 20 22 23 24 26 27 29 30 33 35 37 0
1 5 7 10 11 16 21 23 24 25 27 28 30 31 34 36 38 0
2 6 8 11 12 17 20 22 24 25 26 28 29 31 32 35 37 0
3 7 9 12 13 18 21 23 25 26 27 29 30 32 33 36 38 0
4 8 10 13 14 19 20 22 24 26 27 28 30 31 33 34 37 0
1 5 9 11 14 15 21 23 25 27 28 29 31 32 34 35 38 0
2 6 10 12 15 16 20 22 24 26 28 29 30 32 33 35 36 0
3 7 11 13 16 17 21 23 25 27 29 30 31 33 34 36 37 0
4 8 12 14 17 18 22 24 26 28 30 31 32 34 35 37 38 0
5 9 13 15 18 19 20 23 25 27 29 31 32 33 35 36 38 0
1 6 10 14 16 19 20 21 24 26 28 30 32 33 34 36 37 0
1 2 7 11 15 17 21 22 25 27 29 31 33 34 35 37 38 0
2 3 8 12 16 18 20 22 23 26 28 30 32 34 35 36 38 0
3 4 9 13 17 19 20 21 23 24 27 29 31 33 35 36 37 0
1 4 5 10 14 18 21 22 24 25 28 30 32 34 36 37 38 0
2 5 6 11 15 19 20 22 23 25 26 29 31 33 35 37 38 0
1 3 6 7 12 16 20 21 23 24 26 27 30 32 34 36 38 0
2 4 7 8 13 17 20 21 22 24 25 27 28 31 33 35 37 0
3 4 6 7 12 13 16 17 21 23 25 27 30 31 33 34 36 37 0
4 5 7 8 13 14 17 18 22 24 26 28 31 32 34 35 37 38 0
5 6 8 9 14 15 18 19 20 23 25 27 29 32 33 35 36 38 0
1 6 7 9 10 15 16 19 20 21 24 26 28 30 33 34 36 37 0
1 2 7 8 10 11 16 17 21 22 25 27 29 31 34 35 37 38 0
2 3 8 9 11 12 17 18 20 22 23 26 28 30 32 35 36 38 0
3 4 9 10 12 13 18 19 20 21 23 24 27 29 31 33 36 37 0
1 4 5 10 11 13 14 19 21 22 24 25 28 30 32 34 37 38 0
1 2 5 6 11 12 14 15 20 22 23 25 26 29 31 33 35 38 0
2 3 6 7 12 13 15 16 20 21 23 24 26 27 30 32 34 36 0
3 4 7 8 13 14 16 17 21 22 24 25 27 28 31 33 35 37 0
4 5 8 9 14 15 17 18 22 23 25 26 28 29 32 34 36 38 0
5 6 9 10 15 16 18 19 20 23 24 26 27 29 30 33 35 37 0
1 6 7 10 11 16 17 19 21 24 25 27 28 30 31 34 36 38 0
1 2 7 8 11 12 17 18 20 22 25 26 28 29 31 32 35 37 0
2 3 8 9 12 13 18 19 21 23 26 27 29 30 32 33 36 38 0
1 3 4 9 10 13 14 19 20 22 24 27 28 30 31 33 34 37 0
1 2 4 5 10 11 14 15 21 23 25 28 29 31 32 34 35 38 0
2 3 5 6 11 12 15 16 20 22 24 26 29 30 32 33 35 36 0
3 4 7 12 15 17 21 24 25 27 30 32 33 35 37 0
4 5 8 13 16 18 22 25 26 28 31 33 34 36 38 0
5 6 9 14 17 19 20 23 26 27 29 32 34 35 37 0
1 6 7 10 15 18 21 24 27 28 30 33 35 36 38 0
2 7 8 11 16 19 20 22 25 28 29 31 34 36 37 0
1 3 8 9 12 17 21 23 26 29 30 32 35 37 38 0
2 4 9 10 13 18 20 22 24 27 30 31 33 36 38 0
3 5 10 11 14 19 20 21 23 25 28 31 32 34 37 0
1 4 6 11 12 15 21 22 24 26 29 32 33 35 38 0
2 5 7 12 13 16 20 22 23 25 27 30 33 34 36 0
3 6 8 13 14 17 21 23 24 26 28 31 34 35 37 0
4 7 9 14 15 18 22 24 25 27 29 32 35 36 38 0
5 8 10 15 16 19 20 23 25 26 28 30 33 36 37 0
1 6 9 11 16 17 21 24 26 27 29 31 34 37 38 0
2 7 10 12 17 18 20 22 25 27 28 30 32 35 38 0
3 8 11 13 18 19 20 21 23 26 28 29 31 33 36 0
1 4 9 12 14 19 21 22 24 27 29 30 32 34 37 0
1 2 5 10 13 15 22 23 25 28 30 31 33 35 38 0
2 3 6 11 14 16 20 23 24 26 29 31 32 34 36 0
4 6 9 14 17 18 22 24 26 27 29 32 34 35 38 0
5 7 10 15 18 19 20 23 25 27 28 30 33 35 36 0
1 6 8 11 16 19 21 24 26 28 29 31 34 36 37 0
1 2 7 9 12 17 22 25 27 29 30 32 35 37 38 0
2 3 8 10 13 18 20 23 26 28 30 31 33 36 38 0
3 4 9 11 14 19 20 21 24 27 29 31 32 34 37 0
1 4 5 10 12 15 21 22 25 28 30 32 33 35 38 0
2 5 6 11 13 16 20 22 23 26 29 31 33 34 36 0
3 6 7 12 14 17 21 23 24 27 30 32 34 35 37 0
4 7 8 13 15 18 22 24 25 28 31 33 35 36 38 0
5 8 9 14 16 19 20 23 25 26 29 32 34 36 37 0
1 6 9 10 15 17 21 24 26 27 30 33 35 37 38 0
2 7 10 11 16 18 20 22 25 27 28 31 34 36 38 0
3 8 11 12 17 19 20 21 23 26 28 29 32 35 37 0
1 4 9 12 13 18 21 22 24 27 29 30 33 36 38 0
2 5 10 13 14 19 20 22 23 25 28 30 31 34 37 0
1 3 6 11 14 15 21 23 24 26 29 31 32 35 38 0
2 4 7 12 15 16 20 22 24 25 27 30 32 33 36 0
3 5 8 13 16 17 21 23 25 26 28 31 33 34 37 0
3 6 7 12 13 15 18 21 22 23 24 27 30 32 35 36 38 0
4 7 8 13 14 16 19 20 22 23 24 25 28 31 33 36 37 0
1 5 8 9 14 15 17 21 23 24 25 26 29 32 34 37 38 0
2 6 9 10 15 16 18 20 22 24 25 26 27 30 33 35 38 0
3 7 10 11 16 17 19 20 21 23 25 26 27 28 31 34 36 0
1 4 8 11 12 17 18 21 22 24 26 27 28 29 32 35 37 0
2 5 9 12 13 18 19 22 23 25 27 28 29 30 33 36 38 0
1 3 6 10 13 14 19 20 23 24 26 28 29 30 31 34 37 0
1 2 4 7 11 14 15 21 24 25 27 29 30 31 32 35 38 0
2 3 5 8 12 15 16 20 22 25 26 28 30 31 32 33 36 0
3 4 6 9 13 16 17 21 23 26 27 29 31 32 33 34 37 0
4 5 7 10 14 17 18 22 24 27 28 30 32 33 34 35 38 0
5 6 8 11 15 18 19 20 23 25 28 29 31 33 34 35 36 0
1 6 7 9 12 16 19 21 24 26 29 30 32 34 35 36 37 0
1 2 7 8 10 13 17 22 25 27 30 31 33 35 36 37 38 0
2 3 8 9 11 14 18 20 23 26 28 31 32 34 36 37 38 0
3 4 9 10 12 15 19 20 21 24 27 29 32 33 35 37 38 0
1 4 5 10 11 13 16 20 21 22 25 28 30 33 34 36 38 0
2 5 6 11 12 14 17 20 21 22 23 26 29 31 34 35 37 0
3 6 8 9 14 15 18 21 23 24 27 29 32 35 36 37 38 0
4 7 9 10 15 16 19 20 22 24 25 28 30 33 36 37 38 0
1 5 8 10 11 16 17 20 21 23 25 26 29 31 34 37 38 0
2 6 9 11 12 17 18 20 21 22 24 26 27 30 32 35 38 0
3 7 10 12 13 18 19 20 21 22 23 25 27 28 31 33 36 0
1 4 8 11 13 14 19 21 22 23 24 26 28 29 32 34 37 0
1 2 5 9 12 14 15 22 23 24 25 27 29 30 33 35 38 0
2 3 6 10 13 15 16 20 23 24 25 26 28 30 31 34 36 0
3 4 7 11 14 16 17 21 24 25 26 27 29 31 32 35 37 0
4 5 8 12 15 17 18 22 25 26 27 28 30 32 33 36 38 0
5 6 9 13 16 18 19 20 23 26 27 28 29 31 33 34 37 0
1 6 7 10 14 17 19 21 24 27 28 29 30 32 34 35 38 0
1 2 7 8 11 15 18 20 22 25 28 29 30 31 33 35 36 0
2 3 8 9 12 16 19 21 23 26 29 30 31 32 34 36 37 0
1 3 4 9 10 13 17 22 24 27 30 31 32 33 35 37 38 0
2 4 5 10 11 14 18 20 23 25 28 31 32 33 34 36 38 0
3 5 6 11 12 15 19 20 21 24 26 29 32 33 34 35 37 0
1 4 6 7 12 13 16 21 22 25 27 30 33 34 35 36 38 0
2 5 7 8 13 14 17 20 22 23 26 28 31 34 35 36 37 0
4 7 10 12 14 16 18 22 24 25 27 28 30 33 35 36 38 0
5 8 11 13 15 17 19 20 23 25 26 28 29 31 34 36 37 0
1 6 9 12 14 16 18 21 24 26 27 29 30 32 35 37 38 0
2 7 10 13 15 17 19 20 22 25 27 28 30 31 33 36 38 0
1 3 8 11 14 16 18 20 21 23 26 28 29 31 32 34 37 0
2 4 9 12 15 17 19 21 22 24 27 29 30 32 33 35 38 0
1 3 5 10 13 16 18 20 22 23 25 28 30 31 33 34 36 0
2 4 6 11 14 17 19 21 23 24 26 29 31 32 34 35 37 0
1 3 5 7 12 15 18 22 24 25 27 30 32 33 35 36 38 0
2 4 6 8 13 16 19 20 23 25 26 28 31 33 34 36 37 0
1 3 5 7 9 14 17 21 24 26 27 29 32 34 35 37 38 0
2 4 6 8 10 15 18 20 22 25 27 28 30 33 35 36 38 0
3 5 7 9 11 16 19 20 21 23 26 28 29 31 34 36 37 0
1 4 6 8 10 12 17 21 22 24 27 29 30 32 35 37 38 0
2 5 7 9 11 13 18 20 22 23 25 28 30 31 33 36 38 0
3 6 8 10 12 14 19 20 21 23 24 26 29 31 32 34 37 0
1 4 7 9 11 13 15 21 22 24 25 27 30 32 33 35 38 0
2 5 8 10 12 14 16 20 22 23 25 26 28 31 33 34 36 0
3 6 9 11 13 15 17 21 23 24 26 27 29 32 34 35 37 0
3 5 7 9 11 14 17 21 23 24 26 29 31 32 34 35 37 0
4 6 8 10 12 15 18 22 24 25 27 30 32 33 35 36 38 0
5 7 9 11 13 16 19 20 23 25 26 28 31 33 34 36 37 0
1 6 8 10 12 14 17 21 24 26 27 29 32 34 35 37 38 0
2 7 9 11 13 15 18 20 22 25 27 28 30 33 35 36 38 0
3 8 10 12 14 16 19 20 21 23 26 28 29 31 34 36 37 0
1 4 9 11 13 15 17 21 22 24 27 29 30 32 35 37 38 0
2 5 10 12 14 16 18 20 22 23 25 28 30 31 33 36 38 0
3 6 11 13 15 17 19 20 21 23 24 26 29 31 32 34 37 0
1 4 7 12 14 16 18 21 22 24 25 27 30 32 33 35 38 0
2 5 8 13 15 17 19 20 22 23 25 26 28 31 33 34 36 0
1 3 6 9 14 16 18 21 23 24 26 27 29 32 34 35 37 0
2 4 7 10 15 17 19 22 24 25 27 28 30 33 35 36 38 0
1 3 5 8 11 16 18 20 23 25 26 28 29 31 34 36 37 0
2 4 6 9 12 17 19 21 24 26 27 29 30 32 35 37 38 0
1 3 5 7 10 13 18 20 22 25 27 28 30 31 33 36 38 0
2 4 6 8 11 14 19 20 21 23 26 28 29 31 32 34 37 0
1 3 5 7 9 12 15 21 22 24 27 29 30 32 33 35 38 0
2 4 6 8 10 13 16 20 22 23 25 28 30 31 33 34 36 0
3 6 9 10 11 13 16 17 21 23 24 26 27 33 34 35 36 37 0
4 7 10 11 12 14 17 18 22 24 25 27 28 34 35 36 37 38 0
5 8 11 12 13 15 18 19 20 23 25 26 28 29 35 36 37 38 0
1 6 9 12 13 14 16 19 20 21 24 26 27 29 30 36 37 38 0
1 2 7 10 13 14 15 17 20 21 22 25 27 28 30 31 37 38 0
2 3 8 11 14 15 16 18 20 21 22 23 26 28 29 31 32 38 0
3 4 9 12 15 16 17 19 20 21 22 23 24 27 29 30 32 33 0
1 4 5 10 13 16 17 18 21 22 23 24 25 28 30 31 33 34 0
2 5 6 11 14 17 18 19 22 23 24 25 26 29 31 32 34 35 0
1 3 6 7 12 15 18 19 23 24 25 26 27 30 32 33 35 36 0
1 2 4 7 8 13 16 19 24 25 26 27 28 31 33 34 36 37 0
1 2 3 5 8 9 14 17 25 26 27 28 29 32 34 35 37 38 0
2 3 4 6 9 10 15 18 20 26 27 28 29 30 33 35 36 38 0
3 4 5 7 10 11 16 19 20 21 27 28 29 30 31 34 36 37 0
1 4 5 6 8 11 12 17 21 22 28 29 30 31 32 35 37 38 0
2 5 6 7 9 12 13 18 20 22 23 29 30 31 32 33 36 38 0
3 6 7 8 10 13 14 19 20 21 23 24 30 31 32 33 34 37 0
1 4 7 8 9 11 14 15 21 22 24 25 31 32 33 34 35 38 0
2 5 8 9 10 12 15 16 20 22 23 25 26 32 33 34 35 36 0
4 5 8 10 11 12 15 18 22 23 24 25 26 32 33 35 36 38 0
5 6 9 11 12 13 16 19 20 23 24 25 26 27 33 34 36 37 0
1 6 7 10 12 13 14 17 21 24 25 26 27 28 34 35 37 38 0
2 7 8 11 13 14 15 18 20 22 25 26 27 28 29 35 36 38 0
3 8 9 12 14 15 16 19 20 21 23 26 27 28 29 30 36 37 0
1 4 9 10 13 15 16 17 21 22 24 27 28 29 30 31 37 38 0
2 5 10 11 14 16 17 18 20 22 23 25 28 29 30 31 32 38 0
3 6 11 12 15 17 18 19 20 21 23 24 26 29 30 31 32 33 0
1 4 7 12 13 16 18 19 21 22 24 25 27 30 31 32 33 34 0
1 2 5 8 13 14 17 19 22 23 25 26 28 31 32 33 34 35 0
1 2 3 6 9 14 15 18 23 24 26 27 29 32 33 34 35 36 0
2 3 4 7 10 15 16 19 24 25 27 28 30 33 34 35 36 37 0
1 3 4 5 8 11 16 17 25 26 28 29 31 34 35 36 37 38 0
2 4 5 6 9 12 17 18 20 26 27 29 30 32 35 36 37 38 0
3 5 6 7 10 13 18 19 20 21 27 28 30 31 33 36 37 38 0
1 4 6 7 8 11 14 19 20 21 22 28 29 31 32 34 37 38 0
1 2 5 7 8 9 12 15 20 21 22 23 29 30 32 33 35 38 0
2 3 6 8 9 10 13 16 20 21 22 23 24 30 31 33 34 36 0
3 4 7 9 10 11 14 17 21 22 23 24 25 31 32 34 35 37 0
3 4 8 11 14 17 18 21 24 26 28 29 31 32 34 35 37 38 0
4 5 9 12 15 18 19 20 22 25 27 29 30 32 33 35 36 38 0
1 5 6 10 13 16 19 20 21 23 26 28 30 31 33 34 36 37 0
1 2 6 7 11 14 17 21 22 24 27 29 31 32 34 35 37 38 0
2 3 7 8 12 15 18 20 22 23 25 28 30 32 33 35 36 38 0
3 4 8 9 13 16 19 20 21 23 24 26 29 31 33 34 36 37 0
1 4 5 9 10 14 17 21 22 24 25 27 30 32 34 35 37 38 0
2 5 6 10 11 15 18 20 22 23 25 26 28 31 33 35 36 38 0
3 6 7 11 12 16 19 20 21 23 24 26 27 29 32 34 36 37 0
1 4 7 8 12 13 17 21 22 24 25 27 28 30 33 35 37 38 0
2 5 8 9 13 14 18 20 22 23 25 26 28 29 31 34 36 38 0
3 6 9 10 14 15 19 20 21 23 24 26 27 29 30 32 35 37 0
1 4 7 10 11 15 16 21 22 24 25 27 28 30 31 33 36 38 0
2 5 8 11 12 16 17 20 22 23 25 26 28 29 31 32 34 37 0
3 6 9 12 13 17 18 21 23 24 26 27 29 30 32 33 35 38 0
4 7 10 13 14 18 19 20 22 24 25 27 28 30 31 33 34 36 0
1 5 8 11 14 15 19 21 23 25 26 28 29 31 32 34 35 37 0
1 2 6 9 12 15 16 22 24 26 27 29 30 32 33 35 36 38 0
2 3 7 10 13 16 17 20 23 25 27 28 30 31 33 34 36 37 0
3 4 7 10 13 17 18 21 22 24 25 27 28 30 31 33 35 38 0
4 5 8 11 14 18 19 20 22 23 25 26 28 29 31 32 34 36 0
1 5 6 9 12 15 19 21 23 24 26 27 29 30 32 33 35 37 0
1 2 6 7 10 13 16 22 24 25 27 28 30 31 33 34 36 38 0
2 3 7 8 11 14 17 20 23 25 26 28 29 31 32 34 35 37 0
3 4 8 9 12 15 18 21 24 26 27 29 30 32 33 35 36 38 0
4 5 9 10 13 16 19 20 22 25 27 28 30 31 33 34 36 37 0
1 5 6 10 11 14 17 21 23 26 28 29 31 32 34 35 37 38 0
2 6 7 11 12 15 18 20 22 24 27 29 30 32 33 35 36 38 0
3 7 8 12 13 16 19 20 21 23 25 28 30 31 33 34 36 37 0
1 4 8 9 13 14 17 21 22 24 26 29 31 32 34 35 37 38 0
2 5 9 10 14 15 18 20 22 23 25 27 30 32 33 35 36 38 0
3 6 10 11 15 16 19 20 21 23 24 26 28 31 33 34 36 37 0
1 4 7 11 12 16 17 21 22 24 25 27 29 32 34 35 37 38 0
2 5 8 12 13 17 18 20 22 23 25 26 28 30 33 35 36 38 0
3 6 9 13 14 18 19 20 21 23 24 26 27 29 31 34 36 37 0
1 4 7 10 14 15 19 21 22 24 25 27 28 30 32 35 37 38 0
1 2 5 8 11 15 16 20 22 23 25 26 28 29 31 33 36 38 0
2 3 6 9 12 16 17 20 21 23 24 26 27 29 30 32 34 37 0
3 6 7 11 12 16 18 21 23 24 27 29 30 32 34 35 37 38 0
4 7 8 12 13 17 19 20 22 24 25 28 30 31 33 35 36 38 0
1 5 8 9 13 14 18 20 21 23 25 26 29 31 32 34 36 37 0
2 6 9 10 14 15 19 21 22 24 26 27 30 32 33 35 37 38 0
1 3 7 10 11 15 16 20 22 23 25 27 28 31 33 34 36 38 0
2 4 8 11 12 16 17 20 21 23 24 26 28 29 32 34 35 37 0
3 5 9 12 13 17 18 21 22 24 25 27 29 30 33 35 36 38 0
4 6 10 13 14 18 19 20 22 23 25 26 28 30 31 34 36 37 0
1 5 7 11 14 15 19 21 23 24 26 27 29 31 32 35 37 38 0
1 2 6 8 12 15 16 20 22 24 25 27 28 30 32 33 36 38 0
2 3 7 9 13 16 17 20 21 23 25 26 28 29 31 33 34 37 0
3 4 8 10 14 17 18 21 22 24 26 27 29 30 32 34 35 38 0
4 5 9 11 15 18 19 20 22 23 25 27 28 30 31 33 35 36 0
1 5 6 10 12 16 19 21 23 24 26 28 29 31 32 34 36 37 0
1 2 6 7 11 13 17 22 24 25 27 29 30 32 33 35 37 38 0
2 3 7 8 12 14 18 20 23 25 26 28 30 31 33 34 36 38 0
3 4 8 9 13 15 19 20 21 24 26 27 29 31 32 34 35 37 0
1 4 5 9 10 14 16 21 22 25 27 28 30 32 33 35 36 38 0
2 5 6 10 11 15 17 20 22 23 26 28 29 31 33 34 36 37 0
3 5 9 10 14 15 18 21 22 24 25 27 29 30 32 35 36 38 0
4 6 10 11 15 16 19 20 22 23 25 26 28 30 31 33 36 37 0
1 5 7 11 12 16 17 21 23 24 26 27 29 31 32 34 37 38 0
2 6 8 12 13 17 18 20 22 24 25 27 28 30 32 33 35 38 0
3 7 9 13 14 18 19 20 21 23 25 26 28 29 31 33 34 36 0
1 4 8 10 14 15 19 21 22 24 26 27 29 30 32 34 35 37 0
1 2 5 9 11 15 16 22 23 25 27 28 30 31 33 35 36 38 0
2 3 6 10 12 16 17 20 23 24 26 28 29 31 32 34 36 37 0
3 4 7 11 13 17 18 21 24 25 27 29 30 32 33 35 37 38 0
4 5 8 12 14 18 19 20 22 25 26 28 30 31 33 34 36 38 0
1 5 6 9 13 15 19 20 21 23 26 27 29 31 32 34 35 37 0
1 2 6 7 10 14 16 21 22 24 27 28 30 32 33 35 36 38 0
2 3 7 8 11 15 17 20 22 23 25 28 29 31 33 34 36 37 0
3 4 8 9 12 16 18 21 23 24 26 29 30 32 34 35 37 38 0
4 5 9 10 13 17 19 20 22 24 25 27 30 31 33 35 36 38 0
1 5 6 10 11 14 18 20 21 23 25 26 28 31 32 34 36 37 0
2 6 7 11 12 15 19 21 22 24 26 27 29 32 33 35 37 38 0
1 3 7 8 12 13 16 20 22 23 25 27 28 30 33 34 36 38 0
2 4 8 9 13 14 17 20 21 23 24 26 28 29 31 34 35 37 0
3 6 10 12 16 18 21 23 24 26 28 29 31 32 34 35 37 38 0
4 7 11 13 17 19 20 22 24 25 27 29 30 32 33 35 36 38 0
1 5 8 12 14 18 20 21 23 25 26 28 30 31 33 34 36 37 0
2 6 9 13 15 19 21 22 24 26 27 29 31 32 34 35 37 38 0
1 3 7 10 14 16 20 22 23 25 27 28 30 32 33 35 36 38 0
2 4 8 11 15 17 20 21 23 24 26 28 29 31 33 34 36 37 0
3 5 9 12 16 18 21 22 24 25 27 29 30 32 34 35 37 38 0
4 6 10 13 17 19 20 22 23 25 26 28 30 31 33 35 36 38 0
1 5 7 11 14 18 20 21 23 24 26 27 29 31 32 34 36 37 0
2 6 8 12 15 19 21 22 24 25 27 28 30 32 33 35 37 38 0
1 3 7 9 13 16 20 22 23 25 26 28 29 31 33 34 36 38 0
2 4 8 10 14 17 20 21 23 24 26 27 29 30 32 34 35 37 0
3 5 9 11 15 18 21 22 24 25 27 28 30 31 33 35 36 38 0
4 6 10 12 16 19 20 22 23 25 26 28 29 31 32 34 36 37 0
1 5 7 11 13 17 21 23 24 26 27 29 30 32 33 35 37 38 0
2 6 8 12 14 18 20 22 24 25 27 28 30 31 33 34 36 38 0
3 7 9 13 15 19 20 21 23 25 26 28 29 31 32 34 35 37 0
1 4 8 10 14 16 21 22 24 26 27 29 30 32 33 35 36 38 0
2 5 9 11 15 17 20 22 23 25 27 28 30 31 33 34 36 37 0
3 6 10 11 15 18 21 23 24 26 28 31 33 35 36 38 0
4 7 11 12 16 19 20 22 24 25 27 29 32 34 36 37 0
1 5 8 12 13 17 21 23 25 26 28 30 33 35 37 38 0
2 6 9 13 14 18 20 22 24 26 27 29 31 34 36 38 0
3 7 10 14 15 19 20 21 23 25 27 28 30 32 35 37 0
1 4 8 11 15 16 21 22 24 26 28 29 31 33 36 38 0
2 5 9 12 16 17 20 22 23 25 27 29 30 32 34 37 0
3 6 10 13 17 18 21 23 24 26 28 30 31 33 35 38 0
4 7 11 14 18 19 20 22 24 25 27 29 31 32 34 36 0
1 5 8 12 15 19 21 23 25 26 28 30 32 33 35 37 0
1 2 6 9 13 16 22 24 26 27 29 31 33 34 36 38 0
2 3 7 10 14 17 20 23 25 27 28 30 32 34 35 37 0
3 4 8 11 15 18 21 24 26 28 29 31 33 35 36 38 0
4 5 9 12 16 19 20 22 25 27 29 30 32 34 36 37 0
1 5 6 10 13 17 21 23 26 28 30 31 33 35 37 38 0
2 6 7 11 14 18 20 22 24 27 29 31 32 34 36 38 0
3 7 8 12 15 19 20 21 23 25 28 30 32 33 35 37 0
1 4 8 9 13 16 21 22 24 26 29 31 33 34 36 38 0
2 5 9 10 14 17 20 22 23 25 27 30 32 34 35 37 0
3 6 8 12 16 18 21 22 23 24 28 30 32 34 35 38 0
4 7 9 13 17 19 20 22 23 24 25 29 31 33 35 36 0
1 5 8 10 14 18 21 23 24 25 26 30 32 34 36 37 0
2 6 9 11 15 19 22 24 25 26 27 31 33 35 37 38 0
1 3 7 10 12 16 20 23 25 26 27 28 32 34 36 38 0
2 4 8 11 13 17 20 21 24 26 27 28 29 33 35 37 0
3 5 9 12 14 18 21 22 25 27 28 29 30 34 36 38 0
4 6 10 13 15 19 20 22 23 26 28 29 30 31 35 37 0
1 5 7 11 14 16 21 23 24 27 29 30 31 32 36 38 0
2 6 8 12 15 17 20 22 24 25 28 30 31 32 33 37 0
3 7 9 13 16 18 21 23 25 26 29 31 32 33 34 38 0
4 8 10 14 17 19 20 22 24 26 27 30 32 33 34 35 0
1 5 9 11 15 18 21 23 25 27 28 31 33 34 35 36 0
2 6 10 12 16 19 22 24 26 28 29 32 34 35 36 37 0
1 3 7 11 13 17 23 25 27 29 30 33 35 36 37 38 0
2 4 8 12 14 18 20 24 26 28 30 31 34 36 37 38 0
3 5 9 13 15 19 20 21 25 27 29 31 32 35 37 38 0
1 4 6 10 14 16 20 21 22 26 28 30 32 33 36 38 0
2 5 7 11 15 17 20 21 22 23 27 29 31 33 34 37 0
3 5 9 13 15 18 21 24 25 27 29 31 35 36 37 38 0
4 6 10 14 16 19 20 22 25 26 28 30 32 36 37 38 0
1 5 7 11 15 17 20 21 23 26 27 29 31 33 37 38 0
2 6 8 12 16 18 20 21 22 24 27 28 30 32 34 38 0
3 7 9 13 17 19 20 21 22 23 25 28 29 31 33 35 0
1 4 8 10 14 18 21 22 23 24 26 29 30 32 34 36 0
2 5 9 11 15 19 22 23 24 25 27 30 31 33 35 37 0
1 3 6 10 12 16 23 24 25 26 28 31 32 34 36 38 0
2 4 7 11 13 17 20 24 25 26 27 29 32 33 35 37 0
3 5 8 12 14 18 21 25 26 27 28 30 33 34 36 38 0
4 6 9 13 15 19 20 22 26 27 28 29 31 34 35 37 0
1 5 7 10 14 16 21 23 27 28 29 30 32 35 36 38 0
2 6 8 11 15 17 20 22 24 28 29 30 31 33 36 37 0
3 7 9 12 16 18 21 23 25 29 30 31 32 34 37 38 0
4 8 10 13 17 19 20 22 24 26 30 31 32 33 35 38 0
1 5 9 11 14 18 20 21 23 25 27 31 32 33 34 36 0
2 6 10 12 15 19 21 22 24 26 28 32 33 34 35 37 0
1 3 7 11 13 16 22 23 25 27 29 33 34 35 36 38 0
2 4 8 12 14 17 20 23 24 26 28 30 34 35 36 37 0
3 4 6 8 10 12 13 17 21 24 27 32 33 35 37 0
4 5 7 9 11 13 14 18 22 25 28 33 34 36 38 0
5 6 8 10 12 14 15 19 20 23 26 29 34 35 37 0
1 6 7 9 11 13 15 16 21 24 27 30 35 36 38 0
2 7 8 10 12 14 16 17 20 22 25 28 31 36 37 0
3 8 9 11 13 15 17 18 21 23 26 29 32 37 38 0
4 9 10 12 14 16 18 19 20 22 24 27 30 33 38 0
1 5 10 11 13 15 17 19 20 21 23 25 28 31 34 0
1 2 6 11 12 14 16 18 21 22 24 26 29 32 35 0
2 3 7 12 13 15 17 19 22 23 25 27 30 33 36 0
1 3 4 8 13 14 16 18 23 24 26 28 31 34 37 0
2 4 5 9 14 15 17 19 24 25 27 29 32 35 38 0
1 3 5 6 10 15 16 18 20 25 26 28 30 33 36 0
2 4 6 7 11 16 17 19 21 26 27 29 31 34 37 0
1 3 5 7 8 12 17 18 22 27 28 30 32 35 38 0
2 4 6 8 9 13 18 19 20 23 28 29 31 33 36 0
1 3 5 7 9 10 14 19 21 24 29 30 32 34 37 0
1 2 4 6 8 10 11 15 22 25 30 31 33 35 38 0
2 3 5 7 9 11 12 16 20 23 26 31 32 34 36 0
4 8 9 11 13 15 17 18 22 24 26 27 32 35 38 0
5 9 10 12 14 16 18 19 20 23 25 27 28 33 36 0
1 6 10 11 13 15 17 19 21 24 26 28 29 34 37 0
1 2 7 11 12 14 16 18 22 25 27 29 30 35 38 0
2 3 8 12 13 15 17 19 20 23 26 28 30 31 36 0
1 3 4 9 13 14 16 18 21 24 27 29 31 32 37 0
2 4 5 10 14 15 17 19 22 25 28 30 32 33 38 0
1 3 5 6 11 15 16 18 20 23 26 29 31 33 34 0
2 4 6 7 12 16 17 19 21 24 27 30 32 34 35 0
1 3 5 7 8 13 17 18 22 25 28 31 33 35 36 0
2 4 6 8 9 14 18 19 23 26 29 32 34 36 37 0
1 3 5 7 9 10 15 19 24 27 30 33 35 37 38 0
1 2 4 6 8 10 11 16 20 25 28 31 34 36 38 0
2 3 5 7 9 11 12 17 20 21 26 29 32 35 37 0
3 4 6 8 10 12 13 18 21 22 27 30 33 36 38 0
4 5 7 9 11 13 14 19 20 22 23 28 31 34 37 0
1 5 6 8 10 12 14 15 21 23 24 29 32 35 38 0
2 6 7 9 11 13 15 16 20 22 24 25 30 33 36 0
3 7 8 10 12 14 16 17 21 23 25 26 31 34 37 0
3 4 7 10 12 17 21 22 24 25 27 28 29 32 35 37 0
4 5 8 11 13 18 22 23 25 26 28 29 30 33 36 38 0
5 6 9 12 14 19 20 23 24 26 27 29 30 31 34 37 0
1 6 7 10 13 15 21 24 25 27 28 30 31 32 35 38 0
2 7 8 11 14 16 20 22 25 26 28 29 31 32 33 36 0
3 8 9 12 15 17 21 23 26 27 29 30 32 33 34 37 0
4 9 10 13 16 18 22 24 27 28 30 31 33 34 35 38 0
5 10 11 14 17 19 20 23 25 28 29 31 32 34 35 36 0
1 6 11 12 15 18 21 24 26 29 30 32 33 35 36 37 0
2 7 12 13 16 19 22 25 27 30 31 33 34 36 37 38 0
1 3 8 13 14 17 20 23 26 28 31 32 34 35 37 38 0
2 4 9 14 15 18 20 21 24 27 29 32 33 35 36 38 0
3 5 10 15 16 19 20 21 22 25 28 30 33 34 36 37 0
1 4 6 11 16 17 21 22 23 26 29 31 34 35 37 38 0
2 5 7 12 17 18 20 22 23 24 27 30 32 35 36 38 0
3 6 8 13 18 19 20 21 23 24 25 28 31 33 36 37 0
1 4 7 9 14 19 21 22 24 25 26 29 32 34 37 38 0
1 2 5 8 10 15 20 22 23 25 26 27 30 33 35 38 0
2 3 6 9 11 16 20 21 23 24 26 27 28 31 34 36 0
4 9 11 14 17 18 22 24 27 30 31 32 34 35 37 38 0
5 10 12 15 18 19 20 23 25 28 31 32 33 35 36 38 0
1 6 11 13 16 19 20 21 24 26 29 32 33 34 36 37 0
1 2 7 12 14 17 21 22 25 27 30 33 34 35 37 38 0
2 3 8 13 15 18 20 22 23 26 28 31 34 35 36 38 0
3 4 9 14 16 19 20 21 23 24 27 29 32 35 36 37 0
1 4 5 10 15 17 21 22 24 25 28 30 33 36 37 38 0
2 5 6 11 16 18 20 22 23 25 26 29 31 34 37 38 0
3 6 7 12 17 19 20 21 23 24 26 27 30 32 35 38 0
1 4 7 8 13 18 20 21 22 24 25 27 28 31 33 36 0
2 5 8 9 14 19 21 22 23 25 26 28 29 32 34 37 0
1 3 6 9 10 15 22 23 24 26 27 29 30 33 35 38 0
2 4 7 10 11 16 20 23 24 25 27 28 30 31 34 36 0
3 5 8 11 12 17 21 24 25 26 28 29 31 32 35 37 0
4 6 9 12 13 18 22 25 26 27 29 30 32 33 36 38 0
5 7 10 13 14 19 20 23 26 27 28 30 31 33 34 37 0
1 6 8 11 14 15 21 24 27 28 29 31 32 34 35 38 0
2 7 9 12 15 16 20 22 25 28 29 30 32 33 35 36 0
3 8 10 13 16 17 21 23 26 29 30 31 33 34 36 37 0
3 6 8 12 13 17 18 21 23 24 25 26 28 30 33 35 38 0
4 7 9 13 14 18 19 20 22 24 25 26 27 29 31 34 36 0
1 5 8 10 14 15 19 21 23 25 26 27 28 30 32 35 37 0
1 2 6 9 11 15 16 22 24 26 27 28 29 31 33 36 38 0
2 3 7 10 12 16 17 20 23 25 27 28 29 30 32 34 37 0
3 4 8 11 13 17 18 21 24 26 28 29 30 31 33 35 38 0
4 5 9 12 14 18 19 20 22 25 27 29 30 31 32 34 36 0
1 5 6 10 13 15 19 21 23 26 28 30 31 32 33 35 37 0
1 2 6 7 11 14 16 22 24 27 29 31 32 33 34 36 38 0
2 3 7 8 12 15 17 20 23 25 28 30 32 33 34 35 37 0
3 4 8 9 13 16 18 21 24 26 29 31 33 34 35 36 38 0
4 5 9 10 14 17 19 20 22 25 27 30 32 34 35 36 37 0
1 5 6 10 11 15 18 21 23 26 28 31 33 35 36 37 38 0
2 6 7 11 12 16 19 20 22 24 27 29 32 34 36 37 38 0
1 3 7 8 12 13 17 20 21 23 25 28 30 33 35 37 38 0
2 4 8 9 13 14 18 20 21 22 24 26 29 31 34 36 38 0
3 5 9 10 14 15 19 20 21 22 23 25 27 30 32 35 37 0
1 4 6 10 11 15 16 21 22 23 24 26 28 31 33 36 38 0
2 5 7 11 12 16 17 20 22 23 24 25 27 29 32 34 37 0
3 4 8 9 13 15 18 21 24 26 29 31 33 34 35 36 38 0
4 5 9 10 14 16 19 20 22 25 27 30 32 34 35 36 37 0
1 5 6 10 11 15 17 21 23 26 28 31 33 35 36 37 38 0
2 6 7 11 12 16 18 20 22 24 27 29 32 34 36 37 38 0
3 7 8 12 13 17 19 20 21 23 25 28 30 33 35 37 38 0
1 4 8 9 13 14 18 20 21 22 24 26 29 31 34 36 38 0
2 5 9 10 14 15 19 20 21 22 23 25 27 30 32 35 37 0
1 3 6 10 11 15 16 21 22 23 24 26 28 31 33 36 38 0
2 4 7 11 12 16 17 20 22 23 24 25 27 29 32 34 37 0
3 5 8 12 13 17 18 21 23 24 25 26 28 30 33 35 38 0
4 6 9 13 14 18 19 20 22 24 25 26 27 29 31 34 36 0
1 5 7 10 14 15 19 21 23 25 26 27 28 30 32 35 37 0
1 2 6 8 11 15 16 22 24 26 27 28 29 31 33 36 38 0
2 3 7 9 12 16 17 20 23 25 27 28 29 30 32 34 37 0
3 4 8 10 13 17 18 21 24 26 28 29 30 31 33 35 38 0
4 5 9 11 14 18 19 20 22 25 27 29 30 31 32 34 36 0
1 5 6 10 12 15 19 21 23 26 28 30 31 32 33 35 37 0
1 2 6 7 11 13 16 22 24 27 29 31 32 33 34 36 38 0
2 3 7 8 12 14 17 20 23 25 28 30 32 33 34 35 37 0
3 8 10 12 13 15 17 18 21 23 26 27 29 34 36 37 38 0
4 9 11 13 14 16 18 19 20 22 24 27 28 30 35 37 38 0
1 5 10 12 14 15 17 19 20 21 23 25 28 29 31 36 38 0
1 2 6 11 13 15 16 18 20 21 22 24 26 29 30 32 37 0
2 3 7 12 14 16 17 19 21 22 23 25 27 30 31 33 38 0
1 3 4 8 13 15 17 18 20 22 23 24 26 28 31 32 34 0
2 4 5 9 14 16 18 19 21 23 24 25 27 29 32 33 35 0
1 3 5 6 10 15 17 19 22 24 25 26 28 30 33 34 36 0
1 2 4 6 7 11 16 18 23 25 26 27 29 31 34 35 37 0
2 3 5 7 8 12 17 19 24 26 27 28 30 32 35 36 38 0
1 3 4 6 8 9 13 18 20 25 27 28 29 31 33 36 37 0
2 4 5 7 9 10 14 19 21 26 28 29 30 32 34 37 38 0
1 3 5 6 8 10 11 15 20 22 27 29 30 31 33 35 38 0
2 4 6 7 9 11 12 16 20 21 23 28 30 31 32 34 36 0
3 5 7 8 10 12 13 17 21 22 24 29 31 32 33 35 37 0
4 6 8 9 11 13 14 18 22 23 25 30 32 33 34 36 38 0
5 7 9 10 12 14 15 19 20 23 24 26 31 33 34 35 37 0
1 6 8 10 11 13 15 16 21 24 25 27 32 34 35 36 38 0
2 7 9 11 12 14 16 17 20 22 25 26 28 33 35 36 37 0
3 4 6 8 9 11 13 18 21 22 23 25 30 32 33 36 38 0
4 5 7 9 10 12 14 19 20 22 23 24 26 31 33 34 37 0
1 5 6 8 10 11 13 15 21 23 24 25 27 32 34 35 38 0
2 6 7 9 11 12 14 16 20 22 24 25 26 28 33 35 36 0
3 7 8 10 12 13 15 17 21 23 25 26 27 29 34 36 37 0
4 8 9 11 13 14 16 18 22 24 26 27 28 30 35 37 38 0
5 9 10 12 14 15 17 19 20 23 25 27 28 29 31 36 38 0
1 6 10 11 13 15 16 18 20 21 24 26 28 29 30 32 37 0
2 7 11 12 14 16 17 19 21 22 25 27 29 30 31 33 38 0
1 3 8 12 13 15 17 18 20 22 23 26 28 30 31 32 34 0
2 4 9 13 14 16 18 19 21 23 24 27 29 31 32 33 35 0
1 3 5 10 14 15 17 19 22 24 25 28 30 32 33 34 36 0
1 2 4 6 11 15 16 18 23 25 26 29 31 33 34 35 37 0
2 3 5 7 12 16 17 19 24 26 27 30 32 34 35 36 38 0
1 3 4 6 8 13 17 18 20 25 27 28 31 33 35 36 37 0
2 4 5 7 9 14 18 19 21 26 28 29 32 34 36 37 38 0
1 3 5 6 8 10 15 19 20 22 27 29 30 33 35 37 38 0
1 2 4 6 7 9 11 16 20 21 23 28 30 31 34 36 38 0
2 3 5 7 8 10 12 17 20 21 22 24 29 31 32 35 37 0
2 4 6 7 12 13 14 18 19 25 26 27 30 33 34 36 37 0
1 3 5 7 8 13 14 15 19 26 27 28 31 34 35 37 38 0
1 2 4 6 8 9 14 15 16 20 27 28 29 32 35 36 38 0
2 3 5 7 9 10 15 16 17 20 21 28 29 30 33 36 37 0
3 4 6 8 10 11 16 17 18 21 22 29 30 31 34 37 38 0
4 5 7 9 11 12 17 18 19 20 22 23 30 31 32 35 38 0
1 5 6 8 10 12 13 18 19 20 21 23 24 31 32 33 36 0
1 2 6 7 9 11 13 14 19 21 22 24 25 32 33 34 37 0
1 2 3 7 8 10 12 14 15 22 23 25 26 33 34 35 38 0
2 3 4 8 9 11 13 15 16 20 23 24 26 27 34 35 36 0
3 4 5 9 10 12 14 16 17 21 24 25 27 28 35 36 37 0
4 5 6 10 11 13 15 17 18 22 25 26 28 29 36 37 38 0
5 6 7 11 12 14 16 18 19 20 23 26 27 29 30 37 38 0
1 6 7 8 12 13 15 17 19 20 21 24 27 28 30 31 38 0
1 2 7 8 9 13 14 16 18 20 21 22 25 28 29 31 32 0
2 3 8 9 10 14 15 17 19 21 22 23 26 29 30 32 33 0
1 3 4 9 10 11 15 16 18 22 23 24 27 30 31 33 34 0
2 4 5 10 11 12 16 17 19 23 24 25 28 31 32 34 35 0
1 3 5 6 11 12 13 17 18 24 25 26 29 32 33 35 36 0
2 3 7 8 9 14 15 17 19 22 23 25 26 29 32 33 34 0
1 3 4 8 9 10 15 16 18 23 24 26 27 30 33 34 35 0
2 4 5 9 10 11 16 17 19 24 25 27 28 31 34 35 36 0
1 3 5 6 10 11 12 17 18 25 26 28 29 32 35 36 37 0
2 4 6 7 11 12 13 18 19 26 27 29 30 33 36 37 38 0
1 3 5 7 8 12 13 14 19 20 27 28 30 31 34 37 38 0
1 2 4 6 8 9 13 14 15 20 21 28 29 31 32 35 38 0
2 3 5 7 9 10 14 15 16 20 21 22 29 30 32 33 36 0
3 4 6 8 10 11 15 16 17 21 22 23 30 31 33 34 37 0
4 5 7 9 11 12 16 17 18 22 23 24 31 32 34 35 38 0
5 6 8 10 12 13 17 18 19 20 23 24 25 32 33 35 36 0
1 6 7 9 11 13 14 18 19 21 24 25 26 33 34 36 37 0
1 2 7 8 10 12 14 15 19 22 25 26 27 34 35 37 38 0
1 2 3 8 9 11 13 15 16 20 23 26 27 28 35 36 38 0
2 3 4 9 10 12 14 16 17 20 21 24 27 28 29 36 37 0
3 4 5 10 11 13 15 17 18 21 22 25 28 29 30 37 38 0
4 5 6 11 12 14 16 18 19 20 22 23 26 29 30 31 38 0
1 5 6 7 12 13 15 17 19 20 21 23 24 27 30 31 32 0
1 2 6 7 8 13 14 16 18 21 22 24 25 28 31 32 33 0
3 5 7 11 14 17 18 21 24 26 27 29 31 32 33 34 35 38 0
4 6 8 12 15 18 19 20 22 25 27 28 30 32 33 34 35 36 0
1 5 7 9 13 16 19 21 23 26 28 29 31 33 34 35 36 37 0
1 2 6 8 10 14 17 22 24 27 29 30 32 34 35 36 37 38 0
2 3 7 9 11 15 18 20 23 25 28 30 31 33 35 36 37 38 0
3 4 8 10 12 16 19 20 21 24 26 29 31 32 34 36 37 38 0
1 4 5 9 11 13 17 20 21 22 25 27 30 32 33 35 37 38 0
2 5 6 10 12 14 18 20 21 22 23 26 28 31 33 34 36 38 0
3 6 7 11 13 15 19 20 21 22 23 24 27 29 32 34 35 37 0
1 4 7 8 12 14 16 21 22 23 24 25 28 30 33 35 36 38 0
2 5 8 9 13 15 17 20 22 23 24 25 26 29 31 34 36 37 0
3 6 9 10 14 16 18 21 23 24 25 26 27 30 32 35 37 38 0
4 7 10 11 15 17 19 20 22 24 25 26 27 28 31 33 36 38 0
1 5 8 11 12 16 18 20 21 23 25 26 27 28 29 32 34 37 0
2 6 9 12 13 17 19 21 22 24 26 27 28 29 30 33 35 38 0
1 3 7 10 13 14 18 20 22 23 25 27 28 29 30 31 34 36 0
2 4 8 11 14 15 19 21 23 24 26 28 29 30 31 32 35 37 0
1 3 5 9 12 15 16 22 24 25 27 29 30 31 32 33 36 38 0
2 4 6 10 13 16 17 20 23 25 26 28 30 31 32 33 34 37 0
3 4 7 10 14 16 18 21 24 25 26 27 28 30 32 33 35 38 0
4 5 8 11 15 17 19 20 22 25 26 27 28 29 31 33 34 36 0
1 5 6 9 12 16 18 21 23 26 27 28 29 30 32 34 35 37 0
2 6 7 10 13 17 19 22 24 27 28 29 30 31 33 35 36 38 0
1 3 7 8 11 14 18 20 23 25 28 29 30 31 32 34 36 37 0
2 4 8 9 12 15 19 21 24 26 29 30 31 32 33 35 37 38 0
1 3 5 9 10 13 16 20 22 25 27 30 31 32 33 34 36 38 0
2 4 6 10 11 14 17 20 21 23 26 28 31 32 33 34 35 37 0
3 5 7 11 12 15 18 21 22 24 27 29 32 33 34 35 36 38 0
4 6 8 12 13 16 19 20 22 23 25 28 30 33 34 35 36 37 0
1 5 7 9 13 14 17 21 23 24 26 29 31 34 35 36 37 38 0
2 6 8 10 14 15 18 20 22 24 25 27 30 32 35 36 37 38 0
3 7 9 11 15 16 19 20 21 23 25 26 28 31 33 36 37 38 0
1 4 8 10 12 16 17 20 21 22 24 26 27 29 32 34 37 38 0
2 5 9 11 13 17 18 20 21 22 23 25 27 28 30 33 35 38 0
3 6 10 12 14 18 19 20 21 22 23 24 26 28 29 31 34 36 0
1 4 7 11 13 15 19 21 22 23 24 25 27 29 30 32 35 37 0
1 2 5 8 12 14 16 22 23 24 25 26 28 30 31 33 36 38 0
2 3 6 9 13 15 17 20 23 24 25 26 27 29 31 32 34 37 0
3 5 7 12 15 18 21 24 25 27 30 32 33 35 36 37 38 0
4 6 8 13 16 19 20 22 25 26 28 31 33 34 36 37 38 0
1 5 7 9 14 17 20 21 23 26 27 29 32 34 35 37 38 0
2 6 8 10 15 18 20 21 22 24 27 28 30 33 35 36 38 0
3 7 9 11 16 19 20 21 22 23 25 28 29 31 34 36 37 0
1 4 8 10 12 17 21 22 23 24 26 29 30 32 35 37 38 0
2 5 9 11 13 18 20 22 23 24 25 27 30 31 33 36 38 0
3 6 10 12 14 19 20 21 23 24 25 26 28 31 32 34 37 0
1 4 7 11 13 15 21 22 24 25 26 27 29 32 33 35 38 0
2 5 8 12 14 16 20 22 23 25 26 27 28 30 33 34 36 0
3 6 9 13 15 17 21 23 24 26 27 28 29 31 34 35 37 0
4 7 10 14 16 18 22 24 25 27 28 29 30 32 35 36 38 0
5 8 11 15 17 19 20 23 25 26 28 29 30 31 33 36 37 0
1 6 9 12 16 18 21 24 26 27 29 30 31 32 34 37 38 0
2 7 10 13 17 19 20 22 25 27 28 30 31 32 33 35 38 0
1 3 8 11 14 18 20 21 23 26 28 29 31 32 33 34 36 0
2 4 9 12 15 19 21 22 24 27 29 30 32 33 34 35 37 0
1 3 5 10 13 16 22 23 25 28 30 31 33 34 35 36 38 0
2 4 6 11 14 17 20 23 24 26 29 31 32 34 35 36 37 0
3 6 9 14 16 18 21 22 23 24 26 27 29 32 34 35 38 0
4 7 10 15 17 19 20 22 23 24 25 27 28 30 33 35 36 0
1 5 8 11 16 18 21 23 24 25 26 28 29 31 34 36 37 0
2 6 9 12 17 19 22 24 25 26 27 29 30 32 35 37 38 0
1 3 7 10 13 18 20 23 25 26 27 28 30 31 33 36 38 0
2 4 8 11 14 19 20 21 24 26 27 28 29 31 32 34 37 0
1 3 5 9 12 15 21 22 25 27 28 29 30 32 33 35 38 0
2 4 6 10 13 16 20 22 23 26 28 29 30 31 33 34 36 0
3 5 7 11 14 17 21 23 24 27 29 30 31 32 34 35 37 0
4 6 8 12 15 18 22 24 25 28 30 31 32 33 35 36 38 0
5 7 9 13 16 19 20 23 25 26 29 31 32 33 34 36 37 0
1 6 8 10 14 17 21 24 26 27 30 32 33 34 35 37 38 0
2 7 9 11 15 18 20 22 25 27 28 31 33 34 35 36 38 0
3 8 10 12 16 19 20 21 23 26 28 29 32 34 35 36 37 0
1 4 9 11 13 17 21 22 24 27 29 30 33 35 36 37 38 0
2 5 10 12 14 18 20 22 23 25 28 30 31 34 36 37 38 0
3 6 11 13 15 19 20 21 23 24 26 29 31 32 35 37 38 0
1 4 7 12 14 16 20 21 22 24 25 27 30 32 33 36 38 0
2 5 8 13 15 17 20 21 22 23 25 26 28 31 33 34 37 0
2 5 6 10 11 14 15 16 19 22 23 26 28 29 31 32 36 37 38 0
1 3 6 7 11 12 15 16 17 20 23 24 27 29 30 32 33 37 38 0
2 4 7 8 12 13 16 17 18 20 21 24 25 28 30 31 33 34 38 0
3 5 8 9 13 14 17 18 19 20 21 22 25 26 29 31 32 34 35 0
1 4 6 9 10 14 15 18 19 21 22 23 26 27 30 32 33 35 36 0
1 2 5 7 10 11 15 16 19 22 23 24 27 28 31 33 34 36 37 0
1 2 3 6 8 11 12 16 17 23 24 25 28 29 32 34 35 37 38 0
2 3 4 7 9 12 13 17 18 20 24 25 26 29 30 33 35 36 38 0
3 4 5 8 10 13 14 18 19 20 21 25 26 27 30 31 34 36 37 0
1 4 5 6 9 11 14 15 19 21 22 26 27 28 31 32 35 37 38 0
1 2 5 6 7 10 12 15 16 20 22 23 27 28 29 32 33 36 38 0
2 3 6 7 8 11 13 16 17 20 21 23 24 28 29 30 33 34 37 0
3 4 7 8 9 12 14 17 18 21 22 24 25 29 30 31 34 35 38 0
4 5 8 9 10 13 15 18 19 20 22 23 25 26 30 31 32 35 36 0
1 5 6 9 10 11 14 16 19 21 23 24 26 27 31 32 33 36 37 0
1 2 6 7 10 11 12 15 17 22 24 25 27 28 32 33 34 37 38 0
2 3 7 8 11 12 13 16 18 20 23 25 26 28 29 33 34 35 38 0
3 4 8 9 12 13 14 17 19 20 21 24 26 27 29 30 34 35 36 0
1 4 5 9 10 13 14 15 18 21 22 25 27 28 30 31 35 36 37 0
2 5 6 7 10 11 15 16 19 21 22 23 27 28 30 31 33 36 37 0
1 3 6 7 8 11 12 16 17 22 23 24 28 29 31 32 34 37 38 0
2 4 7 8 9 12 13 17 18 20 23 24 25 29 30 32 33 35 38 0
3 5 8 9 10 13 14 18 19 20 21 24 25 26 30 31 33 34 36 0
1 4 6 9 10 11 14 15 19 21 22 25 26 27 31 32 34 35 37 0
1 2 5 7 10 11 12 15 16 22 23 26 27 28 32 33 35 36 38 0
2 3 6 8 11 12 13 16 17 20 23 24 27 28 29 33 34 36 37 0
3 4 7 9 12 13 14 17 18 21 24 25 28 29 30 34 35 37 38 0
4 5 8 10 13 14 15 18 19 20 22 25 26 29 30 31 35 36 38 0
1 5 6 9 11 14 15 16 19 20 21 23 26 27 30 31 32 36 37 0
1 2 6 7 10 12 15 16 17 21 22 24 27 28 31 32 33 37 38 0
2 3 7 8 11 13 16 17 18 20 22 23 25 28 29 32 33 34 38 0
3 4 8 9 12 14 17 18 19 20 21 23 24 26 29 30 33 34 35 0
1 4 5 9 10 13 15 18 19 21 22 24 25 27 30 31 34 35 36 0
1 2 5 6 10 11 14 16 19 22 23 25 26 28 31 32 35 36 37 0
1 2 3 6 7 11 12 15 17 23 24 26 27 29 32 33 36 37 38 0
2 3 4 7 8 12 13 16 18 20 24 25 27 28 30 33 34 37 38 0
3 4 5 8 9 13 14 17 19 20 21 25 26 28 29 31 34 35 38 0
1 4 5 6 9 10 14 15 18 20 21 22 26 27 29 30 32 35 36 0
2 5 6 10 13 14 16 18 19 22 23 26 28 29 30 31 36 38 0
1 3 6 7 11 14 15 17 19 20 23 24 27 29 30 31 32 37 0
1 2 4 7 8 12 15 16 18 21 24 25 28 30 31 32 33 38 0
2 3 5 8 9 13 16 17 19 20 22 25 26 29 31 32 33 34 0
1 3 4 6 9 10 14 17 18 21 23 26 27 30 32 33 34 35 0
2 4 5 7 10 11 15 18 19 22 24 27 28 31 33 34 35 36 0
1 3 5 6 8 11 12 16 19 23 25 28 29 32 34 35 36 37 0
1 2 4 6 7 9 12 13 17 24 26 29 30 33 35 36 37 38 0
2 3 5 7 8 10 13 14 18 20 25 27 30 31 34 36 37 38 0
3 4 6 8 9 11 14 15 19 20 21 26 28 31 32 35 37 38 0
1 4 5 7 9 10 12 15 16 20 21 22 27 29 32 33 36 38 0
2 5 6 8 10 11 13 16 17 20 21 22 23 28 30 33 34 37 0
3 6 7 9 11 12 14 17 18 21 22 23 24 29 31 34 35 38 0
4 7 8 10 12 13 15 18 19 20 22 23 24 25 30 32 35 36 0
1 5 8 9 11 13 14 16 19 21 23 24 25 26 31 33 36 37 0
1 2 6 9 10 12 14 15 17 22 24 25 26 27 32 34 37 38 0
2 3 7 10 11 13 15 16 18 20 23 25 26 27 28 33 35 38 0
3 4 8 11 12 14 16 17 19 20 21 24 26 27 28 29 34 36 0
1 4 5 9 12 13 15 17 18 21 22 25 27 28 29 30 35 37 0
2 3 5 7 8 11 15 16 19 21 23 28 29 30 31 33 36 37 0
1 3 4 6 8 9 12 16 17 22 24 29 30 31 32 34 37 38 0
2 4 5 7 9 10 13 17 18 20 23 25 30 31 32 33 35 38 0
3 5 6 8 10 11 14 18 19 20 21 24 26 31 32 33 34 36 0
1 4 6 7 9 11 12 15 19 21 22 25 27 32 33 34 35 37 0
1 2 5 7 8 10 12 13 16 22 23 26 28 33 34 35 36 38 0
2 3 6 8 9 11 13 14 17 20 23 24 27 29 34 35 36 37 0
3 4 7 9 10 12 14 15 18 21 24 25 28 30 35 36 37 38 0
4 5 8 10 11 13 15 16 19 20 22 25 26 29 31 36 37 38 0
1 5 6 9 11 12 14 16 17 20 21 23 26 27 30 32 37 38 0
2 6 7 10 12 13 15 17 18 20 21 22 24 27 28 31 33 38 0
3 7 8 11 13 14 16 18 19 20 21 22 23 25 28 29 32 34 0
1 4 8 9 12 14 15 17 19 21 22 23 24 26 29 30 33 35 0
1 2 5 9 10 13 15 16 18 22 23 24 25 27 30 31 34 36 0
2 3 6 10 11 14 16 17 19 23 24 25 26 28 31 32 35 37 0
1 3 4 7 11 12 15 17 18 24 25 26 27 29 32 33 36 38 0
2 4 5 8 12 13 16 18 19 20 25 26 27 28 30 33 34 37 0
1 3 5 6 9 13 14 17 19 21 26 27 28 29 31 34 35 38 0
1 2 4 6 7 10 14 15 18 20 22 27 28 29 30 32 35 36 0
4 5 6 10 13 16 17 18 22 23 26 28 29 30 31 32 33 34 38 0
5 6 7 11 14 17 18 19 20 23 24 27 29 30 31 32 33 34 35 0
1 6 7 8 12 15 18 19 21 24 25 28 30 31 32 33 34 35 36 0
1 2 7 8 9 13 16 19 22 25 26 29 31 32 33 34 35 36 37 0
1 2 3 8 9 10 14 17 23 26 27 30 32 33 34 35 36 37 38 0
2 3 4 9 10 11 15 18 20 24 27 28 31 33 34 35 36 37 38 0
3 4 5 10 11 12 16 19 20 21 25 28 29 32 34 35 36 37 38 0
1 4 5 6 11 12 13 17 20 21 22 26 29 30 33 35 36 37 38 0
2 5 6 7 12 13 14 18 20 21 22 23 27 30 31 34 36 37 38 0
3 6 7 8 13 14 15 19 20 21 22 23 24 28 31 32 35 37 38 0
1 4 7 8 9 14 15 16 20 21 22 23 24 25 29 32 33 36 38 0
2 5 8 9 10 15 16 17 20 21 22 23 24 25 26 30 33 34 37 0
3 6 9 10 11 16 17 18 21 22 23 24 25 26 27 31 34 35 38 0
4 7 10 11 12 17 18 19 20 22 23 24 25 26 27 28 32 35 36 0
1 5 8 11 12 13 18 19 21 23 24 25 26 27 28 29 33 36 37 0
1 2 6 9 12 13 14 19 22 24 25 26 27 28 29 30 34 37 38 0
1 2 3 7 10 13 14 15 20 23 25 26 27 28 29 30 31 35 38 0
2 3 4 8 11 14 15 16 20 21 24 26 27 28 29 30 31 32 36 0
3 4 5 9 12 15 16 17 21 22 25 27 28 29 30 31 32 33 37 0
3 4 5 8 11 15 16 17 21 25 26 27 28 29 30 31 33 36 37 0
4 5 6 9 12 16 17 18 22 26 27 28 29 30 31 32 34 37 38 0
5 6 7 10 13 17 18 19 20 23 27 28 29 30 31 32 33 35 38 0
1 6 7 8 11 14 18 19 20 21 24 28 29 30 31 32 33 34 36 0
1 2 7 8 9 12 15 19 21 22 25 29 30 31 32 33 34 35 37 0
1 2 3 8 9 10 13 16 22 23 26 30 31 32 33 34 35 36 38 0
2 3 4 9 10 11 14 17 20 23 24 27 31 32 33 34 35 36 37 0
3 4 5 10 11 12 15 18 21 24 25 28 32 33 34 35 36 37 38 0
4 5 6 11 12 13 16 19 20 22 25 26 29 33 34 35 36 37 38 0
1 5 6 7 12 13 14 17 20 21 23 26 27 30 34 35 36 37 38 0
2 6 7 8 13 14 15 18 20 21 22 24 27 28 31 35 36 37 38 0
3 7 8 9 14 15 16 19 20 21 22 23 25 28 29 32 36 37 38 0
1 4 8 9 10 15 16 17 20 21 22 23 24 26 29 30 33 37 38 0
2 5 9 10 11 16 17 18 20 21 22 23 24 25 27 30 31 34 38 0
3 6 10 11 12 17 18 19 20 21 22 23 24 25 26 28 31 32 35 0
1 4 7 11 12 13 18 19 21 22 23 24 25 26 27 29 32 33 36 0
1 2 5 8 12 13 14 19 22 23 24 25 26 27 28 30 33 34 37 0
1 2 3 6 9 13 14 15 23 24 25 26 27 28 29 31 34 35 38 0
2 3 4 7 10 14 15 16 20 24 25 26 27 28 29 30 32 35 36 0
4 5 9 12 15 16 18 22 25 27 28 29 30 31 32 33 36 38 0
5 6 10 13 16 17 19 20 23 26 28 29 30 31 32 33 34 37 0
1 6 7 11 14 17 18 21 24 27 29 30 31 32 33 34 35 38 0
2 7 8 12 15 18 19 20 22 25 28 30 31 32 33 34 35 36 0
1 3 8 9 13 16 19 21 23 26 29 31 32 33 34 35 36 37 0
1 2 4 9 10 14 17 22 24 27 30 32 33 34 35 36 37 38 0
2 3 5 10 11 15 18 20 23 25 28 31 33 34 35 36 37 38 0
3 4 6 11 12 16 19 20 21 24 26 29 32 34 35 36 37 38 0
1 4 5 7 12 13 17 20 21 22 25 27 30 33 35 36 37 38 0
2 5 6 8 13 14 18 20 21 22 23 26 28 31 34 36 37 38 0
3 6 7 9 14 15 19 20 21 22 23 24 27 29 32 35 37 38 0
1 4 7 8 10 15 16 20 21 22 23 24 25 28 30 33 36 38 0
2 5 8 9 11 16 17 20 21 22 23 24 25 26 29 31 34 37 0
3 6 9 10 12 17 18 21 22 23 24 25 26 27 30 32 35 38 0
4 7 10 11 13 18 19 20 22 23 24 25 26 27 28 31 33 36 0
1 5 8 11 12 14 19 21 23 24 25 26 27 28 29 32 34 37 0
1 2 6 9 12 13 15 22 24 25 26 27 28 29 30 33 35 38 0
2 3 7 10 13 14 16 20 23 25 26 27 28 29 30 31 34 36 0
3 4 8 11 14 15 17 21 24 26 27 28 29 30 31 32 35 37 0
3 5 6 9 12 16 17 21 23 26 27 28 29 30 31 32 34 37 0
4 6 7 10 13 17 18 22 24 27 28 29 30 31 32 33 35 38 0
5 7 8 11 14 18 19 20 23 25 28 29 30 31 32 33 34 36 0
1 6 8 9 12 15 19 21 24 26 29 30 31 32 33 34 35 37 0
1 2 7 9 10 13 16 22 25 27 30 31 32 33 34 35 36 38 0
2 3 8 10 11 14 17 20 23 26 28 31 32 33 34 35 36 37 0
3 4 9 11 12 15 18 21 24 27 29 32 33 34 35 36 37 38 0
4 5 10 12 13 16 19 20 22 25 28 30 33 34 35 36 37 38 0
1 5 6 11 13 14 17 20 21 23 26 29 31 34 35 36 37 38 0
2 6 7 12 14 15 18 20 21 22 24 27 30 32 35 36 37 38 0
3 7 8 13 15 16 19 20 21 22 23 25 28 31 33 36 37 38 0
1 4 8 9 14 16 17 20 21 22 23 24 26 29 32 34 37 38 0
2 5 9 10 15 17 18 20 21 22 23 24 25 27 30 33 35 38 0
3 6 10 11 16 18 19 20 21 22 23 24 25 26 28 31 34 36 0
1 4 7 11 12 17 19 21 22 23 24 25 26 27 29 32 35 37 0
1 2 5 8 12 13 18 22 23 24 25 26 27 28 30 33 36 38 0
2 3 6 9 13 14 19 20 23 24 25 26 27 28 29 31 34 37 0
1 3 4 7 10 14 15 21 24 25 26 27 28 29 30 32 35 38 0
2 4 5 8 11 15 16 20 22 25 26 27 28 29 30 31 33 36 0
4 5 10 13 16 18 22 23 25 28 30 31 33 34 36 38 0
5 6 11 14 17 19 20 23 24 26 29 31 32 34 35 37 0
1 6 7 12 15 18 21 24 25 27 30 32 33 35 36 38 0
2 7 8 13 16 19 20 22 25 26 28 31 33 34 36 37 0
1 3 8 9 14 17 21 23 26 27 29 32 34 35 37 38 0
2 4 9 10 15 18 20 22 24 27 28 30 33 35 36 38 0
3 5 10 11 16 19 20 21 23 25 28 29 31 34 36 37 0
1 4 6 11 12 17 21 22 24 26 29 30 32 35 37 38 0
2 5 7 12 13 18 20 22 23 25 27 30 31 33 36 38 0
3 6 8 13 14 19 20 21 23 24 26 28 31 32 34 37 0
1 4 7 9 14 15 21 22 24 25 27 29 32 33 35 38 0
2 5 8 10 15 16 20 22 23 25 26 28 30 33 34 36 0
3 6 9 11 16 17 21 23 24 26 27 29 31 34 35 37 0
4 7 10 12 17 18 22 24 25 27 28 30 32 35 36 38 0
5 8 11 13 18 19 20 23 25 26 28 29 31 33 36 37 0
1 6 9 12 14 19 21 24 26 27 29 30 32 34 37 38 0
1 2 7 10 13 15 20 22 25 27 28 30 31 33 35 38 0
2 3 8 11 14 16 20 21 23 26 28 29 31 32 34 36 0
3 4 9 12 15 17 21 22 24 27 29 30 32 33 35 37 0
3 5 8 11 16 17 21 23 25 26 28 29 31 34 36 37 0
4 6 9 12 17 18 22 24 26 27 29 30 32 35 37 38 0
5 7 10 13 18 19 20 23 25 27 28 30 31 33 36 38 0
1 6 8 11 14 19 20 21 24 26 28 29 31 32 34 37 0
1 2 7 9 12 15 21 22 25 27 29 30 32 33 35 38 0
2 3 8 10 13 16 20 22 23 26 28 30 31 33 34 36 0
3 4 9 11 14 17 21 23 24 27 29 31 32 34 35 37 0
4 5 10 12 15 18 22 24 25 28 30 32 33 35 36 38 0
5 6 11 13 16 19 20 23 25 26 29 31 33 34 36 37 0
1 6 7 12 14 17 21 24 26 27 30 32 34 35 37 38 0
2 7 8 13 15 18 20 22 25 27 28 31 33 35 36 38 0
3 8 9 14 16 19 20 21 23 26 28 29 32 34 36 37 0
1 4 9 10 15 17 21 22 24 27 29 30 33 35 37 38 0
2 5 10 11 16 18 20 22 23 25 28 30 31 34 36 38 0
3 6 11 12 17 19 20 21 23 24 26 29 31 32 35 37 0
1 4 7 12 13 18 21 22 24 25 27 30 32 33 36 38 0
2 5 8 13 14 19 20 22 23 25 26 28 31 33 34 37 0
1 3 6 9 14 15 21 23 24 26 27 29 32 34 35 38 0
2 4 7 10 15 16 20 22 24 25 27 28 30 33 35 36 0
3 5 7 8 11 14 16 17 21 23 28 29 30 31 32 34 37 0
4 6 8 9 12 15 17 18 22 24 29 30 31 32 33 35 38 0
5 7 9 10 13 16 18 19 20 23 25 30 31 32 33 34 36 0
1 6 8 10 11 14 17 19 21 24 26 31 32 33 34 35 37 0
1 2 7 9 11 12 15 18 22 25 27 32 33 34 35 36 38 0
2 3 8 10 12 13 16 19 20 23 26 28 33 34 35 36 37 0
1 3 4 9 11 13 14 17 21 24 27 29 34 35 36 37 38 0
2 4 5 10 12 14 15 18 20 22 25 28 30 35 36 37 38 0
3 5 6 11 13 15 16 19 20 21 23 26 29 31 36 37 38 0
1 4 6 7 12 14 16 17 20 21 22 24 27 30 32 37 38 0
2 5 7 8 13 15 17 18 20 21 22 23 25 28 31 33 38 0
3 6 8 9 14 16 18 19 20 21 22 23 24 26 29 32 34 0
1 4 7 9 10 15 17 19 21 22 23 24 25 27 30 33 35 0
1 2 5 8 10 11 16 18 22 23 24 25 26 28 31 34 36 0
2 3 6 9 11 12 17 19 23 24 25 26 27 29 32 35 37 0
1 3 4 7 10 12 13 18 24 25 26 27 28 30 33 36 38 0
2 4 5 8 11 13 14 19 20 25 26 27 28 29 31 34 37 0
1 3 5 6 9 12 14 15 21 26 27 28 29 30 32 35 38 0
2 4 6 7 10 13 15 16 20 22 27 28 29 30 31 33 36 0
4 5 7 10 13 14 16 18 22 25 27 28 29 30 31 36 38 0
5 6 8 11 14 15 17 19 20 23 26 28 29 30 31 32 37 0
1 6 7 9 12 15 16 18 21 24 27 29 30 31 32 33 38 0
2 7 8 10 13 16 17 19 20 22 25 28 30 31 32 33 34 0
1 3 8 9 11 14 17 18 21 23 26 29 31 32 33 34 35 0
2 4 9 10 12 15 18 19 22 24 27 30 32 33 34 35 36 0
1 3 5 10 11 13 16 19 23 25 28 31 33 34 35 36 37 0
1 2 4 6 11 12 14 17 24 26 29 32 34 35 36 37 38 0
2 3 5 7 12 13 15 18 20 25 27 30 33 35 36 37 38 0
3 4 6 8 13 14 16 19 20 21 26 28 31 34 36 37 38 0
1 4 5 7 9 14 15 17 20 21 22 27 29 32 35 37 38 0
2 5 6 8 10 15 16 18 20 21 22 23 28 30 33 36 38 0
3 6 7 9 11 16 17 19 20 21 22 23 24 29 31 34 37 0
1 4 7 8 10 12 17 18 21 22 23 24 25 30 32 35 38 0
2 5 8 9 11 13 18 19 20 22 23 24 25 26 31 33 36 0
1 3 6 9 10 12 14 19 21 23 24 25 26 27 32 34 37 0
1 2 4 7 10 11 13 15 22 24 25 26 27 28 33 35 38 0
2 3 5 8 11 12 14 16 20 23 25 26 27 28 29 34 36 0
3 4 6 9 12 13 15 17 21 24 26 27 28 29 30 35 37 0
2 5 9 12 14 19 21 22 23 25 27 28 29 30 32 34 37 0
1 3 6 10 13 15 22 23 24 26 28 29 30 31 33 35 38 0
2 4 7 11 14 16 20 23 24 25 27 29 30 31 32 34 36 0
3 5 8 12 15 17 21 24 25 26 28 30 31 32 33 35 37 0
4 6 9 13 16 18 22 25 26 27 29 31 32 33 34 36 38 0
5 7 10 14 17 19 20 23 26 27 28 30 32 33 34 35 37 0
1 6 8 11 15 18 21 24 27 28 29 31 33 34 35 36 38 0
2 7 9 12 16 19 20 22 25 28 29 30 32 34 35 36 37 0
1 3 8 10 13 17 21 23 26 29 30 31 33 35 36 37 38 0
2 4 9 11 14 18 20 22 24 27 30 31 32 34 36 37 38 0
3 5 10 12 15 19 20 21 23 25 28 31 32 33 35 37 38 0
1 4 6 11 13 16 20 21 22 24 26 29 32 33 34 36 38 0
2 5 7 12 14 17 20 21 22 23 25 27 30 33 34 35 37 0
3 6 8 13 15 18 21 22 23 24 26 28 31 34 35 36 38 0
4 7 9 14 16 19 20 22 23 24 25 27 29 32 35 36 37 0
1 5 8 10 15 17 21 23 24 25 26 28 30 33 36 37 38 0
2 6 9 11 16 18 20 22 24 25 26 27 29 31 34 37 38 0
3 7 10 12 17 19 20 21 23 25 26 27 28 30 32 35 38 0
1 4 8 11 13 18 20 21 22 24 26 27 28 29 31 33 36 0
2 7 9 12 16 19 22 25 27 29 30 31 32 34 36 37 38 0
1 3 8 10 13 17 20 23 26 28 30 31 32 33 35 37 38 0
2 4 9 11 14 18 20 21 24 27 29 31 32 33 34 36 38 0
3 5 10 12 15 19 20 21 22 25 28 30 32 33 34 35 37 0
1 4 6 11 13 16 21 22 23 26 29 31 33 34 35 36 38 0
2 5 7 12 14 17 20 22 23 24 27 30 32 34 35 36 37 0
3 6 8 13 15 18 21 23 24 25 28 31 33 35 36 37 38 0
4 7 9 14 16 19 20 22 24 25 26 29 32 34 36 37 38 0
1 5 8 10 15 17 20 21 23 25 26 27 30 33 35 37 38 0
2 6 9 11 16 18 20 21 22 24 26 27 28 31 34 36 38 0
3 7 10 12 17 19 20 21 22 23 25 27 28 29 32 35 37 0
1 4 8 11 13 18 21 22 23 24 26 28 29 30 33 36 38 0
2 5 9 12 14 19 20 22 23 24 25 27 29 30 31 34 37 0
1 3 6 10 13 15 21 23 24 25 26 28 30 31 32 35 38 0
2 4 7 11 14 16 20 22 24 25 26 27 29 31 32 33 36 0
3 5 8 12 15 17 21 23 25 26 27 28 30 32 33 34 37 0
4 6 9 13 16 18 22 24 26 27 28 29 31 33 34 35 38 0
5 7 10 14 17 19 20 23 25 27 28 29 30 32 34 35 36 0
1 6 8 11 15 18 21 24 26 28 29 30 31 33 35 36 37 0
4 5 9 12 15 17 18 22 25 27 28 29 30 32 33 36 38 0
5 6 10 13 16 18 19 20 23 26 28 29 30 31 33 34 37 0
1 6 7 11 14 17 19 21 24 27 29 30 31 32 34 35 38 0
1 2 7 8 12 15 18 20 22 25 28 30 31 32 33 35 36 0
2 3 8 9 13 16 19 21 23 26 29 31 32 33 34 36 37 0
1 3 4 9 10 14 17 22 24 27 30 32 33 34 35 37 38 0
2 4 5 10 11 15 18 20 23 25 28 31 33 34 35 36 38 0
3 5 6 11 12 16 19 20 21 24 26 29 32 34 35 36 37 0
1 4 6 7 12 13 17 21 22 25 27 30 33 35 36 37 38 0
2 5 7 8 13 14 18 20 22 23 26 28 31 34 36 37 38 0
3 6 8 9 14 15 19 20 21 23 24 27 29 32 35 37 38 0
1 4 7 9 10 15 16 20 21 22 24 25 28 30 33 36 38 0
2 5 8 10 11 16 17 20 21 22 23 25 26 29 31 34 37 0
3 6 9 11 12 17 18 21 22 23 24 26 27 30 32 35 38 0
4 7 10 12 13 18 19 20 22 23 24 25 27 28 31 33 36 0
1 5 8 11 13 14 19 21 23 24 25 26 28 29 32 34 37 0
1 2 6 9 12 14 15 22 24 25 26 27 29 30 33 35 38 0
2 3 7 10 13 15 16 20 23 25 26 27 28 30 31 34 36 0
3 4 8 11 14 16 17 21 24 26 27 28 29 31 32 35 37 0
3 4 6 9 12 16 17 21 23 26 27 29 30 31 32 34 37 0
4 5 7 10 13 17 18 22 24 27 28 30 31 32 33 35 38 0
5 6 8 11 14 18 19 20 23 25 28 29 31 32 33 34 36 0
1 6 7 9 12 15 19 21 24 26 29 30 32 33 34 35 37 0
1 2 7 8 10 13 16 22 25 27 30 31 33 34 35 36 38 0
2 3 8 9 11 14 17 20 23 26 28 31 32 34 35 36 37 0
3 4 9 10 12 15 18 21 24 27 29 32 33 35 36 37 38 0
4 5 10 11 13 16 19 20 22 25 28 30 33 34 36 37 38 0
1 5 6 11 12 14 17 20 21 23 26 29 31 34 35 37 38 0
2 6 7 12 13 15 18 20 21 22 24 27 30 32 35 36 38 0
3 7 8 13 14 16 19 20 21 22 23 25 28 31 33 36 37 0
1 4 8 9 14 15 17 21 22 23 24 26 29 32 34 37 38 0
2 5 9 10 15 16 18 20 22 23 24 25 27 30 33 35 38 0
3 6 10 11 16 17 19 20 21 23 24 25 26 28 31 34 36 0
1 4 7 11 12 17 18 21 22 24 25 26 27 29 32 35 37 0
2 5 8 12 13 18 19 22 23 25 26 27 28 30 33 36 38 0
1 3 6 9 13 14 19 20 23 24 26 27 28 29 31 34 37 0
1 2 4 7 10 14 15 21 24 25 27 28 29 30 32 35 38 0
2 3 5 8 11 15 16 20 22 25 26 28 29 30 31 33 36 0
4 5 7 10 12 13 18 22 25 27 28 30 33 36 38 0
5 6 8 11 13 14 19 20 23 26 28 29 31 34 37 0
1 6 7 9 12 14 15 21 24 27 29 30 32 35 38 0
2 7 8 10 13 15 16 20 22 25 28 30 31 33 36 0
3 8 9 11 14 16 17 21 23 26 29 31 32 34 37 0
4 9 10 12 15 17 18 22 24 27 30 32 33 35 38 0
5 10 11 13 16 18 19 20 23 25 28 31 33 34 36 0
1 6 11 12 14 17 19 21 24 26 29 32 34 35 37 0
1 2 7 12 13 15 18 22 25 27 30 33 35 36 38 0
2 3 8 13 14 16 19 20 23 26 28 31 34 36 37 0
1 3 4 9 14 15 17 21 24 27 29 32 35 37 38 0
2 4 5 10 15 16 18 20 22 25 28 30 33 36 38 0
3 5 6 11 16 17 19 20 21 23 26 29 31 34 37 0
1 4 6 7 12 17 18 21 22 24 27 30 32 35 38 0
2 5 7 8 13 18 19 20 22 23 25 28 31 33 36 0
1 3 6 8 9 14 19 21 23 24 26 29 32 34 37 0
1 2 4 7 9 10 15 22 24 25 27 30 33 35 38 0
2 3 5 8 10 11 16 20 23 25 26 28 31 34 36 0
3 4 6 9 11 12 17 21 24 26 27 29 32 35 37 0
4 5 6 8 11 14 15 16 17 22 25 27 28 29 30 31 32 36 37 0
5 6 7 9 12 15 16 17 18 23 26 28 29 30 31 32 33 37 38 0
6 7 8 10 13 16 17 18 19 20 24 27 29 30 31 32 33 34 38 0
1 7 8 9 11 14 17 18 19 20 21 25 28 30 31 32 33 34 35 0
1 2 8 9 10 12 15 18 19 21 22 26 29 31 32 33 34 35 36 0
1 2 3 9 10 11 13 16 19 22 23 27 30 32 33 34 35 36 37 0
1 2 3 4 10 11 12 14 17 23 24 28 31 33 34 35 36 37 38 0
2 3 4 5 11 12 13 15 18 20 24 25 29 32 34 35 36 37 38 0
3 4 5 6 12 13 14 16 19 20 21 25 26 30 33 35 36 37 38 0
1 4 5 6 7 13 14 15 17 20 21 22 26 27 31 34 36 37 38 0
2 5 6 7 8 14 15 16 18 20 21 22 23 27 28 32 35 37 38 0
3 6 7 8 9 15 16 17 19 20 21 22 23 24 28 29 33 36 38 0
1 4 7 8 9 10 16 17 18 20 21 22 23 24 25 29 30 34 37 0
2 5 8 9 10 11 17 18 19 21 22 23 24 25 26 30 31 35 38 0
1 3 6 9 10 11 12 18 19 20 22 23 24 25 26 27 31 32 36 0
1 2 4 7 10 11 12 13 19 21 23 24 25 26 27 28 32 33 37 0
1 2 3 5 8 11 12 13 14 22 24 25 26 27 28 29 33 34 38 0
2 3 4 6 9 12 13 14 15 20 23 25 26 27 28 29 30 34 35 0
3 4 5 7 10 13 14 15 16 21 24 26 27 28 29 30 31 35 36 0
4 5 6 7 10 13 15 16 17 22 23 27 28 29 30 31 32 34 37 0
5 6 7 8 11 14 16 17 18 23 24 28 29 30 31 32 33 35 38 0
6 7 8 9 12 15 17 18 19 20 24 25 29 30 31 32 33 34 36 0
1 7 8 9 10 13 16 18 19 21 25 26 30 31 32 33 34 35 37 0
1 2 8 9 10 11 14 17 19 22 26 27 31 32 33 34 35 36 38 0
1 2 3 9 10 11 12 15 18 20 23 27 28 32 33 34 35 36 37 0
2 3 4 10 11 12 13 16 19 21 24 28 29 33 34 35 36 37 38 0
1 3 4 5 11 12 13 14 17 20 22 25 29 30 34 35 36 37 38 0
2 4 5 6 12 13 14 15 18 20 21 23 26 30 31 35 36 37 38 0
3 5 6 7 13 14 15 16 19 20 21 22 24 27 31 32 36 37 38 0
1 4 6 7 8 14 15 16 17 20 21 22 23 25 28 32 33 37 38 0
2 5 7 8 9 15 16 17 18 20 21 22 23 24 26 29 33 34 38 0
3 6 8 9 10 16 17 18 19 20 21 22 23 24 25 27 30 34 35 0
1 4 7 9 10 11 17 18 19 21 22 23 24 25 26 28 31 35 36 0
1 2 5 8 10 11 12 18 19 22 23 24 25 26 27 29 32 36 37 0
1 2 3 6 9 11 12 13 19 23 24 25 26 27 28 30 33 37 38 0
1 2 3 4 7 10 12 13 14 20 24 25 26 27 28 29 31 34 38 0
2 3 4 5 8 11 13 14 15 20 21 25 26 27 28 29 30 32 35 0
3 4 5 6 9 12 14 15 16 21 22 26 27 28 29 30 31 33 36 0
4 5 6 9 11 12 15 17 18 22 25 26 27 28 32 33 36 38 0
5 6 7 10 12 13 16 18 19 20 23 26 27 28 29 33 34 37 0
1 6 7 8 11 13 14 17 19 21 24 27 28 29 30 34 35 38 0
1 2 7 8 9 12 14 15 18 20 22 25 28 29 30 31 35 36 0
2 3 8 9 10 13 15 16 19 21 23 26 29 30 31 32 36 37 0
1 3 4 9 10 11 14 16 17 22 24 27 30 31 32 33 37 38 0
2 4 5 10 11 12 15 17 18 20 23 25 28 31 32 33 34 38 0
3 5 6 11 12 13 16 18 19 20 21 24 26 29 32 33 34 35 0
1 4 6 7 12 13 14 17 19 21 22 25 27 30 33 34 35 36 0
1 2 5 7 8 13 14 15 18 22 23 26 28 31 34 35 36 37 0
2 3 6 8 9 14 15 16 19 23 24 27 29 32 35 36 37 38 0
1 3 4 7 9 10 15 16 17 20 24 25 28 30 33 36 37 38 0
2 4 5 8 10 11 16 17 18 20 21 25 26 29 31 34 37 38 0
3 5 6 9 11 12 17 18 19 20 21 22 26 27 30 32 35 38 0
1 4 6 7 10 12 13 18 19 20 21 22 23 27 28 31 33 36 0
1 2 5 7 8 11 13 14 19 21 22 23 24 28 29 32 34 37 0
1 2 3 6 8 9 12 14 15 22 23 24 25 29 30 33 35 38 0
2 3 4 7 9 10 13 15 16 20 23 24 25 26 30 31 34 36 0
3 4 5 8 10 11 14 16 17 21 24 25 26 27 31 32 35 37 0
3 4 6 9 10 12 15 16 17 21 23 26 27 31 32 33 34 37 0
4 5 7 10 11 13 16 17 18 22 24 27 28 32 33 34 35 38 0
5 6 8 11 12 14 17 18 19 20 23 25 28 29 33 34 35 36 0
1 6 7 9 12 13 15 18 19 21 24 26 29 30 34 35 36 37 0
1 2 7 8 10 13 14 16 19 22 25 27 30 31 35 36 37 38 0
1 2 3 8 9 11 14 15 17 20 23 26 28 31 32 36 37 38 0
2 3 4 9 10 12 15 16 18 20 21 24 27 29 32 33 37 38 0
3 4 5 10 11 13 16 17 19 20 21 22 25 28 30 33 34 38 0
1 4 5 6 11 12 14 17 18 20 21 22 23 26 29 31 34 35 0
2 5 6 7 12 13 15 18 19 21 22 23 24 27 30 32 35 36 0
1 3 6 7 8 13 14 16 19 22 23 24 25 28 31 33 36 37 0
1 2 4 7 8 9 14 15 17 23 24 25 26 29 32 34 37 38 0
2 3 5 8 9 10 15 16 18 20 24 25 26 27 30 33 35 38 0
3 4 6 9 10 11 16 17 19 20 21 25 26 27 28 31 34 36 0
1 4 5 7 10 11 12 17 18 21 22 26 27 28 29 32 35 37 0
2 5 6 8 11 12 13 18 19 22 23 27 28 29 30 33 36 38 0
1 3 6 7 9 12 13 14 19 20 23 24 28 29 30 31 34 37 0
1 2 4 7 8 10 13 14 15 21 24 25 29 30 31 32 35 38 0
2 3 5 8 9 11 14 15 16 20 22 25 26 30 31 32 33 36 0
3 5 9 11 12 15 17 18 21 22 25 27 28 30 32 33 38 0
4 6 10 12 13 16 18 19 20 22 23 26 28 29 31 33 34 0
1 5 7 11 13 14 17 19 21 23 24 27 29 30 32 34 35 0
1 2 6 8 12 14 15 18 22 24 25 28 30 31 33 35 36 0
2 3 7 9 13 15 16 19 23 25 26 29 31 32 34 36 37 0
1 3 4 8 10 14 16 17 24 26 27 30 32 33 35 37 38 0
2 4 5 9 11 15 17 18 20 25 27 28 31 33 34 36 38 0
3 5 6 10 12 16 18 19 20 21 26 28 29 32 34 35 37 0
1 4 6 7 11 13 17 19 21 22 27 29 30 33 35 36 38 0
1 2 5 7 8 12 14 18 20 22 23 28 30 31 34 36 37 0
2 3 6 8 9 13 15 19 21 23 24 29 31 32 35 37 38 0
1 3 4 7 9 10 14 16 20 22 24 25 30 32 33 36 38 0
2 4 5 8 10 11 15 17 20 21 23 25 26 31 33 34 37 0
3 5 6 9 11 12 16 18 21 22 24 26 27 32 34 35 38 0
4 6 7 10 12 13 17 19 20 22 23 25 27 28 33 35 36 0
1 5 7 8 11 13 14 18 21 23 24 26 28 29 34 36 37 0
2 6 8 9 12 14 15 19 22 24 25 27 29 30 35 37 38 0
1 3 7 9 10 13 15 16 20 23 25 26 28 30 31 36 38 0
2 4 8 10 11 14 16 17 20 21 24 26 27 29 31 32 37 0
3 4 6 9 10 12 16 18 21 26 27 29 31 32 34 37 38 0
4 5 7 10 11 13 17 19 20 22 27 28 30 32 33 35 38 0
1 5 6 8 11 12 14 18 20 21 23 28 29 31 33 34 36 0
2 6 7 9 12 13 15 19 21 22 24 29 30 32 34 35 37 0
1 3 7 8 10 13 14 16 22 23 25 30 31 33 35 36 38 0
2 4 8 9 11 14 15 17 20 23 24 26 31 32 34 36 37 0
3 5 9 10 12 15 16 18 21 24 25 27 32 33 35 37 38 0
4 6 10 11 13 16 17 19 20 22 25 26 28 33 34 36 38 0
1 5 7 11 12 14 17 18 20 21 23 26 27 29 34 35 37 0
2 6 8 12 13 15 18 19 21 22 24 27 28 30 35 36 38 0
1 3 7 9 13 14 16 19 20 22 23 25 28 29 31 36 37 0
1 2 4 8 10 14 15 17 21 23 24 26 29 30 32 37 38 0
2 3 5 9 11 15 16 18 20 22 24 25 27 30 31 33 38 0
3 4 6 10 12 16 17 19 20 21 23 25 26 28 31 32 34 0
1 4 5 7 11 13 17 18 21 22 24 26 27 29 32 33 35 0
2 5 6 8 12 14 18 19 22 23 25 27 28 30 33 34 36 0
1 3 6 7 9 13 15 19 23 24 26 28 29 31 34 35 37 0
1 2 4 7 8 10 14 16 24 25 27 29 30 32 35 36 38 0
2 3 5 8 9 11 15 17 20 25 26 28 30 31 33 36 37 0
3 4 5 8 12 15 16 17 21 25 26 27 28 30 31 32 33 37 0
4 5 6 9 13 16 17 18 22 26 27 28 29 31 32 33 34 38 0
5 6 7 10 14 17 18 19 20 23 27 28 29 30 32 33 34 35 0
1 6 7 8 11 15 18 19 21 24 28 29 30 31 33 34 35 36 0
1 2 7 8 9 12 16 19 22 25 29 30 31 32 34 35 36 37 0
1 2 3 8 9 10 13 17 23 26 30 31 32 33 35 36 37 38 0
2 3 4 9 10 11 14 18 20 24 27 31 32 33 34 36 37 38 0
3 4 5 10 11 12 15 19 20 21 25 28 32 33 34 35 37 38 0
1 4 5 6 11 12 13 16 20 21 22 26 29 33 34 35 36 38 0
2 5 6 7 12 13 14 17 20 21 22 23 27 30 34 35 36 37 0
3 6 7 8 13 14 15 18 21 22 23 24 28 31 35 36 37 38 0
4 7 8 9 14 15 16 19 20 22 23 24 25 29 32 36 37 38 0
1 5 8 9 10 15 16 17 20 21 23 24 25 26 30 33 37 38 0
2 6 9 10 11 16 17 18 20 21 22 24 25 26 27 31 34 38 0
3 7 10 11 12 17 18 19 20 21 22 23 25 26 27 28 32 35 0
1 4 8 11 12 13 18 19 21 22 23 24 26 27 28 29 33 36 0
1 2 5 9 12 13 14 19 22 23 24 25 27 28 29 30 34 37 0
1 2 3 6 10 13 14 15 23 24 25 26 28 29 30 31 35 38 0
2 3 4 7 11 14 15 16 20 24 25 26 27 29 30 31 32 36 0
3 5 6 9 10 12 14 18 21 26 27 28 33 34 36 38 0
4 6 7 10 11 13 15 19 20 22 27 28 29 34 35 37 0
1 5 7 8 11 12 14 16 21 23 28 29 30 35 36 38 0
2 6 8 9 12 13 15 17 20 22 24 29 30 31 36 37 0
3 7 9 10 13 14 16 18 21 23 25 30 31 32 37 38 0
4 8 10 11 14 15 17 19 20 22 24 26 31 32 33 38 0
1 5 9 11 12 15 16 18 20 21 23 25 27 32 33 34 0
2 6 10 12 13 16 17 19 21 22 24 26 28 33 34 35 0
1 3 7 11 13 14 17 18 22 23 25 27 29 34 35 36 0
2 4 8 12 14 15 18 19 23 24 26 28 30 35 36 37 0
1 3 5 9 13 15 16 19 24 25 27 29 31 36 37 38 0
1 2 4 6 10 14 16 17 20 25 26 28 30 32 37 38 0
2 3 5 7 11 15 17 18 20 21 26 27 29 31 33 38 0
3 4 6 8 12 16 18 19 20 21 22 27 28 30 32 34 0
1 4 5 7 9 13 17 19 21 22 23 28 29 31 33 35 0
1 2 5 6 8 10 14 18 22 23 24 29 30 32 34 36 0
2 3 6 7 9 11 15 19 23 24 25 30 31 33 35 37 0
1 3 4 7 8 10 12 16 24 25 26 31 32 34 36 38 0
2 4 5 8 9 11 13 17 20 25 26 27 32 33 35 37 0
3 7 9 11 12 15 16 18 21 23 25 26 31 32 33 38 0
4 8 10 12 13 16 17 19 20 22 24 26 27 32 33 34 0
1 5 9 11 13 14 17 18 21 23 25 27 28 33 34 35 0
2 6 10 12 14 15 18 19 22 24 26 28 29 34 35 36 0
1 3 7 11 13 15 16 19 23 25 27 29 30 35 36 37 0
1 2 4 8 12 14 16 17 24 26 28 30 31 36 37 38 0
2 3 5 9 13 15 17 18 20 25 27 29 31 32 37 38 0
3 4 6 10 14 16 18 19 20 21 26 28 30 32 33 38 0
1 4 5 7 11 15 17 19 20 21 22 27 29 31 33 34 0
1 2 5 6 8 12 16 18 21 22 23 28 30 32 34 35 0
2 3 6 7 9 13 17 19 22 23 24 29 31 33 35 36 0
1 3 4 7 8 10 14 18 23 24 25 30 32 34 36 37 0
2 4 5 8 9 11 15 19 24 25 26 31 33 35 37 38 0
1 3 5 6 9 10 12 16 20 25 26 27 32 34 36 38 0
2 4 6 7 10 11 13 17 20 21 26 27 28 33 35 37 0
3 5 7 8 11 12 14 18 21 22 27 28 29 34 36 38 0
4 6 8 9 12 13 15 19 20 22 23 28 29 30 35 37 0
1 5 7 9 10 13 14 16 21 23 24 29 30 31 36 38 0
2 6 8 10 11 14 15 17 20 22 24 25 30 31 32 37 0
3 5 6 8 13 14 16 18 21 26 27 28 31 34 36 37 38 0
4 6 7 9 14 15 17 19 20 22 27 28 29 32 35 37 38 0
1 5 7 8 10 15 16 18 20 21 23 28 29 30 33 36 38 0
2 6 8 9 11 16 17 19 20 21 22 24 29 30 31 34 37 0
1 3 7 9 10 12 17 18 21 22 23 25 30 31 32 35 38 0
2 4 8 10 11 13 18 19 20 22 23 24 26 31 32 33 36 0
1 3 5 9 11 12 14 19 21 23 24 25 27 32 33 34 37 0
1 2 4 6 10 12 13 15 22 24 25 26 28 33 34 35 38 0
2 3 5 7 11 13 14 16 20 23 25 26 27 29 34 35 36 0
3 4 6 8 12 14 15 17 21 24 26 27 28 30 35 36 37 0
4 5 7 9 13 15 16 18 22 25 27 28 29 31 36 37 38 0
5 6 8 10 14 16 17 19 20 23 26 28 29 30 32 37 38 0
1 6 7 9 11 15 17 18 20 21 24 27 29 30 31 33 38 0
2 7 8 10 12 16 18 19 20 21 22 25 28 30 31 32 34 0
1 3 8 9 11 13 17 19 21 22 23 26 29 31 32 33 35 0
1 2 4 9 10 12 14 18 22 23 24 27 30 32 33 34 36 0
2 3 5 10 11 13 15 19 23 24 25 28 31 33 34 35 37 0
1 3 4 6 11 12 14 16 24 25 26 29 32 34 35 36 38 0
2 4 5 7 12 13 15 17 20 25 26 27 30 33 35 36 37 0
3 5 7 8 13 15 16 18 21 22 23 25 28 31 32 33 38 0
4 6 8 9 14 16 17 19 20 22 23 24 26 29 32 33 34 0
1 5 7 9 10 15 17 18 21 23 24 25 27 30 33 34 35 0
2 6 8 10 11 16 18 19 22 24 25 26 28 31 34 35 36 0
1 3 7 9 11 12 17 19 23 25 26 27 29 32 35 36 37 0
1 2 4 8 10 12 13 18 24 26 27 28 30 33 36 37 38 0
2 3 5 9 11 13 14 19 20 25 27 28 29 31 34 37 38 0
1 3 4 6 10 12 14 15 20 21 26 28 29 30 32 35 38 0
2 4 5 7 11 13 15 16 20 21 22 27 29 30 31 33 36 0
3 5 6 8 12 14 16 17 21 22 23 28 30 31 32 34 37 0
4 6 7 9 13 15 17 18 22 23 24 29 31 32 33 35 38 0
5 7 8 10 14 16 18 19 20 23 24 25 30 32 33 34 36 0
1 6 8 9 11 15 17 19 21 24 25 26 31 33 34 35 37 0
1 2 7 9 10 12 16 18 22 25 26 27 32 34 35 36 38 0
2 3 8 10 11 13 17 19 20 23 26 27 28 33 35 36 37 0
1 3 4 9 11 12 14 18 21 24 27 28 29 34 36 37 38 0
2 4 5 10 12 13 15 19 20 22 25 28 29 30 35 37 38 0
1 3 5 6 11 13 14 16 20 21 23 26 29 30 31 36 38 0
2 4 6 7 12 14 15 17 20 21 22 24 27 30 31 32 37 0
3 5 6 9 11 12 14 18 21 26 27 28 34 36 37 38 0
4 6 7 10 12 13 15 19 20 22 27 28 29 35 37 38 0
1 5 7 8 11 13 14 16 20 21 23 28 29 30 36 38 0
2 6 8 9 12 14 15 17 20 21 22 24 29 30 31 37 0
3 7 9 10 13 15 16 18 21 22 23 25 30 31 32 38 0
4 8 10 11 14 16 17 19 20 22 23 24 26 31 32 33 0
1 5 9 11 12 15 17 18 21 23 24 25 27 32 33 34 0
2 6 10 12 13 16 18 19 22 24 25 26 28 33 34 35 0
1 3 7 11 13 14 17 19 23 25 26 27 29 34 35 36 0
1 2 4 8 12 14 15 18 24 26 27 28 30 35 36 37 0
2 3 5 9 13 15 16 19 25 27 28 29 31 36 37 38 0
1 3 4 6 10 14 16 17 20 26 28 29 30 32 37 38 0
2 4 5 7 11 15 17 18 20 21 27 29 30 31 33 38 0
3 5 6 8 12 16 18 19 20 21 22 28 30 31 32 34 0
1 4 6 7 9 13 17 19 21 22 23 29 31 32 33 35 0
1 2 5 7 8 10 14 18 22 23 24 30 32 33 34 36 0
2 3 6 8 9 11 15 19 23 24 25 31 33 34 35 37 0
1 3 4 7 9 10 12 16 24 25 26 32 34 35 36 38 0
2 4 5 8 10 11 13 17 20 25 26 27 33 35 36 37 0
3 7 9 10 12 15 16 18 21 22 23 25 31 32 33 38 0
4 8 10 11 13 16 17 19 20 22 23 24 26 32 33 34 0
1 5 9 11 12 14 17 18 21 23 24 25 27 33 34 35 0
2 6 10 12 13 15 18 19 22 24 25 26 28 34 35 36 0
1 3 7 11 13 14 16 19 23 25 26 27 29 35 36 37 0
1 2 4 8 12 14 15 17 24 26 27 28 30 36 37 38 0
2 3 5 9 13 15 16 18 20 25 27 28 29 31 37 38 0
3 4 6 10 14 16 17 19 20 21 26 28 29 30 32 38 0
1 4 5 7 11 15 17 18 20 21 22 27 29 30 31 33 0
2 5 6 8 12 16 18 19 21 22 23 28 30 31 32 34 0
1 3 6 7 9 13 17 19 22 23 24 29 31 32 33 35 0
1 2 4 7 8 10 14 18 23 24 25 30 32 33 34 36 0
2 3 5 8 9 11 15 19 24 25 26 31 33 34 35 37 0
1 3 4 6 9 10 12 16 25 26 27 32 34 35 36 38 0
2 4 5 7 10 11 13 17 20 26 27 28 33 35 36 37 0
3 5 6 8 11 12 14 18 21 27 28 29 34 36 37 38 0
4 6 7 9 12 13 15 19 20 22 28 29 30 35 37 38 0
1 5 7 8 10 13 14 16 20 21 23 29 30 31 36 38 0
2 6 8 9 11 14 15 17 20 21 22 24 30 31 32 37 0
3 5 6 8 12 14 15 17 18 21 26 27 28 30 36 37 38 0
4 6 7 9 13 15 16 18 19 20 22 27 28 29 31 37 38 0
1 5 7 8 10 14 16 17 19 20 21 23 28 29 30 32 38 0
1 2 6 8 9 11 15 17 18 20 21 22 24 29 30 31 33 0
2 3 7 9 10 12 16 18 19 21 22 23 25 30 31 32 34 0
1 3 4 8 10 11 13 17 19 22 23 24 26 31 32 33 35 0
1 2 4 5 9 11 12 14 18 23 24 25 27 32 33 34 36 0
2 3 5 6 10 12 13 15 19 24 25 26 28 33 34 35 37 0
1 3 4 6 7 11 13 14 16 25 26 27 29 34 35 36 38 0
2 4 5 7 8 12 14 15 17 20 26 27 28 30 35 36 37 0
3 5 6 8 9 13 15 16 18 21 27 28 29 31 36 37 38 0
4 6 7 9 10 14 16 17 19 20 22 28 29 30 32 37 38 0
1 5 7 8 10 11 15 17 18 20 21 23 29 30 31 33 38 0
2 6 8 9 11 12 16 18 19 20 21 22 24 30 31 32 34 0
1 3 7 9 10 12 13 17 19 21 22 23 25 31 32 33 35 0
1 2 4 8 10 11 13 14 18 22 23 24 26 32 33 34 36 0
2 3 5 9 11 12 14 15 19 23 24 25 27 33 34 35 37 0
1 3 4 6 10 12 13 15 16 24 25 26 28 34 35 36 38 0
2 4 5 7 11 13 14 16 17 20 25 26 27 29 35 36 37 0
3 4 6 7 9 13 15 16 18 21 22 23 29 31 32 33 38 0
4 5 7 8 10 14 16 17 19 20 22 23 24 30 32 33 34 0
1 5 6 8 9 11 15 17 18 21 23 24 25 31 33 34 35 0
2 6 7 9 10 12 16 18 19 22 24 25 26 32 34 35 36 0
1 3 7 8 10 11 13 17 19 23 25 26 27 33 35 36 37 0
1 2 4 8 9 11 12 14 18 24 26 27 28 34 36 37 38 0
2 3 5 9 10 12 13 15 19 20 25 27 28 29 35 37 38 0
1 3 4 6 10 11 13 14 16 20 21 26 28 29 30 36 38 0
2 4 5 7 11 12 14 15 17 20 21 22 27 29 30 31 37 0
3 5 6 8 12 13 15 16 18 21 22 23 28 30 31 32 38 0
4 6 7 9 13 14 16 17 19 20 22 23 24 29 31 32 33 0
1 5 7 8 10 14 15 17 18 21 23 24 25 30 32 33 34 0
2 6 8 9 11 15 16 18 19 22 24 25 26 31 33 34 35 0
1 3 7 9 10 12 16 17 19 23 25 26 27 32 34 35 36 0
1 2 4 8 10 11 13 17 18 24 26 27 28 33 35 36 37 0
2 3 5 9 11 12 14 18 19 25 27 28 29 34 36 37 38 0
1 3 4 6 10 12 13 15 19 20 26 28 29 30 35 37 38 0
1 2 4 5 7 11 13 14 16 20 21 27 29 30 31 36 38 0
2 3 5 6 8 12 14 15 17 20 21 22 28 30 31 32 37 0
3 5 6 9 11 12 16 18 21 22 26 27 28 31 32 34 38 0
4 6 7 10 12 13 17 19 20 22 23 27 28 29 32 33 35 0
1 5 7 8 11 13 14 18 21 23 24 28 29 30 33 34 36 0
2 6 8 9 12 14 15 19 22 24 25 29 30 31 34 35 37 0
1 3 7 9 10 13 15 16 23 25 26 30 31 32 35 36 38 0
2 4 8 10 11 14 16 17 20 24 26 27 31 32 33 36 37 0
3 5 9 11 12 15 17 18 21 25 27 28 32 33 34 37 38 0
4 6 10 12 13 16 18 19 20 22 26 28 29 33 34 35 38 0
1 5 7 11 13 14 17 19 20 21 23 27 29 30 34 35 36 0
1 2 6 8 12 14 15 18 21 22 24 28 30 31 35 36 37 0
2 3 7 9 13 15 16 19 22 23 25 29 31 32 36 37 38 0
1 3 4 8 10 14 16 17 20 23 24 26 30 32 33 37 38 0
2 4 5 9 11 15 17 18 20 21 24 25 27 31 33 34 38 0
3 5 6 10 12 16 18 19 20 21 22 25 26 28 32 34 35 0
1 4 6 7 11 13 17 19 21 22 23 26 27 29 33 35 36 0
1 2 5 7 8 12 14 18 22 23 24 27 28 30 34 36 37 0
2 3 6 8 9 13 15 19 23 24 25 28 29 31 35 37 38 0
1 3 4 7 9 10 14 16 20 24 25 26 29 30 32 36 38 0
2 4 5 8 10 11 15 17 20 21 25 26 27 30 31 33 37 0
3 5 9 10 12 15 16 18 21 25 27 28 31 32 33 37 38 0
4 6 10 11 13 16 17 19 20 22 26 28 29 32 33 34 38 0
1 5 7 11 12 14 17 18 20 21 23 27 29 30 33 34 35 0
2 6 8 12 13 15 18 19 21 22 24 28 30 31 34 35 36 0
1 3 7 9 13 14 16 19 22 23 25 29 31 32 35 36 37 0
1 2 4 8 10 14 15 17 23 24 26 30 32 33 36 37 38 0
2 3 5 9 11 15 16 18 20 24 25 27 31 33 34 37 38 0
3 4 6 10 12 16 17 19 20 21 25 26 28 32 34 35 38 0
1 4 5 7 11 13 17 18 20 21 22 26 27 29 33 35 36 0
2 5 6 8 12 14 18 19 21 22 23 27 28 30 34 36 37 0
1 3 6 7 9 13 15 19 22 23 24 28 29 31 35 37 38 0
1 2 4 7 8 10 14 16 20 23 24 25 29 30 32 36 38 0
2 3 5 8 9 11 15 17 20 21 24 25 26 30 31 33 37 0
3 4 6 9 10 12 16 18 21 22 25 26 27 31 32 34 38 0
4 5 7 10 11 13 17 19 20 22 23 26 27 28 32 33 35 0
1 5 6 8 11 12 14 18 21 23 24 27 28 29 33 34 36 0
2 6 7 9 12 13 15 19 22 24 25 28 29 30 34 35 37 0
1 3 7 8 10 13 14 16 23 25 26 29 30 31 35 36 38 0
2 4 8 9 11 14 15 17 20 24 26 27 30 31 32 36 37 0
3 5 7 8 12 15 17 18 21 25 27 28 30 32 33 37 38 0
4 6 8 9 13 16 18 19 20 22 26 28 29 31 33 34 38 0
1 5 7 9 10 14 17 19 20 21 23 27 29 30 32 34 35 0
1 2 6 8 10 11 15 18 21 22 24 28 30 31 33 35 36 0
2 3 7 9 11 12 16 19 22 23 25 29 31 32 34 36 37 0
1 3 4 8 10 12 13 17 23 24 26 30 32 33 35 37 38 0
2 4 5 9 11 13 14 18 20 24 25 27 31 33 34 36 38 0
3 5 6 10 12 14 15 19 20 21 25 26 28 32 34 35 37 0
1 4 6 7 11 13 15 16 21 22 26 27 29 33 35 36 38 0
2 5 7 8 12 14 16 17 20 22 23 27 28 30 34 36 37 0
3 6 8 9 13 15 17 18 21 23 24 28 29 31 35 37 38 0
4 7 9 10 14 16 18 19 20 22 24 25 29 30 32 36 38 0
1 5 8 10 11 15 17 19 20 21 23 25 26 30 31 33 37 0
1 2 6 9 11 12 16 18 21 22 24 26 27 31 32 34 38 0
2 3 7 10 12 13 17 19 20 22 23 25 27 28 32 33 35 0
1 3 4 8 11 13 14 18 21 23 24 26 28 29 33 34 36 0
2 4 5 9 12 14 15 19 22 24 25 27 29 30 34 35 37 0
1 3 5 6 10 13 15 16 23 25 26 28 30 31 35 36 38 0
2 4 6 7 11 14 16 17 20 24 26 27 29 31 32 36 37 0
3 4 6 9 13 14 16 18 21 22 26 27 29 31 32 34 38 0
4 5 7 10 14 15 17 19 20 22 23 27 28 30 32 33 35 0
1 5 6 8 11 15 16 18 21 23 24 28 29 31 33 34 36 0
2 6 7 9 12 16 17 19 22 24 25 29 30 32 34 35 37 0
1 3 7 8 10 13 17 18 23 25 26 30 31 33 35 36 38 0
2 4 8 9 11 14 18 19 20 24 26 27 31 32 34 36 37 0
1 3 5 9 10 12 15 19 21 25 27 28 32 33 35 37 38 0
1 2 4 6 10 11 13 16 20 22 26 28 29 33 34 36 38 0
2 3 5 7 11 12 14 17 20 21 23 27 29 30 34 35 37 0
3 4 6 8 12 13 15 18 21 22 24 28 30 31 35 36 38 0
4 5 7 9 13 14 16 19 20 22 23 25 29 31 32 36 37 0
1 5 6 8 10 14 15 17 21 23 24 26 30 32 33 37 38 0
2 6 7 9 11 15 16 18 20 22 24 25 27 31 33 34 38 0
3 7 8 10 12 16 17 19 20 21 23 25 26 28 32 34 35 0
1 4 8 9 11 13 17 18 21 22 24 26 27 29 33 35 36 0
2 5 9 10 12 14 18 19 22 23 25 27 28 30 34 36 37 0
1 3 6 10 11 13 15 19 23 24 26 28 29 31 35 37 38 0
1 2 4 7 11 12 14 16 20 24 25 27 29 30 32 36 38 0
2 3 5 8 12 13 15 17 20 21 25 26 28 30 31 33 37 0
3 4 6 8 9 11 14 16 18 21 31 32 34 37 38 0
4 5 7 9 10 12 15 17 19 20 22 32 33 35 38 0
1 5 6 8 10 11 13 16 18 20 21 23 33 34 36 0
2 6 7 9 11 12 14 17 19 21 22 24 34 35 37 0
1 3 7 8 10 12 13 15 18 22 23 25 35 36 38 0
2 4 8 9 11 13 14 16 19 20 23 24 26 36 37 0
1 3 5 9 10 12 14 15 17 21 24 25 27 37 38 0
2 4 6 10 11 13 15 16 18 20 22 25 26 28 38 0
3 5 7 11 12 14 16 17 19 20 21 23 26 27 29 0
1 4 6 8 12 13 15 17 18 21 22 24 27 28 30 0
2 5 7 9 13 14 16 18 19 22 23 25 28 29 31 0
1 3 6 8 10 14 15 17 19 23 24 26 29 30 32 0
1 2 4 7 9 11 15 16 18 24 25 27 30 31 33 0
2 3 5 8 10 12 16 17 19 25 26 28 31 32 34 0
1 3 4 6 9 11 13 17 18 26 27 29 32 33 35 0
2 4 5 7 10 12 14 18 19 27 28 30 33 34 36 0
1 3 5 6 8 11 13 15 19 28 29 31 34 35 37 0
1 2 4 6 7 9 12 14 16 29 30 32 35 36 38 0
2 3 5 7 8 10 13 15 17 20 30 31 33 36 37 0
3 5 7 10 12 13 15 17 18 21 22 25 27 28 38 0
4 6 8 11 13 14 16 18 19 20 22 23 26 28 29 0
1 5 7 9 12 14 15 17 19 21 23 24 27 29 30 0
1 2 6 8 10 13 15 16 18 22 24 25 28 30 31 0
2 3 7 9 11 14 16 17 19 23 25 26 29 31 32 0
1 3 4 8 10 12 15 17 18 24 26 27 30 32 33 0
2 4 5 9 11 13 16 18 19 25 27 28 31 33 34 0
1 3 5 6 10 12 14 17 19 26 28 29 32 34 35 0
1 2 4 6 7 11 13 15 18 27 29 30 33 35 36 0
2 3 5 7 8 12 14 16 19 28 30 31 34 36 37 0
1 3 4 6 8 9 13 15 17 29 31 32 35 37 38 0
2 4 5 7 9 10 14 16 18 20 30 32 33 36 38 0
3 5 6 8 10 11 15 17 19 20 21 31 33 34 37 0
1 4 6 7 9 11 12 16 18 21 22 32 34 35 38 0
2 5 7 8 10 12 13 17 19 20 22 23 33 35 36 0
1 3 6 8 9 11 13 14 18 21 23 24 34 36 37 0
2 4 7 9 10 12 14 15 19 22 24 25 35 37 38 0
1 3 5 8 10 11 13 15 16 20 23 25 26 36 38 0
2 4 6 9 11 12 14 16 17 20 21 24 26 27 37 0
3 5 10 11 14 16 18 21 23 25 28 31 32 34 37 38 0
4 6 11 12 15 17 19 20 22 24 26 29 32 33 35 38 0
1 5 7 12 13 16 18 20 21 23 25 27 30 33 34 36 0
2 6 8 13 14 17 19 21 22 24 26 28 31 34 35 37 0
1 3 7 9 14 15 18 22 23 25 27 29 32 35 36 38 0
2 4 8 10 15 16 19 20 23 24 26 28 30 33 36 37 0
1 3 5 9 11 16 17 21 24 25 27 29 31 34 37 38 0
2 4 6 10 12 17 18 20 22 25 26 28 30 32 35 38 0
3 5 7 11 13 18 19 20 21 23 26 27 29 31 33 36 0
1 4 6 8 12 14 19 21 22 24 27 28 30 32 34 37 0
1 2 5 7 9 13 15 22 23 25 28 29 31 33 35 38 0
2 3 6 8 10 14 16 20 23 24 26 29 30 32 34 36 0
3 4 7 9 11 15 17 21 24 25 27 30 31 33 35 37 0
4 5 8 10 12 16 18 22 25 26 28 31 32 34 36 38 0
5 6 9 11 13 17 19 20 23 26 27 29 32 33 35 37 0
1 6 7 10 12 14 18 21 24 27 28 30 33 34 36 38 0
2 7 8 11 13 15 19 20 22 25 28 29 31 34 35 37 0
1 3 8 9 12 14 16 21 23 26 29 30 32 35 36 38 0
2 4 9 10 13 15 17 20 22 24 27 30 31 33 36 37 0
3 5 7 10 11 16 18 21 22 25 27 28 31 34 36 38 0
4 6 8 11 12 17 19 20 22 23 26 28 29 32 35 37 0
1 5 7 9 12 13 18 21 23 24 27 29 30 33 36 38 0
2 6 8 10 13 14 19 20 22 24 25 28 30 31 34 37 0
1 3 7 9 11 14 15 21 23 25 26 29 31 32 35 38 0
2 4 8 10 12 15 16 20 22 24 26 27 30 32 33 36 0
3 5 9 11 13 16 17 21 23 25 27 28 31 33 34 37 0
4 6 10 12 14 17 18 22 24 26 28 29 32 34 35 38 0
5 7 11 13 15 18 19 20 23 25 27 29 30 33 35 36 0
1 6 8 12 14 16 19 21 24 26 28 30 31 34 36 37 0
1 2 7 9 13 15 17 22 25 27 29 31 32 35 37 38 0
2 3 8 10 14 16 18 20 23 26 28 30 32 33 36 38 0
3 4 9 11 15 17 19 20 21 24 27 29 31 33 34 37 0
1 4 5 10 12 16 18 21 22 25 28 30 32 34 35 38 0
2 5 6 11 13 17 19 20 22 23 26 29 31 33 35 36 0
1 3 6 7 12 14 18 21 23 24 27 30 32 34 36 37 0
2 4 7 8 13 15 19 22 24 25 28 31 33 35 37 38 0
1 3 5 8 9 14 16 20 23 25 26 29 32 34 36 38 0
2 4 6 9 10 15 17 20 21 24 26 27 30 33 35 37 0
3 5 7 9 11 12 15 17 21 22 23 27 28 29 32 33 34 37 0
4 6 8 10 12 13 16 18 22 23 24 28 29 30 33 34 35 38 0
5 7 9 11 13 14 17 19 20 23 24 25 29 30 31 34 35 36 0
1 6 8 10 12 14 15 18 21 24 25 26 30 31 32 35 36 37 0
2 7 9 11 13 15 16 19 22 25 26 27 31 32 33 36 37 38 0
1 3 8 10 12 14 16 17 20 23 26 27 28 32 33 34 37 38 0
2 4 9 11 13 15 17 18 20 21 24 27 28 29 33 34 35 38 0
3 5 10 12 14 16 18 19 20 21 22 25 28 29 30 34 35 36 0
1 4 6 11 13 15 17 19 21 22 23 26 29 30 31 35 36 37 0
1 2 5 7 12 14 16 18 22 23 24 27 30 31 32 36 37 38 0
2 3 6 8 13 15 17 19 20 23 24 25 28 31 32 33 37 38 0
1 3 4 7 9 14 16 18 20 21 24 25 26 29 32 33 34 38 0
2 4 5 8 10 15 17 19 20 21 22 25 26 27 30 33 34 35 0
1 3 5 6 9 11 16 18 21 22 23 26 27 28 31 34 35 36 0
2 4 6 7 10 12 17 19 22 23 24 27 28 29 32 35 36 37 0
1 3 5 7 8 11 13 18 23 24 25 28 29 30 33 36 37 38 0
2 4 6 8 9 12 14 19 20 24 25 26 29 30 31 34 37 38 0
1 3 5 7 9 10 13 15 20 21 25 26 27 30 31 32 35 38 0
2 4 6 8 10 11 14 16 20 21 22 26 27 28 31 32 33 36 0
4 6 9 10 12 14 16 18 22 25 26 27 30 31 32 36 37 38 0
5 7 10 11 13 15 17 19 20 23 26 27 28 31 32 33 37 38 0
1 6 8 11 12 14 16 18 20 21 24 27 28 29 32 33 34 38 0
2 7 9 12 13 15 17 19 20 21 22 25 28 29 30 33 34 35 0
1 3 8 10 13 14 16 18 21 22 23 26 29 30 31 34 35 36 0
2 4 9 11 14 15 17 19 22 23 24 27 30 31 32 35 36 37 0
1 3 5 10 12 15 16 18 23 24 25 28 31 32 33 36 37 38 0
2 4 6 11 13 16 17 19 20 24 25 26 29 32 33 34 37 38 0
1 3 5 7 12 14 17 18 20 21 25 26 27 30 33 34 35 38 0
2 4 6 8 13 15 18 19 20 21 22 26 27 28 31 34 35 36 0
1 3 5 7 9 14 16 19 21 22 23 27 28 29 32 35 36 37 0
1 2 4 6 8 10 15 17 22 23 24 28 29 30 33 36 37 38 0
2 3 5 7 9 11 16 18 20 23 24 25 29 30 31 34 37 38 0
3 4 6 8 10 12 17 19 20 21 24 25 26 30 31 32 35 38 0
1 4 5 7 9 11 13 18 20 21 22 25 26 27 31 32 33 36 0
2 5 6 8 10 12 14 19 21 22 23 26 27 28 32 33 34 37 0
1 3 6 7 9 11 13 15 22 23 24 27 28 29 33 34 35 38 0
2 4 7 8 10 12 14 16 20 23 24 25 28 29 30 34 35 36 0
3 5 8 9 11 13 15 17 21 24 25 26 29 30 31 35 36 37 0
2 4 5 6 8 12 15 16 19 22 25 28 30 31 32 33 36 37 38 0
1 3 5 6 7 9 13 16 17 20 23 26 29 31 32 33 34 37 38 0
2 4 6 7 8 10 14 17 18 20 21 24 27 30 32 33 34 35 38 0
3 5 7 8 9 11 15 18 19 20 21 22 25 28 31 33 34 35 36 0
1 4 6 8 9 10 12 16 19 21 22 23 26 29 32 34 35 36 37 0
1 2 5 7 9 10 11 13 17 22 23 24 27 30 33 35 36 37 38 0
2 3 6 8 10 11 12 14 18 20 23 24 25 28 31 34 36 37 38 0
3 4 7 9 11 12 13 15 19 20 21 24 25 26 29 32 35 37 38 0
1 4 5 8 10 12 13 14 16 20 21 22 25 26 27 30 33 36 38 0
2 5 6 9 11 13 14 15 17 20 21 22 23 26 27 28 31 34 37 0
3 6 7 10 12 14 15 16 18 21 22 23 24 27 28 29 32 35 38 0
4 7 8 11 13 15 16 17 19 20 22 23 24 25 28 29 30 33 36 0
1 5 8 9 12 14 16 17 18 21 23 24 25 26 29 30 31 34 37 0
2 6 9 10 13 15 17 18 19 22 24 25 26 27 30 31 32 35 38 0
1 3 7 10 11 14 16 18 19 20 23 25 26 27 28 31 32 33 36 0
1 2 4 8 11 12 15 17 19 21 24 26 27 28 29 32 33 34 37 0
1 2 3 5 9 12 13 16 18 22 25 27 28 29 30 33 34 35 38 0
2 3 4 6 10 13 14 17 19 20 23 26 28 29 30 31 34 35 36 0
1 3 4 5 7 11 14 15 18 21 24 27 29 30 31 32 35 36 37 0
2 5 6 9 13 15 16 17 19 21 22 23 26 27 28 29 31 34 37 0
1 3 6 7 10 14 16 17 18 22 23 24 27 28 29 30 32 35 38 0
2 4 7 8 11 15 17 18 19 20 23 24 25 28 29 30 31 33 36 0
1 3 5 8 9 12 16 18 19 21 24 25 26 29 30 31 32 34 37 0
1 2 4 6 9 10 13 17 19 22 25 26 27 30 31 32 33 35 38 0
1 2 3 5 7 10 11 14 18 20 23 26 27 28 31 32 33 34 36 0
2 3 4 6 8 11 12 15 19 21 24 27 28 29 32 33 34 35 37 0
1 3 4 5 7 9 12 13 16 22 25 28 29 30 33 34 35 36 38 0
2 4 5 6 8 10 13 14 17 20 23 26 29 30 31 34 35 36 37 0
3 5 6 7 9 11 14 15 18 21 24 27 30 31 32 35 36 37 38 0
4 6 7 8 10 12 15 16 19 20 22 25 28 31 32 33 36 37 38 0
1 5 7 8 9 11 13 16 17 20 21 23 26 29 32 33 34 37 38 0
2 6 8 9 10 12 14 17 18 20 21 22 24 27 30 33 34 35 38 0
3 7 9 10 11 13 15 18 19 20 21 22 23 25 28 31 34 35 36 0
1 4 8 10 11 12 14 16 19 21 22 23 24 26 29 32 35 36 37 0
1 2 5 9 11 12 13 15 17 22 23 24 25 27 30 33 36 37 38 0
2 3 6 10 12 13 14 16 18 20 23 24 25 26 28 31 34 37 38 0
3 4 7 11 13 14 15 17 19 20 21 24 25 26 27 29 32 35 38 0
1 4 5 8 12 14 15 16 18 20 21 22 25 26 27 28 30 33 36 0
4 6 8 11 12 16 17 18 22 24 28 29 30 31 32 34 35 37 38 0
5 7 9 12 13 17 18 19 20 23 25 29 30 31 32 33 35 36 38 0
1 6 8 10 13 14 18 19 20 21 24 26 30 31 32 33 34 36 37 0
1 2 7 9 11 14 15 19 21 22 25 27 31 32 33 34 35 37 38 0
1 2 3 8 10 12 15 16 20 22 23 26 28 32 33 34 35 36 38 0
2 3 4 9 11 13 16 17 20 21 23 24 27 29 33 34 35 36 37 0
3 4 5 10 12 14 17 18 21 22 24 25 28 30 34 35 36 37 38 0
4 5 6 11 13 15 18 19 20 22 23 25 26 29 31 35 36 37 38 0
1 5 6 7 12 14 16 19 20 21 23 24 26 27 30 32 36 37 38 0
1 2 6 7 8 13 15 17 20 21 22 24 25 27 28 31 33 37 38 0
2 3 7 8 9 14 16 18 20 21 22 23 25 26 28 29 32 34 38 0
3 4 8 9 10 15 17 19 20 21 22 23 24 26 27 29 30 33 35 0
1 4 5 9 10 11 16 18 21 22 23 24 25 27 28 30 31 34 36 0
2 5 6 10 11 12 17 19 22 23 24 25 26 28 29 31 32 35 37 0
1 3 6 7 11 12 13 18 23 24 25 26 27 29 30 32 33 36 38 0
2 4 7 8 12 13 14 19 20 24 25 26 27 28 30 31 33 34 37 0
1 3 5 8 9 13 14 15 21 25 26 27 28 29 31 32 34 35 38 0
2 4 6 9 10 14 15 16 20 22 26 27 28 29 30 32 33 35 36 0
3 5 7 10 11 15 16 17 21 23 27 28 29 30 31 33 34 36 37 0
3 4 5 9 10 13 15 17 21 22 24 25 27 28 29 30 31 35 37 0
4 5 6 10 11 14 16 18 22 23 25 26 28 29 30 31 32 36 38 0
5 6 7 11 12 15 17 19 20 23 24 26 27 29 30 31 32 33 37 0
1 6 7 8 12 13 16 18 21 24 25 27 28 30 31 32 33 34 38 0
2 7 8 9 13 14 17 19 20 22 25 26 28 29 31 32 33 34 35 0
1 3 8 9 10 14 15 18 21 23 26 27 29 30 32 33 34 35 36 0
2 4 9 10 11 15 16 19 22 24 27 28 30 31 33 34 35 36 37 0
1 3 5 10 11 12 16 17 23 25 28 29 31 32 34 35 36 37 38 0
2 4 6 11 12 13 17 18 20 24 26 29 30 32 33 35 36 37 38 0
3 5 7 12 13 14 18 19 20 21 25 27 30 31 33 34 36 37 38 0
1 4 6 8 13 14 15 19 20 21 22 26 28 31 32 34 35 37 38 0
1 2 5 7 9 14 15 16 20 21 22 23 27 29 32 33 35 36 38 0
2 3 6 8 10 15 16 17 20 21 22 23 24 28 30 33 34 36 37 0
3 4 7 9 11 16 17 18 21 22 23 24 25 29 31 34 35 37 38 0
4 5 8 10 12 17 18 19 20 22 23 24 25 26 30 32 35 36 38 0
1 5 6 9 11 13 18 19 20 21 23 24 25 26 27 31 33 36 37 0
1 2 6 7 10 12 14 19 21 22 24 25 26 27 28 32 34 37 38 0
1 2 3 7 8 11 13 15 20 22 23 25 26 27 28 29 33 35 38 0
2 3 4 8 9 12 14 16 20 21 23 24 26 27 28 29 30 34 36 0
3 6 8 11 12 16 17 21 23 24 28 29 32 34 35 37 0
4 7 9 12 13 17 18 22 24 25 29 30 33 35 36 38 0
5 8 10 13 14 18 19 20 23 25 26 30 31 34 36 37 0
1 6 9 11 14 15 19 21 24 26 27 31 32 35 37 38 0
1 2 7 10 12 15 16 20 22 25 27 28 32 33 36 38 0
2 3 8 11 13 16 17 20 21 23 26 28 29 33 34 37 0
3 4 9 12 14 17 18 21 22 24 27 29 30 34 35 38 0
4 5 10 13 15 18 19 20 22 23 25 28 30 31 35 36 0
1 5 6 11 14 16 19 21 23 24 26 29 31 32 36 37 0
1 2 6 7 12 15 17 22 24 25 27 30 32 33 37 38 0
2 3 7 8 13 16 18 20 23 25 26 28 31 33 34 38 0
3 4 8 9 14 17 19 20 21 24 26 27 29 32 34 35 0
1 4 5 9 10 15 18 21 22 25 27 28 30 33 35 36 0
2 5 6 10 11 16 19 22 23 26 28 29 31 34 36 37 0
1 3 6 7 11 12 17 23 24 27 29 30 32 35 37 38 0
2 4 7 8 12 13 18 20 24 25 28 30 31 33 36 38 0
3 5 8 9 13 14 19 20 21 25 26 29 31 32 34 37 0
1 4 6 9 10 14 15 21 22 26 27 30 32 33 35 38 0
2 5 7 10 11 15 16 20 22 23 27 28 31 33 34 36 0
4 5 9 10 13 15 18 22 24 25 27 30 31 35 36 38 0
5 6 10 11 14 16 19 20 23 25 26 28 31 32 36 37 0
1 6 7 11 12 15 17 21 24 26 27 29 32 33 37 38 0
2 7 8 12 13 16 18 20 22 25 27 28 30 33 34 38 0
3 8 9 13 14 17 19 20 21 23 26 28 29 31 34 35 0
1 4 9 10 14 15 18 21 22 24 27 29 30 32 35 36 0
2 5 10 11 15 16 19 22 23 25 28 30 31 33 36 37 0
1 3 6 11 12 16 17 23 24 26 29 31 32 34 37 38 0
2 4 7 12 13 17 18 20 24 25 27 30 32 33 35 38 0
3 5 8 13 14 18 19 20 21 25 26 28 31 33 34 36 0
1 4 6 9 14 15 19 21 22 26 27 29 32 34 35 37 0
1 2 5 7 10 15 16 22 23 27 28 30 33 35 36 38 0
2 3 6 8 11 16 17 20 23 24 28 29 31 34 36 37 0
3 4 7 9 12 17 18 21 24 25 29 30 32 35 37 38 0
4 5 8 10 13 18 19 20 22 25 26 30 31 33 36 38 0
1 5 6 9 11 14 19 20 21 23 26 27 31 32 34 37 0
1 2 6 7 10 12 15 21 22 24 27 28 32 33 35 38 0
2 3 7 8 11 13 16 20 22 23 25 28 29 33 34 36 0
3 4 8 9 12 14 17 21 23 24 26 29 30 34 35 37 0
3 5 7 8 11 13 16 17 21 23 24 28 29 30 31 33 34 35 37 0
4 6 8 9 12 14 17 18 22 24 25 29 30 31 32 34 35 36 38 0
5 7 9 10 13 15 18 19 20 23 25 26 30 31 32 33 35 36 37 0
1 6 8 10 11 14 16 19 21 24 26 27 31 32 33 34 36 37 38 0
1 2 7 9 11 12 15 17 20 22 25 27 28 32 33 34 35 37 38 0
2 3 8 10 12 13 16 18 20 21 23 26 28 29 33 34 35 36 38 0
3 4 9 11 13 14 17 19 20 21 22 24 27 29 30 34 35 36 37 0
1 4 5 10 12 14 15 18 21 22 23 25 28 30 31 35 36 37 38 0
2 5 6 11 13 15 16 19 20 22 23 24 26 29 31 32 36 37 38 0
1 3 6 7 12 14 16 17 20 21 23 24 25 27 30 32 33 37 38 0
2 4 7 8 13 15 17 18 20 21 22 24 25 26 28 31 33 34 38 0
3 5 8 9 14 16 18 19 20 21 22 23 25 26 27 29 32 34 35 0
1 4 6 9 10 15 17 19 21 22 23 24 26 27 28 30 33 35 36 0
1 2 5 7 10 11 16 18 22 23 24 25 27 28 29 31 34 36 37 0
2 3 6 8 11 12 17 19 23 24 25 26 28 29 30 32 35 37 38 0
1 3 4 7 9 12 13 18 20 24 25 26 27 29 30 31 33 36 38 0
2 4 5 8 10 13 14 19 20 21 25 26 27 28 30 31 32 34 37 0
1 3 5 6 9 11 14 15 21 22 26 27 28 29 31 32 33 35 38 0
2 4 6 7 10 12 15 16 20 22 23 27 28 29 30 32 33 34 36 0
4 5 8 10 13 14 16 18 22 24 25 26 28 29 30 31 35 36 38 0
5 6 9 11 14 15 17 19 20 23 25 26 27 29 30 31 32 36 37 0
1 6 7 10 12 15 16 18 21 24 26 27 28 30 31 32 33 37 38 0
2 7 8 11 13 16 17 19 20 22 25 27 28 29 31 32 33 34 38 0
1 3 8 9 12 14 17 18 20 21 23 26 28 29 30 32 33 34 35 0
2 4 9 10 13 15 18 19 21 22 24 27 29 30 31 33 34 35 36 0
1 3 5 10 11 14 16 19 22 23 25 28 30 31 32 34 35 36 37 0
1 2 4 6 11 12 15 17 23 24 26 29 31 32 33 35 36 37 38 0
2 3 5 7 12 13 16 18 20 24 25 27 30 32 33 34 36 37 38 0
3 4 6 8 13 14 17 19 20 21 25 26 28 31 33 34 35 37 38 0
1 4 5 7 9 14 15 18 20 21 22 26 27 29 32 34 35 36 38 0
2 5 6 8 10 15 16 19 20 21 22 23 27 28 30 33 35 36 37 0
1 3 6 7 9 11 16 17 21 22 23 24 28 29 31 34 36 37 38 0
2 4 7 8 10 12 17 18 20 22 23 24 25 29 30 32 35 37 38 0
3 5 8 9 11 13 18 19 20 21 23 24 25 26 30 31 33 36 38 0
1 4 6 9 10 12 14 19 20 21 22 24 25 26 27 31 32 34 37 0
1 2 5 7 10 11 13 15 21 22 23 25 26 27 28 32 33 35 38 0
2 3 6 8 11 12 14 16 20 22 23 24 26 27 28 29 33 34 36 0
3 4 7 9 12 13 15 17 21 23 24 25 27 28 29 30 34 35 37 0
3 5 7 10 12 16 17 21 23 24 27 28 29 30 32 34 35 37 0
4 6 8 11 13 17 18 22 24 25 28 29 30 31 33 35 36 38 0
5 7 9 12 14 18 19 20 23 25 26 29 30 31 32 34 36 37 0
1 6 8 10 13 15 19 21 24 26 27 30 31 32 33 35 37 38 0
1 2 7 9 11 14 16 20 22 25 27 28 31 32 33 34 36 38 0
2 3 8 10 12 15 17 20 21 23 26 28 29 32 33 34 35 37 0
3 4 9 11 13 16 18 21 22 24 27 29 30 33 34 35 36 38 0
4 5 10 12 14 17 19 20 22 23 25 28 30 31 34 35 36 37 0
1 5 6 11 13 15 18 21 23 24 26 29 31 32 35 36 37 38 0
2 6 7 12 14 16 19 20 22 24 25 27 30 32 33 36 37 38 0
1 3 7 8 13 15 17 20 21 23 25 26 28 31 33 34 37 38 0
2 4 8 9 14 16 18 20 21 22 24 26 27 29 32 34 35 38 0
3 5 9 10 15 17 19 20 21 22 23 25 27 28 30 33 35 36 0
1 4 6 10 11 16 18 21 22 23 24 26 28 29 31 34 36 37 0
2 5 7 11 12 17 19 22 23 24 25 27 29 30 32 35 37 38 0
1 3 6 8 12 13 18 20 23 24 25 26 28 30 31 33 36 38 0
2 4 7 9 13 14 19 20 21 24 25 26 27 29 31 32 34 37 0
1 3 5 8 10 14 15 21 22 25 26 27 28 30 32 33 35 38 0
2 4 6 9 11 15 16 20 22 23 26 27 28 29 31 33 34 36 0
4 5 9 11 14 16 18 22 24 25 27 29 30 31 32 35 36 38 0
5 6 10 12 15 17 19 20 23 25 26 28 30 31 32 33 36 37 0
1 6 7 11 13 16 18 21 24 26 27 29 31 32 33 34 37 38 0
2 7 8 12 14 17 19 20 22 25 27 28 30 32 33 34 35 38 0
1 3 8 9 13 15 18 20 21 23 26 28 29 31 33 34 35 36 0
2 4 9 10 14 16 19 21 22 24 27 29 30 32 34 35 36 37 0
1 3 5 10 11 15 17 22 23 25 28 30 31 33 35 36 37 38 0
2 4 6 11 12 16 18 20 23 24 26 29 31 32 34 36 37 38 0
3 5 7 12 13 17 19 20 21 24 25 27 30 32 33 35 37 38 0
1 4 6 8 13 14 18 20 21 22 25 26 28 31 33 34 36 38 0
2 5 7 9 14 15 19 20 21 22 23 26 27 29 32 34 35 37 0
1 3 6 8 10 15 16 21 22 23 24 27 28 30 33 35 36 38 0
2 4 7 9 11 16 17 20 22 23 24 25 28 29 31 34 36 37 0
3 5 8 10 12 17 18 21 23 24 25 26 29 30 32 35 37 38 0
4 6 9 11 13 18 19 20 22 24 25 26 27 30 31 33 36 38 0
1 5 7 10 12 14 19 20 21 23 25 26 27 28 31 32 34 37 0
1 2 6 8 11 13 15 21 22 24 26 27 28 29 32 33 35 38 0
2 3 7 9 12 14 16 20 22 23 25 27 28 29 30 33 34 36 0
3 4 8 10 13 15 17 21 23 24 26 28 29 30 31 34 35 37 0
3 5 7 10 11 16 18 21 24 27 28 29 30 31 34 35 36 37 38 0
4 6 8 11 12 17 19 20 22 25 28 29 30 31 32 35 36 37 38 0
1 5 7 9 12 13 18 20 21 23 26 29 30 31 32 33 36 37 38 0
2 6 8 10 13 14 19 20 21 22 24 27 30 31 32 33 34 37 38 0
1 3 7 9 11 14 15 20 21 22 23 25 28 31 32 33 34 35 38 0
2 4 8 10 12 15 16 20 21 22 23 24 26 29 32 33 34 35 36 0
3 5 9 11 13 16 17 21 22 23 24 25 27 30 33 34 35 36 37 0
4 6 10 12 14 17 18 22 23 24 25 26 28 31 34 35 36 37 38 0
5 7 11 13 15 18 19 20 23 24 25 26 27 29 32 35 36 37 38 0
1 6 8 12 14 16 19 20 21 24 25 26 27 28 30 33 36 37 38 0
1 2 7 9 13 15 17 20 21 22 25 26 27 28 29 31 34 37 38 0
2 3 8 10 14 16 18 20 21 22 23 26 27 28 29 30 32 35 38 0
3 4 9 11 15 17 19 20 21 22 23 24 27 28 29 30 31 33 36 0
1 4 5 10 12 16 18 21 22 23 24 25 28 29 30 31 32 34 37 0
2 5 6 11 13 17 19 22 23 24 25 26 29 30 31 32 33 35 38 0
1 3 6 7 12 14 18 20 23 24 25 26 27 30 31 32 33 34 36 0
2 4 7 8 13 15 19 21 24 25 26 27 28 31 32 33 34 35 37 0
1 3 5 8 9 14 16 22 25 26 27 28 29 32 33 34 35 36 38 0
2 4 6 9 10 15 17 20 23 26 27 28 29 30 33 34 35 36 37 0
3 5 10 11 14 16 18 21 22 23 24 25 28 29 30 31 32 35 38 0
4 6 11 12 15 17 19 20 22 23 24 25 26 29 30 31 32 33 36 0
1 5 7 12 13 16 18 21 23 24 25 26 27 30 31 32 33 34 37 0
2 6 8 13 14 17 19 22 24 25 26 27 28 31 32 33 34 35 38 0
1 3 7 9 14 15 18 20 23 25 26 27 28 29 32 33 34 35 36 0
2 4 8 10 15 16 19 21 24 26 27 28 29 30 33 34 35 36 37 0
1 3 5 9 11 16 17 22 25 27 28 29 30 31 34 35 36 37 38 0
2 4 6 10 12 17 18 20 23 26 28 29 30 31 32 35 36 37 38 0
3 5 7 11 13 18 19 20 21 24 27 29 30 31 32 33 36 37 38 0
1 4 6 8 12 14 19 20 21 22 25 28 30 31 32 33 34 37 38 0
1 2 5 7 9 13 15 20 21 22 23 26 29 31 32 33 34 35 38 0
2 3 6 8 10 14 16 20 21 22 23 24 27 30 32 33 34 35 36 0
3 4 7 9 11 15 17 21 22 23 24 25 28 31 33 34 35 36 37 0
4 5 8 10 12 16 18 22 23 24 25 26 29 32 34 35 36 37 38 0
5 6 9 11 13 17 19 20 23 24 25 26 27 30 33 35 36 37 38 0
1 6 7 10 12 14 18 20 21 24 25 26 27 28 31 34 36 37 38 0
2 7 8 11 13 15 19 20 21 22 25 26 27 28 29 32 35 37 38 0
1 3 8 9 12 14 16 20 21 22 23 26 27 28 29 30 33 36 38 0
2 4 9 10 13 15 17 20 21 22 23 24 27 28 29 30 31 34 37 0
3 5 10 11 13 16 18 21 23 24 25 28 31 33 34 35 36 37 38 0
4 6 11 12 14 17 19 20 22 24 25 26 29 32 34 35 36 37 38 0
1 5 7 12 13 15 18 20 21 23 25 26 27 30 33 35 36 37 38 0
2 6 8 13 14 16 19 20 21 22 24 26 27 28 31 34 36 37 38 0
1 3 7 9 14 15 17 20 21 22 23 25 27 28 29 32 35 37 38 0
2 4 8 10 15 16 18 20 21 22 23 24 26 28 29 30 33 36 38 0
3 5 9 11 16 17 19 20 21 22 23 24 25 27 29 30 31 34 37 0
1 4 6 10 12 17 18 21 22 23 24 25 26 28 30 31 32 35 38 0
2 5 7 11 13 18 19 20 22 23 24 25 26 27 29 31 32 33 36 0
1 3 6 8 12 14 19 21 23 24 25 26 27 28 30 32 33 34 37 0
1 2 4 7 9 13 15 22 24 25 26 27 28 29 31 33 34 35 38 0
2 3 5 8 10 14 16 20 23 25 26 27 28 29 30 32 34 35 36 0
3 4 6 9 11 15 17 21 24 26 27 28 29 30 31 33 35 36 37 0
4 5 7 10 12 16 18 22 25 27 28 29 30 31 32 34 36 37 38 0
5 6 8 11 13 17 19 20 23 26 28 29 30 31 32 33 35 37 38 0
1 6 7 9 12 14 18 20 21 24 27 29 30 31 32 33 34 36 38 0
2 7 8 10 13 15 19 20 21 22 25 28 30 31 32 33 34 35 37 0
1 3 8 9 11 14 16 21 22 23 26 29 31 32 33 34 35 36 38 0
2 4 9 10 12 15 17 20 22 23 24 27 30 32 33 34 35 36 37 0
3 5 8 10 11 16 18 21 22 23 24 25 26 28 31 34 35 36 38 0
4 6 9 11 12 17 19 20 22 23 24 25 26 27 29 32 35 36 37 0
1 5 7 10 12 13 18 21 23 24 25 26 27 28 30 33 36 37 38 0
2 6 8 11 13 14 19 20 22 24 25 26 27 28 29 31 34 37 38 0
1 3 7 9 12 14 15 20 21 23 25 26 27 28 29 30 32 35 38 0
2 4 8 10 13 15 16 20 21 22 24 26 27 28 29 30 31 33 36 0
3 5 9 11 14 16 17 21 22 23 25 27 28 29 30 31 32 34 37 0
4 6 10 12 15 17 18 22 23 24 26 28 29 30 31 32 33 35 38 0
5 7 11 13 16 18 19 20 23 24 25 27 29 30 31 32 33 34 36 0
1 6 8 12 14 17 19 21 24 25 26 28 30 31 32 33 34 35 37 0
1 2 7 9 13 15 18 22 25 26 27 29 31 32 33 34 35 36 38 0
2 3 8 10 14 16 19 20 23 26 27 28 30 32 33 34 35 36 37 0
1 3 4 9 11 15 17 21 24 27 28 29 31 33 34 35 36 37 38 0
2 4 5 10 12 16 18 20 22 25 28 29 30 32 34 35 36 37 38 0
3 5 6 11 13 17 19 20 21 23 26 29 30 31 33 35 36 37 38 0
1 4 6 7 12 14 18 20 21 22 24 27 30 31 32 34 36 37 38 0
2 5 7 8 13 15 19 20 21 22 23 25 28 31 32 33 35 37 38 0
1 3 6 8 9 14 16 20 21 22 23 24 26 29 32 33 34 36 38 0
2 4 7 9 10 15 17 20 21 22 23 24 25 27 30 33 34 35 37 0
2 3 5 8 11 12 14 16 19 25 26 28 29 31 34 36 37 0
1 3 4 6 9 12 13 15 17 26 27 29 30 32 35 37 38 0
2 4 5 7 10 13 14 16 18 20 27 28 30 31 33 36 38 0
3 5 6 8 11 14 15 17 19 20 21 28 29 31 32 34 37 0
1 4 6 7 9 12 15 16 18 21 22 29 30 32 33 35 38 0
2 5 7 8 10 13 16 17 19 20 22 23 30 31 33 34 36 0
1 3 6 8 9 11 14 17 18 21 23 24 31 32 34 35 37 0
2 4 7 9 10 12 15 18 19 22 24 25 32 33 35 36 38 0
1 3 5 8 10 11 13 16 19 20 23 25 26 33 34 36 37 0
1 2 4 6 9 11 12 14 17 21 24 26 27 34 35 37 38 0
2 3 5 7 10 12 13 15 18 20 22 25 27 28 35 36 38 0
3 4 6 8 11 13 14 16 19 20 21 23 26 28 29 36 37 0
1 4 5 7 9 12 14 15 17 21 22 24 27 29 30 37 38 0
2 5 6 8 10 13 15 16 18 20 22 23 25 28 30 31 38 0
3 6 7 9 11 14 16 17 19 20 21 23 24 26 29 31 32 0
1 4 7 8 10 12 15 17 18 21 22 24 25 27 30 32 33 0
2 5 8 9 11 13 16 18 19 22 23 25 26 28 31 33 34 0
1 3 6 9 10 12 14 17 19 23 24 26 27 29 32 34 35 0
1 2 4 7 10 11 13 15 18 24 25 27 28 30 33 35 36 0
2 5 7 9 10 13 16 18 19 22 23 25 28 30 31 33 34 0
1 3 6 8 10 11 14 17 19 23 24 26 29 31 32 34 35 0
1 2 4 7 9 11 12 15 18 24 25 27 30 32 33 35 36 0
2 3 5 8 10 12 13 16 19 25 26 28 31 33 34 36 37 0
1 3 4 6 9 11 13 14 17 26 27 29 32 34 35 37 38 0
2 4 5 7 10 12 14 15 18 20 27 28 30 33 35 36 38 0
3 5 6 8 11 13 15 16 19 20 21 28 29 31 34 36 37 0
1 4 6 7 9 12 14 16 17 21 22 29 30 32 35 37 38 0
2 5 7 8 10 13 15 17 18 20 22 23 30 31 33 36 38 0
3 6 8 9 11 14 16 18 19 20 21 23 24 31 32 34 37 0
1 4 7 9 10 12 15 17 19 21 22 24 25 32 33 35 38 0
1 2 5 8 10 11 13 16 18 20 22 23 25 26 33 34 36 0
2 3 6 9 11 12 14 17 19 21 23 24 26 27 34 35 37 0
1 3 4 7 10 12 13 15 18 22 24 25 27 28 35 36 38 0
2 4 5 8 11 13 14 16 19 20 23 25 26 28 29 36 37 0
1 3 5 6 9 12 14 15 17 21 24 26 27 29 30 37 38 0
2 4 6 7 10 13 15 16 18 20 22 25 27 28 30 31 38 0
3 5 7 8 11 14 16 17 19 20 21 23 26 28 29 31 32 0
1 4 6 8 9 12 15 17 18 21 22 24 27 29 30 32 33 0
3 6 8 11 12 17 18 21 22 23 24 28 29 30 32 35 37 38 0
4 7 9 12 13 18 19 20 22 23 24 25 29 30 31 33 36 38 0
1 5 8 10 13 14 19 20 21 23 24 25 26 30 31 32 34 37 0
1 2 6 9 11 14 15 21 22 24 25 26 27 31 32 33 35 38 0
2 3 7 10 12 15 16 20 22 23 25 26 27 28 32 33 34 36 0
3 4 8 11 13 16 17 21 23 24 26 27 28 29 33 34 35 37 0
4 5 9 12 14 17 18 22 24 25 27 28 29 30 34 35 36 38 0
5 6 10 13 15 18 19 20 23 25 26 28 29 30 31 35 36 37 0
1 6 7 11 14 16 19 21 24 26 27 29 30 31 32 36 37 38 0
1 2 7 8 12 15 17 20 22 25 27 28 30 31 32 33 37 38 0
2 3 8 9 13 16 18 20 21 23 26 28 29 31 32 33 34 38 0
3 4 9 10 14 17 19 20 21 22 24 27 29 30 32 33 34 35 0
1 4 5 10 11 15 18 21 22 23 25 28 30 31 33 34 35 36 0
2 5 6 11 12 16 19 22 23 24 26 29 31 32 34 35 36 37 0
1 3 6 7 12 13 17 23 24 25 27 30 32 33 35 36 37 38 0
2 4 7 8 13 14 18 20 24 25 26 28 31 33 34 36 37 38 0
3 5 8 9 14 15 19 20 21 25 26 27 29 32 34 35 37 38 0
1 4 6 9 10 15 16 20 21 22 26 27 28 30 33 35 36 38 0
2 5 7 10 11 16 17 20 21 22 23 27 28 29 31 34 36 37 0
3 4 9 10 13 15 18 21 22 24 27 29 30 31 35 36 37 38 0
4 5 10 11 14 16 19 20 22 23 25 28 30 31 32 36 37 38 0
1 5 6 11 12 15 17 20 21 23 24 26 29 31 32 33 37 38 0
2 6 7 12 13 16 18 20 21 22 24 25 27 30 32 33 34 38 0
3 7 8 13 14 17 19 20 21 22 23 25 26 28 31 33 34 35 0
1 4 8 9 14 15 18 21 22 23 24 26 27 29 32 34 35 36 0
2 5 9 10 15 16 19 22 23 24 25 27 28 30 33 35 36 37 0
1 3 6 10 11 16 17 23 24 25 26 28 29 31 34 36 37 38 0
2 4 7 11 12 17 18 20 24 25 26 27 29 30 32 35 37 38 0
3 5 8 12 13 18 19 20 21 25 26 27 28 30 31 33 36 38 0
1 4 6 9 13 14 19 20 21 22 26 27 28 29 31 32 34 37 0
1 2 5 7 10 14 15 21 22 23 27 28 29 30 32 33 35 38 0
2 3 6 8 11 15 16 20 22 23 24 28 29 30 31 33 34 36 0
3 4 7 9 12 16 17 21 23 24 25 29 30 31 32 34 35 37 0
4 5 8 10 13 17 18 22 24 25 26 30 31 32 33 35 36 38 0
5 6 9 11 14 18 19 20 23 25 26 27 31 32 33 34 36 37 0
1 6 7 10 12 15 19 21 24 26 27 28 32 33 34 35 37 38 0
1 2 7 8 11 13 16 20 22 25 27 28 29 33 34 35 36 38 0
2 3 8 9 12 14 17 20 21 23 26 28 29 30 34 35 36 37 0
3 5 6 9 10 12 15 16 21 22 23 26 27 28 31 32 33 34 36 0
4 6 7 10 11 13 16 17 22 23 24 27 28 29 32 33 34 35 37 0
5 7 8 11 12 14 17 18 23 24 25 28 29 30 33 34 35 36 38 0
6 8 9 12 13 15 18 19 20 24 25 26 29 30 31 34 35 36 37 0
1 7 9 10 13 14 16 19 21 25 26 27 30 31 32 35 36 37 38 0
1 2 8 10 11 14 15 17 20 22 26 27 28 31 32 33 36 37 38 0
2 3 9 11 12 15 16 18 20 21 23 27 28 29 32 33 34 37 38 0
3 4 10 12 13 16 17 19 20 21 22 24 28 29 30 33 34 35 38 0
1 4 5 11 13 14 17 18 20 21 22 23 25 29 30 31 34 35 36 0
2 5 6 12 14 15 18 19 21 22 23 24 26 30 31 32 35 36 37 0
1 3 6 7 13 15 16 19 22 23 24 25 27 31 32 33 36 37 38 0
1 2 4 7 8 14 16 17 20 23 24 25 26 28 32 33 34 37 38 0
2 3 5 8 9 15 17 18 20 21 24 25 26 27 29 33 34 35 38 0
3 4 6 9 10 16 18 19 20 21 22 25 26 27 28 30 34 35 36 0
1 4 5 7 10 11 17 19 21 22 23 26 27 28 29 31 35 36 37 0
1 2 5 6 8 11 12 18 22 23 24 27 28 29 30 32 36 37 38 0
2 3 6 7 9 12 13 19 20 23 24 25 28 29 30 31 33 37 38 0
1 3 4 7 8 10 13 14 20 21 24 25 26 29 30 31 32 34 38 0
2 4 5 8 9 11 14 15 20 21 22 25 26 27 30 31 32 33 35 0
5 6 9 11 12 15 16 18 23 25 26 27 28 31 32 33 36 37 38 0
6 7 10 12 13 16 17 19 20 24 26 27 28 29 32 33 34 37 38 0
1 7 8 11 13 14 17 18 20 21 25 27 28 29 30 33 34 35 38 0
2 8 9 12 14 15 18 19 20 21 22 26 28 29 30 31 34 35 36 0
1 3 9 10 13 15 16 19 21 22 23 27 29 30 31 32 35 36 37 0
1 2 4 10 11 14 16 17 22 23 24 28 30 31 32 33 36 37 38 0
2 3 5 11 12 15 17 18 20 23 24 25 29 31 32 33 34 37 38 0
3 4 6 12 13 16 18 19 20 21 24 25 26 30 32 33 34 35 38 0
1 4 5 7 13 14 17 19 20 21 22 25 26 27 31 33 34 35 36 0
1 2 5 6 8 14 15 18 21 22 23 26 27 28 32 34 35 36 37 0
2 3 6 7 9 15 16 19 22 23 24 27 28 29 33 35 36 37 38 0
1 3 4 7 8 10 16 17 20 23 24 25 28 29 30 34 36 37 38 0
2 4 5 8 9 11 17 18 20 21 24 25 26 29 30 31 35 37 38 0
3 5 6 9 10 12 18 19 20 21 22 25 26 27 30 31 32 36 38 0
1 4 6 7 10 11 13 19 20 21 22 23 26 27 28 31 32 33 37 0
1 2 5 7 8 11 12 14 21 22 23 24 27 28 29 32 33 34 38 0
2 3 6 8 9 12 13 15 20 22 23 24 25 28 29 30 33 34 35 0
3 4 7 9 10 13 14 16 21 23 24 25 26 29 30 31 34 35 36 0
4 5 8 10 11 14 15 17 22 24 25 26 27 30 31 32 35 36 37 0
3 5 8 10 12 14 16 21 23 25 26 28 29 31 34 36 0
4 6 9 11 13 15 17 22 24 26 27 29 30 32 35 37 0
5 7 10 12 14 16 18 23 25 27 28 30 31 33 36 38 0
6 8 11 13 15 17 19 20 24 26 28 29 31 32 34 37 0
1 7 9 12 14 16 18 21 25 27 29 30 32 33 35 38 0
2 8 10 13 15 17 19 20 22 26 28 30 31 33 34 36 0
1 3 9 11 14 16 18 21 23 27 29 31 32 34 35 37 0
2 4 10 12 15 17 19 22 24 28 30 32 33 35 36 38 0
1 3 5 11 13 16 18 20 23 25 29 31 33 34 36 37 0
2 4 6 12 14 17 19 21 24 26 30 32 34 35 37 38 0
1 3 5 7 13 15 18 20 22 25 27 31 33 35 36 38 0
2 4 6 8 14 16 19 20 21 23 26 28 32 34 36 37 0
1 3 5 7 9 15 17 21 22 24 27 29 33 35 37 38 0
2 4 6 8 10 16 18 20 22 23 25 28 30 34 36 38 0
3 5 7 9 11 17 19 20 21 23 24 26 29 31 35 37 0
1 4 6 8 10 12 18 21 22 24 25 27 30 32 36 38 0
2 5 7 9 11 13 19 20 22 23 25 26 28 31 33 37 0
1 3 6 8 10 12 14 21 23 24 26 27 29 32 34 38 0
2 4 7 9 11 13 15 20 22 24 25 27 28 30 33 35 0
5 7 9 11 13 16 18 23 25 28 30 31 33 34 36 38 0
6 8 10 12 14 17 19 20 24 26 29 31 32 34 35 37 0
1 7 9 11 13 15 18 21 25 27 30 32 33 35 36 38 0
2 8 10 12 14 16 19 20 22 26 28 31 33 34 36 37 0
1 3 9 11 13 15 17 21 23 27 29 32 34 35 37 38 0
2 4 10 12 14 16 18 20 22 24 28 30 33 35 36 38 0
3 5 11 13 15 17 19 20 21 23 25 29 31 34 36 37 0
1 4 6 12 14 16 18 21 22 24 26 30 32 35 37 38 0
2 5 7 13 15 17 19 20 22 23 25 27 31 33 36 38 0
1 3 6 8 14 16 18 20 21 23 24 26 28 32 34 37 0
2 4 7 9 15 17 19 21 22 24 25 27 29 33 35 38 0
1 3 5 8 10 16 18 20 22 23 25 26 28 30 34 36 0
2 4 6 9 11 17 19 21 23 24 26 27 29 31 35 37 0
1 3 5 7 10 12 18 22 24 25 27 28 30 32 36 38 0
2 4 6 8 11 13 19 20 23 25 26 28 29 31 33 37 0
1 3 5 7 9 12 14 21 24 26 27 29 30 32 34 38 0
2 4 6 8 10 13 15 20 22 25 27 28 30 31 33 35 0
3 5 7 9 11 14 16 21 23 26 28 29 31 32 34 36 0
4 6 8 10 12 15 17 22 24 27 29 30 32 33 35 37 0
2 5 6 10 13 15 16 19 22 23 26 28 29 30 31 36 37 0
1 3 6 7 11 14 16 17 23 24 27 29 30 31 32 37 38 0
2 4 7 8 12 15 17 18 20 24 25 28 30 31 32 33 38 0
3 5 8 9 13 16 18 19 20 21 25 26 29 31 32 33 34 0
1 4 6 9 10 14 17 19 21 22 26 27 30 32 33 34 35 0
1 2 5 7 10 11 15 18 22 23 27 28 31 33 34 35 36 0
2 3 6 8 11 12 16 19 23 24 28 29 32 34 35 36 37 0
1 3 4 7 9 12 13 17 24 25 29 30 33 35 36 37 38 0
2 4 5 8 10 13 14 18 20 25 26 30 31 34 36 37 38 0
3 5 6 9 11 14 15 19 20 21 26 27 31 32 35 37 38 0
1 4 6 7 10 12 15 16 20 21 22 27 28 32 33 36 38 0
2 5 7 8 11 13 16 17 20 21 22 23 28 29 33 34 37 0
3 6 8 9 12 14 17 18 21 22 23 24 29 30 34 35 38 0
4 7 9 10 13 15 18 19 20 22 23 24 25 30 31 35 36 0
1 5 8 10 11 14 16 19 21 23 24 25 26 31 32 36 37 0
1 2 6 9 11 12 15 17 22 24 25 26 27 32 33 37 38 0
2 3 7 10 12 13 16 18 20 23 25 26 27 28 33 34 38 0
3 4 8 11 13 14 17 19 20 21 24 26 27 28 29 34 35 0
1 4 5 9 12 14 15 18 21 22 25 27 28 29 30 35 36 0
2 5 6 8 11 15 16 19 22 23 28 29 30 31 33 36 37 0
1 3 6 7 9 12 16 17 23 24 29 30 31 32 34 37 38 0
2 4 7 8 10 13 17 18 20 24 25 30 31 32 33 35 38 0
3 5 8 9 11 14 18 19 20 21 25 26 31 32 33 34 36 0
1 4 6 9 10 12 15 19 21 22 26 27 32 33 34 35 37 0
1 2 5 7 10 11 13 16 22 23 27 28 33 34 35 36 38 0
2 3 6 8 11 12 14 17 20 23 24 28 29 34 35 36 37 0
3 4 7 9 12 13 15 18 21 24 25 29 30 35 36 37 38 0
4 5 8 10 13 14 16 19 20 22 25 26 30 31 36 37 38 0
1 5 6 9 11 14 15 17 20 21 23 26 27 31 32 37 38 0
2 6 7 10 12 15 16 18 20 21 22 24 27 28 32 33 38 0
3 7 8 11 13 16 17 19 20 21 22 23 25 28 29 33 34 0
1 4 8 9 12 14 17 18 21 22 23 24 26 29 30 34 35 0
2 5 9 10 13 15 18 19 22 23 24 25 27 30 31 35 36 0
1 3 6 10 11 14 16 19 23 24 25 26 28 31 32 36 37 0
1 2 4 7 11 12 15 17 24 25 26 27 29 32 33 37 38 0
2 3 5 8 12 13 16 18 20 25 26 27 28 30 33 34 38 0
3 4 6 9 13 14 17 19 20 21 26 27 28 29 31 34 35 0
1 4 5 7 10 14 15 18 21 22 27 28 29 30 32 35 36 0
2 4 5 8 10 13 16 18 19 21 25 26 27 28 30 31 32 33 34 37 0
1 3 5 6 9 11 14 17 19 22 26 27 28 29 31 32 33 34 35 38 0
1 2 4 6 7 10 12 15 18 20 23 27 28 29 30 32 33 34 35 36 0
2 3 5 7 8 11 13 16 19 21 24 28 29 30 31 33 34 35 36 37 0
1 3 4 6 8 9 12 14 17 22 25 29 30 31 32 34 35 36 37 38 0
2 4 5 7 9 10 13 15 18 20 23 26 30 31 32 33 35 36 37 38 0
3 5 6 8 10 11 14 16 19 20 21 24 27 31 32 33 34 36 37 38 0
1 4 6 7 9 11 12 15 17 20 21 22 25 28 32 33 34 35 37 38 0
2 5 7 8 10 12 13 16 18 20 21 22 23 26 29 33 34 35 36 38 0
3 6 8 9 11 13 14 17 19 20 21 22 23 24 27 30 34 35 36 37 0
1 4 7 9 10 12 14 15 18 21 22 23 24 25 28 31 35 36 37 38 0
2 5 8 10 11 13 15 16 19 20 22 23 24 25 26 29 32 36 37 38 0
1 3 6 9 11 12 14 16 17 20 21 23 24 25 26 27 30 33 37 38 0
2 4 7 10 12 13 15 17 18 20 21 22 24 25 26 27 28 31 34 38 0
3 5 8 11 13 14 16 18 19 20 21 22 23 25 26 27 28 29 32 35 0
1 4 6 9 12 14 15 17 19 21 22 23 24 26 27 28 29 30 33 36 0
1 2 5 7 10 13 15 16 18 22 23 24 25 27 28 29 30 31 34 37 0
2 3 6 8 11 14 16 17 19 23 24 25 26 28 29 30 31 32 35 38 0
1 3 4 7 9 12 15 17 18 20 24 25 26 27 29 30 31 32 33 36 0
2 3 5 8 11 13 16 17 19 22 25 26 27 28 29 31 32 33 34 38 0
1 3 4 6 9 12 14 17 18 20 23 26 27 28 29 30 32 33 34 35 0
2 4 5 7 10 13 15 18 19 21 24 27 28 29 30 31 33 34 35 36 0
1 3 5 6 8 11 14 16 19 22 25 28 29 30 31 32 34 35 36 37 0
1 2 4 6 7 9 12 15 17 23 26 29 30 31 32 33 35 36 37 38 0
2 3 5 7 8 10 13 16 18 20 24 27 30 31 32 33 34 36 37 38 0
3 4 6 8 9 11 14 17 19 20 21 25 28 31 32 33 34 35 37 38 0
1 4 5 7 9 10 12 15 18 20 21 22 26 29 32 33 34 35 36 38 0
2 5 6 8 10 11 13 16 19 20 21 22 23 27 30 33 34 35 36 37 0
1 3 6 7 9 11 12 14 17 21 22 23 24 28 31 34 35 36 37 38 0
2 4 7 8 10 12 13 15 18 20 22 23 24 25 29 32 35 36 37 38 0
3 5 8 9 11 13 14 16 19 20 21 23 24 25 26 30 33 36 37 38 0
1 4 6 9 10 12 14 15 17 20 21 22 24 25 26 27 31 34 37 38 0
2 5 7 10 11 13 15 16 18 20 21 22 23 25 26 27 28 32 35 38 0
3 6 8 11 12 14 16 17 19 20 21 22 23 24 26 27 28 29 33 36 0
1 4 7 9 12 13 15 17 18 21 22 23 24 25 27 28 29 30 34 37 0
2 5 8 10 13 14 16 18 19 22 23 24 25 26 28 29 30 31 35 38 0
1 3 6 9 11 14 15 17 19 20 23 24 25 26 27 29 30 31 32 36 0
1 2 4 7 10 12 15 16 18 21 24 25 26 27 28 30 31 32 33 37 0
2 4 5 8 10 13 16 17 19 21 25 26 28 30 31 33 34 37 38 0
1 3 5 6 9 11 14 17 18 20 22 26 27 29 31 32 34 35 38 0
2 4 6 7 10 12 15 18 19 20 21 23 27 28 30 32 33 35 36 0
1 3 5 7 8 11 13 16 19 21 22 24 28 29 31 33 34 36 37 0
1 2 4 6 8 9 12 14 17 22 23 25 29 30 32 34 35 37 38 0
2 3 5 7 9 10 13 15 18 20 23 24 26 30 31 33 35 36 38 0
3 4 6 8 10 11 14 16 19 20 21 24 25 27 31 32 34 36 37 0
1 4 5 7 9 11 12 15 17 21 22 25 26 28 32 33 35 37 38 0
2 5 6 8 10 12 13 16 18 20 22 23 26 27 29 33 34 36 38 0
3 6 7 9 11 13 14 17 19 20 21 23 24 27 28 30 34 35 37 0
1 4 7 8 10 12 14 15 18 21 22 24 25 28 29 31 35 36 38 0
2 5 8 9 11 13 15 16 19 20 22 23 25 26 29 30 32 36 37 0
1 3 6 9 10 12 14 16 17 21 23 24 26 27 30 31 33 37 38 0
2 4 7 10 11 13 15 17 18 20 22 24 25 27 28 31 32 34 38 0
3 5 8 11 12 14 16 18 19 20 21 23 25 26 28 29 32 33 35 0
1 4 6 9 12 13 15 17 19 21 22 24 26 27 29 30 33 34 36 0
1 2 5 7 10 13 14 16 18 22 23 25 27 28 30 31 34 35 37 0
2 3 6 8 11 14 15 17 19 23 24 26 28 29 31 32 35 36 38 0
1 3 4 7 9 12 15 16 18 20 24 25 27 29 30 32 33 36 37 0
2 4 5 8 11 13 16 17 19 21 22 25 26 28 29 31 33 34 38 0
1 3 5 6 9 12 14 17 18 20 22 23 26 27 29 30 32 34 35 0
2 4 6 7 10 13 15 18 19 21 23 24 27 28 30 31 33 35 36 0
1 3 5 7 8 11 14 16 19 22 24 25 28 29 31 32 34 36 37 0
1 2 4 6 8 9 12 15 17 23 25 26 29 30 32 33 35 37 38 0
2 3 5 7 9 10 13 16 18 20 24 26 27 30 31 33 34 36 38 0
3 4 6 8 10 11 14 17 19 20 21 25 27 28 31 32 34 35 37 0
1 4 5 7 9 11 12 15 18 21 22 26 28 29 32 33 35 36 38 0
2 5 6 8 10 12 13 16 19 20 22 23 27 29 30 33 34 36 37 0
1 3 6 7 9 11 13 14 17 21 23 24 28 30 31 34 35 37 38 0
2 4 7 8 10 12 14 15 18 20 22 24 25 29 31 32 35 36 38 0
3 5 8 9 11 13 15 16 19 20 21 23 25 26 30 32 33 36 37 0
1 4 6 9 10 12 14 16 17 21 22 24 26 27 31 33 34 37 38 0
2 5 7 10 11 13 15 17 18 20 22 23 25 27 28 32 34 35 38 0
3 6 8 11 12 14 16 18 19 20 21 23 24 26 28 29 33 35 36 0
1 4 7 9 12 13 15 17 19 21 22 24 25 27 29 30 34 36 37 0
1 2 5 8 10 13 14 16 18 22 23 25 26 28 30 31 35 37 38 0
2 3 6 9 11 14 15 17 19 20 23 24 26 27 29 31 32 36 38 0
1 3 4 7 10 12 15 16 18 20 21 24 25 27 28 30 32 33 37 0
2 5 8 9 12 13 16 18 19 22 23 25 26 28 29 30 31 33 34 0
1 3 6 9 10 13 14 17 19 23 24 26 27 29 30 31 32 34 35 0
1 2 4 7 10 11 14 15 18 24 25 27 28 30 31 32 33 35 36 0
2 3 5 8 11 12 15 16 19 25 26 28 29 31 32 33 34 36 37 0
1 3 4 6 9 12 13 16 17 26 27 29 30 32 33 34 35 37 38 0
2 4 5 7 10 13 14 17 18 20 27 28 30 31 33 34 35 36 38 0
3 5 6 8 11 14 15 18 19 20 21 28 29 31 32 34 35 36 37 0
1 4 6 7 9 12 15 16 19 21 22 29 30 32 33 35 36 37 38 0
1 2 5 7 8 10 13 16 17 20 22 23 30 31 33 34 36 37 38 0
2 3 6 8 9 11 14 17 18 20 21 23 24 31 32 34 35 37 38 0
3 4 7 9 10 12 15 18 19 20 21 22 24 25 32 33 35 36 38 0
1 4 5 8 10 11 13 16 19 20 21 22 23 25 26 33 34 36 37 0
1 2 5 6 9 11 12 14 17 21 22 23 24 26 27 34 35 37 38 0
2 3 6 7 10 12 13 15 18 20 22 23 24 25 27 28 35 36 38 0
3 4 7 8 11 13 14 16 19 20 21 23 24 25 26 28 29 36 37 0
1 4 5 8 9 12 14 15 17 21 22 24 25 26 27 29 30 37 38 0
2 5 6 9 10 13 15 16 18 20 22 23 25 26 27 28 30 31 38 0
3 6 7 10 11 14 16 17 19 20 21 23 24 26 27 28 29 31 32 0
1 4 7 8 11 12 15 17 18 21 22 24 25 27 28 29 30 32 33 0
2 3 5 8 9 12 13 16 19 25 26 28 29 30 31 33 34 36 37 0
1 3 4 6 9 10 13 14 17 26 27 29 30 31 32 34 35 37 38 0
2 4 5 7 10 11 14 15 18 20 27 28 30 31 32 33 35 36 38 0
3 5 6 8 11 12 15 16 19 20 21 28 29 31 32 33 34 36 37 0
1 4 6 7 9 12 13 16 17 21 22 29 30 32 33 34 35 37 38 0
2 5 7 8 10 13 14 17 18 20 22 23 30 31 33 34 35 36 38 0
3 6 8 9 11 14 15 18 19 20 21 23 24 31 32 34 35 36 37 0
1 4 7 9 10 12 15 16 19 21 22 24 25 32 33 35 36 37 38 0
1 2 5 8 10 11 13 16 17 20 22 23 25 26 33 34 36 37 38 0
2 3 6 9 11 12 14 17 18 20 21 23 24 26 27 34 35 37 38 0
3 4 7 10 12 13 15 18 19 20 21 22 24 25 27 28 35 36 38 0
1 4 5 8 11 13 14 16 19 20 21 22 23 25 26 28 29 36 37 0
1 2 5 6 9 12 14 15 17 21 22 23 24 26 27 29 30 37 38 0
2 3 6 7 10 13 15 16 18 20 22 23 24 25 27 28 30 31 38 0
3 4 7 8 11 14 16 17 19 20 21 23 24 25 26 28 29 31 32 0
1 4 5 8 9 12 15 17 18 21 22 24 25 26 27 29 30 32 33 0
2 5 6 9 10 13 16 18 19 22 23 25 26 27 28 30 31 33 34 0
1 3 6 7 10 11 14 17 19 23 24 26 27 28 29 31 32 34 35 0
1 2 4 7 8 11 12 15 18 24 25 27 28 29 30 32 33 35 36 0
3 6 7 9 12 14 15 18 21 22 23 24 29 30 31 32 35 36 38 0
4 7 8 10 13 15 16 19 20 22 23 24 25 30 31 32 33 36 37 0
1 5 8 9 11 14 16 17 21 23 24 25 26 31 32 33 34 37 38 0
2 6 9 10 12 15 17 18 20 22 24 25 26 27 32 33 34 35 38 0
3 7 10 11 13 16 18 19 20 21 23 25 26 27 28 33 34 35 36 0
1 4 8 11 12 14 17 19 21 22 24 26 27 28 29 34 35 36 37 0
1 2 5 9 12 13 15 18 22 23 25 27 28 29 30 35 36 37 38 0
2 3 6 10 13 14 16 19 20 23 24 26 28 29 30 31 36 37 38 0
1 3 4 7 11 14 15 17 20 21 24 25 27 29 30 31 32 37 38 0
2 4 5 8 12 15 16 18 20 21 22 25 26 28 30 31 32 33 38 0
3 5 6 9 13 16 17 19 20 21 22 23 26 27 29 31 32 33 34 0
1 4 6 7 10 14 17 18 21 22 23 24 27 28 30 32 33 34 35 0
2 5 7 8 11 15 18 19 22 23 24 25 28 29 31 33 34 35 36 0
1 3 6 8 9 12 16 19 23 24 25 26 29 30 32 34 35 36 37 0
1 2 4 7 9 10 13 17 24 25 26 27 30 31 33 35 36 37 38 0
2 3 5 8 10 11 14 18 20 25 26 27 28 31 32 34 36 37 38 0
3 4 6 9 11 12 15 19 20 21 26 27 28 29 32 33 35 37 38 0
1 4 5 7 10 12 13 16 20 21 22 27 28 29 30 33 34 36 38 0
2 5 6 8 11 13 14 17 20 21 22 23 28 29 30 31 34 35 37 0
3 6 7 9 12 14 15 18 21 23 24 27 28 29 30 35 36 37 38 0
4 7 8 10 13 15 16 19 20 22 24 25 28 29 30 31 36 37 38 0
1 5 8 9 11 14 16 17 20 21 23 25 26 29 30 31 32 37 38 0
2 6 9 10 12 15 17 18 20 21 22 24 26 27 30 31 32 33 38 0
3 7 10 11 13 16 18 19 20 21 22 23 25 27 28 31 32 33 34 0
1 4 8 11 12 14 17 19 21 22 23 24 26 28 29 32 33 34 35 0
1 2 5 9 12 13 15 18 22 23 24 25 27 29 30 33 34 35 36 0
2 3 6 10 13 14 16 19 23 24 25 26 28 30 31 34 35 36 37 0
1 3 4 7 11 14 15 17 24 25 26 27 29 31 32 35 36 37 38 0
2 4 5 8 12 15 16 18 20 25 26 27 28 30 32 33 36 37 38 0
3 5 6 9 13 16 17 19 20 21 26 27 28 29 31 33 34 37 38 0
1 4 6 7 10 14 17 18 20 21 22 27 28 29 30 32 34 35 38 0
2 5 7 8 11 15 18 19 20 21 22 23 28 29 30 31 33 35 36 0
1 3 6 8 9 12 16 19 21 22 23 24 29 30 31 32 34 36 37 0
1 2 4 7 9 10 13 17 22 23 24 25 30 31 32 33 35 37 38 0
2 3 5 8 10 11 14 18 20 23 24 25 26 31 32 33 34 36 38 0
3 4 6 9 11 12 15 19 20 21 24 25 26 27 32 33 34 35 37 0
1 4 5 7 10 12 13 16 21 22 25 26 27 28 33 34 35 36 38 0
2 5 6 8 11 13 14 17 20 22 23 26 27 28 29 34 35 36 37 0
4 7 9 10 14 17 22 23 24 25 27 30 32 34 35 36 37 0
5 8 10 11 15 18 23 24 25 26 28 31 33 35 36 37 38 0
6 9 11 12 16 19 20 24 25 26 27 29 32 34 36 37 38 0
1 7 10 12 13 17 20 21 25 26 27 28 30 33 35 37 38 0
2 8 11 13 14 18 20 21 22 26 27 28 29 31 34 36 38 0
3 9 12 14 15 19 20 21 22 23 27 28 29 30 32 35 37 0
1 4 10 13 15 16 21 22 23 24 28 29 30 31 33 36 38 0
2 5 11 14 16 17 20 22 23 24 25 29 30 31 32 34 37 0
3 6 12 15 17 18 21 23 24 25 26 30 31 32 33 35 38 0
4 7 13 16 18 19 20 22 24 25 26 27 31 32 33 34 36 0
1 5 8 14 17 19 21 23 25 26 27 28 32 33 34 35 37 0
1 2 6 9 15 18 22 24 26 27 28 29 33 34 35 36 38 0
2 3 7 10 16 19 20 23 25 27 28 29 30 34 35 36 37 0
1 3 4 8 11 17 21 24 26 28 29 30 31 35 36 37 38 0
2 4 5 9 12 18 20 22 25 27 29 30 31 32 36 37 38 0
3 5 6 10 13 19 20 21 23 26 28 30 31 32 33 37 38 0
1 4 6 7 11 14 20 21 22 24 27 29 31 32 33 34 38 0
2 5 7 8 12 15 20 21 22 23 25 28 30 32 33 34 35 0
3 6 8 9 13 16 21 22 23 24 26 29 31 33 34 35 36 0
4 7 11 12 14 17 22 23 24 25 27 29 32 34 35 36 37 0
5 8 12 13 15 18 23 24 25 26 28 30 33 35 36 37 38 0
6 9 13 14 16 19 20 24 25 26 27 29 31 34 36 37 38 0
1 7 10 14 15 17 20 21 25 26 27 28 30 32 35 37 38 0
2 8 11 15 16 18 20 21 22 26 27 28 29 31 33 36 38 0
3 9 12 16 17 19 20 21 22 23 27 28 29 30 32 34 37 0
1 4 10 13 17 18 21 22 23 24 28 29 30 31 33 35 38 0
2 5 11 14 18 19 20 22 23 24 25 29 30 31 32 34 36 0
1 3 6 12 15 19 21 23 24 25 26 30 31 32 33 35 37 0
1 2 4 7 13 16 22 24 25 26 27 31 32 33 34 36 38 0
2 3 5 8 14 17 20 23 25 26 27 28 32 33 34 35 37 0
3 4 6 9 15 18 21 24 26 27 28 29 33 34 35 36 38 0
4 5 7 10 16 19 20 22 25 27 28 29 30 34 35 36 37 0
1 5 6 8 11 17 21 23 26 28 29 30 31 35 36 37 38 0
2 6 7 9 12 18 20 22 24 27 29 30 31 32 36 37 38 0
3 7 8 10 13 19 20 21 23 25 28 30 31 32 33 37 38 0
1 4 8 9 11 14 20 21 22 24 26 29 31 32 33 34 38 0
2 5 9 10 12 15 20 21 22 23 25 27 30 32 33 34 35 0
3 6 10 11 13 16 21 22 23 24 26 28 31 33 34 35 36 0
3 6 8 9 11 12 13 16 18 21 23 24 29 33 34 35 36 37 38 0
4 7 9 10 12 13 14 17 19 20 22 24 25 30 34 35 36 37 38 0
1 5 8 10 11 13 14 15 18 20 21 23 25 26 31 35 36 37 38 0
2 6 9 11 12 14 15 16 19 20 21 22 24 26 27 32 36 37 38 0
1 3 7 10 12 13 15 16 17 20 21 22 23 25 27 28 33 37 38 0
2 4 8 11 13 14 16 17 18 20 21 22 23 24 26 28 29 34 38 0
3 5 9 12 14 15 17 18 19 20 21 22 23 24 25 27 29 30 35 0
1 4 6 10 13 15 16 18 19 21 22 23 24 25 26 28 30 31 36 0
1 2 5 7 11 14 16 17 19 22 23 24 25 26 27 29 31 32 37 0
1 2 3 6 8 12 15 17 18 23 24 25 26 27 28 30 32 33 38 0
2 3 4 7 9 13 16 18 19 20 24 25 26 27 28 29 31 33 34 0
1 3 4 5 8 10 14 17 19 21 25 26 27 28 29 30 32 34 35 0
1 2 4 5 6 9 11 15 18 22 26 27 28 29 30 31 33 35 36 0
2 3 5 6 7 10 12 16 19 23 27 28 29 30 31 32 34 36 37 0
1 3 4 6 7 8 11 13 17 24 28 29 30 31 32 33 35 37 38 0
2 4 5 7 8 9 12 14 18 20 25 29 30 31 32 33 34 36 38 0
3 5 6 8 9 10 13 15 19 20 21 26 30 31 32 33 34 35 37 0
1 4 6 7 9 10 11 14 16 21 22 27 31 32 33 34 35 36 38 0
2 5 7 8 10 11 12 15 17 20 22 23 28 32 33 34 35 36 37 0
3 5 8 9 10 12 13 15 18 21 22 23 24 25 26 30 35 36 38 0
4 6 9 10 11 13 14 16 19 20 22 23 24 25 26 27 31 36 37 0
1 5 7 10 11 12 14 15 17 21 23 24 25 26 27 28 32 37 38 0
2 6 8 11 12 13 15 16 18 20 22 24 25 26 27 28 29 33 38 0
3 7 9 12 13 14 16 17 19 20 21 23 25 26 27 28 29 30 34 0
1 4 8 10 13 14 15 17 18 21 22 24 26 27 28 29 30 31 35 0
2 5 9 11 14 15 16 18 19 22 23 25 27 28 29 30 31 32 36 0
1 3 6 10 12 15 16 17 19 23 24 26 28 29 30 31 32 33 37 0
1 2 4 7 11 13 16 17 18 24 25 27 29 30 31 32 33 34 38 0
2 3 5 8 12 14 17 18 19 20 25 26 28 30 31 32 33 34 35 0
1 3 4 6 9 13 15 18 19 21 26 27 29 31 32 33 34 35 36 0
1 2 4 5 7 10 14 16 19 22 27 28 30 32 33 34 35 36 37 0
1 2 3 5 6 8 11 15 17 23 28 29 31 33 34 35 36 37 38 0
2 3 4 6 7 9 12 16 18 20 24 29 30 32 34 35 36 37 38 0
3 4 5 7 8 10 13 17 19 20 21 25 30 31 33 35 36 37 38 0
1 4 5 6 8 9 11 14 18 20 21 22 26 31 32 34 36 37 38 0
2 5 6 7 9 10 12 15 19 20 21 22 23 27 32 33 35 37 38 0
1 3 6 7 8 10 11 13 16 20 21 22 23 24 28 33 34 36 38 0
2 4 7 8 9 11 12 14 17 20 21 22 23 24 25 29 34 35 37 0
4 7 8 9 11 12 13 16 18 22 23 24 25 33 34 35 36 38 0
5 8 9 10 12 13 14 17 19 20 23 24 25 26 34 35 36 37 0
1 6 9 10 11 13 14 15 18 21 24 25 26 27 35 36 37 38 0
2 7 10 11 12 14 15 16 19 20 22 25 26 27 28 36 37 38 0
1 3 8 11 12 13 15 16 17 20 21 23 26 27 28 29 37 38 0
2 4 9 12 13 14 16 17 18 20 21 22 24 27 28 29 30 38 0
3 5 10 13 14 15 17 18 19 20 21 22 23 25 28 29 30 31 0
1 4 6 11 14 15 16 18 19 21 22 23 24 26 29 30 31 32 0
1 2 5 7 12 15 16 17 19 22 23 24 25 27 30 31 32 33 0
1 2 3 6 8 13 16 17 18 23 24 25 26 28 31 32 33 34 0
2 3 4 7 9 14 17 18 19 24 25 26 27 29 32 33 34 35 0
1 3 4 5 8 10 15 18 19 25 26 27 28 30 33 34 35 36 0
1 2 4 5 6 9 11 16 19 26 27 28 29 31 34 35 36 37 0
1 2 3 5 6 7 10 12 17 27 28 29 30 32 35 36 37 38 0
2 3 4 6 7 8 11 13 18 20 28 29 30 31 33 36 37 38 0
3 4 5 7 8 9 12 14 19 20 21 29 30 31 32 34 37 38 0
1 4 5 6 8 9 10 13 15 20 21 22 30 31 32 33 35 38 0
2 5 6 7 9 10 11 14 16 20 21 22 23 31 32 33 34 36 0
3 6 7 8 10 11 12 15 17 21 22 23 24 32 33 34 35 37 0
3 5 8 9 10 12 13 14 17 21 23 24 25 26 34 35 36 37 0
4 6 9 10 11 13 14 15 18 22 24 25 26 27 35 36 37 38 0
5 7 10 11 12 14 15 16 19 20 23 25 26 27 28 36 37 38 0
1 6 8 11 12 13 15 16 17 20 21 24 26 27 28 29 37 38 0
2 7 9 12 13 14 16 17 18 20 21 22 25 27 28 29 30 38 0
3 8 10 13 14 15 17 18 19 20 21 22 23 26 28 29 30 31 0
1 4 9 11 14 15 16 18 19 21 22 23 24 27 29 30 31 32 0
1 2 5 10 12 15 16 17 19 22 23 24 25 28 30 31 32 33 0
1 2 3 6 11 13 16 17 18 23 24 25 26 29 31 32 33 34 0
2 3 4 7 12 14 17 18 19 24 25 26 27 30 32 33 34 35 0
1 3 4 5 8 13 15 18 19 25 26 27 28 31 33 34 35 36 0
1 2 4 5 6 9 14 16 19 26 27 28 29 32 34 35 36 37 0
1 2 3 5 6 7 10 15 17 27 28 29 30 33 35 36 37 38 0
2 3 4 6 7 8 11 16 18 20 28 29 30 31 34 36 37 38 0
3 4 5 7 8 9 12 17 19 20 21 29 30 31 32 35 37 38 0
1 4 5 6 8 9 10 13 18 20 21 22 30 31 32 33 36 38 0
2 5 6 7 9 10 11 14 19 20 21 22 23 31 32 33 34 37 0
1 3 6 7 8 10 11 12 15 21 22 23 24 32 33 34 35 38 0
2 4 7 8 9 11 12 13 16 20 22 23 24 25 33 34 35 36 0
5 8 9 12 13 16 18 23 24 25 26 29 30 33 34 35 36 37 38 0
6 9 10 13 14 17 19 20 24 25 26 27 30 31 34 35 36 37 38 0
1 7 10 11 14 15 18 20 21 25 26 27 28 31 32 35 36 37 38 0
2 8 11 12 15 16 19 20 21 22 26 27 28 29 32 33 36 37 38 0
1 3 9 12 13 16 17 20 21 22 23 27 28 29 30 33 34 37 38 0
2 4 10 13 14 17 18 20 21 22 23 24 28 29 30 31 34 35 38 0
3 5 11 14 15 18 19 20 21 22 23 24 25 29 30 31 32 35 36 0
1 4 6 12 15 16 19 21 22 23 24 25 26 30 31 32 33 36 37 0
1 2 5 7 13 16 17 22 23 24 25 26 27 31 32 33 34 37 38 0
2 3 6 8 14 17 18 20 23 24 25 26 27 28 32 33 34 35 38 0
3 4 7 9 15 18 19 20 21 24 25 26 27 28 29 33 34 35 36 0
1 4 5 8 10 16 19 21 22 25 26 27 28 29 30 34 35 36 37 0
1 2 5 6 9 11 17 22 23 26 27 28 29 30 31 35 36 37 38 0
2 3 6 7 10 12 18 20 23 24 27 28 29 30 31 32 36 37 38 0
3 4 7 8 11 13 19 20 21 24 25 28 29 30 31 32 33 37 38 0
1 4 5 8 9 12 14 20 21 22 25 26 29 30 31 32 33 34 38 0
2 5 6 9 10 13 15 20 21 22 23 26 27 30 31 32 33 34 35 0
3 6 7 10 11 14 16 21 22 23 24 27 28 31 32 33 34 35 36 0
4 7 8 11 12 15 17 22 23 24 25 28 29 32 33 34 35 36 37 0
3 5 8 9 12 13 16 21 22 23 24 25 26 29 30 33 34 35 36 0
4 6 9 10 13 14 17 22 23 24 25 26 27 30 31 34 35 36 37 0
5 7 10 11 14 15 18 23 24 25 26 27 28 31 32 35 36 37 38 0
6 8 11 12 15 16 19 20 24 25 26 27 28 29 32 33 36 37 38 0
1 7 9 12 13 16 17 20 21 25 26 27 28 29 30 33 34 37 38 0
2 8 10 13 14 17 18 20 21 22 26 27 28 29 30 31 34 35 38 0
3 9 11 14 15 18 19 20 21 22 23 27 28 29 30 31 32 35 36 0
1 4 10 12 15 16 19 21 22 23 24 28 29 30 31 32 33 36 37 0
1 2 5 11 13 16 17 22 23 24 25 29 30 31 32 33 34 37 38 0
2 3 6 12 14 17 18 20 23 24 25 26 30 31 32 33 34 35 38 0
3 4 7 13 15 18 19 20 21 24 25 26 27 31 32 33 34 35 36 0
1 4 5 8 14 16 19 21 22 25 26 27 28 32 33 34 35 36 37 0
1 2 5 6 9 15 17 22 23 26 27 28 29 33 34 35 36 37 38 0
2 3 6 7 10 16 18 20 23 24 27 28 29 30 34 35 36 37 38 0
3 4 7 8 11 17 19 20 21 24 25 28 29 30 31 35 36 37 38 0
1 4 5 8 9 12 18 20 21 22 25 26 29 30 31 32 36 37 38 0
2 5 6 9 10 13 19 20 21 22 23 26 27 30 31 32 33 37 38 0
1 3 6 7 10 11 14 20 21 22 23 24 27 28 31 32 33 34 38 0
2 4 7 8 11 12 15 20 21 22 23 24 25 28 29 32 33 34 35 0
4 7 8 11 12 14 17 18 22 23 24 25 28 29 34 35 36 38 0
5 8 9 12 13 15 18 19 20 23 24 25 26 29 30 35 36 37 0
1 6 9 10 13 14 16 19 21 24 25 26 27 30 31 36 37 38 0
1 2 7 10 11 14 15 17 20 22 25 26 27 28 31 32 37 38 0
2 3 8 11 12 15 16 18 20 21 23 26 27 28 29 32 33 38 0
3 4 9 12 13 16 17 19 20 21 22 24 27 28 29 30 33 34 0
1 4 5 10 13 14 17 18 21 22 23 25 28 29 30 31 34 35 0
2 5 6 11 14 15 18 19 22 23 24 26 29 30 31 32 35 36 0
1 3 6 7 12 15 16 19 23 24 25 27 30 31 32 33 36 37 0
1 2 4 7 8 13 16 17 24 25 26 28 31 32 33 34 37 38 0
2 3 5 8 9 14 17 18 20 25 26 27 29 32 33 34 35 38 0
3 4 6 9 10 15 18 19 20 21 26 27 28 30 33 34 35 36 0
1 4 5 7 10 11 16 19 21 22 27 28 29 31 34 35 36 37 0
1 2 5 6 8 11 12 17 22 23 28 29 30 32 35 36 37 38 0
2 3 6 7 9 12 13 18 20 23 24 29 30 31 33 36 37 38 0
3 4 7 8 10 13 14 19 20 21 24 25 30 31 32 34 37 38 0
1 4 5 8 9 11 14 15 20 21 22 25 26 31 32 33 35 38 0
2 5 6 9 10 12 15 16 20 21 22 23 26 27 32 33 34 36 0
3 6 7 10 11 13 16 17 21 22 23 24 27 28 33 34 35 37 0
3 4 7 9 10 13 14 17 21 23 24 25 30 31 34 35 36 37 0
4 5 8 10 11 14 15 18 22 24 25 26 31 32 35 36 37 38 0
5 6 9 11 12 15 16 19 20 23 25 26 27 32 33 36 37 38 0
1 6 7 10 12 13 16 17 20 21 24 26 27 28 33 34 37 38 0
2 7 8 11 13 14 17 18 20 21 22 25 27 28 29 34 35 38 0
3 8 9 12 14 15 18 19 20 21 22 23 26 28 29 30 35 36 0
1 4 9 10 13 15 16 19 21 22 23 24 27 29 30 31 36 37 0
1 2 5 10 11 14 16 17 22 23 24 25 28 30 31 32 37 38 0
2 3 6 11 12 15 17 18 20 23 24 25 26 29 31 32 33 38 0
3 4 7 12 13 16 18 19 20 21 24 25 26 27 30 32 33 34 0
1 4 5 8 13 14 17 19 21 22 25 26 27 28 31 33 34 35 0
1 2 5 6 9 14 15 18 22 23 26 27 28 29 32 34 35 36 0
2 3 6 7 10 15 16 19 23 24 27 28 29 30 33 35 36 37 0
1 3 4 7 8 11 16 17 24 25 28 29 30 31 34 36 37 38 0
2 4 5 8 9 12 17 18 20 25 26 29 30 31 32 35 37 38 0
3 5 6 9 10 13 18 19 20 21 26 27 30 31 32 33 36 38 0
1 4 6 7 10 11 14 19 20 21 22 27 28 31 32 33 34 37 0
1 2 5 7 8 11 12 15 21 22 23 28 29 32 33 34 35 38 0
2 3 6 8 9 12 13 16 20 22 23 24 29 30 33 34 35 36 0
4 7 8 9 12 13 16 17 22 23 24 25 29 30 33 34 35 36 37 0
5 8 9 10 13 14 17 18 23 24 25 26 30 31 34 35 36 37 38 0
6 9 10 11 14 15 18 19 20 24 25 26 27 31 32 35 36 37 38 0
1 7 10 11 12 15 16 19 20 21 25 26 27 28 32 33 36 37 38 0
1 2 8 11 12 13 16 17 20 21 22 26 27 28 29 33 34 37 38 0
2 3 9 12 13 14 17 18 20 21 22 23 27 28 29 30 34 35 38 0
3 4 10 13 14 15 18 19 20 21 22 23 24 28 29 30 31 35 36 0
1 4 5 11 14 15 16 19 21 22 23 24 25 29 30 31 32 36 37 0
1 2 5 6 12 15 16 17 22 23 24 25 26 30 31 32 33 37 38 0
2 3 6 7 13 16 17 18 20 23 24 25 26 27 31 32 33 34 38 0
3 4 7 8 14 17 18 19 20 21 24 25 26 27 28 32 33 34 35 0
1 4 5 8 9 15 18 19 21 22 25 26 27 28 29 33 34 35 36 0
1 2 5 6 9 10 16 19 22 23 26 27 28 29 30 34 35 36 37 0
1 2 3 6 7 10 11 17 23 24 27 28 29 30 31 35 36 37 38 0
2 3 4 7 8 11 12 18 20 24 25 28 29 30 31 32 36 37 38 0
3 4 5 8 9 12 13 19 20 21 25 26 29 30 31 32 33 37 38 0
1 4 5 6 9 10 13 14 20 21 22 26 27 30 31 32 33 34 38 0
2 5 6 7 10 11 14 15 20 21 22 23 27 28 31 32 33 34 35 0
3 6 7 8 11 12 15 16 21 22 23 24 28 29 32 33 34 35 36 0
4 5 8 9 12 13 14 17 22 23 24 25 26 29 30 34 35 36 37 0
5 6 9 10 13 14 15 18 23 24 25 26 27 30 31 35 36 37 38 0
6 7 10 11 14 15 16 19 20 24 25 26 27 28 31 32 36 37 38 0
1 7 8 11 12 15 16 17 20 21 25 26 27 28 29 32 33 37 38 0
2 8 9 12 13 16 17 18 20 21 22 26 27 28 29 30 33 34 38 0
3 9 10 13 14 17 18 19 20 21 22 23 27 28 29 30 31 34 35 0
1 4 10 11 14 15 18 19 21 22 23 24 28 29 30 31 32 35 36 0
1 2 5 11 12 15 16 19 22 23 24 25 29 30 31 32 33 36 37 0
1 2 3 6 12 13 16 17 23 24 25 26 30 31 32 33 34 37 38 0
2 3 4 7 13 14 17 18 20 24 25 26 27 31 32 33 34 35 38 0
3 4 5 8 14 15 18 19 20 21 25 26 27 28 32 33 34 35 36 0
1 4 5 6 9 15 16 19 21 22 26 27 28 29 33 34 35 36 37 0
1 2 5 6 7 10 16 17 22 23 27 28 29 30 34 35 36 37 38 0
2 3 6 7 8 11 17 18 20 23 24 28 29 30 31 35 36 37 38 0
3 4 7 8 9 12 18 19 20 21 24 25 29 30 31 32 36 37 38 0
1 4 5 8 9 10 13 19 20 21 22 25 26 30 31 32 33 37 38 0
1 2 5 6 9 10 11 14 20 21 22 23 26 27 31 32 33 34 38 0
2 3 6 7 10 11 12 15 20 21 22 23 24 27 28 32 33 34 35 0
3 4 7 8 11 12 13 16 21 22 23 24 25 28 29 33 34 35 36 0
4 6 8 11 13 17 18 22 24 28 29 30 31 32 33 35 38 0
5 7 9 12 14 18 19 20 23 25 29 30 31 32 33 34 36 0
1 6 8 10 13 15 19 21 24 26 30 31 32 33 34 35 37 0
1 2 7 9 11 14 16 22 25 27 31 32 33 34 35 36 38 0
2 3 8 10 12 15 17 20 23 26 28 32 33 34 35 36 37 0
3 4 9 11 13 16 18 21 24 27 29 33 34 35 36 37 38 0
4 5 10 12 14 17 19 20 22 25 28 30 34 35 36 37 38 0
1 5 6 11 13 15 18 20 21 23 26 29 31 35 36 37 38 0
2 6 7 12 14 16 19 20 21 22 24 27 30 32 36 37 38 0
1 3 7 8 13 15 17 20 21 22 23 25 28 31 33 37 38 0
2 4 8 9 14 16 18 20 21 22 23 24 26 29 32 34 38 0
3 5 9 10 15 17 19 20 21 22 23 24 25 27 30 33 35 0
1 4 6 10 11 16 18 21 22 23 24 25 26 28 31 34 36 0
2 5 7 11 12 17 19 22 23 24 25 26 27 29 32 35 37 0
1 3 6 8 12 13 18 23 24 25 26 27 28 30 33 36 38 0
2 4 7 9 13 14 19 20 24 25 26 27 28 29 31 34 37 0
1 3 5 8 10 14 15 21 25 26 27 28 29 30 32 35 38 0
2 4 6 9 11 15 16 20 22 26 27 28 29 30 31 33 36 0
3 5 7 10 12 16 17 21 23 27 28 29 30 31 32 34 37 0
3 4 8 10 13 15 17 21 24 26 27 28 29 30 31 35 37 0
4 5 9 11 14 16 18 22 25 27 28 29 30 31 32 36 38 0
5 6 10 12 15 17 19 20 23 26 28 29 30 31 32 33 37 0
1 6 7 11 13 16 18 21 24 27 29 30 31 32 33 34 38 0
2 7 8 12 14 17 19 20 22 25 28 30 31 32 33 34 35 0
1 3 8 9 13 15 18 21 23 26 29 31 32 33 34 35 36 0
2 4 9 10 14 16 19 22 24 27 30 32 33 34 35 36 37 0
1 3 5 10 11 15 17 23 25 28 31 33 34 35 36 37 38 0
2 4 6 11 12 16 18 20 24 26 29 32 34 35 36 37 38 0
3 5 7 12 13 17 19 20 21 25 27 30 33 35 36 37 38 0
1 4 6 8 13 14 18 20 21 22 26 28 31 34 36 37 38 0
2 5 7 9 14 15 19 20 21 22 23 27 29 32 35 37 38 0
1 3 6 8 10 15 16 20 21 22 23 24 28 30 33 36 38 0
2 4 7 9 11 16 17 20 21 22 23 24 25 29 31 34 37 0
3 5 8 10 12 17 18 21 22 23 24 25 26 30 32 35 38 0
4 6 9 11 13 18 19 20 22 23 24 25 26 27 31 33 36 0
1 5 7 10 12 14 19 21 23 24 25 26 27 28 32 34 37 0
1 2 6 8 11 13 15 22 24 25 26 27 28 29 33 35 38 0
2 3 7 9 12 14 16 20 23 25 26 27 28 29 30 34 36 0
4 7 9 12 17 18 22 23 24 25 29 30 31 32 35 36 37 38 0
5 8 10 13 18 19 20 23 24 25 26 30 31 32 33 36 37 38 0
1 6 9 11 14 19 20 21 24 25 26 27 31 32 33 34 37 38 0
1 2 7 10 12 15 20 21 22 25 26 27 28 32 33 34 35 38 0
2 3 8 11 13 16 20 21 22 23 26 27 28 29 33 34 35 36 0
3 4 9 12 14 17 21 22 23 24 27 28 29 30 34 35 36 37 0
4 5 10 13 15 18 22 23 24 25 28 29 30 31 35 36 37 38 0
5 6 11 14 16 19 20 23 24 25 26 29 30 31 32 36 37 38 0
1 6 7 12 15 17 20 21 24 25 26 27 30 31 32 33 37 38 0
2 7 8 13 16 18 20 21 22 25 26 27 28 31 32 33 34 38 0
3 8 9 14 17 19 20 21 22 23 26 27 28 29 32 33 34 35 0
1 4 9 10 15 18 21 22 23 24 27 28 29 30 33 34 35 36 0
2 5 10 11 16 19 22 23 24 25 28 29 30 31 34 35 36 37 0
1 3 6 11 12 17 23 24 25 26 29 30 31 32 35 36 37 38 0
2 4 7 12 13 18 20 24 25 26 27 30 31 32 33 36 37 38 0
3 5 8 13 14 19 20 21 25 26 27 28 31 32 33 34 37 38 0
1 4 6 9 14 15 20 21 22 26 27 28 29 32 33 34 35 38 0
2 5 7 10 15 16 20 21 22 23 27 28 29 30 33 34 35 36 0
3 6 8 11 16 17 21 22 23 24 28 29 30 31 34 35 36 37 0
4 6 9 11 13 15 17 22 23 24 26 27 29 32 34 35 37 0
5 7 10 12 14 16 18 23 24 25 27 28 30 33 35 36 38 0
6 8 11 13 15 17 19 20 24 25 26 28 29 31 34 36 37 0
1 7 9 12 14 16 18 21 25 26 27 29 30 32 35 37 38 0
2 8 10 13 15 17 19 20 22 26 27 28 30 31 33 36 38 0
1 3 9 11 14 16 18 20 21 23 27 28 29 31 32 34 37 0
2 4 10 12 15 17 19 21 22 24 28 29 30 32 33 35 38 0
1 3 5 11 13 16 18 20 22 23 25 29 30 31 33 34 36 0
2 4 6 12 14 17 19 21 23 24 26 30 31 32 34 35 37 0
1 3 5 7 13 15 18 22 24 25 27 31 32 33 35 36 38 0
2 4 6 8 14 16 19 20 23 25 26 28 32 33 34 36 37 0
1 3 5 7 9 15 17 21 24 26 27 29 33 34 35 37 38 0
2 4 6 8 10 16 18 20 22 25 27 28 30 34 35 36 38 0
3 5 7 9 11 17 19 20 21 23 26 28 29 31 35 36 37 0
1 4 6 8 10 12 18 21 22 24 27 29 30 32 36 37 38 0
2 5 7 9 11 13 19 20 22 23 25 28 30 31 33 37 38 0
1 3 6 8 10 12 14 20 21 23 24 26 29 31 32 34 38 0
2 4 7 9 11 13 15 20 21 22 24 25 27 30 32 33 35 0
3 5 8 10 12 14 16 21 22 23 25 26 28 31 33 34 36 0
4 6 8 10 12 15 17 22 24 25 27 30 32 33 35 36 37 0
5 7 9 11 13 16 18 23 25 26 28 31 33 34 36 37 38 0
6 8 10 12 14 17 19 20 24 26 27 29 32 34 35 37 38 0
1 7 9 11 13 15 18 20 21 25 27 28 30 33 35 36 38 0
2 8 10 12 14 16 19 20 21 22 26 28 29 31 34 36 37 0
1 3 9 11 13 15 17 21 22 23 27 29 30 32 35 37 38 0
2 4 10 12 14 16 18 20 22 23 24 28 30 31 33 36 38 0
3 5 11 13 15 17 19 20 21 23 24 25 29 31 32 34 37 0
1 4 6 12 14 16 18 21 22 24 25 26 30 32 33 35 38 0
2 5 7 13 15 17 19 20 22 23 25 26 27 31 33 34 36 0
1 3 6 8 14 16 18 21 23 24 26 27 28 32 34 35 37 0
2 4 7 9 15 17 19 22 24 25 27 28 29 33 35 36 38 0
1 3 5 8 10 16 18 20 23 25 26 28 29 30 34 36 37 0
2 4 6 9 11 17 19 21 24 26 27 29 30 31 35 37 38 0
1 3 5 7 10 12 18 20 22 25 27 28 30 31 32 36 38 0
2 4 6 8 11 13 19 20 21 23 26 28 29 31 32 33 37 0
1 3 5 7 9 12 14 21 22 24 27 29 30 32 33 34 38 0
2 4 6 8 10 13 15 20 22 23 25 28 30 31 33 34 35 0
3 5 7 9 11 14 16 21 23 24 26 29 31 32 34 35 36 0
3 6 7 9 12 14 17 18 21 23 24 29 30 31 34 35 37 38 0
4 7 8 10 13 15 18 19 20 22 24 25 30 31 32 35 36 38 0
1 5 8 9 11 14 16 19 20 21 23 25 26 31 32 33 36 37 0
1 2 6 9 10 12 15 17 21 22 24 26 27 32 33 34 37 38 0
2 3 7 10 11 13 16 18 20 22 23 25 27 28 33 34 35 38 0
3 4 8 11 12 14 17 19 20 21 23 24 26 28 29 34 35 36 0
1 4 5 9 12 13 15 18 21 22 24 25 27 29 30 35 36 37 0
2 5 6 10 13 14 16 19 22 23 25 26 28 30 31 36 37 38 0
1 3 6 7 11 14 15 17 20 23 24 26 27 29 31 32 37 38 0
2 4 7 8 12 15 16 18 20 21 24 25 27 28 30 32 33 38 0
3 5 8 9 13 16 17 19 20 21 22 25 26 28 29 31 33 34 0
1 4 6 9 10 14 17 18 21 22 23 26 27 29 30 32 34 35 0
2 5 7 10 11 15 18 19 22 23 24 27 28 30 31 33 35 36 0
1 3 6 8 11 12 16 19 23 24 25 28 29 31 32 34 36 37 0
1 2 4 7 9 12 13 17 24 25 26 29 30 32 33 35 37 38 0
2 3 5 8 10 13 14 18 20 25 26 27 30 31 33 34 36 38 0
3 4 6 9 11 14 15 19 20 21 26 27 28 31 32 34 35 37 0
1 4 5 7 10 12 15 16 21 22 27 28 29 32 33 35 36 38 0
2 5 6 8 11 13 16 17 20 22 23 28 29 30 33 34 36 37 0
3 4 7 9 12 14 15 18 21 22 24 25 28 29 30 35 36 38 0
4 5 8 10 13 15 16 19 20 22 23 25 26 29 30 31 36 37 0
1 5 6 9 11 14 16 17 21 23 24 26 27 30 31 32 37 38 0
2 6 7 10 12 15 17 18 20 22 24 25 27 28 31 32 33 38 0
3 7 8 11 13 16 18 19 20 21 23 25 26 28 29 32 33 34 0
1 4 8 9 12 14 17 19 21 22 24 26 27 29 30 33 34 35 0
1 2 5 9 10 13 15 18 22 23 25 27 28 30 31 34 35 36 0
2 3 6 10 11 14 16 19 23 24 26 28 29 31 32 35 36 37 0
1 3 4 7 11 12 15 17 24 25 27 29 30 32 33 36 37 38 0
2 4 5 8 12 13 16 18 20 25 26 28 30 31 33 34 37 38 0
3 5 6 9 13 14 17 19 20 21 26 27 29 31 32 34 35 38 0
1 4 6 7 10 14 15 18 20 21 22 27 28 30 32 33 35 36 0
2 5 7 8 11 15 16 19 21 22 23 28 29 31 33 34 36 37 0
1 3 6 8 9 12 16 17 22 23 24 29 30 32 34 35 37 38 0
2 4 7 9 10 13 17 18 20 23 24 25 30 31 33 35 36 38 0
3 5 8 10 11 14 18 19 20 21 24 25 26 31 32 34 36 37 0
1 4 6 9 11 12 15 19 21 22 25 26 27 32 33 35 37 38 0
1 2 5 7 10 12 13 16 20 22 23 26 27 28 33 34 36 38 0
2 3 6 8 11 13 14 17 20 21 23 24 27 28 29 34 35 37 0
4 7 10 11 13 15 18 22 24 25 27 28 29 34 35 36 37 38 0
5 8 11 12 14 16 19 20 23 25 26 28 29 30 35 36 37 38 0
1 6 9 12 13 15 17 20 21 24 26 27 29 30 31 36 37 38 0
2 7 10 13 14 16 18 20 21 22 25 27 28 30 31 32 37 38 0
3 8 11 14 15 17 19 20 21 22 23 26 28 29 31 32 33 38 0
1 4 9 12 15 16 18 20 21 22 23 24 27 29 30 32 33 34 0
2 5 10 13 16 17 19 21 22 23 24 25 28 30 31 33 34 35 0
1 3 6 11 14 17 18 22 23 24 25 26 29 31 32 34 35 36 0
2 4 7 12 15 18 19 23 24 25 26 27 30 32 33 35 36 37 0
1 3 5 8 13 16 19 24 25 26 27 28 31 33 34 36 37 38 0
1 2 4 6 9 14 17 20 25 26 27 28 29 32 34 35 37 38 0
2 3 5 7 10 15 18 20 21 26 27 28 29 30 33 35 36 38 0
3 4 6 8 11 16 19 20 21 22 27 28 29 30 31 34 36 37 0
1 4 5 7 9 12 17 21 22 23 28 29 30 31 32 35 37 38 0
2 5 6 8 10 13 18 20 22 23 24 29 30 31 32 33 36 38 0
3 6 7 9 11 14 19 20 21 23 24 25 30 31 32 33 34 37 0
1 4 7 8 10 12 15 21 22 24 25 26 31 32 33 34 35 38 0
2 5 8 9 11 13 16 20 22 23 25 26 27 32 33 34 35 36 0
3 6 9 10 12 14 17 21 23 24 26 27 28 33 34 35 36 37 0
3 6 8 10 11 14 17 21 22 23 24 25 30 31 32 34 35 37 0
4 7 9 11 12 15 18 22 23 24 25 26 31 32 33 35 36 38 0
5 8 10 12 13 16 19 20 23 24 25 26 27 32 33 34 36 37 0
1 6 9 11 13 14 17 21 24 25 26 27 28 33 34 35 37 38 0
2 7 10 12 14 15 18 20 22 25 26 27 28 29 34 35 36 38 0
3 8 11 13 15 16 19 20 21 23 26 27 28 29 30 35 36 37 0
1 4 9 12 14 16 17 21 22 24 27 28 29 30 31 36 37 38 0
2 5 10 13 15 17 18 20 22 23 25 28 29 30 31 32 37 38 0
3 6 11 14 16 18 19 20 21 23 24 26 29 30 31 32 33 38 0
1 4 7 12 15 17 19 20 21 22 24 25 27 30 31 32 33 34 0
1 2 5 8 13 16 18 21 22 23 25 26 28 31 32 33 34 35 0
2 3 6 9 14 17 19 22 23 24 26 27 29 32 33 34 35 36 0
1 3 4 7 10 15 18 23 24 25 27 28 30 33 34 35 36 37 0
2 4 5 8 11 16 19 24 25 26 28 29 31 34 35 36 37 38 0
1 3 5 6 9 12 17 20 25 26 27 29 30 32 35 36 37 38 0
2 4 6 7 10 13 18 20 21 26 27 28 30 31 33 36 37 38 0
3 5 7 8 11 14 19 20 21 22 27 28 29 31 32 34 37 38 0
1 4 6 8 9 12 15 20 21 22 23 28 29 30 32 33 35 38 0
2 5 7 9 10 13 16 20 21 22 23 24 29 30 31 33 34 36 0
4 7 10 12 13 15 18 22 24 25 26 27 28 29 34 35 36 37 38 0
5 8 11 13 14 16 19 20 23 25 26 27 28 29 30 35 36 37 38 0
1 6 9 12 14 15 17 20 21 24 26 27 28 29 30 31 36 37 38 0
2 7 10 13 15 16 18 20 21 22 25 27 28 29 30 31 32 37 38 0
3 8 11 14 16 17 19 20 21 22 23 26 28 29 30 31 32 33 38 0
1 4 9 12 15 17 18 20 21 22 23 24 27 29 30 31 32 33 34 0
2 5 10 13 16 18 19 21 22 23 24 25 28 30 31 32 33 34 35 0
1 3 6 11 14 17 19 22 23 24 25 26 29 31 32 33 34 35 36 0
1 2 4 7 12 15 18 23 24 25 26 27 30 32 33 34 35 36 37 0
2 3 5 8 13 16 19 24 25 26 27 28 31 33 34 35 36 37 38 0
1 3 4 6 9 14 17 20 25 26 27 28 29 32 34 35 36 37 38 0
2 4 5 7 10 15 18 20 21 26 27 28 29 30 33 35 36 37 38 0
3 5 6 8 11 16 19 20 21 22 27 28 29 30 31 34 36 37 38 0
1 4 6 7 9 12 17 20 21 22 23 28 29 30 31 32 35 37 38 0
2 5 7 8 10 13 18 20 21 22 23 24 29 30 31 32 33 36 38 0
3 6 8 9 11 14 19 20 21 22 23 24 25 30 31 32 33 34 37 0
1 4 7 9 10 12 15 21 22 23 24 25 26 31 32 33 34 35 38 0
2 5 8 10 11 13 16 20 22 23 24 25 26 27 32 33 34 35 36 0
3 6 9 11 12 14 17 21 23 24 25 26 27 28 33 34 35 36 37 0
3 6 8 9 11 14 17 21 22 23 24 25 30 31 32 33 34 35 37 0
4 7 9 10 12 15 18 22 23 24 25 26 31 32 33 34 35 36 38 0
5 8 10 11 13 16 19 20 23 24 25 26 27 32 33 34 35 36 37 0
1 6 9 11 12 14 17 21 24 25 26 27 28 33 34 35 36 37 38 0
2 7 10 12 13 15 18 20 22 25 26 27 28 29 34 35 36 37 38 0
3 8 11 13 14 16 19 20 21 23 26 27 28 29 30 35 36 37 38 0
1 4 9 12 14 15 17 20 21 22 24 27 28 29 30 31 36 37 38 0
2 5 10 13 15 16 18 20 21 22 23 25 28 29 30 31 32 37 38 0
3 6 11 14 16 17 19 20 21 22 23 24 26 29 30 31 32 33 38 0
1 4 7 12 15 17 18 20 21 22 23 24 25 27 30 31 32 33 34 0
2 5 8 13 16 18 19 21 22 23 24 25 26 28 31 32 33 34 35 0
1 3 6 9 14 17 19 22 23 24 25 26 27 29 32 33 34 35 36 0
1 2 4 7 10 15 18 23 24 25 26 27 28 30 33 34 35 36 37 0
2 3 5 8 11 16 19 24 25 26 27 28 29 31 34 35 36 37 38 0
1 3 4 6 9 12 17 20 25 26 27 28 29 30 32 35 36 37 38 0
2 4 5 7 10 13 18 20 21 26 27 28 29 30 31 33 36 37 38 0
3 5 6 8 11 14 19 20 21 22 27 28 29 30 31 32 34 37 38 0
1 4 6 7 9 12 15 20 21 22 23 28 29 30 31 32 33 35 38 0
2 5 7 8 10 13 16 20 21 22 23 24 29 30 31 32 33 34 36 0
3 5 7 9 10 12 15 16 17 21 23 26 28 29 31 32 33 34 37 0
4 6 8 10 11 13 16 17 18 22 24 27 29 30 32 33 34 35 38 0
5 7 9 11 12 14 17 18 19 20 23 25 28 30 31 33 34 35 36 0
1 6 8 10 12 13 15 18 19 21 24 26 29 31 32 34 35 36 37 0
1 2 7 9 11 13 14 16 19 22 25 27 30 32 33 35 36 37 38 0
1 2 3 8 10 12 14 15 17 20 23 26 28 31 33 34 36 37 38 0
2 3 4 9 11 13 15 16 18 20 21 24 27 29 32 34 35 37 38 0
3 4 5 10 12 14 16 17 19 20 21 22 25 28 30 33 35 36 38 0
1 4 5 6 11 13 15 17 18 20 21 22 23 26 29 31 34 36 37 0
2 5 6 7 12 14 16 18 19 21 22 23 24 27 30 32 35 37 38 0
1 3 6 7 8 13 15 17 19 20 22 23 24 25 28 31 33 36 38 0
1 2 4 7 8 9 14 16 18 20 21 23 24 25 26 29 32 34 37 0
2 3 5 8 9 10 15 17 19 21 22 24 25 26 27 30 33 35 38 0
1 3 4 6 9 10 11 16 18 20 22 23 25 26 27 28 31 34 36 0
2 4 5 7 10 11 12 17 19 21 23 24 26 27 28 29 32 35 37 0
1 3 5 6 8 11 12 13 18 22 24 25 27 28 29 30 33 36 38 0
2 4 6 7 9 12 13 14 19 20 23 25 26 28 29 30 31 34 37 0
1 3 5 7 8 10 13 14 15 21 24 26 27 29 30 31 32 35 38 0
2 4 6 8 9 11 14 15 16 20 22 25 27 28 30 31 32 33 36 0
4 5 6 9 11 12 14 16 18 22 25 26 27 28 30 31 33 36 38 0
5 6 7 10 12 13 15 17 19 20 23 26 27 28 29 31 32 34 37 0
1 6 7 8 11 13 14 16 18 21 24 27 28 29 30 32 33 35 38 0
2 7 8 9 12 14 15 17 19 20 22 25 28 29 30 31 33 34 36 0
1 3 8 9 10 13 15 16 18 21 23 26 29 30 31 32 34 35 37 0
2 4 9 10 11 14 16 17 19 22 24 27 30 31 32 33 35 36 38 0
1 3 5 10 11 12 15 17 18 20 23 25 28 31 32 33 34 36 37 0
2 4 6 11 12 13 16 18 19 21 24 26 29 32 33 34 35 37 38 0
1 3 5 7 12 13 14 17 19 20 22 25 27 30 33 34 35 36 38 0
1 2 4 6 8 13 14 15 18 20 21 23 26 28 31 34 35 36 37 0
2 3 5 7 9 14 15 16 19 21 22 24 27 29 32 35 36 37 38 0
1 3 4 6 8 10 15 16 17 20 22 23 25 28 30 33 36 37 38 0
2 4 5 7 9 11 16 17 18 20 21 23 24 26 29 31 34 37 38 0
3 5 6 8 10 12 17 18 19 20 21 22 24 25 27 30 32 35 38 0
1 4 6 7 9 11 13 18 19 20 21 22 23 25 26 28 31 33 36 0
1 2 5 7 8 10 12 14 19 21 22 23 24 26 27 29 32 34 37 0
1 2 3 6 8 9 11 13 15 22 23 24 25 27 28 30 33 35 38 0
2 3 4 7 9 10 12 14 16 20 23 24 25 26 28 29 31 34 36 0
3 4 5 8 10 11 13 15 17 21 24 25 26 27 29 30 32 35 37 0
4 7 9 10 12 15 17 22 23 24 25 26 31 32 33 34 35 36 37 0
5 8 10 11 13 16 18 23 24 25 26 27 32 33 34 35 36 37 38 0
6 9 11 12 14 17 19 20 24 25 26 27 28 33 34 35 36 37 38 0
1 7 10 12 13 15 18 20 21 25 26 27 28 29 34 35 36 37 38 0
2 8 11 13 14 16 19 20 21 22 26 27 28 29 30 35 36 37 38 0
1 3 9 12 14 15 17 20 21 22 23 27 28 29 30 31 36 37 38 0
2 4 10 13 15 16 18 20 21 22 23 24 28 29 30 31 32 37 38 0
3 5 11 14 16 17 19 20 21 22 23 24 25 29 30 31 32 33 38 0
1 4 6 12 15 17 18 20 21 22 23 24 25 26 30 31 32 33 34 0
2 5 7 13 16 18 19 21 22 23 24 25 26 27 31 32 33 34 35 0
1 3 6 8 14 17 19 22 23 24 25 26 27 28 32 33 34 35 36 0
1 2 4 7 9 15 18 23 24 25 26 27 28 29 33 34 35 36 37 0
2 3 5 8 10 16 19 24 25 26 27 28 29 30 34 35 36 37 38 0
1 3 4 6 9 11 17 20 25 26 27 28 29 30 31 35 36 37 38 0
2 4 5 7 10 12 18 20 21 26 27 28 29 30 31 32 36 37 38 0
3 5 6 8 11 13 19 20 21 22 27 28 29 30 31 32 33 37 38 0
1 4 6 7 9 12 14 20 21 22 23 28 29 30 31 32 33 34 38 0
2 5 7 8 10 13 15 20 21 22 23 24 29 30 31 32 33 34 35 0
3 6 8 9 11 14 16 21 22 23 24 25 30 31 32 33 34 35 36 0
4 6 9 11 12 14 17 22 23 24 25 26 27 28 33 34 35 36 37 0
5 7 10 12 13 15 18 23 24 25 26 27 28 29 34 35 36 37 38 0
6 8 11 13 14 16 19 20 24 25 26 27 28 29 30 35 36 37 38 0
1 7 9 12 14 15 17 20 21 25 26 27 28 29 30 31 36 37 38 0
2 8 10 13 15 16 18 20 21 22 26 27 28 29 30 31 32 37 38 0
3 9 11 14 16 17 19 20 21 22 23 27 28 29 30 31 32 33 38 0
1 4 10 12 15 17 18 20 21 22 23 24 28 29 30 31 32 33 34 0
2 5 11 13 16 18 19 21 22 23 24 25 29 30 31 32 33 34 35 0
1 3 6 12 14 17 19 22 23 24 25 26 30 31 32 33 34 35 36 0
1 2 4 7 13 15 18 23 24 25 26 27 31 32 33 34 35 36 37 0
2 3 5 8 14 16 19 24 25 26 27 28 32 33 34 35 36 37 38 0
1 3 4 6 9 15 17 20 25 26 27 28 29 33 34 35 36 37 38 0
2 4 5 7 10 16 18 20 21 26 27 28 29 30 34 35 36 37 38 0
3 5 6 8 11 17 19 20 21 22 27 28 29 30 31 35 36 37 38 0
1 4 6 7 9 12 18 20 21 22 23 28 29 30 31 32 36 37 38 0
2 5 7 8 10 13 19 20 21 22 23 24 29 30 31 32 33 37 38 0
1 3 6 8 9 11 14 20 21 22 23 24 25 30 31 32 33 34 38 0
2 4 7 9 10 12 15 20 21 22 23 24 25 26 31 32 33 34 35 0
3 5 8 10 11 13 16 21 22 23 24 25 26 27 32 33 34 35 36 0
2 5 6 10 13 15 16 18 19 22 23 25 26 28 30 31 0
1 3 6 7 11 14 16 17 19 23 24 26 27 29 31 32 0
1 2 4 7 8 12 15 17 18 24 25 27 28 30 32 33 0
2 3 5 8 9 13 16 18 19 25 26 28 29 31 33 34 0
1 3 4 6 9 10 14 17 19 26 27 29 30 32 34 35 0
1 2 4 5 7 10 11 15 18 27 28 30 31 33 35 36 0
2 3 5 6 8 11 12 16 19 28 29 31 32 34 36 37 0
1 3 4 6 7 9 12 13 17 29 30 32 33 35 37 38 0
2 4 5 7 8 10 13 14 18 20 30 31 33 34 36 38 0
3 5 6 8 9 11 14 15 19 20 21 31 32 34 35 37 0
1 4 6 7 9 10 12 15 16 21 22 32 33 35 36 38 0
2 5 7 8 10 11 13 16 17 20 22 23 33 34 36 37 0
3 6 8 9 11 12 14 17 18 21 23 24 34 35 37 38 0
4 7 9 10 12 13 15 18 19 20 22 24 25 35 36 38 0
1 5 8 10 11 13 14 16 19 20 21 23 25 26 36 37 0
1 2 6 9 11 12 14 15 17 21 22 24 26 27 37 38 0
2 3 7 10 12 13 15 16 18 20 22 23 25 27 28 38 0
3 4 8 11 13 14 16 17 19 20 21 23 24 26 28 29 0
1 4 5 9 12 14 15 17 18 21 22 24 25 27 29 30 0
2 3 5 6 8 11 15 16 19 28 29 31 33 34 36 37 0
1 3 4 6 7 9 12 16 17 29 30 32 34 35 37 38 0
2 4 5 7 8 10 13 17 18 20 30 31 33 35 36 38 0
3 5 6 8 9 11 14 18 19 20 21 31 32 34 36 37 0
1 4 6 7 9 10 12 15 19 21 22 32 33 35 37 38 0
1 2 5 7 8 10 11 13 16 20 22 23 33 34 36 38 0
2 3 6 8 9 11 12 14 17 20 21 23 24 34 35 37 0
3 4 7 9 10 12 13 15 18 21 22 24 25 35 36 38 0
4 5 8 10 11 13 14 16 19 20 22 23 25 26 36 37 0
1 5 6 9 11 12 14 15 17 21 23 24 26 27 37 38 0
2 6 7 10 12 13 15 16 18 20 22 24 25 27 28 38 0
3 7 8 11 13 14 16 17 19 20 21 23 25 26 28 29 0
1 4 8 9 12 14 15 17 18 21 22 24 26 27 29 30 0
2 5 9 10 13 15 16 18 19 22 23 25 27 28 30 31 0
1 3 6 10 11 14 16 17 19 23 24 26 28 29 31 32 0
1 2 4 7 11 12 15 17 18 24 25 27 29 30 32 33 0
2 3 5 8 12 13 16 18 19 25 26 28 30 31 33 34 0
1 3 4 6 9 13 14 17 19 26 27 29 31 32 34 35 0
1 2 4 5 7 10 14 15 18 27 28 30 32 33 35 36 0
3 5 8 10 13 15 18 21 22 24 25 26 27 30 31 32 35 36 38 0
4 6 9 11 14 16 19 20 22 23 25 26 27 28 31 32 33 36 37 0
1 5 7 10 12 15 17 21 23 24 26 27 28 29 32 33 34 37 38 0
2 6 8 11 13 16 18 20 22 24 25 27 28 29 30 33 34 35 38 0
3 7 9 12 14 17 19 20 21 23 25 26 28 29 30 31 34 35 36 0
1 4 8 10 13 15 18 21 22 24 26 27 29 30 31 32 35 36 37 0
2 5 9 11 14 16 19 22 23 25 27 28 30 31 32 33 36 37 38 0
1 3 6 10 12 15 17 20 23 24 26 28 29 31 32 33 34 37 38 0
2 4 7 11 13 16 18 20 21 24 25 27 29 30 32 33 34 35 38 0
3 5 8 12 14 17 19 20 21 22 25 26 28 30 31 33 34 35 36 0
1 4 6 9 13 15 18 21 22 23 26 27 29 31 32 34 35 36 37 0
2 5 7 10 14 16 19 22 23 24 27 28 30 32 33 35 36 37 38 0
1 3 6 8 11 15 17 20 23 24 25 28 29 31 33 34 36 37 38 0
2 4 7 9 12 16 18 20 21 24 25 26 29 30 32 34 35 37 38 0
3 5 8 10 13 17 19 20 21 22 25 26 27 30 31 33 35 36 38 0
1 4 6 9 11 14 18 20 21 22 23 26 27 28 31 32 34 36 37 0
2 5 7 10 12 15 19 21 22 23 24 27 28 29 32 33 35 37 38 0
1 3 6 8 11 13 16 20 22 23 24 25 28 29 30 33 34 36 38 0
2 4 7 9 12 14 17 20 21 23 24 25 26 29 30 31 34 35 37 0
3 6 8 11 13 16 18 21 23 24 27 28 29 32 33 34 35 37 38 0
4 7 9 12 14 17 19 20 22 24 25 28 29 30 33 34 35 36 38 0
1 5 8 10 13 15 18 20 21 23 25 26 29 30 31 34 35 36 37 0
2 6 9 11 14 16 19 21 22 24 26 27 30 31 32 35 36 37 38 0
1 3 7 10 12 15 17 20 22 23 25 27 28 31 32 33 36 37 38 0
2 4 8 11 13 16 18 20 21 23 24 26 28 29 32 33 34 37 38 0
3 5 9 12 14 17 19 20 21 22 24 25 27 29 30 33 34 35 38 0
1 4 6 10 13 15 18 20 21 22 23 25 26 28 30 31 34 35 36 0
2 5 7 11 14 16 19 21 22 23 24 26 27 29 31 32 35 36 37 0
1 3 6 8 12 15 17 22 23 24 25 27 28 30 32 33 36 37 38 0
2 4 7 9 13 16 18 20 23 24 25 26 28 29 31 33 34 37 38 0
3 5 8 10 14 17 19 20 21 24 25 26 27 29 30 32 34 35 38 0
1 4 6 9 11 15 18 20 21 22 25 26 27 28 30 31 33 35 36 0
2 5 7 10 12 16 19 21 22 23 26 27 28 29 31 32 34 36 37 0
1 3 6 8 11 13 17 22 23 24 27 28 29 30 32 33 35 37 38 0
2 4 7 9 12 14 18 20 23 24 25 28 29 30 31 33 34 36 38 0
3 5 8 10 13 15 19 20 21 24 25 26 29 30 31 32 34 35 37 0
1 4 6 9 11 14 16 21 22 25 26 27 30 31 32 33 35 36 38 0
2 5 7 10 12 15 17 20 22 23 26 27 28 31 32 33 34 36 37 0
3 6 8 10 12 15 16 18 21 23 24 26 30 32 33 35 38 0
4 7 9 11 13 16 17 19 20 22 24 25 27 31 33 34 36 0
1 5 8 10 12 14 17 18 21 23 25 26 28 32 34 35 37 0
2 6 9 11 13 15 18 19 22 24 26 27 29 33 35 36 38 0
1 3 7 10 12 14 16 19 20 23 25 27 28 30 34 36 37 0
1 2 4 8 11 13 15 17 21 24 26 28 29 31 35 37 38 0
2 3 5 9 12 14 16 18 20 22 25 27 29 30 32 36 38 0
3 4 6 10 13 15 17 19 20 21 23 26 28 30 31 33 37 0
1 4 5 7 11 14 16 18 21 22 24 27 29 31 32 34 38 0
2 5 6 8 12 15 17 19 20 22 23 25 28 30 32 33 35 0
1 3 6 7 9 13 16 18 21 23 24 26 29 31 33 34 36 0
2 4 7 8 10 14 17 19 22 24 25 27 30 32 34 35 37 0
1 3 5 8 9 11 15 18 23 25 26 28 31 33 35 36 38 0
2 4 6 9 10 12 16 19 20 24 26 27 29 32 34 36 37 0
1 3 5 7 10 11 13 17 21 25 27 28 30 33 35 37 38 0
2 4 6 8 11 12 14 18 20 22 26 28 29 31 34 36 38 0
3 5 7 9 12 13 15 19 20 21 23 27 29 30 32 35 37 0
1 4 6 8 10 13 14 16 21 22 24 28 30 31 33 36 38 0
2 5 7 9 11 14 15 17 20 22 23 25 29 31 32 34 37 0
3 5 6 9 11 13 15 18 21 24 26 27 29 33 35 36 38 0
4 6 7 10 12 14 16 19 20 22 25 27 28 30 34 36 37 0
1 5 7 8 11 13 15 17 21 23 26 28 29 31 35 37 38 0
2 6 8 9 12 14 16 18 20 22 24 27 29 30 32 36 38 0
3 7 9 10 13 15 17 19 20 21 23 25 28 30 31 33 37 0
1 4 8 10 11 14 16 18 21 22 24 26 29 31 32 34 38 0
2 5 9 11 12 15 17 19 20 22 23 25 27 30 32 33 35 0
1 3 6 10 12 13 16 18 21 23 24 26 28 31 33 34 36 0
2 4 7 11 13 14 17 19 22 24 25 27 29 32 34 35 37 0
1 3 5 8 12 14 15 18 23 25 26 28 30 33 35 36 38 0
2 4 6 9 13 15 16 19 20 24 26 27 29 31 34 36 37 0
1 3 5 7 10 14 16 17 21 25 27 28 30 32 35 37 38 0
2 4 6 8 11 15 17 18 20 22 26 28 29 31 33 36 38 0
3 5 7 9 12 16 18 19 20 21 23 27 29 30 32 34 37 0
1 4 6 8 10 13 17 19 21 22 24 28 30 31 33 35 38 0
1 2 5 7 9 11 14 18 20 22 23 25 29 31 32 34 36 0
2 3 6 8 10 12 15 19 21 23 24 26 30 32 33 35 37 0
1 3 4 7 9 11 13 16 22 24 25 27 31 33 34 36 38 0
2 4 5 8 10 12 14 17 20 23 25 26 28 32 34 35 37 0
3 6 8 11 15 18 21 23 24 28 29 31 33 34 35 36 37 38 0
4 7 9 12 16 19 20 22 24 25 29 30 32 34 35 36 37 38 0
1 5 8 10 13 17 20 21 23 25 26 30 31 33 35 36 37 38 0
2 6 9 11 14 18 20 21 22 24 26 27 31 32 34 36 37 38 0
3 7 10 12 15 19 20 21 22 23 25 27 28 32 33 35 37 38 0
1 4 8 11 13 16 20 21 22 23 24 26 28 29 33 34 36 38 0
2 5 9 12 14 17 20 21 22 23 24 25 27 29 30 34 35 37 0
3 6 10 13 15 18 21 22 23 24 25 26 28 30 31 35 36 38 0
4 7 11 14 16 19 20 22 23 24 25 26 27 29 31 32 36 37 0
1 5 8 12 15 17 21 23 24 25 26 27 28 30 32 33 37 38 0
2 6 9 13 16 18 20 22 24 25 26 27 28 29 31 33 34 38 0
3 7 10 14 17 19 20 21 23 25 26 27 28 29 30 32 34 35 0
1 4 8 11 15 18 21 22 24 26 27 28 29 30 31 33 35 36 0
2 5 9 12 16 19 22 23 25 27 28 29 30 31 32 34 36 37 0
1 3 6 10 13 17 23 24 26 28 29 30 31 32 33 35 37 38 0
2 4 7 11 14 18 20 24 25 27 29 30 31 32 33 34 36 38 0
3 5 8 12 15 19 20 21 25 26 28 30 31 32 33 34 35 37 0
1 4 6 9 13 16 21 22 26 27 29 31 32 33 34 35 36 38 0
2 5 7 10 14 17 20 22 23 27 28 30 32 33 34 35 36 37 0
2 5 8 11 13 15 16 18 19 21 22 23 25 26 28 29 31 32 37 38 0
1 3 6 9 12 14 16 17 19 20 22 23 24 26 27 29 30 32 33 38 0
1 2 4 7 10 13 15 17 18 20 21 23 24 25 27 28 30 31 33 34 0
2 3 5 8 11 14 16 18 19 21 22 24 25 26 28 29 31 32 34 35 0
1 3 4 6 9 12 15 17 19 22 23 25 26 27 29 30 32 33 35 36 0
1 2 4 5 7 10 13 16 18 23 24 26 27 28 30 31 33 34 36 37 0
2 3 5 6 8 11 14 17 19 24 25 27 28 29 31 32 34 35 37 38 0
1 3 4 6 7 9 12 15 18 20 25 26 28 29 30 32 33 35 36 38 0
2 4 5 7 8 10 13 16 19 20 21 26 27 29 30 31 33 34 36 37 0
1 3 5 6 8 9 11 14 17 21 22 27 28 30 31 32 34 35 37 38 0
2 4 6 7 9 10 12 15 18 20 22 23 28 29 31 32 33 35 36 38 0
3 5 7 8 10 11 13 16 19 20 21 23 24 29 30 32 33 34 36 37 0
1 4 6 8 9 11 12 14 17 21 22 24 25 30 31 33 34 35 37 38 0
2 5 7 9 10 12 13 15 18 20 22 23 25 26 31 32 34 35 36 38 0
3 6 8 10 11 13 14 16 19 20 21 23 24 26 27 32 33 35 36 37 0
1 4 7 9 11 12 14 15 17 21 22 24 25 27 28 33 34 36 37 38 0
2 5 8 10 12 13 15 16 18 20 22 23 25 26 28 29 34 35 37 38 0
3 6 9 11 13 14 16 17 19 20 21 23 24 26 27 29 30 35 36 38 0
1 4 7 10 12 14 15 17 18 20 21 22 24 25 27 28 30 31 36 37 0
2 3 5 6 8 10 13 16 19 21 22 27 28 30 31 33 34 36 37 38 0
1 3 4 6 7 9 11 14 17 20 22 23 28 29 31 32 34 35 37 38 0
2 4 5 7 8 10 12 15 18 20 21 23 24 29 30 32 33 35 36 38 0
3 5 6 8 9 11 13 16 19 20 21 22 24 25 30 31 33 34 36 37 0
1 4 6 7 9 10 12 14 17 21 22 23 25 26 31 32 34 35 37 38 0
2 5 7 8 10 11 13 15 18 20 22 23 24 26 27 32 33 35 36 38 0
3 6 8 9 11 12 14 16 19 20 21 23 24 25 27 28 33 34 36 37 0
1 4 7 9 10 12 13 15 17 21 22 24 25 26 28 29 34 35 37 38 0
2 5 8 10 11 13 14 16 18 20 22 23 25 26 27 29 30 35 36 38 0
3 6 9 11 12 14 15 17 19 20 21 23 24 26 27 28 30 31 36 37 0
1 4 7 10 12 13 15 16 18 21 22 24 25 27 28 29 31 32 37 38 0
2 5 8 11 13 14 16 17 19 20 22 23 25 26 28 29 30 32 33 38 0
1 3 6 9 12 14 15 17 18 20 21 23 24 26 27 29 30 31 33 34 0
2 4 7 10 13 15 16 18 19 21 22 24 25 27 28 30 31 32 34 35 0
1 3 5 8 11 14 16 17 19 22 23 25 26 28 29 31 32 33 35 36 0
1 2 4 6 9 12 15 17 18 23 24 26 27 29 30 32 33 34 36 37 0
2 3 5 7 10 13 16 18 19 24 25 27 28 30 31 33 34 35 37 38 0
1 3 4 6 8 11 14 17 19 20 25 26 28 29 31 32 34 35 36 38 0
1 2 4 5 7 9 12 15 18 20 21 26 27 29 30 32 33 35 36 37 0
3 6 7 9 10 12 15 16 21 22 23 24 26 31 32 33 34 35 36 0
4 7 8 10 11 13 16 17 22 23 24 25 27 32 33 34 35 36 37 0
5 8 9 11 12 14 17 18 23 24 25 26 28 33 34 35 36 37 38 0
6 9 10 12 13 15 18 19 20 24 25 26 27 29 34 35 36 37 38 0
1 7 10 11 13 14 16 19 20 21 25 26 27 28 30 35 36 37 38 0
1 2 8 11 12 14 15 17 20 21 22 26 27 28 29 31 36 37 38 0
2 3 9 12 13 15 16 18 20 21 22 23 27 28 29 30 32 37 38 0
3 4 10 13 14 16 17 19 20 21 22 23 24 28 29 30 31 33 38 0
1 4 5 11 14 15 17 18 20 21 22 23 24 25 29 30 31 32 34 0
2 5 6 12 15 16 18 19 21 22 23 24 25 26 30 31 32 33 35 0
1 3 6 7 13 16 17 19 22 23 24 25 26 27 31 32 33 34 36 0
1 2 4 7 8 14 17 18 23 24 25 26 27 28 32 33 34 35 37 0
2 3 5 8 9 15 18 19 24 25 26 27 28 29 33 34 35 36 38 0
1 3 4 6 9 10 16 19 20 25 26 27 28 29 30 34 35 36 37 0
1 2 4 5 7 10 11 17 21 26 27 28 29 30 31 35 36 37 38 0
2 3 5 6 8 11 12 18 20 22 27 28 29 30 31 32 36 37 38 0
3 4 6 7 9 12 13 19 20 21 23 28 29 30 31 32 33 37 38 0
1 4 5 7 8 10 13 14 20 21 22 24 29 30 31 32 33 34 38 0
2 5 6 8 9 11 14 15 20 21 22 23 25 30 31 32 33 34 35 0
5 6 9 11 12 14 15 18 23 24 25 26 27 28 33 35 36 37 38 0
6 7 10 12 13 15 16 19 20 24 25 26 27 28 29 34 36 37 38 0
1 7 8 11 13 14 16 17 20 21 25 26 27 28 29 30 35 37 38 0
2 8 9 12 14 15 17 18 20 21 22 26 27 28 29 30 31 36 38 0
3 9 10 13 15 16 18 19 20 21 22 23 27 28 29 30 31 32 37 0
1 4 10 11 14 16 17 19 21 22 23 24 28 29 30 31 32 33 38 0
1 2 5 11 12 15 17 18 20 22 23 24 25 29 30 31 32 33 34 0
2 3 6 12 13 16 18 19 21 23 24 25 26 30 31 32 33 34 35 0
1 3 4 7 13 14 17 19 22 24 25 26 27 31 32 33 34 35 36 0
1 2 4 5 8 14 15 18 23 25 26 27 28 32 33 34 35 36 37 0
2 3 5 6 9 15 16 19 24 26 27 28 29 33 34 35 36 37 38 0
1 3 4 6 7 10 16 17 20 25 27 28 29 30 34 35 36 37 38 0
2 4 5 7 8 11 17 18 20 21 26 28 29 30 31 35 36 37 38 0
3 5 6 8 9 12 18 19 20 21 22 27 29 30 31 32 36 37 38 0
1 4 6 7 9 10 13 19 20 21 22 23 28 30 31 32 33 37 38 0
1 2 5 7 8 10 11 14 20 21 22 23 24 29 31 32 33 34 38 0
2 3 6 8 9 11 12 15 20 21 22 23 24 25 30 32 33 34 35 0
3 4 7 9 10 12 13 16 21 22 23 24 25 26 31 33 34 35 36 0
4 5 8 10 11 13 14 17 22 23 24 25 26 27 32 34 35 36 37 0
2 4 5 6 9 10 13 16 18 19 21 26 27 28 30 31 32 33 34 37 0
1 3 5 6 7 10 11 14 17 19 22 27 28 29 31 32 33 34 35 38 0
1 2 4 6 7 8 11 12 15 18 20 23 28 29 30 32 33 34 35 36 0
2 3 5 7 8 9 12 13 16 19 21 24 29 30 31 33 34 35 36 37 0
1 3 4 6 8 9 10 13 14 17 22 25 30 31 32 34 35 36 37 38 0
2 4 5 7 9 10 11 14 15 18 20 23 26 31 32 33 35 36 37 38 0
3 5 6 8 10 11 12 15 16 19 20 21 24 27 32 33 34 36 37 38 0
1 4 6 7 9 11 12 13 16 17 20 21 22 25 28 33 34 35 37 38 0
2 5 7 8 10 12 13 14 17 18 20 21 22 23 26 29 34 35 36 38 0
3 6 8 9 11 13 14 15 18 19 20 21 22 23 24 27 30 35 36 37 0
1 4 7 9 10 12 14 15 16 19 21 22 23 24 25 28 31 36 37 38 0
1 2 5 8 10 11 13 15 16 17 20 22 23 24 25 26 29 32 37 38 0
2 3 6 9 11 12 14 16 17 18 20 21 23 24 25 26 27 30 33 38 0
3 4 7 10 12 13 15 17 18 19 20 21 22 24 25 26 27 28 31 34 0
1 4 5 8 11 13 14 16 18 19 21 22 23 25 26 27 28 29 32 35 0
1 2 5 6 9 12 14 15 17 19 22 23 24 26 27 28 29 30 33 36 0
1 2 3 6 7 10 13 15 16 18 23 24 25 27 28 29 30 31 34 37 0
2 3 4 7 8 11 14 16 17 19 24 25 26 28 29 30 31 32 35 38 0
1 3 4 5 8 9 12 15 17 18 20 25 26 27 29 30 31 32 33 36 0
2 3 5 8 11 12 15 16 17 19 22 25 26 27 28 29 31 32 33 38 0
1 3 4 6 9 12 13 16 17 18 20 23 26 27 28 29 30 32 33 34 0
2 4 5 7 10 13 14 17 18 19 21 24 27 28 29 30 31 33 34 35 0
1 3 5 6 8 11 14 15 18 19 22 25 28 29 30 31 32 34 35 36 0
1 2 4 6 7 9 12 15 16 19 23 26 29 30 31 32 33 35 36 37 0
1 2 3 5 7 8 10 13 16 17 24 27 30 31 32 33 34 36 37 38 0
2 3 4 6 8 9 11 14 17 18 20 25 28 31 32 33 34 35 37 38 0
3 4 5 7 9 10 12 15 18 19 20 21 26 29 32 33 34 35 36 38 0
1 4 5 6 8 10 11 13 16 19 20 21 22 27 30 33 34 35 36 37 0
1 2 5 6 7 9 11 12 14 17 21 22 23 28 31 34 35 36 37 38 0
2 3 6 7 8 10 12 13 15 18 20 22 23 24 29 32 35 36 37 38 0
3 4 7 8 9 11 13 14 16 19 20 21 23 24 25 30 33 36 37 38 0
1 4 5 8 9 10 12 14 15 17 20 21 22 24 25 26 31 34 37 38 0
2 5 6 9 10 11 13 15 16 18 20 21 22 23 25 26 27 32 35 38 0
3 6 7 10 11 12 14 16 17 19 20 21 22 23 24 26 27 28 33 36 0
1 4 7 8 11 12 13 15 17 18 21 22 23 24 25 27 28 29 34 37 0
2 5 8 9 12 13 14 16 18 19 22 23 24 25 26 28 29 30 35 38 0
1 3 6 9 10 13 14 15 17 19 20 23 24 25 26 27 29 30 31 36 0
1 2 4 7 10 11 14 15 16 18 21 24 25 26 27 28 30 31 32 37 0
2 5 8 9 12 13 15 17 19 21 22 23 25 26 27 28 29 30 37 0
1 3 6 9 10 13 14 16 18 22 23 24 26 27 28 29 30 31 38 0
2 4 7 10 11 14 15 17 19 20 23 24 25 27 28 29 30 31 32 0
1 3 5 8 11 12 15 16 18 21 24 25 26 28 29 30 31 32 33 0
2 4 6 9 12 13 16 17 19 22 25 26 27 29 30 31 32 33 34 0
1 3 5 7 10 13 14 17 18 23 26 27 28 30 31 32 33 34 35 0
2 4 6 8 11 14 15 18 19 24 27 28 29 31 32 33 34 35 36 0
1 3 5 7 9 12 15 16 19 25 28 29 30 32 33 34 35 36 37 0
1 2 4 6 8 10 13 16 17 26 29 30 31 33 34 35 36 37 38 0
2 3 5 7 9 11 14 17 18 20 27 30 31 32 34 35 36 37 38 0
3 4 6 8 10 12 15 18 19 20 21 28 31 32 33 35 36 37 38 0
1 4 5 7 9 11 13 16 19 20 21 22 29 32 33 34 36 37 38 0
1 2 5 6 8 10 12 14 17 20 21 22 23 30 33 34 35 37 38 0
2 3 6 7 9 11 13 15 18 20 21 22 23 24 31 34 35 36 38 0
3 4 7 8 10 12 14 16 19 20 21 22 23 24 25 32 35 36 37 0
1 4 5 8 9 11 13 15 17 21 22 23 24 25 26 33 36 37 38 0
2 5 6 9 10 12 14 16 18 20 22 23 24 25 26 27 34 37 38 0
3 6 7 10 11 13 15 17 19 20 21 23 24 25 26 27 28 35 38 0
1 4 7 8 11 12 14 16 18 20 21 22 24 25 26 27 28 29 36 0
2 4 6 8 9 12 13 16 19 22 29 30 31 32 33 34 36 37 38 0
1 3 5 7 9 10 13 14 17 20 23 30 31 32 33 34 35 37 38 0
2 4 6 8 10 11 14 15 18 20 21 24 31 32 33 34 35 36 38 0
3 5 7 9 11 12 15 16 19 20 21 22 25 32 33 34 35 36 37 0
1 4 6 8 10 12 13 16 17 21 22 23 26 33 34 35 36 37 38 0
2 5 7 9 11 13 14 17 18 20 22 23 24 27 34 35 36 37 38 0
3 6 8 10 12 14 15 18 19 20 21 23 24 25 28 35 36 37 38 0
1 4 7 9 11 13 15 16 19 20 21 22 24 25 26 29 36 37 38 0
1 2 5 8 10 12 14 16 17 20 21 22 23 25 26 27 30 37 38 0
2 3 6 9 11 13 15 17 18 20 21 22 23 24 26 27 28 31 38 0
3 4 7 10 12 14 16 18 19 20 21 22 23 24 25 27 28 29 32 0
1 4 5 8 11 13 15 17 19 21 22 23 24 25 26 28 29 30 33 0
1 2 5 6 9 12 14 16 18 22 23 24 25 26 27 29 30 31 34 0
2 3 6 7 10 13 15 17 19 23 24 25 26 27 28 30 31 32 35 0
1 3 4 7 8 11 14 16 18 24 25 26 27 28 29 31 32 33 36 0
2 4 5 8 9 12 15 17 19 25 26 27 28 29 30 32 33 34 37 0
1 3 5 6 9 10 13 16 18 26 27 28 29 30 31 33 34 35 38 0
2 4 6 7 10 11 14 17 19 20 27 28 29 30 31 32 34 35 36 0
1 3 5 7 8 11 12 15 18 21 28 29 30 31 32 33 35 36 37 0
2 5 7 8 11 14 15 16 19 21 22 23 26 28 29 31 32 36 37 38 0
1 3 6 8 9 12 15 16 17 20 22 23 24 27 29 30 32 33 37 38 0
2 4 7 9 10 13 16 17 18 20 21 23 24 25 28 30 31 33 34 38 0
3 5 8 10 11 14 17 18 19 20 21 22 24 25 26 29 31 32 34 35 0
1 4 6 9 11 12 15 18 19 21 22 23 25 26 27 30 32 33 35 36 0
1 2 5 7 10 12 13 16 19 22 23 24 26 27 28 31 33 34 36 37 0
1 2 3 6 8 11 13 14 17 23 24 25 27 28 29 32 34 35 37 38 0
2 3 4 7 9 12 14 15 18 20 24 25 26 28 29 30 33 35 36 38 0
3 4 5 8 10 13 15 16 19 20 21 25 26 27 29 30 31 34 36 37 0
1 4 5 6 9 11 14 16 17 21 22 26 27 28 30 31 32 35 37 38 0
2 5 6 7 10 12 15 17 18 20 22 23 27 28 29 31 32 33 36 38 0
3 6 7 8 11 13 16 18 19 20 21 23 24 28 29 30 32 33 34 37 0
1 4 7 8 9 12 14 17 19 21 22 24 25 29 30 31 33 34 35 38 0
1 2 5 8 9 10 13 15 18 20 22 23 25 26 30 31 32 34 35 36 0
2 3 6 9 10 11 14 16 19 21 23 24 26 27 31 32 33 35 36 37 0
1 3 4 7 10 11 12 15 17 22 24 25 27 28 32 33 34 36 37 38 0
2 4 5 8 11 12 13 16 18 20 23 25 26 28 29 33 34 35 37 38 0
3 5 6 9 12 13 14 17 19 20 21 24 26 27 29 30 34 35 36 38 0
1 4 6 7 10 13 14 15 18 20 21 22 25 27 28 30 31 35 36 37 0
2 5 6 7 10 13 14 16 19 21 22 23 27 28 30 31 33 36 37 38 0
1 3 6 7 8 11 14 15 17 20 22 23 24 28 29 31 32 34 37 38 0
2 4 7 8 9 12 15 16 18 20 21 23 24 25 29 30 32 33 35 38 0
3 5 8 9 10 13 16 17 19 20 21 22 24 25 26 30 31 33 34 36 0
1 4 6 9 10 11 14 17 18 21 22 23 25 26 27 31 32 34 35 37 0
2 5 7 10 11 12 15 18 19 22 23 24 26 27 28 32 33 35 36 38 0
1 3 6 8 11 12 13 16 19 20 23 24 25 27 28 29 33 34 36 37 0
1 2 4 7 9 12 13 14 17 21 24 25 26 28 29 30 34 35 37 38 0
2 3 5 8 10 13 14 15 18 20 22 25 26 27 29 30 31 35 36 38 0
3 4 6 9 11 14 15 16 19 20 21 23 26 27 28 30 31 32 36 37 0
1 4 5 7 10 12 15 16 17 21 22 24 27 28 29 31 32 33 37 38 0
2 5 6 8 11 13 16 17 18 20 22 23 25 28 29 30 32 33 34 38 0
3 6 7 9 12 14 17 18 19 20 21 23 24 26 29 30 31 33 34 35 0
1 4 7 8 10 13 15 18 19 21 22 24 25 27 30 31 32 34 35 36 0
1 2 5 8 9 11 14 16 19 22 23 25 26 28 31 32 33 35 36 37 0
1 2 3 6 9 10 12 15 17 23 24 26 27 29 32 33 34 36 37 38 0
2 3 4 7 10 11 13 16 18 20 24 25 27 28 30 33 34 35 37 38 0
3 4 5 8 11 12 14 17 19 20 21 25 26 28 29 31 34 35 36 38 0
1 4 5 6 9 12 13 15 18 20 21 22 26 27 29 30 32 35 36 37 0
3 6 7 8 11 12 15 16 18 21 22 23 24 28 29 32 33 34 35 38 0
4 7 8 9 12 13 16 17 19 20 22 23 24 25 29 30 33 34 35 36 0
1 5 8 9 10 13 14 17 18 21 23 24 25 26 30 31 34 35 36 37 0
2 6 9 10 11 14 15 18 19 22 24 25 26 27 31 32 35 36 37 38 0
1 3 7 10 11 12 15 16 19 20 23 25 26 27 28 32 33 36 37 38 0
1 2 4 8 11 12 13 16 17 20 21 24 26 27 28 29 33 34 37 38 0
2 3 5 9 12 13 14 17 18 20 21 22 25 27 28 29 30 34 35 38 0
3 4 6 10 13 14 15 18 19 20 21 22 23 26 28 29 30 31 35 36 0
1 4 5 7 11 14 15 16 19 21 22 23 24 27 29 30 31 32 36 37 0
1 2 5 6 8 12 15 16 17 22 23 24 25 28 30 31 32 33 37 38 0
2 3 6 7 9 13 16 17 18 20 23 24 25 26 29 31 32 33 34 38 0
3 4 7 8 10 14 17 18 19 20 21 24 25 26 27 30 32 33 34 35 0
1 4 5 8 9 11 15 18 19 21 22 25 26 27 28 31 33 34 35 36 0
1 2 5 6 9 10 12 16 19 22 23 26 27 28 29 32 34 35 36 37 0
1 2 3 6 7 10 11 13 17 23 24 27 28 29 30 33 35 36 37 38 0
2 3 4 7 8 11 12 14 18 20 24 25 28 29 30 31 34 36 37 38 0
3 4 5 8 9 12 13 15 19 20 21 25 26 29 30 31 32 35 37 38 0
1 4 5 6 9 10 13 14 16 20 21 22 26 27 30 31 32 33 36 38 0
2 5 6 7 10 11 14 15 17 20 21 22 23 27 28 31 32 33 34 37 0
3 5 6 9 10 13 14 15 18 21 24 25 26 27 30 31 35 36 37 38 0
4 6 7 10 11 14 15 16 19 20 22 25 26 27 28 31 32 36 37 38 0
1 5 7 8 11 12 15 16 17 20 21 23 26 27 28 29 32 33 37 38 0
2 6 8 9 12 13 16 17 18 20 21 22 24 27 28 29 30 33 34 38 0
3 7 9 10 13 14 17 18 19 20 21 22 23 25 28 29 30 31 34 35 0
1 4 8 10 11 14 15 18 19 21 22 23 24 26 29 30 31 32 35 36 0
1 2 5 9 11 12 15 16 19 22 23 24 25 27 30 31 32 33 36 37 0
1 2 3 6 10 12 13 16 17 23 24 25 26 28 31 32 33 34 37 38 0
2 3 4 7 11 13 14 17 18 20 24 25 26 27 29 32 33 34 35 38 0
3 4 5 8 12 14 15 18 19 20 21 25 26 27 28 30 33 34 35 36 0
1 4 5 6 9 13 15 16 19 21 22 26 27 28 29 31 34 35 36 37 0
1 2 5 6 7 10 14 16 17 22 23 27 28 29 30 32 35 36 37 38 0
2 3 6 7 8 11 15 17 18 20 23 24 28 29 30 31 33 36 37 38 0
3 4 7 8 9 12 16 18 19 20 21 24 25 29 30 31 32 34 37 38 0
1 4 5 8 9 10 13 17 19 20 21 22 25 26 30 31 32 33 35 38 0
1 2 5 6 9 10 11 14 18 20 21 22 23 26 27 31 32 33 34 36 0
2 3 6 7 10 11 12 15 19 21 22 23 24 27 28 32 33 34 35 37 0
1 3 4 7 8 11 12 13 16 22 23 24 25 28 29 33 34 35 36 38 0
2 4 5 8 9 12 13 14 17 20 23 24 25 26 29 30 34 35 36 37 0
3 4 7 8 10 12 13 16 17 18 21 24 25 26 28 31 33 34 35 38 0
4 5 8 9 11 13 14 17 18 19 20 22 25 26 27 29 32 34 35 36 0
1 5 6 9 10 12 14 15 18 19 21 23 26 27 28 30 33 35 36 37 0
1 2 6 7 10 11 13 15 16 19 22 24 27 28 29 31 34 36 37 38 0
1 2 3 7 8 11 12 14 16 17 20 23 25 28 29 30 32 35 37 38 0
2 3 4 8 9 12 13 15 17 18 20 21 24 26 29 30 31 33 36 38 0
3 4 5 9 10 13 14 16 18 19 20 21 22 25 27 30 31 32 34 37 0
1 4 5 6 10 11 14 15 17 19 21 22 23 26 28 31 32 33 35 38 0
1 2 5 6 7 11 12 15 16 18 20 22 23 24 27 29 32 33 34 36 0
2 3 6 7 8 12 13 16 17 19 21 23 24 25 28 30 33 34 35 37 0
1 3 4 7 8 9 13 14 17 18 22 24 25 26 29 31 34 35 36 38 0
2 4 5 8 9 10 14 15 18 19 20 23 25 26 27 30 32 35 36 37 0
1 3 5 6 9 10 11 15 16 19 21 24 26 27 28 31 33 36 37 38 0
1 2 4 6 7 10 11 12 16 17 20 22 25 27 28 29 32 34 37 38 0
2 3 5 7 8 11 12 13 17 18 20 21 23 26 28 29 30 33 35 38 0
3 4 6 8 9 12 13 14 18 19 20 21 22 24 27 29 30 31 34 36 0
1 4 5 7 9 10 13 14 15 19 21 22 23 25 28 30 31 32 35 37 0
1 2 5 6 8 10 11 14 15 16 22 23 24 26 29 31 32 33 36 38 0
2 3 6 7 9 11 12 15 16 17 20 23 24 25 27 30 32 33 34 37 0
3 4 5 8 9 11 13 14 17 18 21 24 25 26 28 31 33 34 35 38 0
4 5 6 9 10 12 14 15 18 19 20 22 25 26 27 29 32 34 35 36 0
1 5 6 7 10 11 13 15 16 19 21 23 26 27 28 30 33 35 36 37 0
1 2 6 7 8 11 12 14 16 17 22 24 27 28 29 31 34 36 37 38 0
2 3 7 8 9 12 13 15 17 18 20 23 25 28 29 30 32 35 37 38 0
3 4 8 9 10 13 14 16 18 19 20 21 24 26 29 30 31 33 36 38 0
1 4 5 9 10 11 14 15 17 19 20 21 22 25 27 30 31 32 34 37 0
1 2 5 6 10 11 12 15 16 18 21 22 23 26 28 31 32 33 35 38 0
2 3 6 7 11 12 13 16 17 19 20 22 23 24 27 29 32 33 34 36 0
1 3 4 7 8 12 13 14 17 18 21 23 24 25 28 30 33 34 35 37 0
2 4 5 8 9 13 14 15 18 19 22 24 25 26 29 31 34 35 36 38 0
1 3 5 6 9 10 14 15 16 19 20 23 25 26 27 30 32 35 36 37 0
1 2 4 6 7 10 11 15 16 17 21 24 26 27 28 31 33 36 37 38 0
2 3 5 7 8 11 12 16 17 18 20 22 25 27 28 29 32 34 37 38 0
3 4 6 8 9 12 13 17 18 19 20 21 23 26 28 29 30 33 35 38 0
1 4 5 7 9 10 13 14 18 19 20 21 22 24 27 29 30 31 34 36 0
1 2 5 6 8 10 11 14 15 19 21 22 23 25 28 30 31 32 35 37 0
1 2 3 6 7 9 11 12 15 16 22 23 24 26 29 31 32 33 36 38 0
2 3 4 7 8 10 12 13 16 17 20 23 24 25 27 30 32 33 34 37 0
3 6 8 11 14 15 16 18 21 23 24 26 28 29 31 32 35 37 38 0
4 7 9 12 15 16 17 19 20 22 24 25 27 29 30 32 33 36 38 0
1 5 8 10 13 16 17 18 20 21 23 25 26 28 30 31 33 34 37 0
2 6 9 11 14 17 18 19 21 22 24 26 27 29 31 32 34 35 38 0
1 3 7 10 12 15 18 19 20 22 23 25 27 28 30 32 33 35 36 0
1 2 4 8 11 13 16 19 21 23 24 26 28 29 31 33 34 36 37 0
1 2 3 5 9 12 14 17 22 24 25 27 29 30 32 34 35 37 38 0
2 3 4 6 10 13 15 18 20 23 25 26 28 30 31 33 35 36 38 0
3 4 5 7 11 14 16 19 20 21 24 26 27 29 31 32 34 36 37 0
1 4 5 6 8 12 15 17 21 22 25 27 28 30 32 33 35 37 38 0
2 5 6 7 9 13 16 18 20 22 23 26 28 29 31 33 34 36 38 0
3 6 7 8 10 14 17 19 20 21 23 24 27 29 30 32 34 35 37 0
1 4 7 8 9 11 15 18 21 22 24 25 28 30 31 33 35 36 38 0
2 5 8 9 10 12 16 19 20 22 23 25 26 29 31 32 34 36 37 0
1 3 6 9 10 11 13 17 21 23 24 26 27 30 32 33 35 37 38 0
2 4 7 10 11 12 14 18 20 22 24 25 27 28 31 33 34 36 38 0
3 5 8 11 12 13 15 19 20 21 23 25 26 28 29 32 34 35 37 0
1 4 6 9 12 13 14 16 21 22 24 26 27 29 30 33 35 36 38 0
2 5 7 10 13 14 15 17 20 22 23 25 27 28 30 31 34 36 37 0
3 5 6 7 10 13 15 18 21 22 24 27 28 30 31 33 35 36 38 0
4 6 7 8 11 14 16 19 20 22 23 25 28 29 31 32 34 36 37 0
1 5 7 8 9 12 15 17 21 23 24 26 29 30 32 33 35 37 38 0
2 6 8 9 10 13 16 18 20 22 24 25 27 30 31 33 34 36 38 0
3 7 9 10 11 14 17 19 20 21 23 25 26 28 31 32 34 35 37 0
1 4 8 10 11 12 15 18 21 22 24 26 27 29 32 33 35 36 38 0
2 5 9 11 12 13 16 19 20 22 23 25 27 28 30 33 34 36 37 0
1 3 6 10 12 13 14 17 21 23 24 26 28 29 31 34 35 37 38 0
2 4 7 11 13 14 15 18 20 22 24 25 27 29 30 32 35 36 38 0
3 5 8 12 14 15 16 19 20 21 23 25 26 28 30 31 33 36 37 0
1 4 6 9 13 15 16 17 21 22 24 26 27 29 31 32 34 37 38 0
2 5 7 10 14 16 17 18 20 22 23 25 27 28 30 32 33 35 38 0
3 6 8 11 15 17 18 19 20 21 23 24 26 28 29 31 33 34 36 0
1 4 7 9 12 16 18 19 21 22 24 25 27 29 30 32 34 35 37 0
1 2 5 8 10 13 17 19 22 23 25 26 28 30 31 33 35 36 38 0
1 2 3 6 9 11 14 18 20 23 24 26 27 29 31 32 34 36 37 0
2 3 4 7 10 12 15 19 21 24 25 27 28 30 32 33 35 37 38 0
1 3 4 5 8 11 13 16 20 22 25 26 28 29 31 33 34 36 38 0
2 4 5 6 9 12 14 17 20 21 23 26 27 29 30 32 34 35 37 0
2 5 7 10 13 15 16 18 19 21 22 23 27 28 29 30 31 32 37 0
1 3 6 8 11 14 16 17 19 22 23 24 28 29 30 31 32 33 38 0
1 2 4 7 9 12 15 17 18 20 23 24 25 29 30 31 32 33 34 0
2 3 5 8 10 13 16 18 19 21 24 25 26 30 31 32 33 34 35 0
1 3 4 6 9 11 14 17 19 22 25 26 27 31 32 33 34 35 36 0
1 2 4 5 7 10 12 15 18 23 26 27 28 32 33 34 35 36 37 0
2 3 5 6 8 11 13 16 19 24 27 28 29 33 34 35 36 37 38 0
1 3 4 6 7 9 12 14 17 20 25 28 29 30 34 35 36 37 38 0
2 4 5 7 8 10 13 15 18 20 21 26 29 30 31 35 36 37 38 0
3 5 6 8 9 11 14 16 19 20 21 22 27 30 31 32 36 37 38 0
1 4 6 7 9 10 12 15 17 20 21 22 23 28 31 32 33 37 38 0
2 5 7 8 10 11 13 16 18 20 21 22 23 24 29 32 33 34 38 0
3 6 8 9 11 12 14 17 19 20 21 22 23 24 25 30 33 34 35 0
1 4 7 9 10 12 13 15 18 21 22 23 24 25 26 31 34 35 36 0
2 5 8 10 11 13 14 16 19 22 23 24 25 26 27 32 35 36 37 0
1 3 6 9 11 12 14 15 17 23 24 25 26 27 28 33 36 37 38 0
2 4 7 10 12 13 15 16 18 20 24 25 26 27 28 29 34 37 38 0
3 5 8 11 13 14 16 17 19 20 21 25 26 27 28 29 30 35 38 0
1 4 6 9 12 14 15 17 18 20 21 22 26 27 28 29 30 31 36 0
2 3 5 6 8 11 14 16 19 22 27 28 29 30 31 32 36 37 38 0
1 3 4 6 7 9 12 15 17 20 23 28 29 30 31 32 33 37 38 0
2 4 5 7 8 10 13 16 18 20 21 24 29 30 31 32 33 34 38 0
3 5 6 8 9 11 14 17 19 20 21 22 25 30 31 32 33 34 35 0
1 4 6 7 9 10 12 15 18 21 22 23 26 31 32 33 34 35 36 0
2 5 7 8 10 11 13 16 19 22 23 24 27 32 33 34 35 36 37 0
1 3 6 8 9 11 12 14 17 23 24 25 28 33 34 35 36 37 38 0
2 4 7 9 10 12 13 15 18 20 24 25 26 29 34 35 36 37 38 0
3 5 8 10 11 13 14 16 19 20 21 25 26 27 30 35 36 37 38 0
1 4 6 9 11 12 14 15 17 20 21 22 26 27 28 31 36 37 38 0
2 5 7 10 12 13 15 16 18 20 21 22 23 27 28 29 32 37 38 0
3 6 8 11 13 14 16 17 19 20 21 22 23 24 28 29 30 33 38 0
1 4 7 9 12 14 15 17 18 20 21 22 23 24 25 29 30 31 34 0
2 5 8 10 13 15 16 18 19 21 22 23 24 25 26 30 31 32 35 0
1 3 6 9 11 14 16 17 19 22 23 24 25 26 27 31 32 33 36 0
1 2 4 7 10 12 15 17 18 23 24 25 26 27 28 32 33 34 37 0
2 3 5 8 11 13 16 18 19 24 25 26 27 28 29 33 34 35 38 0
1 3 4 6 9 12 14 17 19 20 25 26 27 28 29 30 34 35 36 0
1 2 4 5 7 10 13 15 18 21 26 27 28 29 30 31 35 36 37 0
3 5 6 8 10 13 14 17 18 21 22 24 25 27 30 31 32 34 35 37 38 0
4 6 7 9 11 14 15 18 19 20 22 23 25 26 28 31 32 33 35 36 38 0
1 5 7 8 10 12 15 16 19 20 21 23 24 26 27 29 32 33 34 36 37 0
1 2 6 8 9 11 13 16 17 21 22 24 25 27 28 30 33 34 35 37 38 0
2 3 7 9 10 12 14 17 18 20 22 23 25 26 28 29 31 34 35 36 38 0
3 4 8 10 11 13 15 18 19 20 21 23 24 26 27 29 30 32 35 36 37 0
1 4 5 9 11 12 14 16 19 21 22 24 25 27 28 30 31 33 36 37 38 0
1 2 5 6 10 12 13 15 17 20 22 23 25 26 28 29 31 32 34 37 38 0
2 3 6 7 11 13 14 16 18 20 21 23 24 26 27 29 30 32 33 35 38 0
3 4 7 8 12 14 15 17 19 20 21 22 24 25 27 28 30 31 33 34 36 0
1 4 5 8 9 13 15 16 18 21 22 23 25 26 28 29 31 32 34 35 37 0
2 5 6 9 10 14 16 17 19 22 23 24 26 27 29 30 32 33 35 36 38 0
1 3 6 7 10 11 15 17 18 20 23 24 25 27 28 30 31 33 34 36 37 0
2 4 7 8 11 12 16 18 19 21 24 25 26 28 29 31 32 34 35 37 38 0
1 3 5 8 9 12 13 17 19 20 22 25 26 27 29 30 32 33 35 36 38 0
1 2 4 6 9 10 13 14 18 20 21 23 26 27 28 30 31 33 34 36 37 0
2 3 5 7 10 11 14 15 19 21 22 24 27 28 29 31 32 34 35 37 38 0
1 3 4 6 8 11 12 15 16 20 22 23 25 28 29 30 32 33 35 36 38 0
2 4 5 7 9 12 13 16 17 20 21 23 24 26 29 30 31 33 34 36 37 0
3 4 7 8 11 13 15 16 18 21 22 24 25 27 28 29 32 34 35 37 38 0
4 5 8 9 12 14 16 17 19 20 22 23 25 26 28 29 30 33 35 36 38 0
1 5 6 9 10 13 15 17 18 20 21 23 24 26 27 29 30 31 34 36 37 0
2 6 7 10 11 14 16 18 19 21 22 24 25 27 28 30 31 32 35 37 38 0
1 3 7 8 11 12 15 17 19 20 22 23 25 26 28 29 31 32 33 36 38 0
1 2 4 8 9 12 13 16 18 20 21 23 24 26 27 29 30 32 33 34 37 0
2 3 5 9 10 13 14 17 19 21 22 24 25 27 28 30 31 33 34 35 38 0
1 3 4 6 10 11 14 15 18 20 22 23 25 26 28 29 31 32 34 35 36 0
2 4 5 7 11 12 15 16 19 21 23 24 26 27 29 30 32 33 35 36 37 0
1 3 5 6 8 12 13 16 17 22 24 25 27 28 30 31 33 34 36 37 38 0
2 4 6 7 9 13 14 17 18 20 23 25 26 28 29 31 32 34 35 37 38 0
3 5 7 8 10 14 15 18 19 20 21 24 26 27 29 30 32 33 35 36 38 0
1 4 6 8 9 11 15 16 19 20 21 22 25 27 28 30 31 33 34 36 37 0
1 2 5 7 9 10 12 16 17 21 22 23 26 28 29 31 32 34 35 37 38 0
2 3 6 8 10 11 13 17 18 20 22 23 24 27 29 30 32 33 35 36 38 0
3 4 7 9 11 12 14 18 19 20 21 23 24 25 28 30 31 33 34 36 37 0
1 4 5 8 10 12 13 15 19 21 22 24 25 26 29 31 32 34 35 37 38 0
1 2 5 6 9 11 13 14 16 20 22 23 25 26 27 30 32 33 35 36 38 0
2 3 6 7 10 12 14 15 17 20 21 23 24 26 27 28 31 33 34 36 37 0
4 7 10 12 13 15 17 22 23 24 25 26 27 28 29 34 35 36 37 0
5 8 11 13 14 16 18 23 24 25 26 27 28 29 30 35 36 37 38 0
6 9 12 14 15 17 19 20 24 25 26 27 28 29 30 31 36 37 38 0
1 7 10 13 15 16 18 20 21 25 26 27 28 29 30 31 32 37 38 0
2 8 11 14 16 17 19 20 21 22 26 27 28 29 30 31 32 33 38 0
1 3 9 12 15 17 18 20 21 22 23 27 28 29 30 31 32 33 34 0
2 4 10 13 16 18 19 21 22 23 24 28 29 30 31 32 33 34 35 0
1 3 5 11 14 17 19 22 23 24 25 29 30 31 32 33 34 35 36 0
1 2 4 6 12 15 18 23 24 25 26 30 31 32 33 34 35 36 37 0
2 3 5 7 13 16 19 24 25 26 27 31 32 33 34 35 36 37 38 0
1 3 4 6 8 14 17 20 25 26 27 28 32 33 34 35 36 37 38 0
2 4 5 7 9 15 18 20 21 26 27 28 29 33 34 35 36 37 38 0
3 5 6 8 10 16 19 20 21 22 27 28 29 30 34 35 36 37 38 0
1 4 6 7 9 11 17 20 21 22 23 28 29 30 31 35 36 37 38 0
2 5 7 8 10 12 18 20 21 22 23 24 29 30 31 32 36 37 38 0
3 6 8 9 11 13 19 20 21 22 23 24 25 30 31 32 33 37 38 0
1 4 7 9 10 12 14 20 21 22 23 24 25 26 31 32 33 34 38 0
2 5 8 10 11 13 15 20 21 22 23 24 25 26 27 32 33 34 35 0
3 6 9 11 12 14 16 21 22 23 24 25 26 27 28 33 34 35 36 0
4 6 8 9 11 14 17 22 23 24 25 30 31 32 33 34 35 36 37 0
5 7 9 10 12 15 18 23 24 25 26 31 32 33 34 35 36 37 38 0
6 8 10 11 13 16 19 20 24 25 26 27 32 33 34 35 36 37 38 0
1 7 9 11 12 14 17 20 21 25 26 27 28 33 34 35 36 37 38 0
2 8 10 12 13 15 18 20 21 22 26 27 28 29 34 35 36 37 38 0
3 9 11 13 14 16 19 20 21 22 23 27 28 29 30 35 36 37 38 0
1 4 10 12 14 15 17 20 21 22 23 24 28 29 30 31 36 37 38 0
2 5 11 13 15 16 18 20 21 22 23 24 25 29 30 31 32 37 38 0
3 6 12 14 16 17 19 20 21 22 23 24 25 26 30 31 32 33 38 0
1 4 7 13 15 17 18 20 21 22 23 24 25 26 27 31 32 33 34 0
2 5 8 14 16 18 19 21 22 23 24 25 26 27 28 32 33 34 35 0
1 3 6 9 15 17 19 22 23 24 25 26 27 28 29 33 34 35 36 0
1 2 4 7 10 16 18 23 24 25 26 27 28 29 30 34 35 36 37 0
2 3 5 8 11 17 19 24 25 26 27 28 29 30 31 35 36 37 38 0
1 3 4 6 9 12 18 20 25 26 27 28 29 30 31 32 36 37 38 0
2 4 5 7 10 13 19 20 21 26 27 28 29 30 31 32 33 37 38 0
1 3 5 6 8 11 14 20 21 22 27 28 29 30 31 32 33 34 38 0
2 4 6 7 9 12 15 20 21 22 23 28 29 30 31 32 33 34 35 0
3 5 7 8 10 13 16 21 22 23 24 29 30 31 32 33 34 35 36 0
2 5 6 9 12 14 15 17 19 22 23 26 27 28 29 30 36 37 0
1 3 6 7 10 13 15 16 18 23 24 27 28 29 30 31 37 38 0
2 4 7 8 11 14 16 17 19 20 24 25 28 29 30 31 32 38 0
1 3 5 8 9 12 15 17 18 20 21 25 26 29 30 31 32 33 0
2 4 6 9 10 13 16 18 19 21 22 26 27 30 31 32 33 34 0
1 3 5 7 10 11 14 17 19 22 23 27 28 31 32 33 34 35 0
1 2 4 6 8 11 12 15 18 23 24 28 29 32 33 34 35 36 0
2 3 5 7 9 12 13 16 19 24 25 29 30 33 34 35 36 37 0
1 3 4 6 8 10 13 14 17 25 26 30 31 34 35 36 37 38 0
2 4 5 7 9 11 14 15 18 20 26 27 31 32 35 36 37 38 0
3 5 6 8 10 12 15 16 19 20 21 27 28 32 33 36 37 38 0
1 4 6 7 9 11 13 16 17 20 21 22 28 29 33 34 37 38 0
2 5 7 8 10 12 14 17 18 20 21 22 23 29 30 34 35 38 0
3 6 8 9 11 13 15 18 19 20 21 22 23 24 30 31 35 36 0
1 4 7 9 10 12 14 16 19 21 22 23 24 25 31 32 36 37 0
1 2 5 8 10 11 13 15 17 22 23 24 25 26 32 33 37 38 0
2 3 6 9 11 12 14 16 18 20 23 24 25 26 27 33 34 38 0
3 4 7 10 12 13 15 17 19 20 21 24 25 26 27 28 34 35 0
1 4 5 8 11 13 14 16 18 21 22 25 26 27 28 29 35 36 0
2 4 6 7 9 12 15 16 19 22 23 29 30 31 32 33 36 37 0
1 3 5 7 8 10 13 16 17 23 24 30 31 32 33 34 37 38 0
2 4 6 8 9 11 14 17 18 20 24 25 31 32 33 34 35 38 0
3 5 7 9 10 12 15 18 19 20 21 25 26 32 33 34 35 36 0
1 4 6 8 10 11 13 16 19 21 22 26 27 33 34 35 36 37 0
1 2 5 7 9 11 12 14 17 22 23 27 28 34 35 36 37 38 0
2 3 6 8 10 12 13 15 18 20 23 24 28 29 35 36 37 38 0
3 4 7 9 11 13 14 16 19 20 21 24 25 29 30 36 37 38 0
1 4 5 8 10 12 14 15 17 20 21 22 25 26 30 31 37 38 0
2 5 6 9 11 13 15 16 18 20 21 22 23 26 27 31 32 38 0
3 6 7 10 12 14 16 17 19 20 21 22 23 24 27 28 32 33 0
1 4 7 8 11 13 15 17 18 21 22 23 24 25 28 29 33 34 0
2 5 8 9 12 14 16 18 19 22 23 24 25 26 29 30 34 35 0
1 3 6 9 10 13 15 17 19 23 24 25 26 27 30 31 35 36 0
1 2 4 7 10 11 14 16 18 24 25 26 27 28 31 32 36 37 0
2 3 5 8 11 12 15 17 19 25 26 27 28 29 32 33 37 38 0
1 3 4 6 9 12 13 16 18 20 26 27 28 29 30 33 34 38 0
2 4 5 7 10 13 14 17 19 20 21 27 28 29 30 31 34 35 0
1 3 5 6 8 11 14 15 18 21 22 28 29 30 31 32 35 36 0
3 5 7 9 10 12 14 16 18 21 23 26 28 29 31 34 36 37 38 0
4 6 8 10 11 13 15 17 19 20 22 24 27 29 30 32 35 37 38 0
1 5 7 9 11 12 14 16 18 20 21 23 25 28 30 31 33 36 38 0
2 6 8 10 12 13 15 17 19 20 21 22 24 26 29 31 32 34 37 0
1 3 7 9 11 13 14 16 18 21 22 23 25 27 30 32 33 35 38 0
2 4 8 10 12 14 15 17 19 20 22 23 24 26 28 31 33 34 36 0
1 3 5 9 11 13 15 16 18 21 23 24 25 27 29 32 34 35 37 0
2 4 6 10 12 14 16 17 19 22 24 25 26 28 30 33 35 36 38 0
1 3 5 7 11 13 15 17 18 20 23 25 26 27 29 31 34 36 37 0
2 4 6 8 12 14 16 18 19 21 24 26 27 28 30 32 35 37 38 0
1 3 5 7 9 13 15 17 19 20 22 25 27 28 29 31 33 36 38 0
1 2 4 6 8 10 14 16 18 20 21 23 26 28 29 30 32 34 37 0
2 3 5 7 9 11 15 17 19 21 22 24 27 29 30 31 33 35 38 0
1 3 4 6 8 10 12 16 18 20 22 23 25 28 30 31 32 34 36 0
2 4 5 7 9 11 13 17 19 21 23 24 26 29 31 32 33 35 37 0
1 3 5 6 8 10 12 14 18 22 24 25 27 30 32 33 34 36 38 0
2 4 6 7 9 11 13 15 19 20 23 25 26 28 31 33 34 35 37 0
1 3 5 7 8 10 12 14 16 21 24 26 27 29 32 34 35 36 38 0
2 4 6 8 9 11 13 15 17 20 22 25 27 28 30 33 35 36 37 0
3 5 7 9 11 12 14 16 18 21 22 23 25 28 30 31 33 36 38 0
4 6 8 10 12 13 15 17 19 20 22 23 24 26 29 31 32 34 37 0
1 5 7 9 11 13 14 16 18 21 23 24 25 27 30 32 33 35 38 0
2 6 8 10 12 14 15 17 19 20 22 24 25 26 28 31 33 34 36 0
1 3 7 9 11 13 15 16 18 21 23 25 26 27 29 32 34 35 37 0
2 4 8 10 12 14 16 17 19 22 24 26 27 28 30 33 35 36 38 0
1 3 5 9 11 13 15 17 18 20 23 25 27 28 29 31 34 36 37 0
2 4 6 10 12 14 16 18 19 21 24 26 28 29 30 32 35 37 38 0
1 3 5 7 11 13 15 17 19 20 22 25 27 29 30 31 33 36 38 0
1 2 4 6 8 12 14 16 18 20 21 23 26 28 30 31 32 34 37 0
2 3 5 7 9 13 15 17 19 21 22 24 27 29 31 32 33 35 38 0
1 3 4 6 8 10 14 16 18 20 22 23 25 28 30 32 33 34 36 0
2 4 5 7 9 11 15 17 19 21 23 24 26 29 31 33 34 35 37 0
1 3 5 6 8 10 12 16 18 22 24 25 27 30 32 34 35 36 38 0
2 4 6 7 9 11 13 17 19 20 23 25 26 28 31 33 35 36 37 0
1 3 5 7 8 10 12 14 18 21 24 26 27 29 32 34 36 37 38 0
2 4 6 8 9 11 13 15 19 20 22 25 27 28 30 33 35 37 38 0
1 3 5 7 9 10 12 14 16 20 21 23 26 28 29 31 34 36 38 0
2 4 6 8 10 11 13 15 17 20 21 22 24 27 29 30 32 35 37 0
3 5 8 9 11 12 14 16 17 21 23 25 26 28 31 33 34 36 37 0
4 6 9 10 12 13 15 17 18 22 24 26 27 29 32 34 35 37 38 0
5 7 10 11 13 14 16 18 19 20 23 25 27 28 30 33 35 36 38 0
1 6 8 11 12 14 15 17 19 20 21 24 26 28 29 31 34 36 37 0
1 2 7 9 12 13 15 16 18 21 22 25 27 29 30 32 35 37 38 0
2 3 8 10 13 14 16 17 19 20 22 23 26 28 30 31 33 36 38 0
1 3 4 9 11 14 15 17 18 20 21 23 24 27 29 31 32 34 37 0
2 4 5 10 12 15 16 18 19 21 22 24 25 28 30 32 33 35 38 0
1 3 5 6 11 13 16 17 19 20 22 23 25 26 29 31 33 34 36 0
1 2 4 6 7 12 14 17 18 21 23 24 26 27 30 32 34 35 37 0
2 3 5 7 8 13 15 18 19 22 24 25 27 28 31 33 35 36 38 0
1 3 4 6 8 9 14 16 19 20 23 25 26 28 29 32 34 36 37 0
1 2 4 5 7 9 10 15 17 21 24 26 27 29 30 33 35 37 38 0
2 3 5 6 8 10 11 16 18 20 22 25 27 28 30 31 34 36 38 0
3 4 6 7 9 11 12 17 19 20 21 23 26 28 29 31 32 35 37 0
1 4 5 7 8 10 12 13 18 21 22 24 27 29 30 32 33 36 38 0
2 5 6 8 9 11 13 14 19 20 22 23 25 28 30 31 33 34 37 0
1 3 6 7 9 10 12 14 15 21 23 24 26 29 31 32 34 35 38 0
2 4 7 8 10 11 13 15 16 20 22 24 25 27 30 32 33 35 36 0
4 5 7 9 10 12 13 16 18 22 23 25 26 28 31 33 34 36 38 0
5 6 8 10 11 13 14 17 19 20 23 24 26 27 29 32 34 35 37 0
1 6 7 9 11 12 14 15 18 21 24 25 27 28 30 33 35 36 38 0
2 7 8 10 12 13 15 16 19 20 22 25 26 28 29 31 34 36 37 0
1 3 8 9 11 13 14 16 17 21 23 26 27 29 30 32 35 37 38 0
2 4 9 10 12 14 15 17 18 20 22 24 27 28 30 31 33 36 38 0
3 5 10 11 13 15 16 18 19 20 21 23 25 28 29 31 32 34 37 0
1 4 6 11 12 14 16 17 19 21 22 24 26 29 30 32 33 35 38 0
1 2 5 7 12 13 15 17 18 20 22 23 25 27 30 31 33 34 36 0
2 3 6 8 13 14 16 18 19 21 23 24 26 28 31 32 34 35 37 0
1 3 4 7 9 14 15 17 19 22 24 25 27 29 32 33 35 36 38 0
1 2 4 5 8 10 15 16 18 20 23 25 26 28 30 33 34 36 37 0
2 3 5 6 9 11 16 17 19 21 24 26 27 29 31 34 35 37 38 0
1 3 4 6 7 10 12 17 18 20 22 25 27 28 30 32 35 36 38 0
2 4 5 7 8 11 13 18 19 20 21 23 26 28 29 31 33 36 37 0
1 3 5 6 8 9 12 14 19 21 22 24 27 29 30 32 34 37 38 0
1 2 4 6 7 9 10 13 15 20 22 23 25 28 30 31 33 35 38 0
2 3 5 7 8 10 11 14 16 20 21 23 24 26 29 31 32 34 36 0
3 4 6 8 9 11 12 15 17 21 22 24 25 27 30 32 33 35 37 0
4 6 8 10 12 14 17 18 22 24 25 28 30 31 34 35 36 37 38 0
5 7 9 11 13 15 18 19 20 23 25 26 29 31 32 35 36 37 38 0
1 6 8 10 12 14 16 19 20 21 24 26 27 30 32 33 36 37 38 0
1 2 7 9 11 13 15 17 20 21 22 25 27 28 31 33 34 37 38 0
2 3 8 10 12 14 16 18 20 21 22 23 26 28 29 32 34 35 38 0
3 4 9 11 13 15 17 19 20 21 22 23 24 27 29 30 33 35 36 0
1 4 5 10 12 14 16 18 21 22 23 24 25 28 30 31 34 36 37 0
2 5 6 11 13 15 17 19 22 23 24 25 26 29 31 32 35 37 38 0
1 3 6 7 12 14 16 18 20 23 24 25 26 27 30 32 33 36 38 0
2 4 7 8 13 15 17 19 20 21 24 25 26 27 28 31 33 34 37 0
1 3 5 8 9 14 16 18 21 22 25 26 27 28 29 32 34 35 38 0
2 4 6 9 10 15 17 19 20 22 23 26 27 28 29 30 33 35 36 0
1 3 5 7 10 11 16 18 21 23 24 27 28 29 30 31 34 36 37 0
2 4 6 8 11 12 17 19 22 24 25 28 29 30 31 32 35 37 38 0
1 3 5 7 9 12 13 18 20 23 25 26 29 30 31 32 33 36 38 0
2 4 6 8 10 13 14 19 20 21 24 26 27 30 31 32 33 34 37 0
1 3 5 7 9 11 14 15 21 22 25 27 28 31 32 33 34 35 38 0
2 4 6 8 10 12 15 16 20 22 23 26 28 29 32 33 34 35 36 0
3 5 7 9 11 13 16 17 21 23 24 27 29 30 33 34 35 36 37 0
3 4 7 9 11 13 15 17 21 22 23 24 25 28 29 31 34 35 37 0
4 5 8 10 12 14 16 18 22 23 24 25 26 29 30 32 35 36 38 0
5 6 9 11 13 15 17 19 20 23 24 25 26 27 30 31 33 36 37 0
1 6 7 10 12 14 16 18 21 24 25 26 27 28 31 32 34 37 38 0
2 7 8 11 13 15 17 19 20 22 25 26 27 28 29 32 33 35 38 0
1 3 8 9 12 14 16 18 20 21 23 26 27 28 29 30 33 34 36 0
2 4 9 10 13 15 17 19 21 22 24 27 28 29 30 31 34 35 37 0
1 3 5 10 11 14 16 18 22 23 25 28 29 30 31 32 35 36 38 0
2 4 6 11 12 15 17 19 20 23 24 26 29 30 31 32 33 36 37 0
1 3 5 7 12 13 16 18 21 24 25 27 30 31 32 33 34 37 38 0
2 4 6 8 13 14 17 19 20 22 25 26 28 31 32 33 34 35 38 0
1 3 5 7 9 14 15 18 20 21 23 26 27 29 32 33 34 35 36 0
2 4 6 8 10 15 16 19 21 22 24 27 28 30 33 34 35 36 37 0
1 3 5 7 9 11 16 17 22 23 25 28 29 31 34 35 36 37 38 0
2 4 6 8 10 12 17 18 20 23 24 26 29 30 32 35 36 37 38 0
3 5 7 9 11 13 18 19 20 21 24 25 27 30 31 33 36 37 38 0
1 4 6 8 10 12 14 19 20 21 22 25 26 28 31 32 34 37 38 0
1 2 5 7 9 11 13 15 20 21 22 23 26 27 29 32 33 35 38 0
2 3 6 8 10 12 14 16 20 21 22 23 24 27 28 30 33 34 36 0
2 4 5 7 10 12 14 16 19 25 26 27 28 31 34 36 37 0
1 3 5 6 8 11 13 15 17 26 27 28 29 32 35 37 38 0
2 4 6 7 9 12 14 16 18 20 27 28 29 30 33 36 38 0
3 5 7 8 10 13 15 17 19 20 21 28 29 30 31 34 37 0
1 4 6 8 9 11 14 16 18 21 22 29 30 31 32 35 38 0
2 5 7 9 10 12 15 17 19 20 22 23 30 31 32 33 36 0
1 3 6 8 10 11 13 16 18 21 23 24 31 32 33 34 37 0
2 4 7 9 11 12 14 17 19 22 24 25 32 33 34 35 38 0
1 3 5 8 10 12 13 15 18 20 23 25 26 33 34 35 36 0
2 4 6 9 11 13 14 16 19 21 24 26 27 34 35 36 37 0
1 3 5 7 10 12 14 15 17 22 25 27 28 35 36 37 38 0
2 4 6 8 11 13 15 16 18 20 23 26 28 29 36 37 38 0
3 5 7 9 12 14 16 17 19 20 21 24 27 29 30 37 38 0
1 4 6 8 10 13 15 17 18 20 21 22 25 28 30 31 38 0
2 5 7 9 11 14 16 18 19 20 21 22 23 26 29 31 32 0
1 3 6 8 10 12 15 17 19 21 22 23 24 27 30 32 33 0
1 2 4 7 9 11 13 16 18 22 23 24 25 28 31 33 34 0
2 3 5 8 10 12 14 17 19 23 24 25 26 29 32 34 35 0
1 3 4 6 9 11 13 15 18 24 25 26 27 30 33 35 36 0
2 5 7 9 11 14 16 17 19 22 23 25 28 31 32 33 34 0
1 3 6 8 10 12 15 17 18 23 24 26 29 32 33 34 35 0
2 4 7 9 11 13 16 18 19 24 25 27 30 33 34 35 36 0
1 3 5 8 10 12 14 17 19 25 26 28 31 34 35 36 37 0
1 2 4 6 9 11 13 15 18 26 27 29 32 35 36 37 38 0
2 3 5 7 10 12 14 16 19 20 27 28 30 33 36 37 38 0
1 3 4 6 8 11 13 15 17 20 21 28 29 31 34 37 38 0
2 4 5 7 9 12 14 16 18 20 21 22 29 30 32 35 38 0
3 5 6 8 10 13 15 17 19 20 21 22 23 30 31 33 36 0
1 4 6 7 9 11 14 16 18 21 22 23 24 31 32 34 37 0
2 5 7 8 10 12 15 17 19 22 23 24 25 32 33 35 38 0
1 3 6 8 9 11 13 16 18 20 23 24 25 26 33 34 36 0
2 4 7 9 10 12 14 17 19 21 24 25 26 27 34 35 37 0
1 3 5 8 10 11 13 15 18 22 25 26 27 28 35 36 38 0
2 4 6 9 11 12 14 16 19 20 23 26 27 28 29 36 37 0
1 3 5 7 10 12 13 15 17 21 24 27 28 29 30 37 38 0
2 4 6 8 11 13 14 16 18 20 22 25 28 29 30 31 38 0
3 5 7 9 12 14 15 17 19 20 21 23 26 29 30 31 32 0
1 4 6 8 10 13 15 16 18 21 22 24 27 30 31 32 33 0
3 6 7 9 11 13 16 17 21 22 23 24 25 27 33 34 35 36 37 0
4 7 8 10 12 14 17 18 22 23 24 25 26 28 34 35 36 37 38 0
5 8 9 11 13 15 18 19 20 23 24 25 26 27 29 35 36 37 38 0
1 6 9 10 12 14 16 19 20 21 24 25 26 27 28 30 36 37 38 0
1 2 7 10 11 13 15 17 20 21 22 25 26 27 28 29 31 37 38 0
2 3 8 11 12 14 16 18 20 21 22 23 26 27 28 29 30 32 38 0
3 4 9 12 13 15 17 19 20 21 22 23 24 27 28 29 30 31 33 0
1 4 5 10 13 14 16 18 21 22 23 24 25 28 29 30 31 32 34 0
2 5 6 11 14 15 17 19 22 23 24 25 26 29 30 31 32 33 35 0
1 3 6 7 12 15 16 18 23 24 25 26 27 30 31 32 33 34 36 0
2 4 7 8 13 16 17 19 24 25 26 27 28 31 32 33 34 35 37 0
1 3 5 8 9 14 17 18 25 26 27 28 29 32 33 34 35 36 38 0
2 4 6 9 10 15 18 19 20 26 27 28 29 30 33 34 35 36 37 0
1 3 5 7 10 11 16 19 21 27 28 29 30 31 34 35 36 37 38 0
1 2 4 6 8 11 12 17 20 22 28 29 30 31 32 35 36 37 38 0
2 3 5 7 9 12 13 18 20 21 23 29 30 31 32 33 36 37 38 0
3 4 6 8 10 13 14 19 20 21 22 24 30 31 32 33 34 37 38 0
1 4 5 7 9 11 14 15 20 21 22 23 25 31 32 33 34 35 38 0
2 5 6 8 10 12 15 16 20 21 22 23 24 26 32 33 34 35 36 0
4 5 8 10 12 14 15 18 22 23 24 25 26 32 34 35 36 37 38 0
5 6 9 11 13 15 16 19 20 23 24 25 26 27 33 35 36 37 38 0
1 6 7 10 12 14 16 17 20 21 24 25 26 27 28 34 36 37 38 0
2 7 8 11 13 15 17 18 20 21 22 25 26 27 28 29 35 37 38 0
3 8 9 12 14 16 18 19 20 21 22 23 26 27 28 29 30 36 38 0
1 4 9 10 13 15 17 19 20 21 22 23 24 27 28 29 30 31 37 0
1 2 5 10 11 14 16 18 21 22 23 24 25 28 29 30 31 32 38 0
2 3 6 11 12 15 17 19 20 22 23 24 25 26 29 30 31 32 33 0
1 3 4 7 12 13 16 18 21 23 24 25 26 27 30 31 32 33 34 0
2 4 5 8 13 14 17 19 22 24 25 26 27 28 31 32 33 34 35 0
1 3 5 6 9 14 15 18 23 25 26 27 28 29 32 33 34 35 36 0
2 4 6 7 10 15 16 19 24 26 27 28 29 30 33 34 35 36 37 0
1 3 5 7 8 11 16 17 25 27 28 29 30 31 34 35 36 37 38 0
2 4 6 8 9 12 17 18 20 26 28 29 30 31 32 35 36 37 38 0
3 5 7 9 10 13 18 19 20 21 27 29 30 31 32 33 36 37 38 0
1 4 6 8 10 11 14 19 20 21 22 28 30 31 32 33 34 37 38 0
1 2 5 7 9 11 12 15 20 21 22 23 29 31 32 33 34 35 38 0
2 3 6 8 10 12 13 16 20 21 22 23 24 30 32 33 34 35 36 0
3 4 7 9 11 13 14 17 21 22 23 24 25 31 33 34 35 36 37 0
3 5 7 10 12 13 15 17 21 23 24 26 27 28 29 34 35 37 0
4 6 8 11 13 14 16 18 22 24 25 27 28 29 30 35 36 38 0
5 7 9 12 14 15 17 19 20 23 25 26 28 29 30 31 36 37 0
1 6 8 10 13 15 16 18 21 24 26 27 29 30 31 32 37 38 0
2 7 9 11 14 16 17 19 20 22 25 27 28 30 31 32 33 38 0
1 3 8 10 12 15 17 18 20 21 23 26 28 29 31 32 33 34 0
2 4 9 11 13 16 18 19 21 22 24 27 29 30 32 33 34 35 0
1 3 5 10 12 14 17 19 22 23 25 28 30 31 33 34 35 36 0
1 2 4 6 11 13 15 18 23 24 26 29 31 32 34 35 36 37 0
2 3 5 7 12 14 16 19 24 25 27 30 32 33 35 36 37 38 0
1 3 4 6 8 13 15 17 20 25 26 28 31 33 34 36 37 38 0
2 4 5 7 9 14 16 18 20 21 26 27 29 32 34 35 37 38 0
3 5 6 8 10 15 17 19 20 21 22 27 28 30 33 35 36 38 0
1 4 6 7 9 11 16 18 20 21 22 23 28 29 31 34 36 37 0
2 5 7 8 10 12 17 19 21 22 23 24 29 30 32 35 37 38 0
1 3 6 8 9 11 13 18 20 22 23 24 25 30 31 33 36 38 0
2 4 7 9 10 12 14 19 20 21 23 24 25 26 31 32 34 37 0
1 3 5 8 10 11 13 15 21 22 24 25 26 27 32 33 35 38 0
2 4 6 9 11 12 14 16 20 22 23 25 26 27 28 33 34 36 0
4 6 8 9 11 14 16 18 22 24 25 30 31 32 33 35 36 38 0
5 7 9 10 12 15 17 19 20 23 25 26 31 32 33 34 36 37 0
1 6 8 10 11 13 16 18 21 24 26 27 32 33 34 35 37 38 0
2 7 9 11 12 14 17 19 20 22 25 27 28 33 34 35 36 38 0
1 3 8 10 12 13 15 18 20 21 23 26 28 29 34 35 36 37 0
2 4 9 11 13 14 16 19 21 22 24 27 29 30 35 36 37 38 0
1 3 5 10 12 14 15 17 20 22 23 25 28 30 31 36 37 38 0
2 4 6 11 13 15 16 18 20 21 23 24 26 29 31 32 37 38 0
3 5 7 12 14 16 17 19 20 21 22 24 25 27 30 32 33 38 0
1 4 6 8 13 15 17 18 20 21 22 23 25 26 28 31 33 34 0
2 5 7 9 14 16 18 19 21 22 23 24 26 27 29 32 34 35 0
1 3 6 8 10 15 17 19 22 23 24 25 27 28 30 33 35 36 0
1 2 4 7 9 11 16 18 23 24 25 26 28 29 31 34 36 37 0
2 3 5 8 10 12 17 19 24 25 26 27 29 30 32 35 37 38 0
1 3 4 6 9 11 13 18 20 25 26 27 28 30 31 33 36 38 0
2 4 5 7 10 12 14 19 20 21 26 27 28 29 31 32 34 37 0
1 3 5 6 8 11 13 15 21 22 27 28 29 30 32 33 35 38 0
2 4 6 7 9 12 14 16 20 22 23 28 29 30 31 33 34 36 0
3 5 7 8 10 13 15 17 21 23 24 29 30 31 32 34 35 37 0
3 5 7 9 12 13 15 18 21 24 26 27 29 30 33 35 36 38 0
4 6 8 10 13 14 16 19 20 22 25 27 28 30 31 34 36 37 0
1 5 7 9 11 14 15 17 21 23 26 28 29 31 32 35 37 38 0
2 6 8 10 12 15 16 18 20 22 24 27 29 30 32 33 36 38 0
3 7 9 11 13 16 17 19 20 21 23 25 28 30 31 33 34 37 0
1 4 8 10 12 14 17 18 21 22 24 26 29 31 32 34 35 38 0
2 5 9 11 13 15 18 19 20 22 23 25 27 30 32 33 35 36 0
1 3 6 10 12 14 16 19 21 23 24 26 28 31 33 34 36 37 0
1 2 4 7 11 13 15 17 22 24 25 27 29 32 34 35 37 38 0
2 3 5 8 12 14 16 18 20 23 25 26 28 30 33 35 36 38 0
3 4 6 9 13 15 17 19 20 21 24 26 27 29 31 34 36 37 0
1 4 5 7 10 14 16 18 21 22 25 27 28 30 32 35 37 38 0
2 5 6 8 11 15 17 19 20 22 23 26 28 29 31 33 36 38 0
1 3 6 7 9 12 16 18 20 21 23 24 27 29 30 32 34 37 0
2 4 7 8 10 13 17 19 21 22 24 25 28 30 31 33 35 38 0
1 3 5 8 9 11 14 18 20 22 23 25 26 29 31 32 34 36 0
2 4 6 9 10 12 15 19 21 23 24 26 27 30 32 33 35 37 0
1 3 5 7 10 11 13 16 22 24 25 27 28 31 33 34 36 38 0
2 4 6 8 11 12 14 17 20 23 25 26 28 29 32 34 35 37 0
3 6 8 9 12 14 16 18 21 23 24 26 29 30 32 33 35 38 0
4 7 9 10 13 15 17 19 20 22 24 25 27 30 31 33 34 36 0
1 5 8 10 11 14 16 18 21 23 25 26 28 31 32 34 35 37 0
2 6 9 11 12 15 17 19 22 24 26 27 29 32 33 35 36 38 0
1 3 7 10 12 13 16 18 20 23 25 27 28 30 33 34 36 37 0
2 4 8 11 13 14 17 19 21 24 26 28 29 31 34 35 37 38 0
1 3 5 9 12 14 15 18 20 22 25 27 29 30 32 35 36 38 0
2 4 6 10 13 15 16 19 20 21 23 26 28 30 31 33 36 37 0
1 3 5 7 11 14 16 17 21 22 24 27 29 31 32 34 37 38 0
2 4 6 8 12 15 17 18 20 22 23 25 28 30 32 33 35 38 0
3 5 7 9 13 16 18 19 20 21 23 24 26 29 31 33 34 36 0
1 4 6 8 10 14 17 19 21 22 24 25 27 30 32 34 35 37 0
1 2 5 7 9 11 15 18 22 23 25 26 28 31 33 35 36 38 0
2 3 6 8 10 12 16 19 20 23 24 26 27 29 32 34 36 37 0
1 3 4 7 9 11 13 17 21 24 25 27 28 30 33 35 37 38 0
2 4 5 8 10 12 14 18 20 22 25 26 28 29 31 34 36 38 0
3 5 6 9 11 13 15 19 20 21 23 26 27 29 30 32 35 37 0
1 4 6 7 10 12 14 16 21 22 24 27 28 30 31 33 36 38 0
2 5 7 8 11 13 15 17 20 22 23 25 28 29 31 32 34 37 0
3 6 8 10 12 13 15 17 18 21 23 24 26 29 32 34 35 37 38 0
4 7 9 11 13 14 16 18 19 20 22 24 25 27 30 33 35 36 38 0
1 5 8 10 12 14 15 17 19 20 21 23 25 26 28 31 34 36 37 0
1 2 6 9 11 13 15 16 18 21 22 24 26 27 29 32 35 37 38 0
2 3 7 10 12 14 16 17 19 20 22 23 25 27 28 30 33 36 38 0
1 3 4 8 11 13 15 17 18 20 21 23 24 26 28 29 31 34 37 0
2 4 5 9 12 14 16 18 19 21 22 24 25 27 29 30 32 35 38 0
1 3 5 6 10 13 15 17 19 20 22 23 25 26 28 30 31 33 36 0
1 2 4 6 7 11 14 16 18 21 23 24 26 27 29 31 32 34 37 0
2 3 5 7 8 12 15 17 19 22 24 25 27 28 30 32 33 35 38 0
1 3 4 6 8 9 13 16 18 20 23 25 26 28 29 31 33 34 36 0
2 4 5 7 9 10 14 17 19 21 24 26 27 29 30 32 34 35 37 0
1 3 5 6 8 10 11 15 18 22 25 27 28 30 31 33 35 36 38 0
2 4 6 7 9 11 12 16 19 20 23 26 28 29 31 32 34 36 37 0
1 3 5 7 8 10 12 13 17 21 24 27 29 30 32 33 35 37 38 0
2 4 6 8 9 11 13 14 18 20 22 25 28 30 31 33 34 36 38 0
3 5 7 9 10 12 14 15 19 20 21 23 26 29 31 32 34 35 37 0
1 4 6 8 10 11 13 15 16 21 22 24 27 30 32 33 35 36 38 0
2 5 7 9 11 12 14 16 17 20 22 23 25 28 31 33 34 36 37 0
3 4 6 8 9 11 13 15 18 21 22 24 25 27 30 33 35 36 38 0
4 5 7 9 10 12 14 16 19 20 22 23 25 26 28 31 34 36 37 0
1 5 6 8 10 11 13 15 17 21 23 24 26 27 29 32 35 37 38 0
2 6 7 9 11 12 14 16 18 20 22 24 25 27 28 30 33 36 38 0
3 7 8 10 12 13 15 17 19 20 21 23 25 26 28 29 31 34 37 0
1 4 8 9 11 13 14 16 18 21 22 24 26 27 29 30 32 35 38 0
2 5 9 10 12 14 15 17 19 20 22 23 25 27 28 30 31 33 36 0
1 3 6 10 11 13 15 16 18 21 23 24 26 28 29 31 32 34 37 0
2 4 7 11 12 14 16 17 19 22 24 25 27 29 30 32 33 35 38 0
1 3 5 8 12 13 15 17 18 20 23 25 26 28 30 31 33 34 36 0
2 4 6 9 13 14 16 18 19 21 24 26 27 29 31 32 34 35 37 0
1 3 5 7 10 14 15 17 19 22 25 27 28 30 32 33 35 36 38 0
1 2 4 6 8 11 15 16 18 20 23 26 28 29 31 33 34 36 37 0
2 3 5 7 9 12 16 17 19 21 24 27 29 30 32 34 35 37 38 0
1 3 4 6 8 10 13 17 18 20 22 25 28 30 31 33 35 36 38 0
2 4 5 7 9 11 14 18 19 20 21 23 26 29 31 32 34 36 37 0
1 3 5 6 8 10 12 15 19 21 22 24 27 30 32 33 35 37 38 0
1 2 4 6 7 9 11 13 16 20 22 23 25 28 31 33 34 36 38 0
2 3 5 7 8 10 12 14 17 20 21 23 24 26 29 32 34 35 37 0
2 5 6 9 12 14 16 18 19 22 23 26 27 28 29 30 31 36 38 0
1 3 6 7 10 13 15 17 19 20 23 24 27 28 29 30 31 32 37 0
1 2 4 7 8 11 14 16 18 21 24 25 28 29 30 31 32 33 38 0
2 3 5 8 9 12 15 17 19 20 22 25 26 29 30 31 32 33 34 0
1 3 4 6 9 10 13 16 18 21 23 26 27 30 31 32 33 34 35 0
2 4 5 7 10 11 14 17 19 22 24 27 28 31 32 33 34 35 36 0
1 3 5 6 8 11 12 15 18 23 25 28 29 32 33 34 35 36 37 0
2 4 6 7 9 12 13 16 19 24 26 29 30 33 34 35 36 37 38 0
1 3 5 7 8 10 13 14 17 20 25 27 30 31 34 35 36 37 38 0
2 4 6 8 9 11 14 15 18 20 21 26 28 31 32 35 36 37 38 0
3 5 7 9 10 12 15 16 19 20 21 22 27 29 32 33 36 37 38 0
1 4 6 8 10 11 13 16 17 20 21 22 23 28 30 33 34 37 38 0
2 5 7 9 11 12 14 17 18 20 21 22 23 24 29 31 34 35 38 0
3 6 8 10 12 13 15 18 19 20 21 22 23 24 25 30 32 35 36 0
1 4 7 9 11 13 14 16 19 21 22 23 24 25 26 31 33 36 37 0
1 2 5 8 10 12 14 15 17 22 23 24 25 26 27 32 34 37 38 0
2 3 6 9 11 13 15 16 18 20 23 24 25 26 27 28 33 35 38 0
3 4 7 10 12 14 16 17 19 20 21 24 25 26 27 28 29 34 36 0
1 4 5 8 11 13 15 17 18 21 22 25 26 27 28 29 30 35 37 0
2 3 5 7 9 12 15 16 19 21 23 28 29 30 31 32 33 36 37 0
1 3 4 6 8 10 13 16 17 22 24 29 30 31 32 33 34 37 38 0
2 4 5 7 9 11 14 17 18 20 23 25 30 31 32 33 34 35 38 0
3 5 6 8 10 12 15 18 19 20 21 24 26 31 32 33 34 35 36 0
1 4 6 7 9 11 13 16 19 21 22 25 27 32 33 34 35 36 37 0
1 2 5 7 8 10 12 14 17 22 23 26 28 33 34 35 36 37 38 0
2 3 6 8 9 11 13 15 18 20 23 24 27 29 34 35 36 37 38 0
3 4 7 9 10 12 14 16 19 20 21 24 25 28 30 35 36 37 38 0
1 4 5 8 10 11 13 15 17 20 21 22 25 26 29 31 36 37 38 0
2 5 6 9 11 12 14 16 18 20 21 22 23 26 27 30 32 37 38 0
3 6 7 10 12 13 15 17 19 20 21 22 23 24 27 28 31 33 38 0
1 4 7 8 11 13 14 16 18 20 21 22 23 24 25 28 29 32 34 0
2 5 8 9 12 14 15 17 19 21 22 23 24 25 26 29 30 33 35 0
1 3 6 9 10 13 15 16 18 22 23 24 25 26 27 30 31 34 36 0
2 4 7 10 11 14 16 17 19 23 24 25 26 27 28 31 32 35 37 0
1 3 5 8 11 12 15 17 18 24 25 26 27 28 29 32 33 36 38 0
2 4 6 9 12 13 16 18 19 20 25 26 27 28 29 30 33 34 37 0
1 3 5 7 10 13 14 17 19 21 26 27 28 29 30 31 34 35 38 0
1 2 4 6 8 11 14 15 18 20 22 27 28 29 30 31 32 35 36 0
2 3 5 7 10 11 14 16 18 19 26 27 28 31 32 33 34 36 38 0
1 3 4 6 8 11 12 15 17 19 20 27 28 29 32 33 34 35 37 0
1 2 4 5 7 9 12 13 16 18 21 28 29 30 33 34 35 36 38 0
2 3 5 6 8 10 13 14 17 19 20 22 29 30 31 34 35 36 37 0
1 3 4 6 7 9 11 14 15 18 21 23 30 31 32 35 36 37 38 0
2 4 5 7 8 10 12 15 16 19 20 22 24 31 32 33 36 37 38 0
1 3 5 6 8 9 11 13 16 17 20 21 23 25 32 33 34 37 38 0
2 4 6 7 9 10 12 14 17 18 20 21 22 24 26 33 34 35 38 0
3 5 7 8 10 11 13 15 18 19 20 21 22 23 25 27 34 35 36 0
1 4 6 8 9 11 12 14 16 19 21 22 23 24 26 28 35 36 37 0
1 2 5 7 9 10 12 13 15 17 22 23 24 25 27 29 36 37 38 0
2 3 6 8 10 11 13 14 16 18 20 23 24 25 26 28 30 37 38 0
3 4 7 9 11 12 14 15 17 19 20 21 24 25 26 27 29 31 38 0
1 4 5 8 10 12 13 15 16 18 20 21 22 25 26 27 28 30 32 0
2 5 6 9 11 13 14 16 17 19 21 22 23 26 27 28 29 31 33 0
1 3 6 7 10 12 14 15 17 18 22 23 24 27 28 29 30 32 34 0
2 4 7 8 11 13 15 16 18 19 23 24 25 28 29 30 31 33 35 0
1 3 5 8 9 12 14 16 17 19 24 25 26 29 30 31 32 34 36 0
1 2 4 6 9 10 13 15 17 18 25 26 27 30 31 32 33 35 37 0
2 3 5 7 10 11 14 16 18 19 21 23 25 26 27 28 31 32 33 0
1 3 4 6 8 11 12 15 17 19 22 24 26 27 28 29 32 33 34 0
1 2 4 5 7 9 12 13 16 18 23 25 27 28 29 30 33 34 35 0
2 3 5 6 8 10 13 14 17 19 24 26 28 29 30 31 34 35 36 0
1 3 4 6 7 9 11 14 15 18 25 27 29 30 31 32 35 36 37 0
2 4 5 7 8 10 12 15 16 19 26 28 30 31 32 33 36 37 38 0
1 3 5 6 8 9 11 13 16 17 20 27 29 31 32 33 34 37 38 0
2 4 6 7 9 10 12 14 17 18 20 21 28 30 32 33 34 35 38 0
3 5 7 8 10 11 13 15 18 19 20 21 22 29 31 33 34 35 36 0
1 4 6 8 9 11 12 14 16 19 21 22 23 30 32 34 35 36 37 0
1 2 5 7 9 10 12 13 15 17 22 23 24 31 33 35 36 37 38 0
2 3 6 8 10 11 13 14 16 18 20 23 24 25 32 34 36 37 38 0
3 4 7 9 11 12 14 15 17 19 20 21 24 25 26 33 35 37 38 0
1 4 5 8 10 12 13 15 16 18 20 21 22 25 26 27 34 36 38 0
2 5 6 9 11 13 14 16 17 19 20 21 22 23 26 27 28 35 37 0
1 3 6 7 10 12 14 15 17 18 21 22 23 24 27 28 29 36 38 0
2 4 7 8 11 13 15 16 18 19 20 22 23 24 25 28 29 30 37 0
1 3 5 8 9 12 14 16 17 19 21 23 24 25 26 29 30 31 38 0
1 2 4 6 9 10 13 15 17 18 20 22 24 25 26 27 30 31 32 0
3 6 7 9 11 13 16 18 21 23 24 25 30 31 33 34 35 36 37 38 0
4 7 8 10 12 14 17 19 20 22 24 25 26 31 32 34 35 36 37 38 0
1 5 8 9 11 13 15 18 20 21 23 25 26 27 32 33 35 36 37 38 0
2 6 9 10 12 14 16 19 20 21 22 24 26 27 28 33 34 36 37 38 0
1 3 7 10 11 13 15 17 20 21 22 23 25 27 28 29 34 35 37 38 0
2 4 8 11 12 14 16 18 20 21 22 23 24 26 28 29 30 35 36 38 0
3 5 9 12 13 15 17 19 20 21 22 23 24 25 27 29 30 31 36 37 0
1 4 6 10 13 14 16 18 21 22 23 24 25 26 28 30 31 32 37 38 0
2 5 7 11 14 15 17 19 20 22 23 24 25 26 27 29 31 32 33 38 0
1 3 6 8 12 15 16 18 20 21 23 24 25 26 27 28 30 32 33 34 0
2 4 7 9 13 16 17 19 21 22 24 25 26 27 28 29 31 33 34 35 0
1 3 5 8 10 14 17 18 22 23 25 26 27 28 29 30 32 34 35 36 0
2 4 6 9 11 15 18 19 23 24 26 27 28 29 30 31 33 35 36 37 0
1 3 5 7 10 12 16 19 24 25 27 28 29 30 31 32 34 36 37 38 0
1 2 4 6 8 11 13 17 20 25 26 28 29 30 31 32 33 35 37 38 0
2 3 5 7 9 12 14 18 20 21 26 27 29 30 31 32 33 34 36 38 0
3 4 6 8 10 13 15 19 20 21 22 27 28 30 31 32 33 34 35 37 0
1 4 5 7 9 11 14 16 21 22 23 28 29 31 32 33 34 35 36 38 0
2 5 6 8 10 12 15 17 20 22 23 24 29 30 32 33 34 35 36 37 0
3 5 8 10 12 14 15 18 21 22 23 24 25 26 28 29 34 35 36 38 0
4 6 9 11 13 15 16 19 20 22 23 24 25 26 27 29 30 35 36 37 0
1 5 7 10 12 14 16 17 21 23 24 25 26 27 28 30 31 36 37 38 0
2 6 8 11 13 15 17 18 20 22 24 25 26 27 28 29 31 32 37 38 0
3 7 9 12 14 16 18 19 20 21 23 25 26 27 28 29 30 32 33 38 0
1 4 8 10 13 15 17 19 20 21 22 24 26 27 28 29 30 31 33 34 0
1 2 5 9 11 14 16 18 21 22 23 25 27 28 29 30 31 32 34 35 0
2 3 6 10 12 15 17 19 22 23 24 26 28 29 30 31 32 33 35 36 0
1 3 4 7 11 13 16 18 23 24 25 27 29 30 31 32 33 34 36 37 0
2 4 5 8 12 14 17 19 24 25 26 28 30 31 32 33 34 35 37 38 0
1 3 5 6 9 13 15 18 20 25 26 27 29 31 32 33 34 35 36 38 0
2 4 6 7 10 14 16 19 20 21 26 27 28 30 32 33 34 35 36 37 0
1 3 5 7 8 11 15 17 21 22 27 28 29 31 33 34 35 36 37 38 0
2 4 6 8 9 12 16 18 20 22 23 28 29 30 32 34 35 36 37 38 0
3 5 7 9 10 13 17 19 20 21 23 24 29 30 31 33 35 36 37 38 0
1 4 6 8 10 11 14 18 20 21 22 24 25 30 31 32 34 36 37 38 0
2 5 7 9 11 12 15 19 20 21 22 23 25 26 31 32 33 35 37 38 0
1 3 6 8 10 12 13 16 20 21 22 23 24 26 27 32 33 34 36 38 0
2 4 7 9 11 13 14 17 20 21 22 23 24 25 27 28 33 34 35 37 0
3 6 9 12 13 14 16 18 21 23 24 26 27 29 30 35 36 37 38 0
4 7 10 13 14 15 17 19 20 22 24 25 27 28 30 31 36 37 38 0
1 5 8 11 14 15 16 18 20 21 23 25 26 28 29 31 32 37 38 0
2 6 9 12 15 16 17 19 20 21 22 24 26 27 29 30 32 33 38 0
1 3 7 10 13 16 17 18 20 21 22 23 25 27 28 30 31 33 34 0
2 4 8 11 14 17 18 19 21 22 23 24 26 28 29 31 32 34 35 0
1 3 5 9 12 15 18 19 22 23 24 25 27 29 30 32 33 35 36 0
1 2 4 6 10 13 16 19 23 24 25 26 28 30 31 33 34 36 37 0
1 2 3 5 7 11 14 17 24 25 26 27 29 31 32 34 35 37 38 0
2 3 4 6 8 12 15 18 20 25 26 27 28 30 32 33 35 36 38 0
3 4 5 7 9 13 16 19 20 21 26 27 28 29 31 33 34 36 37 0
1 4 5 6 8 10 14 17 21 22 27 28 29 30 32 34 35 37 38 0
2 5 6 7 9 11 15 18 20 22 23 28 29 30 31 33 35 36 38 0
3 6 7 8 10 12 16 19 20 21 23 24 29 30 31 32 34 36 37 0
1 4 7 8 9 11 13 17 21 22 24 25 30 31 32 33 35 37 38 0
2 5 8 9 10 12 14 18 20 22 23 25 26 31 32 33 34 36 38 0
3 6 9 10 11 13 15 19 20 21 23 24 26 27 32 33 34 35 37 0
1 4 7 10 11 12 14 16 21 22 24 25 27 28 33 34 35 36 38 0
2 5 8 11 12 13 15 17 20 22 23 25 26 28 29 34 35 36 37 0
3 5 7 8 9 12 15 18 21 22 23 24 29 30 32 33 35 36 38 0
4 6 8 9 10 13 16 19 20 22 23 24 25 30 31 33 34 36 37 0
1 5 7 9 10 11 14 17 21 23 24 25 26 31 32 34 35 37 38 0
2 6 8 10 11 12 15 18 20 22 24 25 26 27 32 33 35 36 38 0
3 7 9 11 12 13 16 19 20 21 23 25 26 27 28 33 34 36 37 0
1 4 8 10 12 13 14 17 21 22 24 26 27 28 29 34 35 37 38 0
2 5 9 11 13 14 15 18 20 22 23 25 27 28 29 30 35 36 38 0
3 6 10 12 14 15 16 19 20 21 23 24 26 28 29 30 31 36 37 0
1 4 7 11 13 15 16 17 21 22 24 25 27 29 30 31 32 37 38 0
2 5 8 12 14 16 17 18 20 22 23 25 26 28 30 31 32 33 38 0
3 6 9 13 15 17 18 19 20 21 23 24 26 27 29 31 32 33 34 0
1 4 7 10 14 16 18 19 21 22 24 25 27 28 30 32 33 34 35 0
1 2 5 8 11 15 17 19 22 23 25 26 28 29 31 33 34 35 36 0
1 2 3 6 9 12 16 18 23 24 26 27 29 30 32 34 35 36 37 0
2 3 4 7 10 13 17 19 24 25 27 28 30 31 33 35 36 37 38 0
1 3 4 5 8 11 14 18 20 25 26 28 29 31 32 34 36 37 38 0
2 4 5 6 9 12 15 19 20 21 26 27 29 30 32 33 35 37 38 0
1 3 5 6 7 10 13 16 20 21 22 27 28 30 31 33 34 36 38 0
2 4 6 7 8 11 14 17 20 21 22 23 28 29 31 32 34 35 37 0
3 5 7 8 10 13 15 18 21 24 26 27 29 30 31 32 33 35 36 38 0
4 6 8 9 11 14 16 19 20 22 25 27 28 30 31 32 33 34 36 37 0
1 5 7 9 10 12 15 17 21 23 26 28 29 31 32 33 34 35 37 38 0
2 6 8 10 11 13 16 18 20 22 24 27 29 30 32 33 34 35 36 38 0
3 7 9 11 12 14 17 19 20 21 23 25 28 30 31 33 34 35 36 37 0
1 4 8 10 12 13 15 18 21 22 24 26 29 31 32 34 35 36 37 38 0
2 5 9 11 13 14 16 19 20 22 23 25 27 30 32 33 35 36 37 38 0
1 3 6 10 12 14 15 17 20 21 23 24 26 28 31 33 34 36 37 38 0
2 4 7 11 13 15 16 18 20 21 22 24 25 27 29 32 34 35 37 38 0
3 5 8 12 14 16 17 19 20 21 22 23 25 26 28 30 33 35 36 38 0
1 4 6 9 13 15 17 18 20 21 22 23 24 26 27 29 31 34 36 37 0
2 5 7 10 14 16 18 19 21 22 23 24 25 27 28 30 32 35 37 38 0
1 3 6 8 11 15 17 19 20 22 23 24 25 26 28 29 31 33 36 38 0
1 2 4 7 9 12 16 18 20 21 23 24 25 26 27 29 30 32 34 37 0
2 3 5 8 10 13 17 19 21 22 24 25 26 27 28 30 31 33 35 38 0
1 3 4 6 9 11 14 18 20 22 23 25 26 27 28 29 31 32 34 36 0
2 4 5 7 10 12 15 19 21 23 24 26 27 28 29 30 32 33 35 37 0
1 3 5 6 8 11 13 16 22 24 25 27 28 29 30 31 33 34 36 38 0
2 4 6 7 9 12 14 17 20 23 25 26 28 29 30 31 32 34 35 37 0
3 6 8 11 13 14 16 18 21 23 24 26 27 28 29 30 32 33 35 38 0
4 7 9 12 14 15 17 19 20 22 24 25 27 28 29 30 31 33 34 36 0
1 5 8 10 13 15 16 18 21 23 25 26 28 29 30 31 32 34 35 37 0
2 6 9 11 14 16 17 19 22 24 26 27 29 30 31 32 33 35 36 38 0
1 3 7 10 12 15 17 18 20 23 25 27 28 30 31 32 33 34 36 37 0
2 4 8 11 13 16 18 19 21 24 26 28 29 31 32 33 34 35 37 38 0
1 3 5 9 12 14 17 19 20 22 25 27 29 30 32 33 34 35 36 38 0
1 2 4 6 10 13 15 18 20 21 23 26 28 30 31 33 34 35 36 37 0
2 3 5 7 11 14 16 19 21 22 24 27 29 31 32 34 35 36 37 38 0
1 3 4 6 8 12 15 17 20 22 23 25 28 30 32 33 35 36 37 38 0
2 4 5 7 9 13 16 18 20 21 23 24 26 29 31 33 34 36 37 38 0
3 5 6 8 10 14 17 19 20 21 22 24 25 27 30 32 34 35 37 38 0
1 4 6 7 9 11 15 18 20 21 22 23 25 26 28 31 33 35 36 38 0
2 5 7 8 10 12 16 19 20 21 22 23 24 26 27 29 32 34 36 37 0
1 3 6 8 9 11 13 17 21 22 23 24 25 27 28 30 33 35 37 38 0
2 4 7 9 10 12 14 18 20 22 23 24 25 26 28 29 31 34 36 38 0
3 5 8 10 11 13 15 19 20 21 23 24 25 26 27 29 30 32 35 37 0
1 4 6 9 11 12 14 16 21 22 24 25 26 27 28 30 31 33 36 38 0
2 5 7 10 12 13 15 17 20 22 23 25 26 27 28 29 31 32 34 37 0
3 6 8 10 13 14 16 18 21 22 23 24 30 31 32 33 35 38 0
4 7 9 11 14 15 17 19 20 22 23 24 25 31 32 33 34 36 0
1 5 8 10 12 15 16 18 21 23 24 25 26 32 33 34 35 37 0
2 6 9 11 13 16 17 19 22 24 25 26 27 33 34 35 36 38 0
1 3 7 10 12 14 17 18 20 23 25 26 27 28 34 35 36 37 0
2 4 8 11 13 15 18 19 21 24 26 27 28 29 35 36 37 38 0
1 3 5 9 12 14 16 19 20 22 25 27 28 29 30 36 37 38 0
1 2 4 6 10 13 15 17 20 21 23 26 28 29 30 31 37 38 0
2 3 5 7 11 14 16 18 20 21 22 24 27 29 30 31 32 38 0
3 4 6 8 12 15 17 19 20 21 22 23 25 28 30 31 32 33 0
1 4 5 7 9 13 16 18 21 22 23 24 26 29 31 32 33 34 0
2 5 6 8 10 14 17 19 22 23 24 25 27 30 32 33 34 35 0
1 3 6 7 9 11 15 18 23 24 25 26 28 31 33 34 35 36 0
2 4 7 8 10 12 16 19 24 25 26 27 29 32 34 35 36 37 0
1 3 5 8 9 11 13 17 25 26 27 28 30 33 35 36 37 38 0
2 4 6 9 10 12 14 18 20 26 27 28 29 31 34 36 37 38 0
3 5 7 10 11 13 15 19 20 21 27 28 29 30 32 35 37 38 0
1 4 6 8 11 12 14 16 20 21 22 28 29 30 31 33 36 38 0
2 5 7 9 12 13 15 17 20 21 22 23 29 30 31 32 34 37 0
3 5 7 8 11 13 15 18 21 24 26 27 28 29 35 36 37 38 0
4 6 8 9 12 14 16 19 20 22 25 27 28 29 30 36 37 38 0
1 5 7 9 10 13 15 17 20 21 23 26 28 29 30 31 37 38 0
2 6 8 10 11 14 16 18 20 21 22 24 27 29 30 31 32 38 0
3 7 9 11 12 15 17 19 20 21 22 23 25 28 30 31 32 33 0
1 4 8 10 12 13 16 18 21 22 23 24 26 29 31 32 33 34 0
2 5 9 11 13 14 17 19 22 23 24 25 27 30 32 33 34 35 0
1 3 6 10 12 14 15 18 23 24 25 26 28 31 33 34 35 36 0
2 4 7 11 13 15 16 19 24 25 26 27 29 32 34 35 36 37 0
1 3 5 8 12 14 16 17 25 26 27 28 30 33 35 36 37 38 0
2 4 6 9 13 15 17 18 20 26 27 28 29 31 34 36 37 38 0
3 5 7 10 14 16 18 19 20 21 27 28 29 30 32 35 37 38 0
1 4 6 8 11 15 17 19 20 21 22 28 29 30 31 33 36 38 0
1 2 5 7 9 12 16 18 20 21 22 23 29 30 31 32 34 37 0
2 3 6 8 10 13 17 19 21 22 23 24 30 31 32 33 35 38 0
1 3 4 7 9 11 14 18 20 22 23 24 25 31 32 33 34 36 0
2 4 5 8 10 12 15 19 21 23 24 25 26 32 33 34 35 37 0
1 3 5 6 9 11 13 16 22 24 25 26 27 33 34 35 36 38 0
2 4 6 7 10 12 14 17 20 23 25 26 27 28 34 35 36 37 0
