p cnf 179 1571
-1 29 0
-29 30 0
-2 -29 31 0
-31 32 0
-3 -31 33 0
-33 34 0
-4 -33 35 0
-35 36 0
-5 -35 37 0
-37 38 0
-6 -37 39 0
-39 40 0
-7 -39 41 0
-41 42 0
-8 -41 0
-2 30 0
-30 43 0
-3 -30 32 0
-32 44 0
-4 -32 34 0
-34 45 0
-5 -34 36 0
-36 46 0
-6 -36 38 0
-38 47 0
-7 -38 40 0
-40 48 0
-8 -40 42 0
-42 49 0
-9 -42 0
-3 43 0
-43 50 0
-4 -43 44 0
-44 51 0
-5 -44 45 0
-45 52 0
-6 -45 46 0
-46 53 0
-7 -46 47 0
-47 54 0
-8 -47 48 0
-48 55 0
-9 -48 49 0
-49 56 0
-10 -49 0
-4 50 0
-50 57 0
-5 -50 51 0
-51 58 0
-6 -51 52 0
-52 59 0
-7 -52 53 0
-53 60 0
-8 -53 54 0
-54 61 0
-9 -54 55 0
-55 62 0
-10 -55 56 0
-56 63 0
-11 -56 0
-5 57 0
-57 64 0
-6 -57 58 0
-58 65 0
-7 -58 59 0
-59 66 0
-8 -59 60 0
-60 67 0
-9 -60 61 0
-61 68 0
-10 -61 62 0
-62 69 0
-11 -62 63 0
-63 70 0
-12 -63 0
-6 64 0
-64 71 0
-7 -64 65 0
-65 72 0
-8 -65 66 0
-66 73 0
-9 -66 67 0
-67 74 0
-10 -67 68 0
-68 75 0
-11 -68 69 0
-69 76 0
-12 -69 70 0
-70 77 0
-13 -70 0
-7 71 0
-71 78 0
-8 -71 72 0
-72 79 0
-9 -72 73 0
-73 80 0
-10 -73 74 0
-74 81 0
-11 -74 75 0
-75 82 0
-12 -75 76 0
-76 83 0
-13 -76 77 0
-77 84 0
-14 -77 0
-8 78 0
-78 85 0
-9 -78 79 0
-79 86 0
-10 -79 80 0
-80 87 0
-11 -80 81 0
-81 88 0
-12 -81 82 0
-82 89 0
-13 -82 83 0
-83 90 0
-14 -83 84 0
-84 91 0
-15 -84 0
-9 85 0
-85 92 0
-10 -85 86 0
-86 93 0
-11 -86 87 0
-87 94 0
-12 -87 88 0
-88 95 0
-13 -88 89 0
-89 96 0
-14 -89 90 0
-90 97 0
-15 -90 91 0
-91 98 0
-16 -91 0
-10 92 0
-92 99 0
-11 -92 93 0
-93 100 0
-12 -93 94 0
-94 101 0
-13 -94 95 0
-95 102 0
-14 -95 96 0
-96 103 0
-15 -96 97 0
-97 104 0
-16 -97 98 0
-98 105 0
-17 -98 0
-11 99 0
-99 106 0
-12 -99 100 0
-100 107 0
-13 -100 101 0
-101 108 0
-14 -101 102 0
-102 109 0
-15 -102 103 0
-103 110 0
-16 -103 104 0
-104 111 0
-17 -104 105 0
-105 112 0
-18 -105 0
-12 106 0
-106 113 0
-13 -106 107 0
-107 114 0
-14 -107 108 0
-108 115 0
-15 -108 109 0
-109 116 0
-16 -109 110 0
-110 117 0
-17 -110 111 0
-111 118 0
-18 -111 112 0
-112 119 0
-19 -112 0
-13 113 0
-113 120 0
-14 -113 114 0
-114 121 0
-15 -114 115 0
-115 122 0
-16 -115 116 0
-116 123 0
-17 -116 117 0
-117 124 0
-18 -117 118 0
-118 125 0
-19 -118 119 0
-119 126 0
-20 -119 0
-14 120 0
-120 127 0
-15 -120 121 0
-121 128 0
-16 -121 122 0
-122 129 0
-17 -122 123 0
-123 130 0
-18 -123 124 0
-124 131 0
-19 -124 125 0
-125 132 0
-20 -125 126 0
-126 133 0
-21 -126 0
-15 127 0
-127 134 0
-16 -127 128 0
-128 135 0
-17 -128 129 0
-129 136 0
-18 -129 130 0
-130 137 0
-19 -130 131 0
-131 138 0
-20 -131 132 0
-132 139 0
-21 -132 133 0
-133 140 0
-22 -133 0
-16 134 0
-134 141 0
-17 -134 135 0
-135 142 0
-18 -135 136 0
-136 143 0
-19 -136 137 0
-137 144 0
-20 -137 138 0
-138 145 0
-21 -138 139 0
-139 146 0
-22 -139 140 0
-140 147 0
-23 -140 0
-17 141 0
-141 148 0
-18 -141 142 0
-142 149 0
-19 -142 143 0
-143 150 0
-20 -143 144 0
-144 151 0
-21 -144 145 0
-145 152 0
-22 -145 146 0
-146 153 0
-23 -146 147 0
-147 154 0
-24 -147 0
-18 148 0
-148 155 0
-19 -148 149 0
-149 156 0
-20 -149 150 0
-150 157 0
-21 -150 151 0
-151 158 0
-22 -151 152 0
-152 159 0
-23 -152 153 0
-153 160 0
-24 -153 154 0
-154 161 0
-25 -154 0
-19 155 0
-155 162 0
-20 -155 156 0
-156 163 0
-21 -156 157 0
-157 164 0
-22 -157 158 0
-158 165 0
-23 -158 159 0
-159 166 0
-24 -159 160 0
-160 167 0
-25 -160 161 0
-161 168 0
-26 -161 0
-20 162 0
-162 169 0
-21 -162 163 0
-163 170 0
-22 -163 164 0
-164 171 0
-23 -164 165 0
-165 172 0
-24 -165 166 0
-166 173 0
-25 -166 167 0
-167 174 0
-26 -167 168 0
-168 175 0
-27 -168 0
-21 169 0
-22 -169 170 0
-23 -170 171 0
-24 -171 172 0
-25 -172 173 0
-26 -173 174 0
-27 -174 175 0
-28 -175 0
-176 1 0
-176 2 0
-176 14 0
-176 -15 0
-177 1 0
-177 14 0
-177 15 0
-177 -2 0
-178 25 0
-178 19 0
-178 15 0
-178 -1 0
-179 1 0
-179 25 0
-179 15 0
-179 -19 0
176 177 178 179 0
2 5 8 11 14 17 18 20 21 23 24 26 27 0
1 3 6 9 12 18 19 21 22 24 25 27 28 0
2 4 7 10 13 15 19 20 22 23 25 26 28 0
3 5 8 11 14 15 16 20 21 23 24 26 27 0
1 4 6 9 12 16 17 21 22 24 25 27 28 0
2 5 7 10 13 15 17 18 22 23 25 26 28 0
3 6 8 11 14 15 16 18 19 23 24 26 27 0
1 4 7 9 12 16 17 19 20 24 25 27 28 0
2 5 8 10 13 15 17 18 20 21 25 26 28 0
3 6 9 11 14 15 16 18 19 21 22 26 27 0
1 4 7 10 12 16 17 19 20 22 23 27 28 0
2 5 8 11 13 15 17 18 20 21 23 24 28 0
3 6 9 12 14 15 16 18 19 21 22 24 25 0
1 4 7 10 13 16 17 19 20 22 23 25 26 0
2 5 8 11 13 14 16 17 18 20 21 22 23 24 0
1 3 6 9 12 14 17 18 19 21 22 23 24 25 0
1 2 4 7 10 13 18 19 20 22 23 24 25 26 0
2 3 5 8 11 14 19 20 21 23 24 25 26 27 0
1 3 4 6 9 12 20 21 22 24 25 26 27 28 0
2 4 5 7 10 13 15 21 22 23 25 26 27 28 0
3 5 6 8 11 14 15 16 22 23 24 26 27 28 0
1 4 6 7 9 12 15 16 17 23 24 25 27 28 0
2 5 7 8 10 13 15 16 17 18 24 25 26 28 0
3 6 8 9 11 14 15 16 17 18 19 25 26 27 0
1 4 7 9 10 12 16 17 18 19 20 26 27 28 0
2 5 8 10 11 13 15 17 18 19 20 21 27 28 0
3 6 9 11 12 14 15 16 18 19 20 21 22 28 0
1 4 7 10 12 13 15 16 17 19 20 21 22 23 0
2 3 5 8 11 14 20 21 22 23 24 26 27 28 0
1 3 4 6 9 12 15 21 22 23 24 25 27 28 0
2 4 5 7 10 13 15 16 22 23 24 25 26 28 0
3 5 6 8 11 14 15 16 17 23 24 25 26 27 0
1 4 6 7 9 12 16 17 18 24 25 26 27 28 0
2 5 7 8 10 13 15 17 18 19 25 26 27 28 0
3 6 8 9 11 14 15 16 18 19 20 26 27 28 0
1 4 7 9 10 12 15 16 17 19 20 21 27 28 0
2 5 8 10 11 13 15 16 17 18 20 21 22 28 0
3 6 9 11 12 14 15 16 17 18 19 21 22 23 0
1 4 7 10 12 13 16 17 18 19 20 22 23 24 0
2 5 8 11 13 14 17 18 19 20 21 23 24 25 0
1 3 6 9 12 14 18 19 20 21 22 24 25 26 0
1 2 4 7 10 13 19 20 21 22 23 25 26 27 0
2 4 6 9 11 13 14 16 21 22 24 27 0
1 3 5 7 10 12 14 17 22 23 25 28 0
1 2 4 6 8 11 13 15 18 23 24 26 0
2 3 5 7 9 12 14 16 19 24 25 27 0
1 3 4 6 8 10 13 17 20 25 26 28 0
2 4 5 7 9 11 14 15 18 21 26 27 0
1 3 5 6 8 10 12 16 19 22 27 28 0
2 4 6 7 9 11 13 15 17 20 23 28 0
3 5 7 8 10 12 14 15 16 18 21 24 0
1 4 6 8 9 11 13 16 17 19 22 25 0
2 5 7 9 10 12 14 17 18 20 23 26 0
1 3 6 8 10 11 13 18 19 21 24 27 0
2 4 7 9 11 12 14 19 20 22 25 28 0
1 3 5 8 10 12 13 15 20 21 23 26 0
2 3 5 7 10 12 14 17 20 22 23 28 0
1 3 4 6 8 11 13 15 18 21 23 24 0
2 4 5 7 9 12 14 16 19 22 24 25 0
1 3 5 6 8 10 13 17 20 23 25 26 0
2 4 6 7 9 11 14 18 21 24 26 27 0
1 3 5 7 8 10 12 19 22 25 27 28 0
2 4 6 8 9 11 13 15 20 23 26 28 0
3 5 7 9 10 12 14 15 16 21 24 27 0
1 4 6 8 10 11 13 16 17 22 25 28 0
2 5 7 9 11 12 14 15 17 18 23 26 0
1 3 6 8 10 12 13 16 18 19 24 27 0
2 4 7 9 11 13 14 17 19 20 25 28 0
1 3 5 8 10 12 14 15 18 20 21 26 0
1 2 4 6 9 11 13 16 19 21 22 27 0
2 4 6 9 11 13 14 16 20 21 22 27 28 0
1 3 5 7 10 12 14 15 17 21 22 23 28 0
1 2 4 6 8 11 13 15 16 18 22 23 24 0
2 3 5 7 9 12 14 16 17 19 23 24 25 0
1 3 4 6 8 10 13 17 18 20 24 25 26 0
2 4 5 7 9 11 14 18 19 21 25 26 27 0
1 3 5 6 8 10 12 19 20 22 26 27 28 0
2 4 6 7 9 11 13 15 20 21 23 27 28 0
3 5 7 8 10 12 14 15 16 21 22 24 28 0
1 4 6 8 9 11 13 15 16 17 22 23 25 0
2 5 7 9 10 12 14 16 17 18 23 24 26 0
1 3 6 8 10 11 13 17 18 19 24 25 27 0
2 4 7 9 11 12 14 18 19 20 25 26 28 0
1 3 5 8 10 12 13 15 19 20 21 26 27 0
2 3 5 7 10 12 14 16 17 22 23 24 28 0
1 3 4 6 8 11 13 15 17 18 23 24 25 0
2 4 5 7 9 12 14 16 18 19 24 25 26 0
1 3 5 6 8 10 13 17 19 20 25 26 27 0
2 4 6 7 9 11 14 18 20 21 26 27 28 0
1 3 5 7 8 10 12 15 19 21 22 27 28 0
2 4 6 8 9 11 13 15 16 20 22 23 28 0
3 5 7 9 10 12 14 15 16 17 21 23 24 0
1 4 6 8 10 11 13 16 17 18 22 24 25 0
2 5 7 9 11 12 14 17 18 19 23 25 26 0
1 3 6 8 10 12 13 18 19 20 24 26 27 0
2 4 7 9 11 13 14 19 20 21 25 27 28 0
1 3 5 8 10 12 14 15 20 21 22 26 28 0
1 2 4 6 9 11 13 15 16 21 22 23 27 0
2 4 6 8 10 11 13 14 17 20 21 26 28 0
1 3 5 7 9 11 12 14 15 18 21 22 27 0
1 2 4 6 8 10 12 13 16 19 22 23 28 0
2 3 5 7 9 11 13 14 15 17 20 23 24 0
1 3 4 6 8 10 12 14 16 18 21 24 25 0
1 2 4 5 7 9 11 13 17 19 22 25 26 0
2 3 5 6 8 10 12 14 18 20 23 26 27 0
1 3 4 6 7 9 11 13 19 21 24 27 28 0
2 4 5 7 8 10 12 14 15 20 22 25 28 0
1 3 5 6 8 9 11 13 15 16 21 23 26 0
2 4 6 7 9 10 12 14 16 17 22 24 27 0
1 3 5 7 8 10 11 13 17 18 23 25 28 0
2 4 6 8 9 11 12 14 15 18 19 24 26 0
1 3 5 7 9 10 12 13 16 19 20 25 27 0
2 3 5 6 8 10 12 14 16 18 23 24 27 0
1 3 4 6 7 9 11 13 17 19 24 25 28 0
2 4 5 7 8 10 12 14 15 18 20 25 26 0
1 3 5 6 8 9 11 13 16 19 21 26 27 0
2 4 6 7 9 10 12 14 17 20 22 27 28 0
1 3 5 7 8 10 11 13 15 18 21 23 28 0
2 4 6 8 9 11 12 14 15 16 19 22 24 0
1 3 5 7 9 10 12 13 16 17 20 23 25 0
2 4 6 8 10 11 13 14 17 18 21 24 26 0
1 3 5 7 9 11 12 14 18 19 22 25 27 0
1 2 4 6 8 10 12 13 19 20 23 26 28 0
2 3 5 7 9 11 13 14 15 20 21 24 27 0
1 3 4 6 8 10 12 14 16 21 22 25 28 0
1 2 4 5 7 9 11 13 15 17 22 23 26 0
2 4 6 8 10 11 13 14 16 17 21 22 28 0
1 3 5 7 9 11 12 14 15 17 18 22 23 0
1 2 4 6 8 10 12 13 16 18 19 23 24 0
2 3 5 7 9 11 13 14 17 19 20 24 25 0
1 3 4 6 8 10 12 14 18 20 21 25 26 0
1 2 4 5 7 9 11 13 19 21 22 26 27 0
2 3 5 6 8 10 12 14 20 22 23 27 28 0
1 3 4 6 7 9 11 13 15 21 23 24 28 0
2 4 5 7 8 10 12 14 15 16 22 24 25 0
1 3 5 6 8 9 11 13 16 17 23 25 26 0
2 4 6 7 9 10 12 14 17 18 24 26 27 0
1 3 5 7 8 10 11 13 18 19 25 27 28 0
2 4 6 8 9 11 12 14 15 19 20 26 28 0
1 3 5 7 9 10 12 13 15 16 20 21 27 0
2 3 5 6 8 10 12 14 16 22 23 27 28 0
1 3 4 6 7 9 11 13 15 17 23 24 28 0
2 4 5 7 8 10 12 14 15 16 18 24 25 0
1 3 5 6 8 9 11 13 16 17 19 25 26 0
2 4 6 7 9 10 12 14 17 18 20 26 27 0
1 3 5 7 8 10 11 13 18 19 21 27 28 0
2 4 6 8 9 11 12 14 15 19 20 22 28 0
1 3 5 7 9 10 12 13 15 16 20 21 23 0
2 4 6 8 10 11 13 14 16 17 21 22 24 0
1 3 5 7 9 11 12 14 17 18 22 23 25 0
1 2 4 6 8 10 12 13 18 19 23 24 26 0
2 3 5 7 9 11 13 14 19 20 24 25 27 0
1 3 4 6 8 10 12 14 20 21 25 26 28 0
1 2 4 5 7 9 11 13 15 21 22 26 27 0
2 4 6 8 10 11 12 13 14 16 17 18 21 28 0
1 3 5 7 9 11 12 13 14 15 17 18 19 22 0
1 2 4 6 8 10 12 13 14 16 18 19 20 23 0
1 2 3 5 7 9 11 13 14 17 19 20 21 24 0
1 2 3 4 6 8 10 12 14 18 20 21 22 25 0
1 2 3 4 5 7 9 11 13 19 21 22 23 26 0
2 3 4 5 6 8 10 12 14 20 22 23 24 27 0
1 3 4 5 6 7 9 11 13 21 23 24 25 28 0
2 4 5 6 7 8 10 12 14 15 22 24 25 26 0
1 3 5 6 7 8 9 11 13 16 23 25 26 27 0
2 4 6 7 8 9 10 12 14 17 24 26 27 28 0
1 3 5 7 8 9 10 11 13 15 18 25 27 28 0
2 4 6 8 9 10 11 12 14 15 16 19 26 28 0
1 3 5 7 9 10 11 12 13 15 16 17 20 27 0
2 3 4 5 6 8 10 12 14 16 23 26 27 28 0
1 3 4 5 6 7 9 11 13 15 17 24 27 28 0
2 4 5 6 7 8 10 12 14 15 16 18 25 28 0
1 3 5 6 7 8 9 11 13 15 16 17 19 26 0
2 4 6 7 8 9 10 12 14 16 17 18 20 27 0
1 3 5 7 8 9 10 11 13 17 18 19 21 28 0
2 4 6 8 9 10 11 12 14 15 18 19 20 22 0
1 3 5 7 9 10 11 12 13 16 19 20 21 23 0
2 4 6 8 10 11 12 13 14 17 20 21 22 24 0
1 3 5 7 9 11 12 13 14 18 21 22 23 25 0
1 2 4 6 8 10 12 13 14 19 22 23 24 26 0
1 2 3 5 7 9 11 13 14 20 23 24 25 27 0
1 2 3 4 6 8 10 12 14 21 24 25 26 28 0
1 2 3 4 5 7 9 11 13 15 22 25 26 27 0
2 4 6 7 8 10 12 13 14 17 20 22 28 0
1 3 5 7 8 9 11 13 14 15 18 21 23 0
1 2 4 6 8 9 10 12 14 16 19 22 24 0
1 2 3 5 7 9 10 11 13 17 20 23 25 0
2 3 4 6 8 10 11 12 14 18 21 24 26 0
1 3 4 5 7 9 11 12 13 19 22 25 27 0
2 4 5 6 8 10 12 13 14 20 23 26 28 0
1 3 5 6 7 9 11 13 14 15 21 24 27 0
1 2 4 6 7 8 10 12 14 16 22 25 28 0
1 2 3 5 7 8 9 11 13 15 17 23 26 0
2 3 4 6 8 9 10 12 14 16 18 24 27 0
1 3 4 5 7 9 10 11 13 17 19 25 28 0
2 4 5 6 8 10 11 12 14 15 18 20 26 0
1 3 5 6 7 9 11 12 13 16 19 21 27 0
2 3 4 6 8 9 10 12 14 16 22 24 27 0
1 3 4 5 7 9 10 11 13 17 23 25 28 0
2 4 5 6 8 10 11 12 14 15 18 24 26 0
1 3 5 6 7 9 11 12 13 16 19 25 27 0
2 4 6 7 8 10 12 13 14 17 20 26 28 0
1 3 5 7 8 9 11 13 14 15 18 21 27 0
1 2 4 6 8 9 10 12 14 16 19 22 28 0
1 2 3 5 7 9 10 11 13 15 17 20 23 0
2 3 4 6 8 10 11 12 14 16 18 21 24 0
1 3 4 5 7 9 11 12 13 17 19 22 25 0
2 4 5 6 8 10 12 13 14 18 20 23 26 0
1 3 5 6 7 9 11 13 14 19 21 24 27 0
1 2 4 6 7 8 10 12 14 20 22 25 28 0
1 2 3 5 7 8 9 11 13 15 21 23 26 0
2 5 7 8 10 12 14 16 17 18 23 24 0
1 3 6 8 9 11 13 17 18 19 24 25 0
2 4 7 9 10 12 14 18 19 20 25 26 0
1 3 5 8 10 11 13 19 20 21 26 27 0
2 4 6 9 11 12 14 20 21 22 27 28 0
1 3 5 7 10 12 13 15 21 22 23 28 0
2 4 6 8 11 13 14 15 16 22 23 24 0
1 3 5 7 9 12 14 16 17 23 24 25 0
1 2 4 6 8 10 13 17 18 24 25 26 0
2 3 5 7 9 11 14 18 19 25 26 27 0
1 3 4 6 8 10 12 19 20 26 27 28 0
2 4 5 7 9 11 13 15 20 21 27 28 0
3 5 6 8 10 12 14 15 16 21 22 28 0
1 4 6 7 9 11 13 15 16 17 22 23 0
2 4 6 8 9 11 14 20 21 26 27 28 0
1 3 5 7 9 10 12 15 21 22 27 28 0
2 4 6 8 10 11 13 15 16 22 23 28 0
3 5 7 9 11 12 14 15 16 17 23 24 0
1 4 6 8 10 12 13 16 17 18 24 25 0
2 5 7 9 11 13 14 17 18 19 25 26 0
1 3 6 8 10 12 14 18 19 20 26 27 0
1 2 4 7 9 11 13 19 20 21 27 28 0
2 3 5 8 10 12 14 15 20 21 22 28 0
1 3 4 6 9 11 13 15 16 21 22 23 0
2 4 5 7 10 12 14 16 17 22 23 24 0
1 3 5 6 8 11 13 17 18 23 24 25 0
2 4 6 7 9 12 14 18 19 24 25 26 0
1 3 5 7 8 10 13 19 20 25 26 27 0
2 4 6 7 8 10 12 13 14 17 22 24 26 0
1 3 5 7 8 9 11 13 14 18 23 25 27 0
1 2 4 6 8 9 10 12 14 19 24 26 28 0
1 2 3 5 7 9 10 11 13 15 20 25 27 0
2 3 4 6 8 10 11 12 14 16 21 26 28 0
1 3 4 5 7 9 11 12 13 15 17 22 27 0
2 4 5 6 8 10 12 13 14 16 18 23 28 0
1 3 5 6 7 9 11 13 14 15 17 19 24 0
1 2 4 6 7 8 10 12 14 16 18 20 25 0
1 2 3 5 7 8 9 11 13 17 19 21 26 0
2 3 4 6 8 9 10 12 14 18 20 22 27 0
1 3 4 5 7 9 10 11 13 19 21 23 28 0
2 4 5 6 8 10 11 12 14 15 20 22 24 0
1 3 5 6 7 9 11 12 13 16 21 23 25 0
2 5 8 10 11 13 14 16 17 18 20 21 22 23 0
1 3 6 9 11 12 14 17 18 19 21 22 23 24 0
1 2 4 7 10 12 13 18 19 20 22 23 24 25 0
2 3 5 8 11 13 14 19 20 21 23 24 25 26 0
1 3 4 6 9 12 14 20 21 22 24 25 26 27 0
1 2 4 5 7 10 13 21 22 23 25 26 27 28 0
2 3 5 6 8 11 14 15 22 23 24 26 27 28 0
1 3 4 6 7 9 12 15 16 23 24 25 27 28 0
2 4 5 7 8 10 13 15 16 17 24 25 26 28 0
3 5 6 8 9 11 14 15 16 17 18 25 26 27 0
1 4 6 7 9 10 12 16 17 18 19 26 27 28 0
2 5 7 8 10 11 13 15 17 18 19 20 27 28 0
3 6 8 9 11 12 14 15 16 18 19 20 21 28 0
1 4 7 9 10 12 13 15 16 17 19 20 21 22 0
2 3 5 6 8 11 14 21 22 23 24 26 27 28 0
1 3 4 6 7 9 12 15 22 23 24 25 27 28 0
2 4 5 7 8 10 13 15 16 23 24 25 26 28 0
3 5 6 8 9 11 14 15 16 17 24 25 26 27 0
1 4 6 7 9 10 12 16 17 18 25 26 27 28 0
2 5 7 8 10 11 13 15 17 18 19 26 27 28 0
3 6 8 9 11 12 14 15 16 18 19 20 27 28 0
1 4 7 9 10 12 13 15 16 17 19 20 21 28 0
2 5 8 10 11 13 14 15 16 17 18 20 21 22 0
1 3 6 9 11 12 14 16 17 18 19 21 22 23 0
1 2 4 7 10 12 13 17 18 19 20 22 23 24 0
2 3 5 8 11 13 14 18 19 20 21 23 24 25 0
1 3 4 6 9 12 14 19 20 21 22 24 25 26 0
1 2 4 5 7 10 13 20 21 22 23 25 26 27 0
2 4 6 8 10 11 13 14 17 18 20 21 0
1 3 5 7 9 11 12 14 18 19 21 22 0
1 2 4 6 8 10 12 13 19 20 22 23 0
2 3 5 7 9 11 13 14 20 21 23 24 0
1 3 4 6 8 10 12 14 21 22 24 25 0
1 2 4 5 7 9 11 13 22 23 25 26 0
2 3 5 6 8 10 12 14 23 24 26 27 0
1 3 4 6 7 9 11 13 24 25 27 28 0
2 4 5 7 8 10 12 14 15 25 26 28 0
1 3 5 6 8 9 11 13 15 16 26 27 0
2 4 6 7 9 10 12 14 16 17 27 28 0
1 3 5 7 8 10 11 13 15 17 18 28 0
2 4 6 8 9 11 12 14 15 16 18 19 0
1 3 5 7 9 10 12 13 16 17 19 20 0
2 5 6 9 11 13 14 16 17 18 21 22 23 0
1 3 6 7 10 12 14 17 18 19 22 23 24 0
1 2 4 7 8 11 13 18 19 20 23 24 25 0
2 3 5 8 9 12 14 19 20 21 24 25 26 0
1 3 4 6 9 10 13 20 21 22 25 26 27 0
2 4 5 7 10 11 14 21 22 23 26 27 28 0
1 3 5 6 8 11 12 15 22 23 24 27 28 0
2 4 6 7 9 12 13 15 16 23 24 25 28 0
3 5 7 8 10 13 14 15 16 17 24 25 26 0
1 4 6 8 9 11 14 16 17 18 25 26 27 0
1 2 5 7 9 10 12 17 18 19 26 27 28 0
2 3 6 8 10 11 13 15 18 19 20 27 28 0
3 4 7 9 11 12 14 15 16 19 20 21 28 0
1 4 5 8 10 12 13 15 16 17 20 21 22 0
2 3 5 7 10 11 14 21 22 23 26 27 28 0
1 3 4 6 8 11 12 15 22 23 24 27 28 0
2 4 5 7 9 12 13 15 16 23 24 25 28 0
3 5 6 8 10 13 14 15 16 17 24 25 26 0
1 4 6 7 9 11 14 16 17 18 25 26 27 0
1 2 5 7 8 10 12 17 18 19 26 27 28 0
2 3 6 8 9 11 13 15 18 19 20 27 28 0
3 4 7 9 10 12 14 15 16 19 20 21 28 0
1 4 5 8 10 11 13 15 16 17 20 21 22 0
2 5 6 9 11 12 14 16 17 18 21 22 23 0
1 3 6 7 10 12 13 17 18 19 22 23 24 0
2 4 7 8 11 13 14 18 19 20 23 24 25 0
1 3 5 8 9 12 14 19 20 21 24 25 26 0
1 2 4 6 9 10 13 20 21 22 25 26 27 0
2 5 6 8 9 11 14 16 17 18 21 23 26 27 0
1 3 6 7 9 10 12 17 18 19 22 24 27 28 0
2 4 7 8 10 11 13 15 18 19 20 23 25 28 0
3 5 8 9 11 12 14 15 16 19 20 21 24 26 0
1 4 6 9 10 12 13 16 17 20 21 22 25 27 0
2 5 7 10 11 13 14 17 18 21 22 23 26 28 0
1 3 6 8 11 12 14 15 18 19 22 23 24 27 0
1 2 4 7 9 12 13 16 19 20 23 24 25 28 0
2 3 5 8 10 13 14 15 17 20 21 24 25 26 0
1 3 4 6 9 11 14 16 18 21 22 25 26 27 0
1 2 4 5 7 10 12 17 19 22 23 26 27 28 0
2 3 5 6 8 11 13 15 18 20 23 24 27 28 0
3 4 6 7 9 12 14 15 16 19 21 24 25 28 0
1 4 5 7 8 10 13 15 16 17 20 22 25 26 0
2 5 7 8 10 11 14 17 18 21 23 26 27 28 0
1 3 6 8 9 11 12 15 18 19 22 24 27 28 0
2 4 7 9 10 12 13 15 16 19 20 23 25 28 0
3 5 8 10 11 13 14 15 16 17 20 21 24 26 0
1 4 6 9 11 12 14 16 17 18 21 22 25 27 0
1 2 5 7 10 12 13 17 18 19 22 23 26 28 0
2 3 6 8 11 13 14 15 18 19 20 23 24 27 0
1 3 4 7 9 12 14 16 19 20 21 24 25 28 0
1 2 4 5 8 10 13 15 17 20 21 22 25 26 0
2 3 5 6 9 11 14 16 18 21 22 23 26 27 0
1 3 4 6 7 10 12 17 19 22 23 24 27 28 0
2 4 5 7 8 11 13 15 18 20 23 24 25 28 0
3 5 6 8 9 12 14 15 16 19 21 24 25 26 0
1 4 6 7 9 10 13 16 17 20 22 25 26 27 0
2 4 6 9 11 14 16 18 21 22 26 27 0
1 3 5 7 10 12 17 19 22 23 27 28 0
2 4 6 8 11 13 15 18 20 23 24 28 0
3 5 7 9 12 14 15 16 19 21 24 25 0
1 4 6 8 10 13 16 17 20 22 25 26 0
2 5 7 9 11 14 17 18 21 23 26 27 0
1 3 6 8 10 12 18 19 22 24 27 28 0
2 4 7 9 11 13 15 19 20 23 25 28 0
3 5 8 10 12 14 15 16 20 21 24 26 0
1 4 6 9 11 13 16 17 21 22 25 27 0
2 5 7 10 12 14 17 18 22 23 26 28 0
1 3 6 8 11 13 15 18 19 23 24 27 0
2 4 7 9 12 14 16 19 20 24 25 28 0
1 3 5 8 10 13 15 17 20 21 25 26 0
2 5 6 7 8 13 14 16 17 18 23 26 0
1 3 6 7 8 9 14 17 18 19 24 27 0
1 2 4 7 8 9 10 18 19 20 25 28 0
2 3 5 8 9 10 11 15 19 20 21 26 0
3 4 6 9 10 11 12 16 20 21 22 27 0
4 5 7 10 11 12 13 17 21 22 23 28 0
5 6 8 11 12 13 14 15 18 22 23 24 0
1 6 7 9 12 13 14 16 19 23 24 25 0
1 2 7 8 10 13 14 17 20 24 25 26 0
1 2 3 8 9 11 14 18 21 25 26 27 0
1 2 3 4 9 10 12 19 22 26 27 28 0
2 3 4 5 10 11 13 15 20 23 27 28 0
3 4 5 6 11 12 14 15 16 21 24 28 0
1 4 5 6 7 12 13 15 16 17 22 25 0
2 3 8 9 10 11 14 18 21 26 27 28 0
1 3 4 9 10 11 12 15 19 22 27 28 0
2 4 5 10 11 12 13 15 16 20 23 28 0
3 5 6 11 12 13 14 15 16 17 21 24 0
1 4 6 7 12 13 14 16 17 18 22 25 0
1 2 5 7 8 13 14 17 18 19 23 26 0
1 2 3 6 8 9 14 18 19 20 24 27 0
1 2 3 4 7 9 10 19 20 21 25 28 0
2 3 4 5 8 10 11 15 20 21 22 26 0
3 4 5 6 9 11 12 16 21 22 23 27 0
4 5 6 7 10 12 13 17 22 23 24 28 0
5 6 7 8 11 13 14 15 18 23 24 25 0
1 6 7 8 9 12 14 16 19 24 25 26 0
1 2 7 8 9 10 13 17 20 25 26 27 0
3 4 5 8 10 11 16 17 20 21 22 23 26 0
4 5 6 9 11 12 17 18 21 22 23 24 27 0
5 6 7 10 12 13 18 19 22 23 24 25 28 0
6 7 8 11 13 14 15 19 20 23 24 25 26 0
1 7 8 9 12 14 16 20 21 24 25 26 27 0
1 2 8 9 10 13 17 21 22 25 26 27 28 0
2 3 9 10 11 14 15 18 22 23 26 27 28 0
1 3 4 10 11 12 15 16 19 23 24 27 28 0
2 4 5 11 12 13 15 16 17 20 24 25 28 0
3 5 6 12 13 14 15 16 17 18 21 25 26 0
1 4 6 7 13 14 16 17 18 19 22 26 27 0
1 2 5 7 8 14 17 18 19 20 23 27 28 0
1 2 3 6 8 9 15 18 19 20 21 24 28 0
2 3 4 7 9 10 15 16 19 20 21 22 25 0
5 6 8 11 12 13 18 21 22 23 24 27 28 0
6 7 9 12 13 14 15 19 22 23 24 25 28 0
1 7 8 10 13 14 15 16 20 23 24 25 26 0
1 2 8 9 11 14 16 17 21 24 25 26 27 0
1 2 3 9 10 12 17 18 22 25 26 27 28 0
2 3 4 10 11 13 15 18 19 23 26 27 28 0
3 4 5 11 12 14 15 16 19 20 24 27 28 0
1 4 5 6 12 13 15 16 17 20 21 25 28 0
2 5 6 7 13 14 15 16 17 18 21 22 26 0
1 3 6 7 8 14 16 17 18 19 22 23 27 0
1 2 4 7 8 9 17 18 19 20 23 24 28 0
2 3 5 8 9 10 15 18 19 20 21 24 25 0
3 4 6 9 10 11 16 19 20 21 22 25 26 0
4 5 7 10 11 12 17 20 21 22 23 26 27 0
3 4 5 7 10 12 16 17 20 22 23 27 0
4 5 6 8 11 13 17 18 21 23 24 28 0
5 6 7 9 12 14 15 18 19 22 24 25 0
1 6 7 8 10 13 16 19 20 23 25 26 0
2 7 8 9 11 14 17 20 21 24 26 27 0
1 3 8 9 10 12 18 21 22 25 27 28 0
2 4 9 10 11 13 15 19 22 23 26 28 0
3 5 10 11 12 14 15 16 20 23 24 27 0
1 4 6 11 12 13 16 17 21 24 25 28 0
2 5 7 12 13 14 15 17 18 22 25 26 0
1 3 6 8 13 14 16 18 19 23 26 27 0
1 2 4 7 9 14 17 19 20 24 27 28 0
1 2 3 5 8 10 15 18 20 21 25 28 0
2 3 4 6 9 11 15 16 19 21 22 26 0
4 6 9 11 12 13 17 21 22 24 27 28 0
5 7 10 12 13 14 15 18 22 23 25 28 0
1 6 8 11 13 14 15 16 19 23 24 26 0
1 2 7 9 12 14 16 17 20 24 25 27 0
1 2 3 8 10 13 17 18 21 25 26 28 0
2 3 4 9 11 14 15 18 19 22 26 27 0
1 3 4 5 10 12 16 19 20 23 27 28 0
2 4 5 6 11 13 15 17 20 21 24 28 0
3 5 6 7 12 14 15 16 18 21 22 25 0
1 4 6 7 8 13 16 17 19 22 23 26 0
2 5 7 8 9 14 17 18 20 23 24 27 0
1 3 6 8 9 10 18 19 21 24 25 28 0
2 4 7 9 10 11 15 19 20 22 25 26 0
3 5 8 10 11 12 16 20 21 23 26 27 0
2 4 6 8 10 12 14 24 26 28 0
1 3 5 7 9 11 13 15 25 27 0
2 4 6 8 10 12 14 16 26 28 0
1 3 5 7 9 11 13 15 17 27 0
2 4 6 8 10 12 14 16 18 28 0
1 3 5 7 9 11 13 15 17 19 0
2 4 6 8 10 12 14 16 18 20 0
1 3 5 7 9 11 13 17 19 21 0
2 4 6 8 10 12 14 18 20 22 0
1 3 5 7 9 11 13 19 21 23 0
2 4 6 8 10 12 14 20 22 24 0
1 3 5 7 9 11 13 21 23 25 0
2 4 6 8 10 12 14 22 24 26 0
1 3 5 7 9 11 13 23 25 27 0
3 4 6 7 9 10 12 13 16 17 27 28 0
4 5 7 8 10 11 13 14 15 17 18 28 0
1 5 6 8 9 11 12 14 15 16 18 19 0
1 2 6 7 9 10 12 13 16 17 19 20 0
2 3 7 8 10 11 13 14 17 18 20 21 0
1 3 4 8 9 11 12 14 18 19 21 22 0
1 2 4 5 9 10 12 13 19 20 22 23 0
2 3 5 6 10 11 13 14 20 21 23 24 0
1 3 4 6 7 11 12 14 21 22 24 25 0
1 2 4 5 7 8 12 13 22 23 25 26 0
2 3 5 6 8 9 13 14 23 24 26 27 0
1 3 4 6 7 9 10 14 24 25 27 28 0
1 2 4 5 7 8 10 11 15 25 26 28 0
2 3 5 6 8 9 11 12 15 16 26 27 0
3 4 6 8 10 11 13 16 17 21 22 28 0
4 5 7 9 11 12 14 15 17 18 22 23 0
1 5 6 8 10 12 13 16 18 19 23 24 0
2 6 7 9 11 13 14 17 19 20 24 25 0
1 3 7 8 10 12 14 18 20 21 25 26 0
1 2 4 8 9 11 13 19 21 22 26 27 0
2 3 5 9 10 12 14 20 22 23 27 28 0
1 3 4 6 10 11 13 15 21 23 24 28 0
2 4 5 7 11 12 14 15 16 22 24 25 0
1 3 5 6 8 12 13 16 17 23 25 26 0
2 4 6 7 9 13 14 17 18 24 26 27 0
1 3 5 7 8 10 14 18 19 25 27 28 0
1 2 4 6 8 9 11 15 19 20 26 28 0
2 3 5 7 9 10 12 15 16 20 21 27 0
3 5 6 8 10 12 13 16 22 23 27 28 0
4 6 7 9 11 13 14 15 17 23 24 28 0
1 5 7 8 10 12 14 15 16 18 24 25 0
1 2 6 8 9 11 13 16 17 19 25 26 0
2 3 7 9 10 12 14 17 18 20 26 27 0
1 3 4 8 10 11 13 18 19 21 27 28 0
2 4 5 9 11 12 14 15 19 20 22 28 0
1 3 5 6 10 12 13 15 16 20 21 23 0
2 4 6 7 11 13 14 16 17 21 22 24 0
1 3 5 7 8 12 14 17 18 22 23 25 0
1 2 4 6 8 9 13 18 19 23 24 26 0
2 3 5 7 9 10 14 19 20 24 25 27 0
1 3 4 6 8 10 11 20 21 25 26 28 0
2 4 5 7 9 11 12 15 21 22 26 27 0
3 5 8 11 12 16 18 20 21 23 24 27 0
4 6 9 12 13 17 19 21 22 24 25 28 0
5 7 10 13 14 15 18 20 22 23 25 26 0
1 6 8 11 14 16 19 21 23 24 26 27 0
1 2 7 9 12 17 20 22 24 25 27 28 0
2 3 8 10 13 15 18 21 23 25 26 28 0
3 4 9 11 14 15 16 19 22 24 26 27 0
1 4 5 10 12 16 17 20 23 25 27 28 0
2 5 6 11 13 15 17 18 21 24 26 28 0
3 6 7 12 14 15 16 18 19 22 25 27 0
1 4 7 8 13 16 17 19 20 23 26 28 0
2 5 8 9 14 15 17 18 20 21 24 27 0
1 3 6 9 10 16 18 19 21 22 25 28 0
2 4 7 10 11 15 17 19 20 22 23 26 0
4 5 8 11 13 17 20 21 23 24 26 28 0
5 6 9 12 14 15 18 21 22 24 25 27 0
1 6 7 10 13 16 19 22 23 25 26 28 0
2 7 8 11 14 15 17 20 23 24 26 27 0
1 3 8 9 12 16 18 21 24 25 27 28 0
2 4 9 10 13 15 17 19 22 25 26 28 0
3 5 10 11 14 15 16 18 20 23 26 27 0
1 4 6 11 12 16 17 19 21 24 27 28 0
2 5 7 12 13 15 17 18 20 22 25 28 0
3 6 8 13 14 15 16 18 19 21 23 26 0
1 4 7 9 14 16 17 19 20 22 24 27 0
1 2 5 8 10 17 18 20 21 23 25 28 0
2 3 6 9 11 15 18 19 21 22 24 26 0
3 4 7 10 12 16 19 20 22 23 25 27 0
3 5 7 9 16 17 18 22 23 24 0
4 6 8 10 17 18 19 23 24 25 0
5 7 9 11 18 19 20 24 25 26 0
6 8 10 12 19 20 21 25 26 27 0
7 9 11 13 20 21 22 26 27 28 0
8 10 12 14 15 21 22 23 27 28 0
1 9 11 13 15 16 22 23 24 28 0
2 10 12 14 15 16 17 23 24 25 0
1 3 11 13 16 17 18 24 25 26 0
2 4 12 14 17 18 19 25 26 27 0
1 3 5 13 18 19 20 26 27 28 0
2 4 6 14 15 19 20 21 27 28 0
1 3 5 7 15 16 20 21 22 28 0
2 4 6 8 15 16 17 21 22 23 0
3 5 8 11 13 16 20 21 22 23 24 28 0
4 6 9 12 14 15 17 21 22 23 24 25 0
1 5 7 10 13 16 18 22 23 24 25 26 0
2 6 8 11 14 17 19 23 24 25 26 27 0
1 3 7 9 12 18 20 24 25 26 27 28 0
2 4 8 10 13 15 19 21 25 26 27 28 0
3 5 9 11 14 15 16 20 22 26 27 28 0
1 4 6 10 12 15 16 17 21 23 27 28 0
2 5 7 11 13 15 16 17 18 22 24 28 0
3 6 8 12 14 15 16 17 18 19 23 25 0
1 4 7 9 13 16 17 18 19 20 24 26 0
2 5 8 10 14 17 18 19 20 21 25 27 0
1 3 6 9 11 18 19 20 21 22 26 28 0
2 4 7 10 12 15 19 20 21 22 23 27 0
5 6 8 10 12 13 18 20 23 26 28 0
6 7 9 11 13 14 15 19 21 24 27 0
1 7 8 10 12 14 16 20 22 25 28 0
1 2 8 9 11 13 15 17 21 23 26 0
2 3 9 10 12 14 16 18 22 24 27 0
1 3 4 10 11 13 17 19 23 25 28 0
2 4 5 11 12 14 15 18 20 24 26 0
1 3 5 6 12 13 16 19 21 25 27 0
2 4 6 7 13 14 17 20 22 26 28 0
1 3 5 7 8 14 15 18 21 23 27 0
1 2 4 6 8 9 16 19 22 24 28 0
2 3 5 7 9 10 15 17 20 23 25 0
3 4 6 8 10 11 16 18 21 24 26 0
4 5 7 9 11 12 17 19 22 25 27 0
4 5 8 11 12 17 18 20 21 23 24 26 27 0
5 6 9 12 13 18 19 21 22 24 25 27 28 0
6 7 10 13 14 15 19 20 22 23 25 26 28 0
1 7 8 11 14 15 16 20 21 23 24 26 27 0
1 2 8 9 12 16 17 21 22 24 25 27 28 0
2 3 9 10 13 15 17 18 22 23 25 26 28 0
3 4 10 11 14 15 16 18 19 23 24 26 27 0
1 4 5 11 12 16 17 19 20 24 25 27 28 0
2 5 6 12 13 15 17 18 20 21 25 26 28 0
3 6 7 13 14 15 16 18 19 21 22 26 27 0
1 4 7 8 14 16 17 19 20 22 23 27 28 0
1 2 5 8 9 15 17 18 20 21 23 24 28 0
2 3 6 9 10 15 16 18 19 21 22 24 25 0
3 4 7 10 11 16 17 19 20 22 23 25 26 0
4 5 8 11 17 18 20 21 23 24 26 0
5 6 9 12 18 19 21 22 24 25 27 0
6 7 10 13 19 20 22 23 25 26 28 0
7 8 11 14 15 20 21 23 24 26 27 0
1 8 9 12 16 21 22 24 25 27 28 0
2 9 10 13 15 17 22 23 25 26 28 0
3 10 11 14 15 16 18 23 24 26 27 0
1 4 11 12 16 17 19 24 25 27 28 0
2 5 12 13 15 17 18 20 25 26 28 0
3 6 13 14 15 16 18 19 21 26 27 0
1 4 7 14 16 17 19 20 22 27 28 0
1 2 5 8 15 17 18 20 21 23 28 0
2 3 6 9 15 16 18 19 21 22 24 0
3 4 7 10 16 17 19 20 22 23 25 0
5 8 11 12 18 20 21 23 24 26 27 0
6 9 12 13 19 21 22 24 25 27 28 0
7 10 13 14 15 20 22 23 25 26 28 0
1 8 11 14 15 16 21 23 24 26 27 0
1 2 9 12 16 17 22 24 25 27 28 0
2 3 10 13 15 17 18 23 25 26 28 0
3 4 11 14 15 16 18 19 24 26 27 0
1 4 5 12 16 17 19 20 25 27 28 0
2 5 6 13 15 17 18 20 21 26 28 0
3 6 7 14 15 16 18 19 21 22 27 0
1 4 7 8 16 17 19 20 22 23 28 0
2 5 8 9 15 17 18 20 21 23 24 0
3 6 9 10 16 18 19 21 22 24 25 0
4 7 10 11 17 19 20 22 23 25 26 0
4 5 7 10 12 17 18 20 22 23 24 26 27 0
5 6 8 11 13 18 19 21 23 24 25 27 28 0
6 7 9 12 14 15 19 20 22 24 25 26 28 0
1 7 8 10 13 15 16 20 21 23 25 26 27 0
2 8 9 11 14 16 17 21 22 24 26 27 28 0
1 3 9 10 12 15 17 18 22 23 25 27 28 0
2 4 10 11 13 15 16 18 19 23 24 26 28 0
3 5 11 12 14 15 16 17 19 20 24 25 27 0
1 4 6 12 13 16 17 18 20 21 25 26 28 0
2 5 7 13 14 15 17 18 19 21 22 26 27 0
1 3 6 8 14 16 18 19 20 22 23 27 28 0
1 2 4 7 9 15 17 19 20 21 23 24 28 0
2 3 5 8 10 15 16 18 20 21 22 24 25 0
3 4 6 9 11 16 17 19 21 22 23 25 26 0
4 6 9 11 12 17 18 20 21 22 24 26 27 0
5 7 10 12 13 18 19 21 22 23 25 27 28 0
6 8 11 13 14 15 19 20 22 23 24 26 28 0
1 7 9 12 14 15 16 20 21 23 24 25 27 0
1 2 8 10 13 16 17 21 22 24 25 26 28 0
2 3 9 11 14 15 17 18 22 23 25 26 27 0
1 3 4 10 12 16 18 19 23 24 26 27 28 0
2 4 5 11 13 15 17 19 20 24 25 27 28 0
3 5 6 12 14 15 16 18 20 21 25 26 28 0
1 4 6 7 13 15 16 17 19 21 22 26 27 0
2 5 7 8 14 16 17 18 20 22 23 27 28 0
1 3 6 8 9 15 17 18 19 21 23 24 28 0
2 4 7 9 10 15 16 18 19 20 22 24 25 0
3 5 8 10 11 16 17 19 20 21 23 25 26 0
4 6 8 10 11 13 17 20 21 26 28 0
5 7 9 11 12 14 15 18 21 22 27 0
1 6 8 10 12 13 16 19 22 23 28 0
2 7 9 11 13 14 15 17 20 23 24 0
1 3 8 10 12 14 16 18 21 24 25 0
1 2 4 9 11 13 17 19 22 25 26 0
2 3 5 10 12 14 18 20 23 26 27 0
1 3 4 6 11 13 19 21 24 27 28 0
2 4 5 7 12 14 15 20 22 25 28 0
1 3 5 6 8 13 15 16 21 23 26 0
2 4 6 7 9 14 16 17 22 24 27 0
1 3 5 7 8 10 17 18 23 25 28 0
2 4 6 8 9 11 15 18 19 24 26 0
3 5 7 9 10 12 16 19 20 25 27 0
3 5 6 8 10 12 16 18 23 24 27 0
4 6 7 9 11 13 17 19 24 25 28 0
5 7 8 10 12 14 15 18 20 25 26 0
1 6 8 9 11 13 16 19 21 26 27 0
2 7 9 10 12 14 17 20 22 27 28 0
1 3 8 10 11 13 15 18 21 23 28 0
2 4 9 11 12 14 15 16 19 22 24 0
1 3 5 10 12 13 16 17 20 23 25 0
2 4 6 11 13 14 17 18 21 24 26 0
1 3 5 7 12 14 18 19 22 25 27 0
1 2 4 6 8 13 19 20 23 26 28 0
2 3 5 7 9 14 15 20 21 24 27 0
1 3 4 6 8 10 16 21 22 25 28 0
2 4 5 7 9 11 15 17 22 23 26 0
4 6 7 9 10 12 13 17 20 22 26 27 28 0
5 7 8 10 11 13 14 15 18 21 23 27 28 0
1 6 8 9 11 12 14 15 16 19 22 24 28 0
1 2 7 9 10 12 13 15 16 17 20 23 25 0
2 3 8 10 11 13 14 16 17 18 21 24 26 0
1 3 4 9 11 12 14 17 18 19 22 25 27 0
1 2 4 5 10 12 13 18 19 20 23 26 28 0
2 3 5 6 11 13 14 15 19 20 21 24 27 0
1 3 4 6 7 12 14 16 20 21 22 25 28 0
1 2 4 5 7 8 13 15 17 21 22 23 26 0
2 3 5 6 8 9 14 16 18 22 23 24 27 0
1 3 4 6 7 9 10 17 19 23 24 25 28 0
2 4 5 7 8 10 11 15 18 20 24 25 26 0
3 5 6 8 9 11 12 16 19 21 25 26 27 0
3 4 6 7 9 10 12 16 17 18 22 24 27 0
4 5 7 8 10 11 13 17 18 19 23 25 28 0
5 6 8 9 11 12 14 15 18 19 20 24 26 0
1 6 7 9 10 12 13 16 19 20 21 25 27 0
2 7 8 10 11 13 14 17 20 21 22 26 28 0
1 3 8 9 11 12 14 15 18 21 22 23 27 0
1 2 4 9 10 12 13 16 19 22 23 24 28 0
2 3 5 10 11 13 14 15 17 20 23 24 25 0
1 3 4 6 11 12 14 16 18 21 24 25 26 0
1 2 4 5 7 12 13 17 19 22 25 26 27 0
2 3 5 6 8 13 14 18 20 23 26 27 28 0
1 3 4 6 7 9 14 15 19 21 24 27 28 0
1 2 4 5 7 8 10 15 16 20 22 25 28 0
2 3 5 6 8 9 11 15 16 17 21 23 26 0
3 4 6 7 8 10 12 13 16 17 26 28 0
4 5 7 8 9 11 13 14 15 17 18 27 0
1 5 6 8 9 10 12 14 16 18 19 28 0
1 2 6 7 9 10 11 13 15 17 19 20 0
2 3 7 8 10 11 12 14 16 18 20 21 0
1 3 4 8 9 11 12 13 17 19 21 22 0
2 4 5 9 10 12 13 14 18 20 22 23 0
1 3 5 6 10 11 13 14 19 21 23 24 0
1 2 4 6 7 11 12 14 20 22 24 25 0
1 2 3 5 7 8 12 13 21 23 25 26 0
2 3 4 6 8 9 13 14 22 24 26 27 0
1 3 4 5 7 9 10 14 23 25 27 28 0
1 2 4 5 6 8 10 11 15 24 26 28 0
2 3 5 6 7 9 11 12 15 16 25 27 0
3 4 6 8 9 10 12 13 16 18 27 28 0
4 5 7 9 10 11 13 14 15 17 19 28 0
1 5 6 8 10 11 12 14 15 16 18 20 0
1 2 6 7 9 11 12 13 16 17 19 21 0
2 3 7 8 10 12 13 14 17 18 20 22 0
1 3 4 8 9 11 13 14 18 19 21 23 0
1 2 4 5 9 10 12 14 19 20 22 24 0
1 2 3 5 6 10 11 13 20 21 23 25 0
2 3 4 6 7 11 12 14 21 22 24 26 0
1 3 4 5 7 8 12 13 22 23 25 27 0
2 4 5 6 8 9 13 14 23 24 26 28 0
1 3 5 6 7 9 10 14 15 24 25 27 0
1 2 4 6 7 8 10 11 16 25 26 28 0
2 3 5 7 8 9 11 12 15 17 26 27 0
2 3 5 8 10 11 13 14 20 21 22 23 26 28 0
1 3 4 6 9 11 12 14 15 21 22 23 24 27 0
1 2 4 5 7 10 12 13 16 22 23 24 25 28 0
2 3 5 6 8 11 13 14 15 17 23 24 25 26 0
1 3 4 6 7 9 12 14 16 18 24 25 26 27 0
1 2 4 5 7 8 10 13 17 19 25 26 27 28 0
2 3 5 6 8 9 11 14 15 18 20 26 27 28 0
1 3 4 6 7 9 10 12 15 16 19 21 27 28 0
2 4 5 7 8 10 11 13 15 16 17 20 22 28 0
3 5 6 8 9 11 12 14 15 16 17 18 21 23 0
1 4 6 7 9 10 12 13 16 17 18 19 22 24 0
2 5 7 8 10 11 13 14 17 18 19 20 23 25 0
1 3 6 8 9 11 12 14 18 19 20 21 24 26 0
1 2 4 7 9 10 12 13 19 20 21 22 25 27 0
2 3 5 6 8 11 13 14 16 18 21 22 23 24 0
1 3 4 6 7 9 12 14 17 19 22 23 24 25 0
1 2 4 5 7 8 10 13 18 20 23 24 25 26 0
2 3 5 6 8 9 11 14 19 21 24 25 26 27 0
1 3 4 6 7 9 10 12 20 22 25 26 27 28 0
2 4 5 7 8 10 11 13 15 21 23 26 27 28 0
3 5 6 8 9 11 12 14 15 16 22 24 27 28 0
1 4 6 7 9 10 12 13 15 16 17 23 25 28 0
2 5 7 8 10 11 13 14 15 16 17 18 24 26 0
1 3 6 8 9 11 12 14 16 17 18 19 25 27 0
1 2 4 7 9 10 12 13 17 18 19 20 26 28 0
2 3 5 8 10 11 13 14 15 18 19 20 21 27 0
1 3 4 6 9 11 12 14 16 19 20 21 22 28 0
1 2 4 5 7 10 12 13 15 17 20 21 22 23 0
3 5 7 8 13 16 17 20 22 23 26 28 0
4 6 8 9 14 15 17 18 21 23 24 27 0
1 5 7 9 10 16 18 19 22 24 25 28 0
2 6 8 10 11 15 17 19 20 23 25 26 0
3 7 9 11 12 16 18 20 21 24 26 27 0
4 8 10 12 13 17 19 21 22 25 27 28 0
5 9 11 13 14 15 18 20 22 23 26 28 0
1 6 10 12 14 15 16 19 21 23 24 27 0
1 2 7 11 13 16 17 20 22 24 25 28 0
2 3 8 12 14 15 17 18 21 23 25 26 0
1 3 4 9 13 16 18 19 22 24 26 27 0
2 4 5 10 14 17 19 20 23 25 27 28 0
1 3 5 6 11 15 18 20 21 24 26 28 0
2 4 6 7 12 15 16 19 21 22 25 27 0
3 8 9 11 13 16 18 21 22 24 27 28 0
4 9 10 12 14 15 17 19 22 23 25 28 0
1 5 10 11 13 15 16 18 20 23 24 26 0
2 6 11 12 14 16 17 19 21 24 25 27 0
1 3 7 12 13 17 18 20 22 25 26 28 0
2 4 8 13 14 15 18 19 21 23 26 27 0
1 3 5 9 14 16 19 20 22 24 27 28 0
1 2 4 6 10 15 17 20 21 23 25 28 0
2 3 5 7 11 15 16 18 21 22 24 26 0
3 4 6 8 12 16 17 19 22 23 25 27 0
4 5 7 9 13 17 18 20 23 24 26 28 0
5 6 8 10 14 15 18 19 21 24 25 27 0
1 6 7 9 11 16 19 20 22 25 26 28 0
2 7 8 10 12 15 17 20 21 23 26 27 0
3 5 6 8 9 13 16 22 23 24 26 27 28 0
4 6 7 9 10 14 15 17 23 24 25 27 28 0
1 5 7 8 10 11 15 16 18 24 25 26 28 0
2 6 8 9 11 12 15 16 17 19 25 26 27 0
3 7 9 10 12 13 16 17 18 20 26 27 28 0
4 8 10 11 13 14 15 17 18 19 21 27 28 0
1 5 9 11 12 14 15 16 18 19 20 22 28 0
1 2 6 10 12 13 15 16 17 19 20 21 23 0
2 3 7 11 13 14 16 17 18 20 21 22 24 0
1 3 4 8 12 14 17 18 19 21 22 23 25 0
1 2 4 5 9 13 18 19 20 22 23 24 26 0
2 3 5 6 10 14 19 20 21 23 24 25 27 0
1 3 4 6 7 11 20 21 22 24 25 26 28 0
2 4 5 7 8 12 15 21 22 23 25 26 27 0
3 7 8 10 11 13 16 17 18 20 21 22 28 0
4 8 9 11 12 14 15 17 18 19 21 22 23 0
1 5 9 10 12 13 16 18 19 20 22 23 24 0
2 6 10 11 13 14 17 19 20 21 23 24 25 0
1 3 7 11 12 14 18 20 21 22 24 25 26 0
1 2 4 8 12 13 19 21 22 23 25 26 27 0
2 3 5 9 13 14 20 22 23 24 26 27 28 0
1 3 4 6 10 14 15 21 23 24 25 27 28 0
1 2 4 5 7 11 15 16 22 24 25 26 28 0
2 3 5 6 8 12 15 16 17 23 25 26 27 0
3 4 6 7 9 13 16 17 18 24 26 27 28 0
4 5 7 8 10 14 15 17 18 19 25 27 28 0
1 5 6 8 9 11 15 16 18 19 20 26 28 0
2 6 7 9 10 12 15 16 17 19 20 21 27 0
2 4 6 8 9 11 12 14 16 18 21 27 0
1 3 5 7 9 10 12 13 17 19 22 28 0
2 4 6 8 10 11 13 14 15 18 20 23 0
1 3 5 7 9 11 12 14 16 19 21 24 0
1 2 4 6 8 10 12 13 17 20 22 25 0
2 3 5 7 9 11 13 14 18 21 23 26 0
1 3 4 6 8 10 12 14 19 22 24 27 0
1 2 4 5 7 9 11 13 20 23 25 28 0
2 3 5 6 8 10 12 14 15 21 24 26 0
1 3 4 6 7 9 11 13 16 22 25 27 0
2 4 5 7 8 10 12 14 17 23 26 28 0
1 3 5 6 8 9 11 13 15 18 24 27 0
2 4 6 7 9 10 12 14 16 19 25 28 0
1 3 5 7 8 10 11 13 15 17 20 26 0
3 5 8 9 11 13 16 18 20 21 23 26 28 0
4 6 9 10 12 14 15 17 19 21 22 24 27 0
1 5 7 10 11 13 16 18 20 22 23 25 28 0
2 6 8 11 12 14 15 17 19 21 23 24 26 0
1 3 7 9 12 13 16 18 20 22 24 25 27 0
2 4 8 10 13 14 17 19 21 23 25 26 28 0
1 3 5 9 11 14 15 18 20 22 24 26 27 0
1 2 4 6 10 12 16 19 21 23 25 27 28 0
2 3 5 7 11 13 15 17 20 22 24 26 28 0
3 4 6 8 12 14 15 16 18 21 23 25 27 0
1 4 5 7 9 13 16 17 19 22 24 26 28 0
2 5 6 8 10 14 15 17 18 20 23 25 27 0
1 3 6 7 9 11 16 18 19 21 24 26 28 0
2 4 7 8 10 12 15 17 19 20 22 25 27 0
3 5 7 8 11 13 16 18 21 23 24 26 28 0
4 6 8 9 12 14 15 17 19 22 24 25 27 0
1 5 7 9 10 13 16 18 20 23 25 26 28 0
2 6 8 10 11 14 15 17 19 21 24 26 27 0
1 3 7 9 11 12 16 18 20 22 25 27 28 0
2 4 8 10 12 13 15 17 19 21 23 26 28 0
3 5 9 11 13 14 15 16 18 20 22 24 27 0
1 4 6 10 12 14 16 17 19 21 23 25 28 0
1 2 5 7 11 13 15 17 18 20 22 24 26 0
2 3 6 8 12 14 16 18 19 21 23 25 27 0
1 3 4 7 9 13 17 19 20 22 24 26 28 0
2 4 5 8 10 14 15 18 20 21 23 25 27 0
1 3 5 6 9 11 16 19 21 22 24 26 28 0
2 4 6 7 10 12 15 17 20 22 23 25 27 0
3 4 6 7 11 13 16 17 21 22 24 28 0
4 5 7 8 12 14 15 17 18 22 23 25 0
1 5 6 8 9 13 16 18 19 23 24 26 0
2 6 7 9 10 14 17 19 20 24 25 27 0
1 3 7 8 10 11 18 20 21 25 26 28 0
2 4 8 9 11 12 15 19 21 22 26 27 0
3 5 9 10 12 13 16 20 22 23 27 28 0
4 6 10 11 13 14 15 17 21 23 24 28 0
1 5 7 11 12 14 15 16 18 22 24 25 0
1 2 6 8 12 13 16 17 19 23 25 26 0
2 3 7 9 13 14 17 18 20 24 26 27 0
1 3 4 8 10 14 18 19 21 25 27 28 0
1 2 4 5 9 11 15 19 20 22 26 28 0
2 3 5 6 10 12 15 16 20 21 23 27 0
3 5 6 10 11 13 16 18 21 23 26 28 0
4 6 7 11 12 14 15 17 19 22 24 27 0
1 5 7 8 12 13 16 18 20 23 25 28 0
2 6 8 9 13 14 15 17 19 21 24 26 0
1 3 7 9 10 14 16 18 20 22 25 27 0
1 2 4 8 10 11 17 19 21 23 26 28 0
2 3 5 9 11 12 15 18 20 22 24 27 0
3 4 6 10 12 13 16 19 21 23 25 28 0
4 5 7 11 13 14 15 17 20 22 24 26 0
1 5 6 8 12 14 16 18 21 23 25 27 0
1 2 6 7 9 13 17 19 22 24 26 28 0
2 3 7 8 10 14 15 18 20 23 25 27 0
1 3 4 8 9 11 16 19 21 24 26 28 0
2 4 5 9 10 12 15 17 20 22 25 27 0
4 7 9 12 13 17 18 19 20 24 25 26 28 0
5 8 10 13 14 15 18 19 20 21 25 26 27 0
1 6 9 11 14 16 19 20 21 22 26 27 28 0
1 2 7 10 12 15 17 20 21 22 23 27 28 0
2 3 8 11 13 15 16 18 21 22 23 24 28 0
3 4 9 12 14 15 16 17 19 22 23 24 25 0
1 4 5 10 13 16 17 18 20 23 24 25 26 0
2 5 6 11 14 17 18 19 21 24 25 26 27 0
1 3 6 7 12 18 19 20 22 25 26 27 28 0
2 4 7 8 13 15 19 20 21 23 26 27 28 0
3 5 8 9 14 15 16 20 21 22 24 27 28 0
1 4 6 9 10 15 16 17 21 22 23 25 28 0
2 5 7 10 11 15 16 17 18 22 23 24 26 0
3 6 8 11 12 16 17 18 19 23 24 25 27 0
3 4 7 9 12 16 18 19 20 24 25 26 27 0
4 5 8 10 13 17 19 20 21 25 26 27 28 0
5 6 9 11 14 15 18 20 21 22 26 27 28 0
1 6 7 10 12 15 16 19 21 22 23 27 28 0
2 7 8 11 13 15 16 17 20 22 23 24 28 0
3 8 9 12 14 15 16 17 18 21 23 24 25 0
1 4 9 10 13 16 17 18 19 22 24 25 26 0
2 5 10 11 14 17 18 19 20 23 25 26 27 0
1 3 6 11 12 18 19 20 21 24 26 27 28 0
2 4 7 12 13 15 19 20 21 22 25 27 28 0
3 5 8 13 14 15 16 20 21 22 23 26 28 0
1 4 6 9 14 15 16 17 21 22 23 24 27 0
1 2 5 7 10 16 17 18 22 23 24 25 28 0
2 3 6 8 11 15 17 18 19 23 24 25 26 0
4 7 8 11 13 17 19 20 23 24 25 26 28 0
5 8 9 12 14 15 18 20 21 24 25 26 27 0
1 6 9 10 13 16 19 21 22 25 26 27 28 0
2 7 10 11 14 15 17 20 22 23 26 27 28 0
1 3 8 11 12 15 16 18 21 23 24 27 28 0
2 4 9 12 13 15 16 17 19 22 24 25 28 0
3 5 10 13 14 15 16 17 18 20 23 25 26 0
1 4 6 11 14 16 17 18 19 21 24 26 27 0
1 2 5 7 12 17 18 19 20 22 25 27 28 0
2 3 6 8 13 15 18 19 20 21 23 26 28 0
3 4 7 9 14 15 16 19 20 21 22 24 27 0
1 4 5 8 10 16 17 20 21 22 23 25 28 0
2 5 6 9 11 15 17 18 21 22 23 24 26 0
3 6 7 10 12 16 18 19 22 23 24 25 27 0
3 5 8 9 12 16 18 19 20 21 24 25 27 0
4 6 9 10 13 17 19 20 21 22 25 26 28 0
5 7 10 11 14 15 18 20 21 22 23 26 27 0
1 6 8 11 12 16 19 21 22 23 24 27 28 0
2 7 9 12 13 15 17 20 22 23 24 25 28 0
3 8 10 13 14 15 16 18 21 23 24 25 26 0
1 4 9 11 14 16 17 19 22 24 25 26 27 0
1 2 5 10 12 17 18 20 23 25 26 27 28 0
2 3 6 11 13 15 18 19 21 24 26 27 28 0
3 4 7 12 14 15 16 19 20 22 25 27 28 0
1 4 5 8 13 15 16 17 20 21 23 26 28 0
2 5 6 9 14 15 16 17 18 21 22 24 27 0
1 3 6 7 10 16 17 18 19 22 23 25 28 0
2 4 7 8 11 15 17 18 19 20 23 24 26 0
4 7 9 11 13 17 18 19 20 25 26 28 0
5 8 10 12 14 15 18 19 20 21 26 27 0
1 6 9 11 13 16 19 20 21 22 27 28 0
2 7 10 12 14 15 17 20 21 22 23 28 0
1 3 8 11 13 15 16 18 21 22 23 24 0
2 4 9 12 14 16 17 19 22 23 24 25 0
1 3 5 10 13 17 18 20 23 24 25 26 0
2 4 6 11 14 18 19 21 24 25 26 27 0
1 3 5 7 12 19 20 22 25 26 27 28 0
2 4 6 8 13 15 20 21 23 26 27 28 0
3 5 7 9 14 15 16 21 22 24 27 28 0
1 4 6 8 10 15 16 17 22 23 25 28 0
2 5 7 9 11 15 16 17 18 23 24 26 0
3 6 8 10 12 16 17 18 19 24 25 27 0
3 5 7 9 12 16 18 19 24 25 26 27 0
4 6 8 10 13 17 19 20 25 26 27 28 0
5 7 9 11 14 15 18 20 21 26 27 28 0
1 6 8 10 12 15 16 19 21 22 27 28 0
2 7 9 11 13 15 16 17 20 22 23 28 0
3 8 10 12 14 15 16 17 18 21 23 24 0
1 4 9 11 13 16 17 18 19 22 24 25 0
2 5 10 12 14 17 18 19 20 23 25 26 0
1 3 6 11 13 18 19 20 21 24 26 27 0
2 4 7 12 14 19 20 21 22 25 27 28 0
1 3 5 8 13 15 20 21 22 23 26 28 0
2 4 6 9 14 15 16 21 22 23 24 27 0
1 3 5 7 10 16 17 22 23 24 25 28 0
2 4 6 8 11 15 17 18 23 24 25 26 0
4 6 10 13 17 18 19 20 21 23 25 26 28 0
5 7 11 14 15 18 19 20 21 22 24 26 27 0
1 6 8 12 16 19 20 21 22 23 25 27 28 0
2 7 9 13 15 17 20 21 22 23 24 26 28 0
3 8 10 14 15 16 18 21 22 23 24 25 27 0
1 4 9 11 16 17 19 22 23 24 25 26 28 0
2 5 10 12 15 17 18 20 23 24 25 26 27 0
3 6 11 13 16 18 19 21 24 25 26 27 28 0
4 7 12 14 15 17 19 20 22 25 26 27 28 0
1 5 8 13 15 16 18 20 21 23 26 27 28 0
2 6 9 14 15 16 17 19 21 22 24 27 28 0
1 3 7 10 15 16 17 18 20 22 23 25 28 0
2 4 8 11 15 16 17 18 19 21 23 24 26 0
3 5 9 12 16 17 18 19 20 22 24 25 27 0
3 6 10 12 16 18 19 21 23 24 25 26 27 0
4 7 11 13 17 19 20 22 24 25 26 27 28 0
5 8 12 14 15 18 20 21 23 25 26 27 28 0
1 6 9 13 15 16 19 21 22 24 26 27 28 0
2 7 10 14 15 16 17 20 22 23 25 27 28 0
1 3 8 11 15 16 17 18 21 23 24 26 28 0
2 4 9 12 15 16 17 18 19 22 24 25 27 0
3 5 10 13 16 17 18 19 20 23 25 26 28 0
4 6 11 14 15 17 18 19 20 21 24 26 27 0
1 5 7 12 16 18 19 20 21 22 25 27 28 0
2 6 8 13 15 17 19 20 21 22 23 26 28 0
3 7 9 14 15 16 18 20 21 22 23 24 27 0
1 4 8 10 16 17 19 21 22 23 24 25 28 0
2 5 9 11 15 17 18 20 22 23 24 25 26 0
4 7 8 12 13 17 19 20 23 25 26 28 0
5 8 9 13 14 15 18 20 21 24 26 27 0
1 6 9 10 14 16 19 21 22 25 27 28 0
1 2 7 10 11 15 17 20 22 23 26 28 0
2 3 8 11 12 15 16 18 21 23 24 27 0
3 4 9 12 13 16 17 19 22 24 25 28 0
4 5 10 13 14 15 17 18 20 23 25 26 0
1 5 6 11 14 16 18 19 21 24 26 27 0
1 2 6 7 12 17 19 20 22 25 27 28 0
2 3 7 8 13 15 18 20 21 23 26 28 0
3 4 8 9 14 15 16 19 21 22 24 27 0
1 4 5 9 10 16 17 20 22 23 25 28 0
2 5 6 10 11 15 17 18 21 23 24 26 0
3 6 7 11 12 16 18 19 22 24 25 27 0
3 4 8 9 12 16 18 19 21 24 25 27 0
4 5 9 10 13 17 19 20 22 25 26 28 0
5 6 10 11 14 15 18 20 21 23 26 27 0
1 6 7 11 12 16 19 21 22 24 27 28 0
2 7 8 12 13 15 17 20 22 23 25 28 0
3 8 9 13 14 15 16 18 21 23 24 26 0
1 4 9 10 14 16 17 19 22 24 25 27 0
1 2 5 10 11 17 18 20 23 25 26 28 0
2 3 6 11 12 15 18 19 21 24 26 27 0
3 4 7 12 13 16 19 20 22 25 27 28 0
4 5 8 13 14 15 17 20 21 23 26 28 0
1 5 6 9 14 15 16 18 21 22 24 27 0
1 2 6 7 10 16 17 19 22 23 25 28 0
2 3 7 8 11 15 17 18 20 23 24 26 0
3 6 8 11 13 16 18 19 21 23 24 25 26 28 0
4 7 9 12 14 15 17 19 20 22 24 25 26 27 0
1 5 8 10 13 16 18 20 21 23 25 26 27 28 0
2 6 9 11 14 15 17 19 21 22 24 26 27 28 0
1 3 7 10 12 15 16 18 20 22 23 25 27 28 0
2 4 8 11 13 15 16 17 19 21 23 24 26 28 0
3 5 9 12 14 15 16 17 18 20 22 24 25 27 0
1 4 6 10 13 16 17 18 19 21 23 25 26 28 0
2 5 7 11 14 15 17 18 19 20 22 24 26 27 0
1 3 6 8 12 16 18 19 20 21 23 25 27 28 0
2 4 7 9 13 15 17 19 20 21 22 24 26 28 0
3 5 8 10 14 15 16 18 20 21 22 23 25 27 0
1 4 6 9 11 16 17 19 21 22 23 24 26 28 0
2 5 7 10 12 15 17 18 20 22 23 24 25 27 0
3 5 8 10 13 16 18 19 20 21 23 25 26 28 0
4 6 9 11 14 15 17 19 20 21 22 24 26 27 0
1 5 7 10 12 16 18 20 21 22 23 25 27 28 0
2 6 8 11 13 15 17 19 21 22 23 24 26 28 0
3 7 9 12 14 15 16 18 20 22 23 24 25 27 0
1 4 8 10 13 16 17 19 21 23 24 25 26 28 0
2 5 9 11 14 15 17 18 20 22 24 25 26 27 0
1 3 6 10 12 16 18 19 21 23 25 26 27 28 0
2 4 7 11 13 15 17 19 20 22 24 26 27 28 0
3 5 8 12 14 15 16 18 20 21 23 25 27 28 0
1 4 6 9 13 15 16 17 19 21 22 24 26 28 0
2 5 7 10 14 15 16 17 18 20 22 23 25 27 0
1 3 6 8 11 16 17 18 19 21 23 24 26 28 0
2 4 7 9 12 15 17 18 19 20 22 24 25 27 0
3 6 8 11 12 13 16 18 19 21 23 24 25 28 0
4 7 9 12 13 14 15 17 19 20 22 24 25 26 0
1 5 8 10 13 14 16 18 20 21 23 25 26 27 0
1 2 6 9 11 14 17 19 21 22 24 26 27 28 0
1 2 3 7 10 12 15 18 20 22 23 25 27 28 0
2 3 4 8 11 13 15 16 19 21 23 24 26 28 0
3 4 5 9 12 14 15 16 17 20 22 24 25 27 0
1 4 5 6 10 13 16 17 18 21 23 25 26 28 0
2 5 6 7 11 14 15 17 18 19 22 24 26 27 0
1 3 6 7 8 12 16 18 19 20 23 25 27 28 0
2 4 7 8 9 13 15 17 19 20 21 24 26 28 0
3 5 8 9 10 14 15 16 18 20 21 22 25 27 0
1 4 6 9 10 11 16 17 19 21 22 23 26 28 0
2 5 7 10 11 12 15 17 18 20 22 23 24 27 0
3 4 5 8 10 13 16 19 20 21 23 25 26 28 0
4 5 6 9 11 14 15 17 20 21 22 24 26 27 0
1 5 6 7 10 12 16 18 21 22 23 25 27 28 0
2 6 7 8 11 13 15 17 19 22 23 24 26 28 0
3 7 8 9 12 14 15 16 18 20 23 24 25 27 0
1 4 8 9 10 13 16 17 19 21 24 25 26 28 0
2 5 9 10 11 14 15 17 18 20 22 25 26 27 0
1 3 6 10 11 12 16 18 19 21 23 26 27 28 0
2 4 7 11 12 13 15 17 19 20 22 24 27 28 0
3 5 8 12 13 14 15 16 18 20 21 23 25 28 0
1 4 6 9 13 14 15 16 17 19 21 22 24 26 0
1 2 5 7 10 14 16 17 18 20 22 23 25 27 0
1 2 3 6 8 11 17 18 19 21 23 24 26 28 0
2 3 4 7 9 12 15 18 19 20 22 24 25 27 0
3 5 8 9 12 13 16 17 19 20 21 22 24 25 28 0
4 6 9 10 13 14 15 17 18 20 21 22 23 25 26 0
1 5 7 10 11 14 16 18 19 21 22 23 24 26 27 0
1 2 6 8 11 12 17 19 20 22 23 24 25 27 28 0
2 3 7 9 12 13 15 18 20 21 23 24 25 26 28 0
3 4 8 10 13 14 15 16 19 21 22 24 25 26 27 0
1 4 5 9 11 14 16 17 20 22 23 25 26 27 28 0
1 2 5 6 10 12 15 17 18 21 23 24 26 27 28 0
2 3 6 7 11 13 15 16 18 19 22 24 25 27 28 0
3 4 7 8 12 14 15 16 17 19 20 23 25 26 28 0
1 4 5 8 9 13 15 16 17 18 20 21 24 26 27 0
2 5 6 9 10 14 16 17 18 19 21 22 25 27 28 0
1 3 6 7 10 11 15 17 18 19 20 22 23 26 28 0
2 4 7 8 11 12 15 16 18 19 20 21 23 24 27 0
3 4 7 8 11 13 16 19 20 22 23 24 25 27 28 0
4 5 8 9 12 14 15 17 20 21 23 24 25 26 28 0
1 5 6 9 10 13 15 16 18 21 22 24 25 26 27 0
2 6 7 10 11 14 16 17 19 22 23 25 26 27 28 0
1 3 7 8 11 12 15 17 18 20 23 24 26 27 28 0
2 4 8 9 12 13 15 16 18 19 21 24 25 27 28 0
3 5 9 10 13 14 15 16 17 19 20 22 25 26 28 0
1 4 6 10 11 14 15 16 17 18 20 21 23 26 27 0
1 2 5 7 11 12 16 17 18 19 21 22 24 27 28 0
2 3 6 8 12 13 15 17 18 19 20 22 23 25 28 0
3 4 7 9 13 14 15 16 18 19 20 21 23 24 26 0
1 4 5 8 10 14 16 17 19 20 21 22 24 25 27 0
1 2 5 6 9 11 17 18 20 21 22 23 25 26 28 0
2 3 6 7 10 12 15 18 19 21 22 23 24 26 27 0
3 6 9 11 13 16 18 19 20 21 22 25 27 28 0
4 7 10 12 14 15 17 19 20 21 22 23 26 28 0
1 5 8 11 13 15 16 18 20 21 22 23 24 27 0
2 6 9 12 14 16 17 19 21 22 23 24 25 28 0
1 3 7 10 13 15 17 18 20 22 23 24 25 26 0
2 4 8 11 14 16 18 19 21 23 24 25 26 27 0
1 3 5 9 12 17 19 20 22 24 25 26 27 28 0
2 4 6 10 13 15 18 20 21 23 25 26 27 28 0
3 5 7 11 14 15 16 19 21 22 24 26 27 28 0
1 4 6 8 12 15 16 17 20 22 23 25 27 28 0
2 5 7 9 13 15 16 17 18 21 23 24 26 28 0
3 6 8 10 14 15 16 17 18 19 22 24 25 27 0
1 4 7 9 11 16 17 18 19 20 23 25 26 28 0
2 5 8 10 12 15 17 18 19 20 21 24 26 27 0
3 5 7 10 13 16 17 19 22 23 24 25 26 28 0
4 6 8 11 14 15 17 18 20 23 24 25 26 27 0
1 5 7 9 12 16 18 19 21 24 25 26 27 28 0
2 6 8 10 13 15 17 19 20 22 25 26 27 28 0
3 7 9 11 14 15 16 18 20 21 23 26 27 28 0
1 4 8 10 12 15 16 17 19 21 22 24 27 28 0
2 5 9 11 13 15 16 17 18 20 22 23 25 28 0
3 6 10 12 14 15 16 17 18 19 21 23 24 26 0
1 4 7 11 13 16 17 18 19 20 22 24 25 27 0
2 5 8 12 14 17 18 19 20 21 23 25 26 28 0
1 3 6 9 13 15 18 19 20 21 22 24 26 27 0
2 4 7 10 14 16 19 20 21 22 23 25 27 28 0
1 3 5 8 11 15 17 20 21 22 23 24 26 28 0
2 4 6 9 12 15 16 18 21 22 23 24 25 27 0
3 5 8 10 12 16 18 19 20 21 24 25 27 0
4 6 9 11 13 17 19 20 21 22 25 26 28 0
5 7 10 12 14 15 18 20 21 22 23 26 27 0
1 6 8 11 13 16 19 21 22 23 24 27 28 0
2 7 9 12 14 15 17 20 22 23 24 25 28 0
1 3 8 10 13 15 16 18 21 23 24 25 26 0
2 4 9 11 14 16 17 19 22 24 25 26 27 0
1 3 5 10 12 17 18 20 23 25 26 27 28 0
2 4 6 11 13 15 18 19 21 24 26 27 28 0
3 5 7 12 14 15 16 19 20 22 25 27 28 0
1 4 6 8 13 15 16 17 20 21 23 26 28 0
2 5 7 9 14 15 16 17 18 21 22 24 27 0
1 3 6 8 10 16 17 18 19 22 23 25 28 0
2 4 7 9 11 15 17 18 19 20 23 24 26 0
4 6 8 11 13 17 19 20 23 24 25 26 28 0
5 7 9 12 14 15 18 20 21 24 25 26 27 0
1 6 8 10 13 16 19 21 22 25 26 27 28 0
2 7 9 11 14 15 17 20 22 23 26 27 28 0
1 3 8 10 12 15 16 18 21 23 24 27 28 0
2 4 9 11 13 15 16 17 19 22 24 25 28 0
3 5 10 12 14 15 16 17 18 20 23 25 26 0
1 4 6 11 13 16 17 18 19 21 24 26 27 0
2 5 7 12 14 17 18 19 20 22 25 27 28 0
1 3 6 8 13 15 18 19 20 21 23 26 28 0
2 4 7 9 14 15 16 19 20 21 22 24 27 0
1 3 5 8 10 16 17 20 21 22 23 25 28 0
2 4 6 9 11 15 17 18 21 22 23 24 26 0
3 5 7 10 12 16 18 19 22 23 24 25 27 0
3 4 7 10 13 16 19 20 21 22 23 25 26 28 0
4 5 8 11 14 15 17 20 21 22 23 24 26 27 0
1 5 6 9 12 16 18 21 22 23 24 25 27 28 0
2 6 7 10 13 15 17 19 22 23 24 25 26 28 0
3 7 8 11 14 15 16 18 20 23 24 25 26 27 0
1 4 8 9 12 16 17 19 21 24 25 26 27 28 0
2 5 9 10 13 15 17 18 20 22 25 26 27 28 0
3 6 10 11 14 15 16 18 19 21 23 26 27 28 0
1 4 7 11 12 15 16 17 19 20 22 24 27 28 0
2 5 8 12 13 15 16 17 18 20 21 23 25 28 0
3 6 9 13 14 15 16 17 18 19 21 22 24 26 0
1 4 7 10 14 16 17 18 19 20 22 23 25 27 0
1 2 5 8 11 17 18 19 20 21 23 24 26 28 0
2 3 6 9 12 15 18 19 20 21 22 24 25 27 0
3 6 9 12 13 16 18 19 21 22 23 24 25 28 0
4 7 10 13 14 15 17 19 20 22 23 24 25 26 0
1 5 8 11 14 16 18 20 21 23 24 25 26 27 0
1 2 6 9 12 17 19 21 22 24 25 26 27 28 0
2 3 7 10 13 15 18 20 22 23 25 26 27 28 0
3 4 8 11 14 15 16 19 21 23 24 26 27 28 0
1 4 5 9 12 15 16 17 20 22 24 25 27 28 0
2 5 6 10 13 15 16 17 18 21 23 25 26 28 0
3 6 7 11 14 15 16 17 18 19 22 24 26 27 0
1 4 7 8 12 16 17 18 19 20 23 25 27 28 0
2 5 8 9 13 15 17 18 19 20 21 24 26 28 0
3 6 9 10 14 15 16 18 19 20 21 22 25 27 0
1 4 7 10 11 16 17 19 20 21 22 23 26 28 0
2 5 8 11 12 15 17 18 20 21 22 23 24 27 0
3 4 5 7 8 11 13 16 19 23 24 25 26 27 28 0
4 5 6 8 9 12 14 15 17 20 24 25 26 27 28 0
1 5 6 7 9 10 13 15 16 18 21 25 26 27 28 0
2 6 7 8 10 11 14 15 16 17 19 22 26 27 28 0
1 3 7 8 9 11 12 15 16 17 18 20 23 27 28 0
2 4 8 9 10 12 13 15 16 17 18 19 21 24 28 0
3 5 9 10 11 13 14 15 16 17 18 19 20 22 25 0
1 4 6 10 11 12 14 16 17 18 19 20 21 23 26 0
1 2 5 7 11 12 13 17 18 19 20 21 22 24 27 0
2 3 6 8 12 13 14 18 19 20 21 22 23 25 28 0
1 3 4 7 9 13 14 15 19 20 21 22 23 24 26 0
1 2 4 5 8 10 14 16 20 21 22 23 24 25 27 0
1 2 3 5 6 9 11 17 21 22 23 24 25 26 28 0
2 3 4 6 7 10 12 15 18 22 23 24 25 26 27 0
3 5 8 9 11 12 13 16 17 18 19 20 21 25 28 0
4 6 9 10 12 13 14 15 17 18 19 20 21 22 26 0
1 5 7 10 11 13 14 16 18 19 20 21 22 23 27 0
1 2 6 8 11 12 14 17 19 20 21 22 23 24 28 0
1 2 3 7 9 12 13 15 18 20 21 22 23 24 25 0
2 3 4 8 10 13 14 16 19 21 22 23 24 25 26 0
1 3 4 5 9 11 14 17 20 22 23 24 25 26 27 0
1 2 4 5 6 10 12 18 21 23 24 25 26 27 28 0
2 3 5 6 7 11 13 15 19 22 24 25 26 27 28 0
3 4 6 7 8 12 14 15 16 20 23 25 26 27 28 0
1 4 5 7 8 9 13 15 16 17 21 24 26 27 28 0
2 5 6 8 9 10 14 15 16 17 18 22 25 27 28 0
1 3 6 7 9 10 11 15 16 17 18 19 23 26 28 0
2 4 7 8 10 11 12 15 16 17 18 19 20 24 27 0
3 6 9 10 13 16 18 19 21 22 25 26 27 28 0
4 7 10 11 14 15 17 19 20 22 23 26 27 28 0
1 5 8 11 12 15 16 18 20 21 23 24 27 28 0
2 6 9 12 13 15 16 17 19 21 22 24 25 28 0
3 7 10 13 14 15 16 17 18 20 22 23 25 26 0
1 4 8 11 14 16 17 18 19 21 23 24 26 27 0
1 2 5 9 12 17 18 19 20 22 24 25 27 28 0
2 3 6 10 13 15 18 19 20 21 23 25 26 28 0
3 4 7 11 14 15 16 19 20 21 22 24 26 27 0
1 4 5 8 12 16 17 20 21 22 23 25 27 28 0
2 5 6 9 13 15 17 18 21 22 23 24 26 28 0
3 6 7 10 14 15 16 18 19 22 23 24 25 27 0
1 4 7 8 11 16 17 19 20 23 24 25 26 28 0
2 5 8 9 12 15 17 18 20 21 24 25 26 27 0
3 6 7 10 13 16 17 18 19 22 23 25 26 28 0
4 7 8 11 14 15 17 18 19 20 23 24 26 27 0
1 5 8 9 12 16 18 19 20 21 24 25 27 28 0
2 6 9 10 13 15 17 19 20 21 22 25 26 28 0
3 7 10 11 14 15 16 18 20 21 22 23 26 27 0
1 4 8 11 12 16 17 19 21 22 23 24 27 28 0
2 5 9 12 13 15 17 18 20 22 23 24 25 28 0
3 6 10 13 14 15 16 18 19 21 23 24 25 26 0
1 4 7 11 14 16 17 19 20 22 24 25 26 27 0
1 2 5 8 12 17 18 20 21 23 25 26 27 28 0
2 3 6 9 13 15 18 19 21 22 24 26 27 28 0
3 4 7 10 14 15 16 19 20 22 23 25 27 28 0
1 4 5 8 11 15 16 17 20 21 23 24 26 28 0
2 5 6 9 12 15 16 17 18 21 22 24 25 27 0
