p cnf 163 1400
-1 27 0
-27 28 0
-2 -27 29 0
-29 30 0
-3 -29 31 0
-31 32 0
-4 -31 33 0
-33 34 0
-5 -33 35 0
-35 36 0
-6 -35 37 0
-37 38 0
-7 -37 39 0
-39 40 0
-8 -39 0
-2 28 0
-28 41 0
-3 -28 30 0
-30 42 0
-4 -30 32 0
-32 43 0
-5 -32 34 0
-34 44 0
-6 -34 36 0
-36 45 0
-7 -36 38 0
-38 46 0
-8 -38 40 0
-40 47 0
-9 -40 0
-3 41 0
-41 48 0
-4 -41 42 0
-42 49 0
-5 -42 43 0
-43 50 0
-6 -43 44 0
-44 51 0
-7 -44 45 0
-45 52 0
-8 -45 46 0
-46 53 0
-9 -46 47 0
-47 54 0
-10 -47 0
-4 48 0
-48 55 0
-5 -48 49 0
-49 56 0
-6 -49 50 0
-50 57 0
-7 -50 51 0
-51 58 0
-8 -51 52 0
-52 59 0
-9 -52 53 0
-53 60 0
-10 -53 54 0
-54 61 0
-11 -54 0
-5 55 0
-55 62 0
-6 -55 56 0
-56 63 0
-7 -56 57 0
-57 64 0
-8 -57 58 0
-58 65 0
-9 -58 59 0
-59 66 0
-10 -59 60 0
-60 67 0
-11 -60 61 0
-61 68 0
-12 -61 0
-6 62 0
-62 69 0
-7 -62 63 0
-63 70 0
-8 -63 64 0
-64 71 0
-9 -64 65 0
-65 72 0
-10 -65 66 0
-66 73 0
-11 -66 67 0
-67 74 0
-12 -67 68 0
-68 75 0
-13 -68 0
-7 69 0
-69 76 0
-8 -69 70 0
-70 77 0
-9 -70 71 0
-71 78 0
-10 -71 72 0
-72 79 0
-11 -72 73 0
-73 80 0
-12 -73 74 0
-74 81 0
-13 -74 75 0
-75 82 0
-14 -75 0
-8 76 0
-76 83 0
-9 -76 77 0
-77 84 0
-10 -77 78 0
-78 85 0
-11 -78 79 0
-79 86 0
-12 -79 80 0
-80 87 0
-13 -80 81 0
-81 88 0
-14 -81 82 0
-82 89 0
-15 -82 0
-9 83 0
-83 90 0
-10 -83 84 0
-84 91 0
-11 -84 85 0
-85 92 0
-12 -85 86 0
-86 93 0
-13 -86 87 0
-87 94 0
-14 -87 88 0
-88 95 0
-15 -88 89 0
-89 96 0
-16 -89 0
-10 90 0
-90 97 0
-11 -90 91 0
-91 98 0
-12 -91 92 0
-92 99 0
-13 -92 93 0
-93 100 0
-14 -93 94 0
-94 101 0
-15 -94 95 0
-95 102 0
-16 -95 96 0
-96 103 0
-17 -96 0
-11 97 0
-97 104 0
-12 -97 98 0
-98 105 0
-13 -98 99 0
-99 106 0
-14 -99 100 0
-100 107 0
-15 -100 101 0
-101 108 0
-16 -101 102 0
-102 109 0
-17 -102 103 0
-103 110 0
-18 -103 0
-12 104 0
-104 111 0
-13 -104 105 0
-105 112 0
-14 -105 106 0
-106 113 0
-15 -106 107 0
-107 114 0
-16 -107 108 0
-108 115 0
-17 -108 109 0
-109 116 0
-18 -109 110 0
-110 117 0
-19 -110 0
-13 111 0
-111 118 0
-14 -111 112 0
-112 119 0
-15 -112 113 0
-113 120 0
-16 -113 114 0
-114 121 0
-17 -114 115 0
-115 122 0
-18 -115 116 0
-116 123 0
-19 -116 117 0
-117 124 0
-20 -117 0
-14 118 0
-118 125 0
-15 -118 119 0
-119 126 0
-16 -119 120 0
-120 127 0
-17 -120 121 0
-121 128 0
-18 -121 122 0
-122 129 0
-19 -122 123 0
-123 130 0
-20 -123 124 0
-124 131 0
-21 -124 0
-15 125 0
-125 132 0
-16 -125 126 0
-126 133 0
-17 -126 127 0
-127 134 0
-18 -127 128 0
-128 135 0
-19 -128 129 0
-129 136 0
-20 -129 130 0
-130 137 0
-21 -130 131 0
-131 138 0
-22 -131 0
-16 132 0
-132 139 0
-17 -132 133 0
-133 140 0
-18 -133 134 0
-134 141 0
-19 -134 135 0
-135 142 0
-20 -135 136 0
-136 143 0
-21 -136 137 0
-137 144 0
-22 -137 138 0
-138 145 0
-23 -138 0
-17 139 0
-139 146 0
-18 -139 140 0
-140 147 0
-19 -140 141 0
-141 148 0
-20 -141 142 0
-142 149 0
-21 -142 143 0
-143 150 0
-22 -143 144 0
-144 151 0
-23 -144 145 0
-145 152 0
-24 -145 0
-18 146 0
-146 153 0
-19 -146 147 0
-147 154 0
-20 -147 148 0
-148 155 0
-21 -148 149 0
-149 156 0
-22 -149 150 0
-150 157 0
-23 -150 151 0
-151 158 0
-24 -151 152 0
-152 159 0
-25 -152 0
-19 153 0
-20 -153 154 0
-21 -154 155 0
-22 -155 156 0
-23 -156 157 0
-24 -157 158 0
-25 -158 159 0
-26 -159 0
-160 1 0
-160 2 0
-160 13 0
-160 -14 0
-161 1 0
-161 13 0
-161 14 0
-161 -2 0
-162 18 0
-162 14 0
-162 23 0
-162 -1 0
-163 1 0
-163 14 0
-163 23 0
-163 -18 0
160 161 162 163 0
2 5 8 10 13 16 17 19 20 22 24 25 0
1 3 6 9 11 17 18 20 21 23 25 26 0
2 4 7 10 12 14 18 19 21 22 24 26 0
3 5 8 11 13 14 15 19 20 22 23 25 0
1 4 6 9 12 15 16 20 21 23 24 26 0
2 5 7 10 13 14 16 17 21 22 24 25 0
1 3 6 8 11 15 17 18 22 23 25 26 0
2 4 7 9 12 14 16 18 19 23 24 26 0
3 5 8 10 13 14 15 17 19 20 24 25 0
1 4 6 9 11 15 16 18 20 21 25 26 0
2 5 7 10 12 14 16 17 19 21 22 26 0
3 6 8 11 13 14 15 17 18 20 22 23 0
1 4 7 9 12 15 16 18 19 21 23 24 0
2 5 7 10 13 16 17 19 21 22 24 25 0
1 3 6 8 11 17 18 20 22 23 25 26 0
2 4 7 9 12 14 18 19 21 23 24 26 0
3 5 8 10 13 14 15 19 20 22 24 25 0
1 4 6 9 11 15 16 20 21 23 25 26 0
2 5 7 10 12 14 16 17 21 22 24 26 0
3 6 8 11 13 14 15 17 18 22 23 25 0
1 4 7 9 12 15 16 18 19 23 24 26 0
2 5 8 10 13 14 16 17 19 20 24 25 0
1 3 6 9 11 15 17 18 20 21 25 26 0
2 4 7 10 12 14 16 18 19 21 22 26 0
3 5 8 11 13 14 15 17 19 20 22 23 0
1 4 6 9 12 15 16 18 20 21 23 24 0
2 5 8 10 12 13 15 16 17 19 20 22 0
1 3 6 9 11 13 16 17 18 20 21 23 0
1 2 4 7 10 12 17 18 19 21 22 24 0
2 3 5 8 11 13 18 19 20 22 23 25 0
1 3 4 6 9 12 19 20 21 23 24 26 0
2 4 5 7 10 13 14 20 21 22 24 25 0
1 3 5 6 8 11 15 21 22 23 25 26 0
2 4 6 7 9 12 14 16 22 23 24 26 0
3 5 7 8 10 13 14 15 17 23 24 25 0
1 4 6 8 9 11 15 16 18 24 25 26 0
2 5 7 9 10 12 14 16 17 19 25 26 0
3 6 8 10 11 13 14 15 17 18 20 26 0
1 4 7 9 11 12 14 15 16 18 19 21 0
2 3 5 7 10 13 19 21 22 24 25 26 0
1 3 4 6 8 11 14 20 22 23 25 26 0
2 4 5 7 9 12 14 15 21 23 24 26 0
3 5 6 8 10 13 14 15 16 22 24 25 0
1 4 6 7 9 11 15 16 17 23 25 26 0
2 5 7 8 10 12 14 16 17 18 24 26 0
3 6 8 9 11 13 14 15 17 18 19 25 0
1 4 7 9 10 12 15 16 18 19 20 26 0
2 5 8 10 11 13 14 16 17 19 20 21 0
1 3 6 9 11 12 15 17 18 20 21 22 0
2 4 7 10 12 13 16 18 19 21 22 23 0
1 3 5 8 11 13 17 19 20 22 23 24 0
1 2 4 6 9 12 18 20 21 23 24 25 0
2 5 7 10 11 13 15 16 17 19 21 22 0
1 3 6 8 11 12 16 17 18 20 22 23 0
2 4 7 9 12 13 17 18 19 21 23 24 0
1 3 5 8 10 13 18 19 20 22 24 25 0
1 2 4 6 9 11 19 20 21 23 25 26 0
2 3 5 7 10 12 14 20 21 22 24 26 0
3 4 6 8 11 13 14 15 21 22 23 25 0
1 4 5 7 9 12 15 16 22 23 24 26 0
2 5 6 8 10 13 14 16 17 23 24 25 0
1 3 6 7 9 11 15 17 18 24 25 26 0
2 4 7 8 10 12 14 16 18 19 25 26 0
3 5 8 9 11 13 14 15 17 19 20 26 0
1 4 6 9 10 12 14 15 16 18 20 21 0
2 4 5 8 10 13 19 20 22 24 25 26 0
1 3 5 6 9 11 14 20 21 23 25 26 0
2 4 6 7 10 12 14 15 21 22 24 26 0
3 5 7 8 11 13 14 15 16 22 23 25 0
1 4 6 8 9 12 15 16 17 23 24 26 0
2 5 7 9 10 13 14 16 17 18 24 25 0
1 3 6 8 10 11 15 17 18 19 25 26 0
2 4 7 9 11 12 14 16 18 19 20 26 0
3 5 8 10 12 13 14 15 17 19 20 21 0
1 4 6 9 11 13 15 16 18 20 21 22 0
1 2 5 7 10 12 16 17 19 21 22 23 0
2 3 6 8 11 13 17 18 20 22 23 24 0
1 3 4 7 9 12 18 19 21 23 24 25 0
2 5 7 9 10 11 13 15 16 17 19 22 25 0
1 3 6 8 10 11 12 16 17 18 20 23 26 0
2 4 7 9 11 12 13 14 17 18 19 21 24 0
1 3 5 8 10 12 13 15 18 19 20 22 25 0
1 2 4 6 9 11 13 16 19 20 21 23 26 0
1 2 3 5 7 10 12 14 17 20 21 22 24 0
2 3 4 6 8 11 13 15 18 21 22 23 25 0
1 3 4 5 7 9 12 16 19 22 23 24 26 0
2 4 5 6 8 10 13 14 17 20 23 24 25 0
1 3 5 6 7 9 11 15 18 21 24 25 26 0
2 4 6 7 8 10 12 14 16 19 22 25 26 0
3 5 7 8 9 11 13 14 15 17 20 23 26 0
1 4 6 8 9 10 12 14 15 16 18 21 24 0
2 4 5 6 8 10 13 16 19 22 24 25 26 0
1 3 5 6 7 9 11 14 17 20 23 25 26 0
2 4 6 7 8 10 12 14 15 18 21 24 26 0
3 5 7 8 9 11 13 14 15 16 19 22 25 0
1 4 6 8 9 10 12 15 16 17 20 23 26 0
2 5 7 9 10 11 13 14 16 17 18 21 24 0
1 3 6 8 10 11 12 15 17 18 19 22 25 0
2 4 7 9 11 12 13 16 18 19 20 23 26 0
1 3 5 8 10 12 13 14 17 19 20 21 24 0
1 2 4 6 9 11 13 15 18 20 21 22 25 0
1 2 3 5 7 10 12 16 19 21 22 23 26 0
2 3 4 6 8 11 13 14 17 20 22 23 24 0
1 3 4 5 7 9 12 15 18 21 23 24 25 0
2 4 6 7 9 10 11 13 15 16 19 21 26 0
1 3 5 7 8 10 11 12 14 16 17 20 22 0
2 4 6 8 9 11 12 13 15 17 18 21 23 0
1 3 5 7 9 10 12 13 16 18 19 22 24 0
1 2 4 6 8 10 11 13 17 19 20 23 25 0
1 2 3 5 7 9 11 12 18 20 21 24 26 0
2 3 4 6 8 10 12 13 14 19 21 22 25 0
1 3 4 5 7 9 11 13 15 20 22 23 26 0
1 2 4 5 6 8 10 12 14 16 21 23 24 0
2 3 5 6 7 9 11 13 15 17 22 24 25 0
1 3 4 6 7 8 10 12 16 18 23 25 26 0
2 4 5 7 8 9 11 13 14 17 19 24 26 0
1 3 5 6 8 9 10 12 14 15 18 20 25 0
2 4 5 6 8 9 11 13 15 20 22 25 26 0
1 3 5 6 7 9 10 12 14 16 21 23 26 0
2 4 6 7 8 10 11 13 14 15 17 22 24 0
1 3 5 7 8 9 11 12 15 16 18 23 25 0
2 4 6 8 9 10 12 13 16 17 19 24 26 0
1 3 5 7 9 10 11 13 14 17 18 20 25 0
1 2 4 6 8 10 11 12 15 18 19 21 26 0
2 3 5 7 9 11 12 13 14 16 19 20 22 0
1 3 4 6 8 10 12 13 15 17 20 21 23 0
1 2 4 5 7 9 11 13 16 18 21 22 24 0
1 2 3 5 6 8 10 12 17 19 22 23 25 0
2 3 4 6 7 9 11 13 18 20 23 24 26 0
1 3 4 5 7 8 10 12 14 19 21 24 25 0
2 4 6 8 9 10 12 13 15 19 20 25 26 0
1 3 5 7 9 10 11 13 14 16 20 21 26 0
1 2 4 6 8 10 11 12 14 15 17 21 22 0
2 3 5 7 9 11 12 13 15 16 18 22 23 0
1 3 4 6 8 10 12 13 16 17 19 23 24 0
1 2 4 5 7 9 11 13 17 18 20 24 25 0
1 2 3 5 6 8 10 12 18 19 21 25 26 0
2 3 4 6 7 9 11 13 14 19 20 22 26 0
1 3 4 5 7 8 10 12 14 15 20 21 23 0
2 4 5 6 8 9 11 13 15 16 21 22 24 0
1 3 5 6 7 9 10 12 16 17 22 23 25 0
2 4 6 7 8 10 11 13 17 18 23 24 26 0
1 3 5 7 8 9 11 12 14 18 19 24 25 0
2 3 5 6 7 9 11 13 15 16 21 22 26 0
1 3 4 6 7 8 10 12 14 16 17 22 23 0
2 4 5 7 8 9 11 13 15 17 18 23 24 0
1 3 5 6 8 9 10 12 16 18 19 24 25 0
2 4 6 7 9 10 11 13 17 19 20 25 26 0
1 3 5 7 8 10 11 12 14 18 20 21 26 0
2 4 6 8 9 11 12 13 14 15 19 21 22 0
1 3 5 7 9 10 12 13 15 16 20 22 23 0
1 2 4 6 8 10 11 13 16 17 21 23 24 0
1 2 3 5 7 9 11 12 17 18 22 24 25 0
2 3 4 6 8 10 12 13 18 19 23 25 26 0
1 3 4 5 7 9 11 13 14 19 20 24 26 0
1 2 4 5 6 8 10 12 14 15 20 21 25 0
2 4 6 7 9 10 11 13 15 16 17 19 25 26 0
1 3 5 7 8 10 11 12 14 16 17 18 20 26 0
2 4 6 8 9 11 12 13 14 15 17 18 19 21 0
1 3 5 7 9 10 12 13 15 16 18 19 20 22 0
1 2 4 6 8 10 11 13 16 17 19 20 21 23 0
1 2 3 5 7 9 11 12 17 18 20 21 22 24 0
2 3 4 6 8 10 12 13 18 19 21 22 23 25 0
1 3 4 5 7 9 11 13 19 20 22 23 24 26 0
1 2 4 5 6 8 10 12 14 20 21 23 24 25 0
2 3 5 6 7 9 11 13 15 21 22 24 25 26 0
1 3 4 6 7 8 10 12 14 16 22 23 25 26 0
2 4 5 7 8 9 11 13 14 15 17 23 24 26 0
1 3 5 6 8 9 10 12 14 15 16 18 24 25 0
2 4 5 6 8 9 11 13 15 16 22 24 25 26 0
1 3 5 6 7 9 10 12 14 16 17 23 25 26 0
2 4 6 7 8 10 11 13 14 15 17 18 24 26 0
1 3 5 7 8 9 11 12 14 15 16 18 19 25 0
2 4 6 8 9 10 12 13 15 16 17 19 20 26 0
1 3 5 7 9 10 11 13 14 16 17 18 20 21 0
1 2 4 6 8 10 11 12 15 17 18 19 21 22 0
2 3 5 7 9 11 12 13 16 18 19 20 22 23 0
1 3 4 6 8 10 12 13 17 19 20 21 23 24 0
1 2 4 5 7 9 11 13 18 20 21 22 24 25 0
1 2 3 5 6 8 10 12 19 21 22 23 25 26 0
2 3 4 6 7 9 11 13 14 20 22 23 24 26 0
1 3 4 5 7 8 10 12 14 15 21 23 24 25 0
2 5 7 8 10 11 12 13 15 16 17 19 22 0
1 3 6 8 9 11 12 13 16 17 18 20 23 0
1 2 4 7 9 10 12 13 17 18 19 21 24 0
1 2 3 5 8 10 11 13 18 19 20 22 25 0
1 2 3 4 6 9 11 12 19 20 21 23 26 0
2 3 4 5 7 10 12 13 14 20 21 22 24 0
1 3 4 5 6 8 11 13 15 21 22 23 25 0
1 2 4 5 6 7 9 12 16 22 23 24 26 0
2 3 5 6 7 8 10 13 14 17 23 24 25 0
1 3 4 6 7 8 9 11 15 18 24 25 26 0
2 4 5 7 8 9 10 12 14 16 19 25 26 0
3 5 6 8 9 10 11 13 14 15 17 20 26 0
1 4 6 7 9 10 11 12 14 15 16 18 21 0
2 3 4 5 7 8 10 13 19 22 24 25 26 0
1 3 4 5 6 8 9 11 14 20 23 25 26 0
2 4 5 6 7 9 10 12 14 15 21 24 26 0
3 5 6 7 8 10 11 13 14 15 16 22 25 0
1 4 6 7 8 9 11 12 15 16 17 23 26 0
2 5 7 8 9 10 12 13 14 16 17 18 24 0
1 3 6 8 9 10 11 13 15 17 18 19 25 0
1 2 4 7 9 10 11 12 16 18 19 20 26 0
2 3 5 8 10 11 12 13 14 17 19 20 21 0
1 3 4 6 9 11 12 13 15 18 20 21 22 0
1 2 4 5 7 10 12 13 16 19 21 22 23 0
1 2 3 5 6 8 11 13 17 20 22 23 24 0
1 2 3 4 6 7 9 12 18 21 23 24 25 0
2 5 6 8 9 11 12 13 15 16 17 20 22 0
1 3 6 7 9 10 12 13 16 17 18 21 23 0
1 2 4 7 8 10 11 13 17 18 19 22 24 0
1 2 3 5 8 9 11 12 18 19 20 23 25 0
2 3 4 6 9 10 12 13 19 20 21 24 26 0
1 3 4 5 7 10 11 13 14 20 21 22 25 0
1 2 4 5 6 8 11 12 15 21 22 23 26 0
2 3 5 6 7 9 12 13 14 16 22 23 24 0
1 3 4 6 7 8 10 13 15 17 23 24 25 0
1 2 4 5 7 8 9 11 16 18 24 25 26 0
2 3 5 6 8 9 10 12 14 17 19 25 26 0
3 4 6 7 9 10 11 13 14 15 18 20 26 0
1 4 5 7 8 10 11 12 14 15 16 19 21 0
2 3 4 6 7 9 10 13 19 21 24 25 26 0
1 3 4 5 7 8 10 11 14 20 22 25 26 0
2 4 5 6 8 9 11 12 14 15 21 23 26 0
3 5 6 7 9 10 12 13 14 15 16 22 24 0
1 4 6 7 8 10 11 13 15 16 17 23 25 0
1 2 5 7 8 9 11 12 16 17 18 24 26 0
2 3 6 8 9 10 12 13 14 17 18 19 25 0
1 3 4 7 9 10 11 13 15 18 19 20 26 0
1 2 4 5 8 10 11 12 14 16 19 20 21 0
2 3 5 6 9 11 12 13 15 17 20 21 22 0
1 3 4 6 7 10 12 13 16 18 21 22 23 0
1 2 4 5 7 8 11 13 17 19 22 23 24 0
1 2 3 5 6 8 9 12 18 20 23 24 25 0
2 4 6 9 11 13 15 16 20 21 26 0
1 3 5 7 10 12 14 16 17 21 22 0
2 4 6 8 11 13 15 17 18 22 23 0
1 3 5 7 9 12 16 18 19 23 24 0
2 4 6 8 10 13 17 19 20 24 25 0
1 3 5 7 9 11 18 20 21 25 26 0
2 4 6 8 10 12 14 19 21 22 26 0
3 5 7 9 11 13 14 15 20 22 23 0
1 4 6 8 10 12 15 16 21 23 24 0
2 5 7 9 11 13 16 17 22 24 25 0
1 3 6 8 10 12 17 18 23 25 26 0
2 4 7 9 11 13 14 18 19 24 26 0
1 3 5 8 10 12 14 15 19 20 25 0
2 4 6 9 11 13 15 20 21 25 26 0
1 3 5 7 10 12 14 16 21 22 26 0
2 4 6 8 11 13 14 15 17 22 23 0
1 3 5 7 9 12 15 16 18 23 24 0
2 4 6 8 10 13 16 17 19 24 25 0
1 3 5 7 9 11 17 18 20 25 26 0
2 4 6 8 10 12 14 18 19 21 26 0
3 5 7 9 11 13 14 15 19 20 22 0
1 4 6 8 10 12 15 16 20 21 23 0
2 5 7 9 11 13 16 17 21 22 24 0
1 3 6 8 10 12 17 18 22 23 25 0
2 4 7 9 11 13 18 19 23 24 26 0
1 3 5 8 10 12 14 19 20 24 25 0
2 5 6 8 9 11 12 13 15 16 17 22 24 0
1 3 6 7 9 10 12 13 16 17 18 23 25 0
1 2 4 7 8 10 11 13 17 18 19 24 26 0
1 2 3 5 8 9 11 12 14 18 19 20 25 0
2 3 4 6 9 10 12 13 15 19 20 21 26 0
1 3 4 5 7 10 11 13 14 16 20 21 22 0
1 2 4 5 6 8 11 12 15 17 21 22 23 0
2 3 5 6 7 9 12 13 16 18 22 23 24 0
1 3 4 6 7 8 10 13 17 19 23 24 25 0
1 2 4 5 7 8 9 11 18 20 24 25 26 0
2 3 5 6 8 9 10 12 14 19 21 25 26 0
3 4 6 7 9 10 11 13 14 15 20 22 26 0
1 4 5 7 8 10 11 12 14 15 16 21 23 0
2 3 4 6 7 9 10 13 17 19 24 25 26 0
1 3 4 5 7 8 10 11 14 18 20 25 26 0
2 4 5 6 8 9 11 12 14 15 19 21 26 0
3 5 6 7 9 10 12 13 14 15 16 20 22 0
1 4 6 7 8 10 11 13 15 16 17 21 23 0
1 2 5 7 8 9 11 12 16 17 18 22 24 0
2 3 6 8 9 10 12 13 17 18 19 23 25 0
1 3 4 7 9 10 11 13 18 19 20 24 26 0
1 2 4 5 8 10 11 12 14 19 20 21 25 0
2 3 5 6 9 11 12 13 15 20 21 22 26 0
1 3 4 6 7 10 12 13 14 16 21 22 23 0
1 2 4 5 7 8 11 13 15 17 22 23 24 0
1 2 3 5 6 8 9 12 16 18 23 24 25 0
2 5 6 7 9 11 13 15 16 17 22 25 0
1 3 6 7 8 10 12 16 17 18 23 26 0
2 4 7 8 9 11 13 14 17 18 19 24 0
1 3 5 8 9 10 12 15 18 19 20 25 0
2 4 6 9 10 11 13 16 19 20 21 26 0
1 3 5 7 10 11 12 14 17 20 21 22 0
2 4 6 8 11 12 13 15 18 21 22 23 0
1 3 5 7 9 12 13 16 19 22 23 24 0
1 2 4 6 8 10 13 17 20 23 24 25 0
1 2 3 5 7 9 11 18 21 24 25 26 0
2 3 4 6 8 10 12 14 19 22 25 26 0
3 4 5 7 9 11 13 14 15 20 23 26 0
1 4 5 6 8 10 12 14 15 16 21 24 0
2 4 6 8 9 10 13 16 19 24 25 26 0
1 3 5 7 9 10 11 14 17 20 25 26 0
2 4 6 8 10 11 12 14 15 18 21 26 0
3 5 7 9 11 12 13 14 15 16 19 22 0
1 4 6 8 10 12 13 15 16 17 20 23 0
1 2 5 7 9 11 13 16 17 18 21 24 0
1 2 3 6 8 10 12 17 18 19 22 25 0
2 3 4 7 9 11 13 18 19 20 23 26 0
1 3 4 5 8 10 12 14 19 20 21 24 0
2 4 5 6 9 11 13 15 20 21 22 25 0
1 3 5 6 7 10 12 16 21 22 23 26 0
2 4 6 7 8 11 13 14 17 22 23 24 0
1 3 5 7 8 9 12 15 18 23 24 25 0
2 4 6 8 9 11 13 15 20 25 26 0
1 3 5 7 9 10 12 14 16 21 26 0
2 4 6 8 10 11 13 14 15 17 22 0
1 3 5 7 9 11 12 15 16 18 23 0
2 4 6 8 10 12 13 16 17 19 24 0
1 3 5 7 9 11 13 17 18 20 25 0
1 2 4 6 8 10 12 18 19 21 26 0
2 3 5 7 9 11 13 14 19 20 22 0
1 3 4 6 8 10 12 15 20 21 23 0
2 4 5 7 9 11 13 16 21 22 24 0
1 3 5 6 8 10 12 17 22 23 25 0
2 4 6 7 9 11 13 18 23 24 26 0
1 3 5 7 8 10 12 14 19 24 25 0
2 4 6 7 9 11 13 15 16 21 26 0
1 3 5 7 8 10 12 14 16 17 22 0
2 4 6 8 9 11 13 15 17 18 23 0
1 3 5 7 9 10 12 16 18 19 24 0
2 4 6 8 10 11 13 17 19 20 25 0
1 3 5 7 9 11 12 18 20 21 26 0
2 4 6 8 10 12 13 14 19 21 22 0
1 3 5 7 9 11 13 15 20 22 23 0
1 2 4 6 8 10 12 16 21 23 24 0
2 3 5 7 9 11 13 17 22 24 25 0
1 3 4 6 8 10 12 18 23 25 26 0
2 4 5 7 9 11 13 14 19 24 26 0
1 3 5 6 8 10 12 14 15 20 25 0
2 4 6 8 9 11 13 15 16 24 25 26 0
1 3 5 7 9 10 12 14 16 17 25 26 0
2 4 6 8 10 11 13 14 15 17 18 26 0
1 3 5 7 9 11 12 14 15 16 18 19 0
2 4 6 8 10 12 13 15 16 17 19 20 0
1 3 5 7 9 11 13 16 17 18 20 21 0
1 2 4 6 8 10 12 17 18 19 21 22 0
2 3 5 7 9 11 13 18 19 20 22 23 0
1 3 4 6 8 10 12 19 20 21 23 24 0
2 4 5 7 9 11 13 20 21 22 24 25 0
1 3 5 6 8 10 12 21 22 23 25 26 0
2 4 6 7 9 11 13 14 22 23 24 26 0
1 3 5 7 8 10 12 14 15 23 24 25 0
2 4 6 7 9 11 13 15 16 17 25 26 0
1 3 5 7 8 10 12 14 16 17 18 26 0
2 4 6 8 9 11 13 14 15 17 18 19 0
1 3 5 7 9 10 12 15 16 18 19 20 0
2 4 6 8 10 11 13 16 17 19 20 21 0
1 3 5 7 9 11 12 17 18 20 21 22 0
2 4 6 8 10 12 13 18 19 21 22 23 0
1 3 5 7 9 11 13 19 20 22 23 24 0
1 2 4 6 8 10 12 20 21 23 24 25 0
2 3 5 7 9 11 13 21 22 24 25 26 0
1 3 4 6 8 10 12 14 22 23 25 26 0
2 4 5 7 9 11 13 14 15 23 24 26 0
1 3 5 6 8 10 12 14 15 16 24 25 0
2 4 6 8 9 11 12 13 15 16 17 24 26 0
1 3 5 7 9 10 12 13 14 16 17 18 25 0
1 2 4 6 8 10 11 13 15 17 18 19 26 0
1 2 3 5 7 9 11 12 14 16 18 19 20 0
2 3 4 6 8 10 12 13 15 17 19 20 21 0
1 3 4 5 7 9 11 13 16 18 20 21 22 0
1 2 4 5 6 8 10 12 17 19 21 22 23 0
2 3 5 6 7 9 11 13 18 20 22 23 24 0
1 3 4 6 7 8 10 12 19 21 23 24 25 0
2 4 5 7 8 9 11 13 20 22 24 25 26 0
1 3 5 6 8 9 10 12 14 21 23 25 26 0
2 4 6 7 9 10 11 13 14 15 22 24 26 0
1 3 5 7 8 10 11 12 14 15 16 23 25 0
2 3 4 6 7 9 11 13 15 17 24 25 26 0
1 3 4 5 7 8 10 12 14 16 18 25 26 0
2 4 5 6 8 9 11 13 14 15 17 19 26 0
1 3 5 6 7 9 10 12 14 15 16 18 20 0
2 4 6 7 8 10 11 13 15 16 17 19 21 0
1 3 5 7 8 9 11 12 16 17 18 20 22 0
2 4 6 8 9 10 12 13 17 18 19 21 23 0
1 3 5 7 9 10 11 13 18 19 20 22 24 0
1 2 4 6 8 10 11 12 19 20 21 23 25 0
2 3 5 7 9 11 12 13 20 21 22 24 26 0
1 3 4 6 8 10 12 13 14 21 22 23 25 0
1 2 4 5 7 9 11 13 15 22 23 24 26 0
1 2 3 5 6 8 10 12 14 16 23 24 25 0
2 4 6 12 13 15 17 20 24 25 0
1 3 5 7 13 16 18 21 25 26 0
1 2 4 6 8 14 17 19 22 26 0
2 3 5 7 9 14 15 18 20 23 0
3 4 6 8 10 15 16 19 21 24 0
4 5 7 9 11 16 17 20 22 25 0
5 6 8 10 12 17 18 21 23 26 0
6 7 9 11 13 14 18 19 22 24 0
1 7 8 10 12 15 19 20 23 25 0
2 8 9 11 13 16 20 21 24 26 0
1 3 9 10 12 14 17 21 22 25 0
2 4 10 11 13 15 18 22 23 26 0
1 3 5 11 12 14 16 19 23 24 0
2 3 9 11 13 16 17 21 24 26 0
1 3 4 10 12 14 17 18 22 25 0
2 4 5 11 13 15 18 19 23 26 0
1 3 5 6 12 14 16 19 20 24 0
2 4 6 7 13 15 17 20 21 25 0
1 3 5 7 8 16 18 21 22 26 0
2 4 6 8 9 14 17 19 22 23 0
3 5 7 9 10 15 18 20 23 24 0
4 6 8 10 11 16 19 21 24 25 0
5 7 9 11 12 17 20 22 25 26 0
6 8 10 12 13 14 18 21 23 26 0
1 7 9 11 13 14 15 19 22 24 0
1 2 8 10 12 15 16 20 23 25 0
2 4 6 7 12 13 15 17 21 24 0
1 3 5 7 8 13 16 18 22 25 0
1 2 4 6 8 9 17 19 23 26 0
2 3 5 7 9 10 14 18 20 24 0
3 4 6 8 10 11 15 19 21 25 0
4 5 7 9 11 12 16 20 22 26 0
5 6 8 10 12 13 14 17 21 23 0
1 6 7 9 11 13 15 18 22 24 0
1 2 7 8 10 12 16 19 23 25 0
2 3 8 9 11 13 17 20 24 26 0
1 3 4 9 10 12 14 18 21 25 0
2 4 5 10 11 13 15 19 22 26 0
1 3 5 6 11 12 14 16 20 23 0
2 4 5 8 10 12 13 15 16 19 20 21 22 0
1 3 5 6 9 11 13 16 17 20 21 22 23 0
1 2 4 6 7 10 12 17 18 21 22 23 24 0
2 3 5 7 8 11 13 18 19 22 23 24 25 0
1 3 4 6 8 9 12 19 20 23 24 25 26 0
2 4 5 7 9 10 13 14 20 21 24 25 26 0
1 3 5 6 8 10 11 14 15 21 22 25 26 0
2 4 6 7 9 11 12 14 15 16 22 23 26 0
3 5 7 8 10 12 13 14 15 16 17 23 24 0
1 4 6 8 9 11 13 15 16 17 18 24 25 0
1 2 5 7 9 10 12 16 17 18 19 25 26 0
2 3 6 8 10 11 13 14 17 18 19 20 26 0
1 3 4 7 9 11 12 14 15 18 19 20 21 0
2 3 5 7 10 11 13 19 20 21 22 25 26 0
1 3 4 6 8 11 12 14 20 21 22 23 26 0
2 4 5 7 9 12 13 14 15 21 22 23 24 0
1 3 5 6 8 10 13 15 16 22 23 24 25 0
1 2 4 6 7 9 11 16 17 23 24 25 26 0
2 3 5 7 8 10 12 14 17 18 24 25 26 0
3 4 6 8 9 11 13 14 15 18 19 25 26 0
1 4 5 7 9 10 12 14 15 16 19 20 26 0
2 5 6 8 10 11 13 14 15 16 17 20 21 0
1 3 6 7 9 11 12 15 16 17 18 21 22 0
2 4 7 8 10 12 13 16 17 18 19 22 23 0
1 3 5 8 9 11 13 17 18 19 20 23 24 0
1 2 4 6 9 10 12 18 19 20 21 24 25 0
2 4 6 7 9 10 12 13 16 19 26 0
1 3 5 7 8 10 11 13 14 17 20 0
1 2 4 6 8 9 11 12 15 18 21 0
2 3 5 7 9 10 12 13 16 19 22 0
1 3 4 6 8 10 11 13 17 20 23 0
1 2 4 5 7 9 11 12 18 21 24 0
2 3 5 6 8 10 12 13 19 22 25 0
1 3 4 6 7 9 11 13 20 23 26 0
1 2 4 5 7 8 10 12 14 21 24 0
2 3 5 6 8 9 11 13 15 22 25 0
1 3 4 6 7 9 10 12 16 23 26 0
2 4 5 7 8 10 11 13 14 17 24 0
1 3 5 6 8 9 11 12 15 18 25 0
7 8 10 11 19 20 24 25 0
8 9 11 12 20 21 25 26 0
9 10 12 13 14 21 22 26 0
1 10 11 13 14 15 22 23 0
1 2 11 12 15 16 23 24 0
2 3 12 13 16 17 24 25 0
1 3 4 13 17 18 25 26 0
1 2 4 5 14 18 19 26 0
2 3 5 6 14 15 19 20 0
3 4 6 7 15 16 20 21 0
4 5 7 8 16 17 21 22 0
5 6 8 9 17 18 22 23 0
6 7 9 10 18 19 23 24 0
2 3 5 8 10 11 13 17 19 20 22 0
1 3 4 6 9 11 12 18 20 21 23 0
2 4 5 7 10 12 13 19 21 22 24 0
1 3 5 6 8 11 13 20 22 23 25 0
1 2 4 6 7 9 12 21 23 24 26 0
2 3 5 7 8 10 13 14 22 24 25 0
1 3 4 6 8 9 11 15 23 25 26 0
2 4 5 7 9 10 12 14 16 24 26 0
3 5 6 8 10 11 13 14 15 17 25 0
1 4 6 7 9 11 12 15 16 18 26 0
2 5 7 8 10 12 13 14 16 17 19 0
1 3 6 8 9 11 13 15 17 18 20 0
1 2 4 7 9 10 12 16 18 19 21 0
3 5 7 9 10 11 12 15 16 17 19 22 25 26 0
4 6 8 10 11 12 13 14 16 17 18 20 23 26 0
1 5 7 9 11 12 13 14 15 17 18 19 21 24 0
1 2 6 8 10 12 13 15 16 18 19 20 22 25 0
1 2 3 7 9 11 13 16 17 19 20 21 23 26 0
1 2 3 4 8 10 12 14 17 18 20 21 22 24 0
2 3 4 5 9 11 13 15 18 19 21 22 23 25 0
1 3 4 5 6 10 12 16 19 20 22 23 24 26 0
2 4 5 6 7 11 13 14 17 20 21 23 24 25 0
1 3 5 6 7 8 12 15 18 21 22 24 25 26 0
2 4 6 7 8 9 13 14 16 19 22 23 25 26 0
1 3 5 7 8 9 10 14 15 17 20 23 24 26 0
2 4 6 8 9 10 11 14 15 16 18 21 24 25 0
3 4 5 6 8 10 12 15 16 19 22 24 25 26 0
4 5 6 7 9 11 13 14 16 17 20 23 25 26 0
1 5 6 7 8 10 12 14 15 17 18 21 24 26 0
2 6 7 8 9 11 13 14 15 16 18 19 22 25 0
1 3 7 8 9 10 12 15 16 17 19 20 23 26 0
2 4 8 9 10 11 13 14 16 17 18 20 21 24 0
1 3 5 9 10 11 12 15 17 18 19 21 22 25 0
2 4 6 10 11 12 13 16 18 19 20 22 23 26 0
1 3 5 7 11 12 13 14 17 19 20 21 23 24 0
1 2 4 6 8 12 13 15 18 20 21 22 24 25 0
1 2 3 5 7 9 13 16 19 21 22 23 25 26 0
1 2 3 4 6 8 10 14 17 20 22 23 24 26 0
2 3 4 5 7 9 11 14 15 18 21 23 24 25 0
3 5 7 9 10 11 15 17 19 22 24 25 0
4 6 8 10 11 12 16 18 20 23 25 26 0
5 7 9 11 12 13 14 17 19 21 24 26 0
1 6 8 10 12 13 14 15 18 20 22 25 0
1 2 7 9 11 13 15 16 19 21 23 26 0
1 2 3 8 10 12 14 16 17 20 22 24 0
2 3 4 9 11 13 15 17 18 21 23 25 0
1 3 4 5 10 12 16 18 19 22 24 26 0
2 4 5 6 11 13 14 17 19 20 23 25 0
1 3 5 6 7 12 15 18 20 21 24 26 0
2 4 6 7 8 13 14 16 19 21 22 25 0
1 3 5 7 8 9 15 17 20 22 23 26 0
2 4 6 8 9 10 14 16 18 21 23 24 0
4 5 6 8 10 12 16 17 19 22 24 26 0
5 6 7 9 11 13 14 17 18 20 23 25 0
1 6 7 8 10 12 15 18 19 21 24 26 0
2 7 8 9 11 13 14 16 19 20 22 25 0
1 3 8 9 10 12 15 17 20 21 23 26 0
2 4 9 10 11 13 14 16 18 21 22 24 0
1 3 5 10 11 12 15 17 19 22 23 25 0
2 4 6 11 12 13 16 18 20 23 24 26 0
1 3 5 7 12 13 14 17 19 21 24 25 0
1 2 4 6 8 13 15 18 20 22 25 26 0
1 2 3 5 7 9 14 16 19 21 23 26 0
2 3 4 6 8 10 14 15 17 20 22 24 0
3 4 5 7 9 11 15 16 18 21 23 25 0
3 5 6 8 9 11 12 15 16 17 22 24 26 0
4 6 7 9 10 12 13 14 16 17 18 23 25 0
1 5 7 8 10 11 13 15 17 18 19 24 26 0
1 2 6 8 9 11 12 14 16 18 19 20 25 0
2 3 7 9 10 12 13 15 17 19 20 21 26 0
1 3 4 8 10 11 13 14 16 18 20 21 22 0
1 2 4 5 9 11 12 15 17 19 21 22 23 0
2 3 5 6 10 12 13 16 18 20 22 23 24 0
1 3 4 6 7 11 13 17 19 21 23 24 25 0
1 2 4 5 7 8 12 18 20 22 24 25 26 0
2 3 5 6 8 9 13 14 19 21 23 25 26 0
1 3 4 6 7 9 10 14 15 20 22 24 26 0
2 4 5 7 8 10 11 14 15 16 21 23 25 0
3 4 6 7 9 10 12 15 17 19 24 25 26 0
4 5 7 8 10 11 13 14 16 18 20 25 26 0
1 5 6 8 9 11 12 14 15 17 19 21 26 0
2 6 7 9 10 12 13 14 15 16 18 20 22 0
1 3 7 8 10 11 13 15 16 17 19 21 23 0
1 2 4 8 9 11 12 16 17 18 20 22 24 0
2 3 5 9 10 12 13 17 18 19 21 23 25 0
1 3 4 6 10 11 13 18 19 20 22 24 26 0
1 2 4 5 7 11 12 14 19 20 21 23 25 0
2 3 5 6 8 12 13 15 20 21 22 24 26 0
1 3 4 6 7 9 13 14 16 21 22 23 25 0
1 2 4 5 7 8 10 15 17 22 23 24 26 0
2 3 5 6 8 9 11 14 16 18 23 24 25 0
3 5 8 10 15 17 19 20 22 24 0
4 6 9 11 16 18 20 21 23 25 0
5 7 10 12 17 19 21 22 24 26 0
6 8 11 13 14 18 20 22 23 25 0
1 7 9 12 15 19 21 23 24 26 0
2 8 10 13 14 16 20 22 24 25 0
1 3 9 11 15 17 21 23 25 26 0
2 4 10 12 14 16 18 22 24 26 0
3 5 11 13 14 15 17 19 23 25 0
1 4 6 12 15 16 18 20 24 26 0
2 5 7 13 14 16 17 19 21 25 0
1 3 6 8 15 17 18 20 22 26 0
2 4 7 9 14 16 18 19 21 23 0
3 5 6 8 9 11 12 15 16 21 22 24 26 0
4 6 7 9 10 12 13 14 16 17 22 23 25 0
1 5 7 8 10 11 13 15 17 18 23 24 26 0
1 2 6 8 9 11 12 14 16 18 19 24 25 0
2 3 7 9 10 12 13 15 17 19 20 25 26 0
1 3 4 8 10 11 13 14 16 18 20 21 26 0
1 2 4 5 9 11 12 14 15 17 19 21 22 0
2 3 5 6 10 12 13 15 16 18 20 22 23 0
1 3 4 6 7 11 13 16 17 19 21 23 24 0
1 2 4 5 7 8 12 17 18 20 22 24 25 0
2 3 5 6 8 9 13 18 19 21 23 25 26 0
1 3 4 6 7 9 10 14 19 20 22 24 26 0
2 4 5 7 8 10 11 14 15 20 21 23 25 0
3 4 6 7 9 10 12 15 17 19 20 25 26 0
4 5 7 8 10 11 13 14 16 18 20 21 26 0
1 5 6 8 9 11 12 14 15 17 19 21 22 0
2 6 7 9 10 12 13 15 16 18 20 22 23 0
1 3 7 8 10 11 13 16 17 19 21 23 24 0
1 2 4 8 9 11 12 17 18 20 22 24 25 0
2 3 5 9 10 12 13 18 19 21 23 25 26 0
1 3 4 6 10 11 13 14 19 20 22 24 26 0
1 2 4 5 7 11 12 14 15 20 21 23 25 0
2 3 5 6 8 12 13 15 16 21 22 24 26 0
1 3 4 6 7 9 13 14 16 17 22 23 25 0
1 2 4 5 7 8 10 15 17 18 23 24 26 0
2 3 5 6 8 9 11 14 16 18 19 24 25 0
3 5 6 7 9 11 12 15 21 22 24 25 26 0
4 6 7 8 10 12 13 14 16 22 23 25 26 0
1 5 7 8 9 11 13 14 15 17 23 24 26 0
1 2 6 8 9 10 12 14 15 16 18 24 25 0
2 3 7 9 10 11 13 15 16 17 19 25 26 0
1 3 4 8 10 11 12 14 16 17 18 20 26 0
2 4 5 9 11 12 13 14 15 17 18 19 21 0
1 3 5 6 10 12 13 15 16 18 19 20 22 0
1 2 4 6 7 11 13 16 17 19 20 21 23 0
1 2 3 5 7 8 12 17 18 20 21 22 24 0
2 3 4 6 8 9 13 18 19 21 22 23 25 0
1 3 4 5 7 9 10 19 20 22 23 24 26 0
2 4 5 6 8 10 11 14 20 21 23 24 25 0
3 4 6 8 9 10 12 15 16 17 19 20 26 0
4 5 7 9 10 11 13 14 16 17 18 20 21 0
1 5 6 8 10 11 12 15 17 18 19 21 22 0
2 6 7 9 11 12 13 16 18 19 20 22 23 0
1 3 7 8 10 12 13 17 19 20 21 23 24 0
1 2 4 8 9 11 13 18 20 21 22 24 25 0
1 2 3 5 9 10 12 19 21 22 23 25 26 0
2 3 4 6 10 11 13 14 20 22 23 24 26 0
1 3 4 5 7 11 12 14 15 21 23 24 25 0
2 4 5 6 8 12 13 15 16 22 24 25 26 0
1 3 5 6 7 9 13 14 16 17 23 25 26 0
1 2 4 6 7 8 10 14 15 17 18 24 26 0
2 3 5 7 8 9 11 14 15 16 18 19 25 0
3 5 6 9 11 15 17 20 21 22 25 0
4 6 7 10 12 16 18 21 22 23 26 0
5 7 8 11 13 14 17 19 22 23 24 0
1 6 8 9 12 15 18 20 23 24 25 0
2 7 9 10 13 16 19 21 24 25 26 0
1 3 8 10 11 14 17 20 22 25 26 0
2 4 9 11 12 14 15 18 21 23 26 0
3 5 10 12 13 14 15 16 19 22 24 0
1 4 6 11 13 15 16 17 20 23 25 0
1 2 5 7 12 16 17 18 21 24 26 0
2 3 6 8 13 14 17 18 19 22 25 0
1 3 4 7 9 15 18 19 20 23 26 0
2 4 5 8 10 14 16 19 20 21 24 0
4 6 9 10 12 16 19 20 21 24 26 0
5 7 10 11 13 14 17 20 21 22 25 0
1 6 8 11 12 15 18 21 22 23 26 0
2 7 9 12 13 14 16 19 22 23 24 0
1 3 8 10 13 15 17 20 23 24 25 0
1 2 4 9 11 16 18 21 24 25 26 0
2 3 5 10 12 14 17 19 22 25 26 0
3 4 6 11 13 14 15 18 20 23 26 0
1 4 5 7 12 14 15 16 19 21 24 0
2 5 6 8 13 15 16 17 20 22 25 0
1 3 6 7 9 16 17 18 21 23 26 0
2 4 7 8 10 14 17 18 19 22 24 0
3 5 8 9 11 15 18 19 20 23 25 0
3 5 8 10 12 15 19 20 21 22 26 0
4 6 9 11 13 14 16 20 21 22 23 0
1 5 7 10 12 15 17 21 22 23 24 0
2 6 8 11 13 16 18 22 23 24 25 0
1 3 7 9 12 17 19 23 24 25 26 0
2 4 8 10 13 14 18 20 24 25 26 0
1 3 5 9 11 14 15 19 21 25 26 0
2 4 6 10 12 14 15 16 20 22 26 0
3 5 7 11 13 14 15 16 17 21 23 0
1 4 6 8 12 15 16 17 18 22 24 0
2 5 7 9 13 16 17 18 19 23 25 0
1 3 6 8 10 17 18 19 20 24 26 0
2 4 7 9 11 14 18 19 20 21 25 0
3 5 7 10 12 15 19 20 21 22 26 0
4 6 8 11 13 14 16 20 21 22 23 0
1 5 7 9 12 15 17 21 22 23 24 0
2 6 8 10 13 16 18 22 23 24 25 0
1 3 7 9 11 17 19 23 24 25 26 0
2 4 8 10 12 14 18 20 24 25 26 0
3 5 9 11 13 14 15 19 21 25 26 0
1 4 6 10 12 14 15 16 20 22 26 0
2 5 7 11 13 14 15 16 17 21 23 0
1 3 6 8 12 15 16 17 18 22 24 0
2 4 7 9 13 16 17 18 19 23 25 0
1 3 5 8 10 17 18 19 20 24 26 0
2 4 6 9 11 14 18 19 20 21 25 0
3 5 6 9 11 12 15 20 21 22 26 0
4 6 7 10 12 13 14 16 21 22 23 0
1 5 7 8 11 13 15 17 22 23 24 0
1 2 6 8 9 12 16 18 23 24 25 0
2 3 7 9 10 13 17 19 24 25 26 0
1 3 4 8 10 11 14 18 20 25 26 0
2 4 5 9 11 12 14 15 19 21 26 0
3 5 6 10 12 13 14 15 16 20 22 0
1 4 6 7 11 13 15 16 17 21 23 0
1 2 5 7 8 12 16 17 18 22 24 0
2 3 6 8 9 13 17 18 19 23 25 0
1 3 4 7 9 10 18 19 20 24 26 0
2 4 5 8 10 11 14 19 20 21 25 0
3 4 6 9 10 12 15 19 20 21 26 0
4 5 7 10 11 13 14 16 20 21 22 0
1 5 6 8 11 12 15 17 21 22 23 0
2 6 7 9 12 13 16 18 22 23 24 0
1 3 7 8 10 13 17 19 23 24 25 0
1 2 4 8 9 11 18 20 24 25 26 0
2 3 5 9 10 12 14 19 21 25 26 0
3 4 6 10 11 13 14 15 20 22 26 0
1 4 5 7 11 12 14 15 16 21 23 0
2 5 6 8 12 13 15 16 17 22 24 0
1 3 6 7 9 13 16 17 18 23 25 0
1 2 4 7 8 10 17 18 19 24 26 0
2 3 5 8 9 11 14 18 19 20 25 0
3 4 6 8 9 11 12 15 16 24 25 26 0
4 5 7 9 10 12 13 14 16 17 25 26 0
1 5 6 8 10 11 13 14 15 17 18 26 0
1 2 6 7 9 11 12 14 15 16 18 19 0
2 3 7 8 10 12 13 15 16 17 19 20 0
1 3 4 8 9 11 13 16 17 18 20 21 0
1 2 4 5 9 10 12 17 18 19 21 22 0
2 3 5 6 10 11 13 18 19 20 22 23 0
1 3 4 6 7 11 12 19 20 21 23 24 0
2 4 5 7 8 12 13 20 21 22 24 25 0
1 3 5 6 8 9 13 21 22 23 25 26 0
1 2 4 6 7 9 10 14 22 23 24 26 0
2 3 5 7 8 10 11 14 15 23 24 25 0
3 4 6 7 9 11 12 15 16 17 25 26 0
4 5 7 8 10 12 13 14 16 17 18 26 0
1 5 6 8 9 11 13 14 15 17 18 19 0
1 2 6 7 9 10 12 15 16 18 19 20 0
2 3 7 8 10 11 13 16 17 19 20 21 0
1 3 4 8 9 11 12 17 18 20 21 22 0
2 4 5 9 10 12 13 18 19 21 22 23 0
1 3 5 6 10 11 13 19 20 22 23 24 0
1 2 4 6 7 11 12 20 21 23 24 25 0
2 3 5 7 8 12 13 21 22 24 25 26 0
1 3 4 6 8 9 13 14 22 23 25 26 0
1 2 4 5 7 9 10 14 15 23 24 26 0
2 3 5 6 8 10 11 14 15 16 24 25 0
3 5 6 8 12 15 17 20 22 24 25 26 0
4 6 7 9 13 14 16 18 21 23 25 26 0
1 5 7 8 10 14 15 17 19 22 24 26 0
2 6 8 9 11 14 15 16 18 20 23 25 0
3 7 9 10 12 15 16 17 19 21 24 26 0
4 8 10 11 13 14 16 17 18 20 22 25 0
1 5 9 11 12 15 17 18 19 21 23 26 0
2 6 10 12 13 14 16 18 19 20 22 24 0
1 3 7 11 13 15 17 19 20 21 23 25 0
1 2 4 8 12 16 18 20 21 22 24 26 0
2 3 5 9 13 14 17 19 21 22 23 25 0
1 3 4 6 10 15 18 20 22 23 24 26 0
2 4 5 7 11 14 16 19 21 23 24 25 0
3 5 8 10 12 15 17 19 20 22 25 26 0
4 6 9 11 13 14 16 18 20 21 23 26 0
1 5 7 10 12 14 15 17 19 21 22 24 0
2 6 8 11 13 15 16 18 20 22 23 25 0
1 3 7 9 12 16 17 19 21 23 24 26 0
2 4 8 10 13 14 17 18 20 22 24 25 0
1 3 5 9 11 15 18 19 21 23 25 26 0
2 4 6 10 12 14 16 19 20 22 24 26 0
3 5 7 11 13 14 15 17 20 21 23 25 0
1 4 6 8 12 15 16 18 21 22 24 26 0
2 5 7 9 13 14 16 17 19 22 23 25 0
1 3 6 8 10 15 17 18 20 23 24 26 0
2 4 7 9 11 14 16 18 19 21 24 25 0
3 5 7 10 12 15 16 19 21 22 24 26 0
4 6 8 11 13 14 16 17 20 22 23 25 0
1 5 7 9 12 15 17 18 21 23 24 26 0
2 6 8 10 13 14 16 18 19 22 24 25 0
1 3 7 9 11 15 17 19 20 23 25 26 0
2 4 8 10 12 14 16 18 20 21 24 26 0
3 5 9 11 13 14 15 17 19 21 22 25 0
1 4 6 10 12 15 16 18 20 22 23 26 0
2 5 7 11 13 14 16 17 19 21 23 24 0
1 3 6 8 12 15 17 18 20 22 24 25 0
2 4 7 9 13 16 18 19 21 23 25 26 0
1 3 5 8 10 14 17 19 20 22 24 26 0
2 4 6 9 11 14 15 18 20 21 23 25 0
3 5 6 10 12 15 17 19 20 22 25 26 0
4 6 7 11 13 14 16 18 20 21 23 26 0
1 5 7 8 12 14 15 17 19 21 22 24 0
2 6 8 9 13 15 16 18 20 22 23 25 0
1 3 7 9 10 16 17 19 21 23 24 26 0
2 4 8 10 11 14 17 18 20 22 24 25 0
3 5 9 11 12 15 18 19 21 23 25 26 0
4 6 10 12 13 14 16 19 20 22 24 26 0
1 5 7 11 13 14 15 17 20 21 23 25 0
1 2 6 8 12 15 16 18 21 22 24 26 0
2 3 7 9 13 14 16 17 19 22 23 25 0
1 3 4 8 10 15 17 18 20 23 24 26 0
2 4 5 9 11 14 16 18 19 21 24 25 0
3 5 9 10 12 15 16 19 21 22 24 26 0
4 6 10 11 13 14 16 17 20 22 23 25 0
1 5 7 11 12 15 17 18 21 23 24 26 0
2 6 8 12 13 14 16 18 19 22 24 25 0
1 3 7 9 13 15 17 19 20 23 25 26 0
1 2 4 8 10 14 16 18 20 21 24 26 0
2 3 5 9 11 14 15 17 19 21 22 25 0
3 4 6 10 12 15 16 18 20 22 23 26 0
4 5 7 11 13 14 16 17 19 21 23 24 0
1 5 6 8 12 15 17 18 20 22 24 25 0
2 6 7 9 13 16 18 19 21 23 25 26 0
1 3 7 8 10 14 17 19 20 22 24 26 0
2 4 8 9 11 14 15 18 20 21 23 25 0
2 5 6 9 10 13 16 17 19 20 21 22 24 25 0
1 3 6 7 10 11 17 18 20 21 22 23 25 26 0
2 4 7 8 11 12 14 18 19 21 22 23 24 26 0
3 5 8 9 12 13 14 15 19 20 22 23 24 25 0
1 4 6 9 10 13 15 16 20 21 23 24 25 26 0
1 2 5 7 10 11 14 16 17 21 22 24 25 26 0
2 3 6 8 11 12 14 15 17 18 22 23 25 26 0
3 4 7 9 12 13 14 15 16 18 19 23 24 26 0
1 4 5 8 10 13 14 15 16 17 19 20 24 25 0
1 2 5 6 9 11 15 16 17 18 20 21 25 26 0
2 3 6 7 10 12 14 16 17 18 19 21 22 26 0
3 4 7 8 11 13 14 15 17 18 19 20 22 23 0
1 4 5 8 9 12 15 16 18 19 20 21 23 24 0
5 8 11 12 17 18 19 20 22 23 24 25 26 0
6 9 12 13 14 18 19 20 21 23 24 25 26 0
1 7 10 13 14 15 19 20 21 22 24 25 26 0
1 2 8 11 14 15 16 20 21 22 23 25 26 0
2 3 9 12 14 15 16 17 21 22 23 24 26 0
3 4 10 13 14 15 16 17 18 22 23 24 25 0
1 4 5 11 15 16 17 18 19 23 24 25 26 0
2 5 6 12 14 16 17 18 19 20 24 25 26 0
3 6 7 13 14 15 17 18 19 20 21 25 26 0
1 4 7 8 14 15 16 18 19 20 21 22 26 0
2 5 8 9 14 15 16 17 19 20 21 22 23 0
3 6 9 10 15 16 17 18 20 21 22 23 24 0
4 7 10 11 16 17 18 19 21 22 23 24 25 0
3 4 7 10 15 16 17 18 19 21 22 23 24 0
4 5 8 11 16 17 18 19 20 22 23 24 25 0
5 6 9 12 17 18 19 20 21 23 24 25 26 0
6 7 10 13 14 18 19 20 21 22 24 25 26 0
1 7 8 11 14 15 19 20 21 22 23 25 26 0
2 8 9 12 14 15 16 20 21 22 23 24 26 0
3 9 10 13 14 15 16 17 21 22 23 24 25 0
1 4 10 11 15 16 17 18 22 23 24 25 26 0
2 5 11 12 14 16 17 18 19 23 24 25 26 0
3 6 12 13 14 15 17 18 19 20 24 25 26 0
1 4 7 13 14 15 16 18 19 20 21 25 26 0
1 2 5 8 14 15 16 17 19 20 21 22 26 0
2 3 6 9 14 15 16 17 18 20 21 22 23 0
4 7 9 12 16 18 19 23 24 26 0
5 8 10 13 14 17 19 20 24 25 0
1 6 9 11 15 18 20 21 25 26 0
2 7 10 12 14 16 19 21 22 26 0
3 8 11 13 14 15 17 20 22 23 0
1 4 9 12 15 16 18 21 23 24 0
2 5 10 13 16 17 19 22 24 25 0
1 3 6 11 17 18 20 23 25 26 0
2 4 7 12 14 18 19 21 24 26 0
3 5 8 13 14 15 19 20 22 25 0
1 4 6 9 15 16 20 21 23 26 0
2 5 7 10 14 16 17 21 22 24 0
3 6 8 11 15 17 18 22 23 25 0
4 7 8 11 12 16 18 19 22 23 24 25 26 0
5 8 9 12 13 14 17 19 20 23 24 25 26 0
1 6 9 10 13 14 15 18 20 21 24 25 26 0
1 2 7 10 11 14 15 16 19 21 22 25 26 0
2 3 8 11 12 14 15 16 17 20 22 23 26 0
3 4 9 12 13 14 15 16 17 18 21 23 24 0
1 4 5 10 13 15 16 17 18 19 22 24 25 0
1 2 5 6 11 16 17 18 19 20 23 25 26 0
2 3 6 7 12 14 17 18 19 20 21 24 26 0
3 4 7 8 13 14 15 18 19 20 21 22 25 0
1 4 5 8 9 15 16 19 20 21 22 23 26 0
2 5 6 9 10 14 16 17 20 21 22 23 24 0
3 6 7 10 11 15 17 18 21 22 23 24 25 0
3 4 7 8 11 15 16 17 18 19 22 23 25 0
4 5 8 9 12 16 17 18 19 20 23 24 26 0
5 6 9 10 13 14 17 18 19 20 21 24 25 0
1 6 7 10 11 15 18 19 20 21 22 25 26 0
2 7 8 11 12 14 16 19 20 21 22 23 26 0
3 8 9 12 13 14 15 17 20 21 22 23 24 0
1 4 9 10 13 15 16 18 21 22 23 24 25 0
1 2 5 10 11 16 17 19 22 23 24 25 26 0
2 3 6 11 12 14 17 18 20 23 24 25 26 0
3 4 7 12 13 14 15 18 19 21 24 25 26 0
1 4 5 8 13 14 15 16 19 20 22 25 26 0
1 2 5 6 9 14 15 16 17 20 21 23 26 0
2 3 6 7 10 14 15 16 17 18 21 22 24 0
4 7 11 12 16 18 19 21 23 24 26 0
5 8 12 13 14 17 19 20 22 24 25 0
1 6 9 13 15 18 20 21 23 25 26 0
1 2 7 10 14 16 19 21 22 24 26 0
2 3 8 11 14 15 17 20 22 23 25 0
3 4 9 12 15 16 18 21 23 24 26 0
4 5 10 13 14 16 17 19 22 24 25 0
1 5 6 11 15 17 18 20 23 25 26 0
2 6 7 12 14 16 18 19 21 24 26 0
3 7 8 13 14 15 17 19 20 22 25 0
1 4 8 9 15 16 18 20 21 23 26 0
2 5 9 10 14 16 17 19 21 22 24 0
3 6 10 11 15 17 18 20 22 23 25 0
3 4 8 11 15 17 18 20 22 23 25 0
4 5 9 12 16 18 19 21 23 24 26 0
5 6 10 13 14 17 19 20 22 24 25 0
1 6 7 11 15 18 20 21 23 25 26 0
2 7 8 12 14 16 19 21 22 24 26 0
3 8 9 13 14 15 17 20 22 23 25 0
1 4 9 10 15 16 18 21 23 24 26 0
2 5 10 11 14 16 17 19 22 24 25 0
3 6 11 12 15 17 18 20 23 25 26 0
4 7 12 13 14 16 18 19 21 24 26 0
1 5 8 13 14 15 17 19 20 22 25 0
1 2 6 9 15 16 18 20 21 23 26 0
2 3 7 10 14 16 17 19 21 22 24 0
4 6 10 12 16 17 18 19 20 22 23 24 25 26 0
5 7 11 13 14 17 18 19 20 21 23 24 25 26 0
1 6 8 12 14 15 18 19 20 21 22 24 25 26 0
2 7 9 13 14 15 16 19 20 21 22 23 25 26 0
1 3 8 10 14 15 16 17 20 21 22 23 24 26 0
2 4 9 11 14 15 16 17 18 21 22 23 24 25 0
3 5 10 12 15 16 17 18 19 22 23 24 25 26 0
4 6 11 13 14 16 17 18 19 20 23 24 25 26 0
1 5 7 12 14 15 17 18 19 20 21 24 25 26 0
2 6 8 13 14 15 16 18 19 20 21 22 25 26 0
1 3 7 9 14 15 16 17 19 20 21 22 23 26 0
2 4 8 10 14 15 16 17 18 20 21 22 23 24 0
3 5 9 11 15 16 17 18 19 21 22 23 24 25 0
3 4 7 10 12 15 18 19 20 21 22 23 26 0
4 5 8 11 13 14 16 19 20 21 22 23 24 0
1 5 6 9 12 15 17 20 21 22 23 24 25 0
2 6 7 10 13 16 18 21 22 23 24 25 26 0
1 3 7 8 11 14 17 19 22 23 24 25 26 0
2 4 8 9 12 14 15 18 20 23 24 25 26 0
3 5 9 10 13 14 15 16 19 21 24 25 26 0
1 4 6 10 11 14 15 16 17 20 22 25 26 0
2 5 7 11 12 14 15 16 17 18 21 23 26 0
3 6 8 12 13 14 15 16 17 18 19 22 24 0
1 4 7 9 13 15 16 17 18 19 20 23 25 0
1 2 5 8 10 16 17 18 19 20 21 24 26 0
2 3 6 9 11 14 17 18 19 20 21 22 25 0
3 5 8 11 12 15 18 19 20 21 22 23 26 0
4 6 9 12 13 14 16 19 20 21 22 23 24 0
1 5 7 10 13 15 17 20 21 22 23 24 25 0
1 2 6 8 11 16 18 21 22 23 24 25 26 0
2 3 7 9 12 14 17 19 22 23 24 25 26 0
3 4 8 10 13 14 15 18 20 23 24 25 26 0
1 4 5 9 11 14 15 16 19 21 24 25 26 0
2 5 6 10 12 14 15 16 17 20 22 25 26 0
3 6 7 11 13 14 15 16 17 18 21 23 26 0
1 4 7 8 12 14 15 16 17 18 19 22 24 0
2 5 8 9 13 15 16 17 18 19 20 23 25 0
1 3 6 9 10 16 17 18 19 20 21 24 26 0
2 4 7 10 11 14 17 18 19 20 21 22 25 0
3 5 8 9 12 15 18 19 20 21 23 24 26 0
4 6 9 10 13 14 16 19 20 21 22 24 25 0
1 5 7 10 11 15 17 20 21 22 23 25 26 0
2 6 8 11 12 14 16 18 21 22 23 24 26 0
3 7 9 12 13 14 15 17 19 22 23 24 25 0
1 4 8 10 13 15 16 18 20 23 24 25 26 0
1 2 5 9 11 14 16 17 19 21 24 25 26 0
2 3 6 10 12 14 15 17 18 20 22 25 26 0
3 4 7 11 13 14 15 16 18 19 21 23 26 0
1 4 5 8 12 14 15 16 17 19 20 22 24 0
2 5 6 9 13 15 16 17 18 20 21 23 25 0
1 3 6 7 10 16 17 18 19 21 22 24 26 0
2 4 7 8 11 14 17 18 19 20 22 23 25 0
3 6 7 10 12 15 17 18 20 21 22 23 26 0
4 7 8 11 13 14 16 18 19 21 22 23 24 0
1 5 8 9 12 15 17 19 20 22 23 24 25 0
2 6 9 10 13 16 18 20 21 23 24 25 26 0
1 3 7 10 11 14 17 19 21 22 24 25 26 0
2 4 8 11 12 14 15 18 20 22 23 25 26 0
3 5 9 12 13 14 15 16 19 21 23 24 26 0
1 4 6 10 13 14 15 16 17 20 22 24 25 0
1 2 5 7 11 15 16 17 18 21 23 25 26 0
2 3 6 8 12 14 16 17 18 19 22 24 26 0
3 4 7 9 13 14 15 17 18 19 20 23 25 0
1 4 5 8 10 15 16 18 19 20 21 24 26 0
2 5 6 9 11 14 16 17 19 20 21 22 25 0
3 6 9 12 15 17 18 20 21 23 24 26 0
4 7 10 13 14 16 18 19 21 22 24 25 0
1 5 8 11 15 17 19 20 22 23 25 26 0
2 6 9 12 14 16 18 20 21 23 24 26 0
3 7 10 13 14 15 17 19 21 22 24 25 0
1 4 8 11 15 16 18 20 22 23 25 26 0
2 5 9 12 14 16 17 19 21 23 24 26 0
3 6 10 13 14 15 17 18 20 22 24 25 0
1 4 7 11 15 16 18 19 21 23 25 26 0
2 5 8 12 14 16 17 19 20 22 24 26 0
3 6 9 13 14 15 17 18 20 21 23 25 0
1 4 7 10 15 16 18 19 21 22 24 26 0
2 5 8 11 14 16 17 19 20 22 23 25 0
3 5 7 10 12 15 18 21 22 23 24 25 26 0
4 6 8 11 13 14 16 19 22 23 24 25 26 0
1 5 7 9 12 14 15 17 20 23 24 25 26 0
2 6 8 10 13 14 15 16 18 21 24 25 26 0
1 3 7 9 11 14 15 16 17 19 22 25 26 0
2 4 8 10 12 14 15 16 17 18 20 23 26 0
3 5 9 11 13 14 15 16 17 18 19 21 24 0
1 4 6 10 12 15 16 17 18 19 20 22 25 0
2 5 7 11 13 16 17 18 19 20 21 23 26 0
1 3 6 8 12 14 17 18 19 20 21 22 24 0
2 4 7 9 13 15 18 19 20 21 22 23 25 0
1 3 5 8 10 16 19 20 21 22 23 24 26 0
2 4 6 9 11 14 17 20 21 22 23 24 25 0
3 5 8 10 12 15 16 17 18 19 20 23 26 0
4 6 9 11 13 14 16 17 18 19 20 21 24 0
1 5 7 10 12 15 17 18 19 20 21 22 25 0
2 6 8 11 13 16 18 19 20 21 22 23 26 0
1 3 7 9 12 14 17 19 20 21 22 23 24 0
2 4 8 10 13 15 18 20 21 22 23 24 25 0
1 3 5 9 11 16 19 21 22 23 24 25 26 0
2 4 6 10 12 14 17 20 22 23 24 25 26 0
3 5 7 11 13 14 15 18 21 23 24 25 26 0
1 4 6 8 12 14 15 16 19 22 24 25 26 0
2 5 7 9 13 14 15 16 17 20 23 25 26 0
1 3 6 8 10 14 15 16 17 18 21 24 26 0
2 4 7 9 11 14 15 16 17 18 19 22 25 0
3 4 7 10 12 15 18 19 21 22 23 24 25 26 0
4 5 8 11 13 14 16 19 20 22 23 24 25 26 0
1 5 6 9 12 14 15 17 20 21 23 24 25 26 0
2 6 7 10 13 14 15 16 18 21 22 24 25 26 0
1 3 7 8 11 14 15 16 17 19 22 23 25 26 0
2 4 8 9 12 14 15 16 17 18 20 23 24 26 0
3 5 9 10 13 14 15 16 17 18 19 21 24 25 0
1 4 6 10 11 15 16 17 18 19 20 22 25 26 0
2 5 7 11 12 14 16 17 18 19 20 21 23 26 0
3 6 8 12 13 14 15 17 18 19 20 21 22 24 0
1 4 7 9 13 15 16 18 19 20 21 22 23 25 0
1 2 5 8 10 16 17 19 20 21 22 23 24 26 0
2 3 6 9 11 14 17 18 20 21 22 23 24 25 0
3 5 8 11 12 15 16 17 18 19 20 22 23 26 0
4 6 9 12 13 14 16 17 18 19 20 21 23 24 0
1 5 7 10 13 15 17 18 19 20 21 22 24 25 0
1 2 6 8 11 16 18 19 20 21 22 23 25 26 0
2 3 7 9 12 14 17 19 20 21 22 23 24 26 0
3 4 8 10 13 14 15 18 20 21 22 23 24 25 0
1 4 5 9 11 15 16 19 21 22 23 24 25 26 0
2 5 6 10 12 14 16 17 20 22 23 24 25 26 0
3 6 7 11 13 14 15 17 18 21 23 24 25 26 0
1 4 7 8 12 14 15 16 18 19 22 24 25 26 0
2 5 8 9 13 14 15 16 17 19 20 23 25 26 0
1 3 6 9 10 14 15 16 17 18 20 21 24 26 0
2 4 7 10 11 14 15 16 17 18 19 21 22 25 0
3 4 7 8 11 12 15 16 18 19 22 23 25 26 0
4 5 8 9 12 13 14 16 17 19 20 23 24 26 0
1 5 6 9 10 13 14 15 17 18 20 21 24 25 0
1 2 6 7 10 11 15 16 18 19 21 22 25 26 0
2 3 7 8 11 12 14 16 17 19 20 22 23 26 0
3 4 8 9 12 13 14 15 17 18 20 21 23 24 0
1 4 5 9 10 13 15 16 18 19 21 22 24 25 0
1 2 5 6 10 11 16 17 19 20 22 23 25 26 0
2 3 6 7 11 12 14 17 18 20 21 23 24 26 0
3 4 7 8 12 13 14 15 18 19 21 22 24 25 0
1 4 5 8 9 13 15 16 19 20 22 23 25 26 0
1 2 5 6 9 10 14 16 17 20 21 23 24 26 0
2 3 6 7 10 11 14 15 17 18 21 22 24 25 0
3 5 7 9 12 15 17 18 23 24 25 26 0
4 6 8 10 13 14 16 18 19 24 25 26 0
1 5 7 9 11 14 15 17 19 20 25 26 0
2 6 8 10 12 14 15 16 18 20 21 26 0
3 7 9 11 13 14 15 16 17 19 21 22 0
1 4 8 10 12 15 16 17 18 20 22 23 0
2 5 9 11 13 16 17 18 19 21 23 24 0
1 3 6 10 12 17 18 19 20 22 24 25 0
2 4 7 11 13 18 19 20 21 23 25 26 0
1 3 5 8 12 14 19 20 21 22 24 26 0
2 4 6 9 13 14 15 20 21 22 23 25 0
1 3 5 7 10 15 16 21 22 23 24 26 0
2 4 6 8 11 14 16 17 22 23 24 25 0
3 6 8 10 12 15 16 17 18 23 24 26 0
4 7 9 11 13 14 16 17 18 19 24 25 0
1 5 8 10 12 15 17 18 19 20 25 26 0
2 6 9 11 13 14 16 18 19 20 21 26 0
1 3 7 10 12 14 15 17 19 20 21 22 0
2 4 8 11 13 15 16 18 20 21 22 23 0
1 3 5 9 12 16 17 19 21 22 23 24 0
2 4 6 10 13 17 18 20 22 23 24 25 0
1 3 5 7 11 18 19 21 23 24 25 26 0
2 4 6 8 12 14 19 20 22 24 25 26 0
3 5 7 9 13 14 15 20 21 23 25 26 0
1 4 6 8 10 14 15 16 21 22 24 26 0
2 5 7 9 11 14 15 16 17 22 23 25 0
3 5 7 8 10 12 15 18 21 23 24 25 26 0
4 6 8 9 11 13 14 16 19 22 24 25 26 0
1 5 7 9 10 12 14 15 17 20 23 25 26 0
2 6 8 10 11 13 14 15 16 18 21 24 26 0
1 3 7 9 11 12 14 15 16 17 19 22 25 0
2 4 8 10 12 13 15 16 17 18 20 23 26 0
1 3 5 9 11 13 14 16 17 18 19 21 24 0
1 2 4 6 10 12 15 17 18 19 20 22 25 0
2 3 5 7 11 13 16 18 19 20 21 23 26 0
1 3 4 6 8 12 14 17 19 20 21 22 24 0
2 4 5 7 9 13 15 18 20 21 22 23 25 0
1 3 5 6 8 10 16 19 21 22 23 24 26 0
2 4 6 7 9 11 14 17 20 22 23 24 25 0
3 5 7 8 10 12 15 16 17 18 20 23 26 0
4 6 8 9 11 13 14 16 17 18 19 21 24 0
1 5 7 9 10 12 15 17 18 19 20 22 25 0
2 6 8 10 11 13 16 18 19 20 21 23 26 0
1 3 7 9 11 12 14 17 19 20 21 22 24 0
2 4 8 10 12 13 15 18 20 21 22 23 25 0
1 3 5 9 11 13 16 19 21 22 23 24 26 0
1 2 4 6 10 12 14 17 20 22 23 24 25 0
2 3 5 7 11 13 15 18 21 23 24 25 26 0
1 3 4 6 8 12 14 16 19 22 24 25 26 0
2 4 5 7 9 13 14 15 17 20 23 25 26 0
1 3 5 6 8 10 14 15 16 18 21 24 26 0
2 4 6 7 9 11 14 15 16 17 19 22 25 0
